4
Properties=species:S:1:pos:R:3:forces:R:3 energy=-4584.2736217458905 pbc="F F F"
N       -1.27280669       0.01286158      -0.00000430       0.00433425      -0.00148327       0.00000281
C       -0.08588689      -0.12719702       0.00000367       0.00287963      -0.00173181      -0.00000488
O        1.17197496      -0.02721097       0.00000407       0.00376332       0.00176052       0.00000295
H        0.15873263       1.02995241      -0.00002745       0.00286908       0.00072337       0.00000033
