12
Properties=species:S:1:pos:R:3 pbc="F F F"
O       -0.85913946      -0.39422115      -0.99590682
C        0.11958998       0.46893761      -1.01074844
C       -0.98434300      -0.41962631       1.46767829
O       -0.39569677       0.72123232       1.43907651
C        1.53662809       0.00246601      -1.10351000
O        1.89942017      -1.12315529      -0.81885021
H       -0.40144833      -1.30033805       1.75409826
H       -1.07899321      -0.65188980       0.13147352
H       -0.07504154       1.43768141      -1.49302153
H       -2.03917935      -0.42598504       1.74658626
H        2.25623477       0.79440941      -1.42175576
H        0.02196167       0.89048926       0.30487805
