12
Properties=species:S:1:pos:R:3 pbc="F F F"
O        1.14522204      -0.06553885       2.05390282
C        2.03119551      -0.88353844       2.02368266
C       -0.64488812       1.36439006      -1.76454164
O       -1.26727060       2.28938635      -2.25999676
C       -1.46051740       0.08856812      -1.01571686
O       -0.70786241      -0.85924423      -0.28414441
H        1.88567635      -1.86493680       1.15161609
H        0.65460937       0.96900018      -1.30770997
H        3.03143142      -0.69450243       2.86496676
H       -1.90903382      -0.44056751      -1.85883210
H       -2.28703227       0.52364039      -0.44188871
H       -0.38439999      -0.60221091       0.73071643
