12
Properties=species:S:1:pos:R:3 pbc="F F F"
O        0.51194478      -0.39170643       1.55363656
C        1.70804477      -0.60191338       1.52684050
C       -1.64549950       1.58441412      -2.37630926
O       -1.91833910       2.68583068      -2.30251416
C       -2.26677782      -0.57846216      -0.26644004
O       -1.12129965      -1.18716417      -0.30233185
H        2.18570503      -1.15898427       0.70310646
H        6.29043143       1.30673531      -0.90135095
H        2.36176684      -0.24855051       2.33915240
H       -3.04469569      -0.95101550      -0.91985793
H       -2.46030859       0.24380775       0.40855431
H       -0.51380705      -0.87865918       0.42948701
