12
Properties=species:S:1:pos:R:3 pbc="F F F"
C        0.43891237       0.40299061      -0.52978419
O       -0.32394490       0.03818862       0.16418841
O        0.62790066       0.35214899       2.09825717
C       -0.06084589       0.30895461      -1.93340500
C       -0.24843562      -0.52898921       2.41756580
O       -0.40764852      -1.37944595       1.40447246
H       -0.88484194      -0.35178779      -2.10735466
H       -0.97190077      -2.14218654       1.61304465
H        1.28709403       1.07084077      -0.60427738
H       -0.40076627       1.22843214      -2.38352819
H        0.29284439       0.99635026       2.54251478
H        0.65163245       0.00450349      -2.68169383
