8
Properties=species:S:1:pos:R:3 relative_energy_eV=0.0 branch=left pbc="F F F"
O       -1.68468547       0.06263667       0.64546750
C       -0.46900161       0.45010680       0.12044795
C        0.49147112      -0.44282149      -0.09406216
O        1.70793030      -0.05578540      -0.61745188
H       -2.23797411       0.84562873       0.72395849
H       -0.32467080       1.50116554      -0.10899951
H        0.34695786      -1.49371810       0.13598460
H        2.25945135      -0.83977470      -0.69869366
8
Properties=species:S:1:pos:R:3 relative_energy_eV=-1.4256465874495916e-06 branch=left pbc="F F F"
O       -1.68500346       0.06250767       0.64465890
C       -0.46913058       0.45002209       0.12018249
C        0.49146333      -0.44283008      -0.09407897
O        1.70804032      -0.05567249      -0.61711250
H       -2.23766576       0.84579447       0.72452167
H       -0.32468214       1.50112515      -0.10891444
H        0.34730747      -1.49369545       0.13637033
H        2.25914946      -0.83981331      -0.69897614
8
Properties=species:S:1:pos:R:3 relative_energy_eV=2.25732583203353e-06 branch=left pbc="F F F"
O       -1.68521506       0.06243274       0.64419195
C       -0.46921614       0.44993175       0.12005019
C        0.49143008      -0.44287413      -0.09411406
O        1.70797232      -0.05561813      -0.61719130
H       -2.23750541       0.84598991       0.72484497
H       -0.32460938       1.50107223      -0.10873862
H        0.34757443      -1.49373267       0.13655954
H        2.25904781      -0.83976366      -0.69895134
8
Properties=species:S:1:pos:R:3 relative_energy_eV=2.884081368392799e-06 branch=left pbc="F F F"
O       -1.68578817       0.06237865       0.64327852
C       -0.46945747       0.44963026       0.11978013
C        0.49130364      -0.44305289      -0.09425888
O        1.70760918      -0.05545445      -0.61769763
H       -2.23699867       0.84657587       0.72594344
H       -0.32434244       1.50075935      -0.10864731
H        0.34795979      -1.49400889       0.13646849
H        2.25919278      -0.83938987      -0.69821543
8
Properties=species:S:1:pos:R:3 relative_energy_eV=1.1893570444954094e-05 branch=left pbc="F F F"
O       -1.68696313       0.06212800       0.64123760
C       -0.47005572       0.44910889       0.11883098
C        0.49110571      -0.44323340      -0.09457394
O        1.70719880      -0.05514129      -0.61831788
H       -2.23580729       0.84771203       0.72943007
H       -0.32409427       1.50012709      -0.10945469
H        0.34828251      -1.49443016       0.13560919
H        2.25981199      -0.83883312      -0.69611004
8
Properties=species:S:1:pos:R:3 relative_energy_eV=4.9215112085221335e-05 branch=left pbc="F F F"
O       -1.68851110       0.06154990       0.63757337
C       -0.47082708       0.44879130       0.11699564
C        0.49095331      -0.44318162      -0.09500922
O        1.70746139      -0.05491415      -0.61776882
H       -2.23362841       0.84864067       0.73586847
H       -0.32465285       1.49964322      -0.11188658
H        0.34786216      -1.49454726       0.13425142
H        2.26082117      -0.83854400      -0.69337303
8
Properties=species:S:1:pos:R:3 relative_energy_eV=7.98024875621195e-05 branch=left pbc="F F F"
O       -1.68980276       0.06088911       0.63368661
C       -0.47140822       0.44881344       0.11510088
C        0.49089419      -0.44297193      -0.09540497
O        1.70828461      -0.05487733      -0.61617406
H       -2.23130130       0.84896481       0.74244061
H       -0.32582070       1.49953719      -0.11479349
H        0.34691420      -1.49433068       0.13318467
H        2.26171852      -0.83858658      -0.69138904
8
Properties=species:S:1:pos:R:3 relative_energy_eV=0.00010340458084101556 branch=left pbc="F F F"
O       -1.69041344       0.06042856       0.63121903
C       -0.47163196       0.44902321       0.11395708
C        0.49091175      -0.44276882      -0.09561801
O        1.70910703      -0.05496299      -0.61457402
H       -2.22985013       0.84883161       0.74638227
H       -0.32686719       1.49970080      -0.11676294
H        0.34607837      -1.49401588       0.13278384
H        2.26214408      -0.83879847      -0.69073606
8
Properties=species:S:1:pos:R:3 relative_energy_eV=0.00011055923278036062 branch=left pbc="F F F"
O       -1.69057966       0.06016125       0.62995796
C       -0.47164210       0.44925463       0.11343547
C        0.49094950      -0.44263199      -0.09569735
O        1.70969427      -0.05508143      -0.61342424
H       -2.22916016       0.84856132       0.74818362
H       -0.32757106       1.49994195      -0.11778228
H        0.34554226      -1.49375008       0.13279900
H        2.26224545      -0.83901766      -0.69082101
8
Properties=species:S:1:pos:R:3 relative_energy_eV=0.00012346170387900202 branch=left pbc="F F F"
O       -1.69058604       0.06003253       0.62937804
C       -0.47158421       0.44941288       0.11326667
C        0.49097082      -0.44257504      -0.09571648
O        1.70999567      -0.05517350      -0.61280876
H       -2.22888239       0.84835478       0.74882652
H       -0.32793876       1.50013031      -0.11817280
H        0.34528536      -1.49360239       0.13295558
H        2.26221805      -0.83914158      -0.69107760
8
Properties=species:S:1:pos:R:3 relative_energy_eV=0.00012568033525894862 branch=left pbc="F F F"
O       -1.69055996       0.05994034       0.62892568
C       -0.47149605       0.44954167       0.11321873
C        0.49096754      -0.44257164      -0.09572668
O        1.71015708      -0.05526887      -0.61243338
H       -2.22870203       0.84819466       0.74913289
H       -0.32819021       1.50031380      -0.11830257
H        0.34514609      -1.49351535       0.13320013
H        2.26215602      -0.83919662      -0.69136364
8
Properties=species:S:1:pos:R:3 relative_energy_eV=0.00012746403717756039 branch=left pbc="F F F"
O       -1.69057561       0.05990126       0.62863753
C       -0.47144506       0.44958032       0.11323097
C        0.49094010      -0.44261376      -0.09574274
O        1.71015004      -0.05531513      -0.61236560
H       -2.22857639       0.84816615       0.74925092
H       -0.32827729       1.50039949      -0.11825523
H        0.34513345      -1.49352225       0.13337388
H        2.26212925      -0.83915809      -0.69147857
8
Properties=species:S:1:pos:R:3 relative_energy_eV=0.00013538218627218157 branch=left pbc="F F F"
O       -1.69076872       0.05983630       0.62787802
C       -0.47138864       0.44951052       0.11329312
C        0.49079184      -0.44284841      -0.09581493
O        1.70985993      -0.05533389      -0.61255361
H       -2.22816469       0.84840123       0.74947959
H       -0.32834518       1.50047803      -0.11785368
H        0.34532871      -1.49372211       0.13379615
H        2.26216524      -0.83888370      -0.69157350
8
Properties=species:S:1:pos:R:3 relative_energy_eV=0.0001410238555763499 branch=left pbc="F F F"
O       -1.69112712       0.05982424       0.62716061
C       -0.47143550       0.44929472       0.11333674
C        0.49059888      -0.44316077      -0.09592085
O        1.70950407      -0.05521392      -0.61267978
H       -2.22765944       0.84889036       0.74970531
H       -0.32837066       1.50040080      -0.11741774
H        0.34566530      -1.49406927       0.13415863
H        2.26230296      -0.83852818      -0.69169176
8
Properties=species:S:1:pos:R:3 relative_energy_eV=0.00014630260284320684 branch=left pbc="F F F"
O       -1.69147951       0.05989829       0.62677364
C       -0.47152184       0.44912106       0.11340668
C        0.49056130      -0.44332849      -0.09570612
O        1.70962065      -0.05488249      -0.61176172
H       -2.22764180       0.84923239       0.74952863
H       -0.32830965       1.50025499      -0.11729975
H        0.34609965      -1.49431009       0.13464792
H        2.26214969      -0.83854768      -0.69293814
8
Properties=species:S:1:pos:R:3 relative_energy_eV=0.0002587802218840807 branch=left pbc="F F F"
O       -1.69236215       0.06149028       0.63010806
C       -0.47329023       0.44726920       0.11122608
C        0.48865116      -0.44533066      -0.10037779
O        1.70793690      -0.05573030      -0.61600035
H       -2.22524359       0.85302538       0.75402419
H       -0.32963713       1.49840317      -0.11877784
H        0.34535528      -1.49690582       0.12881598
H        2.26806824      -0.83478324      -0.68236717
8
Properties=species:S:1:pos:R:3 relative_energy_eV=0.00036372573413245846 branch=left pbc="F F F"
O       -1.69280756       0.06233268       0.63155118
C       -0.47403105       0.44650452       0.11032735
C        0.48795226      -0.44617037      -0.10207486
O        1.70754364      -0.05596010      -0.61690189
H       -2.22471174       0.85448444       0.75567399
H       -0.32995217       1.49756463      -0.11957096
H        0.34517782      -1.49801550       0.12664947
H        2.27030728      -0.83330229      -0.67900311
8
Properties=species:S:1:pos:R:3 relative_energy_eV=0.0005729677041017567 branch=left pbc="F F F"
O       -1.69261975       0.06175082       0.63248510
C       -0.47436735       0.44653716       0.10963458
C        0.48850637      -0.44526864      -0.10299986
O        1.70805216      -0.05564851      -0.61868679
H       -2.22336626       0.85470981       0.75569992
H       -0.33307606       1.49814375      -0.11871899
H        0.34468941      -1.49686767       0.12587830
H        2.27165997      -0.83591870      -0.67664109
8
Properties=species:S:1:pos:R:3 relative_energy_eV=0.0006159556105558295 branch=left pbc="F F F"
O       -1.69094935       0.06094279       0.63423201
C       -0.47427564       0.44666075       0.10869670
C        0.48721559      -0.44546785      -0.10716243
O        1.70446329      -0.05871601      -0.63010346
H       -2.21966876       0.85490902       0.75966951
H       -0.33426194       1.49864902      -0.11841263
H        0.34144226      -1.49687479       0.12060906
H        2.27551303      -0.83266486      -0.66087760
8
Properties=species:S:1:pos:R:3 relative_energy_eV=0.0007485420610464644 branch=left pbc="F F F"
O       -1.69027023       0.05996345       0.63363930
C       -0.47392355       0.44713849       0.10873766
C        0.48716416      -0.44485544      -0.10814938
O        1.70274189      -0.05980976      -0.63595955
H       -2.21807387       0.85429984       0.76070454
H       -0.33499177       1.49954490      -0.11692442
H        0.34050643      -1.49598958       0.11974483
H        2.27632541      -0.83285383      -0.65514181
8
Properties=species:S:1:pos:R:3 relative_energy_eV=0.0010961735561068053 branch=left pbc="F F F"
O       -1.68968531       0.05855048       0.63091919
C       -0.47322279       0.44792017       0.10923000
C        0.48662860      -0.44427693      -0.10954723
O        1.69819320      -0.06226172      -0.64788280
H       -2.21580023       0.85330789       0.76328801
H       -0.33401438       1.50088636      -0.11350310
H        0.33985463      -1.49507372       0.11879729
H        2.27752473      -0.83161443      -0.64465019
8
Properties=species:S:1:pos:R:3 relative_energy_eV=0.001840766766690649 branch=left pbc="F F F"
O       -1.69014462       0.05847744       0.62717489
C       -0.47279402       0.44810893       0.10911912
C        0.48504608      -0.44510210      -0.11256851
O        1.69086516      -0.06595728      -0.66476917
H       -2.21409675       0.85316590       0.76900935
H       -0.33018030       1.50139515      -0.10917666
H        0.33976679      -1.49573573       0.11661131
H        2.28101608      -0.82691419      -0.62874915
8
Properties=species:S:1:pos:R:3 relative_energy_eV=0.002598247325295233 branch=left pbc="F F F"
O       -1.69074705       0.06036258       0.62658513
C       -0.47306316       0.44720182       0.10773320
C        0.48248989      -0.44776395      -0.11764765
O        1.68422029      -0.06960922      -0.67940341
H       -2.21312623       0.85451596       0.77656446
H       -0.32560231       1.50021108      -0.10793109
H        0.33851819      -1.49862797       0.11144372
H        2.28678879      -0.81885215      -0.61069318
8
Properties=species:S:1:pos:R:3 relative_energy_eV=0.0032650546827426297 branch=left pbc="F F F"
O       -1.69054764       0.06304144       0.62970180
C       -0.47380331       0.44572895       0.10550391
C        0.47926036      -0.45133961      -0.12416195
O        1.67920871      -0.07311202      -0.69045487
H       -2.21211804       0.85670774       0.78452676
H       -0.32171285       1.49803476      -0.11019506
H        0.33546369      -1.50267825       0.10352769
H        2.29372752      -0.80894482      -0.59179708
8
Properties=species:S:1:pos:R:3 relative_energy_eV=0.0036362839373396127 branch=left pbc="F F F"
O       -1.69020967       0.06479116       0.63290673
C       -0.47450599       0.44468211       0.10394387
C        0.47729713      -0.45354277      -0.12816767
O        1.67729733      -0.07458284      -0.69453955
H       -2.21169401       0.85818137       0.78884095
H       -0.31988960       1.49643767      -0.11283552
H        0.33318835      -1.50514358       0.09833809
H        2.29799488      -0.80338493      -0.58183569
8
Properties=species:S:1:pos:R:3 relative_energy_eV=0.004763818601531966 branch=left pbc="F F F"
O       -1.68946684       0.06723949       0.64275031
C       -0.47709439       0.44256195       0.10090694
C        0.47245782      -0.45727099      -0.13661637
O        1.67504711      -0.07585316      -0.69721851
H       -2.21046499       0.86132094       0.79625879
H       -0.31625649       1.49280270      -0.12151441
H        0.32788247      -1.50926167       0.08659273
H        2.30737373      -0.79410103      -0.56450826
8
Properties=species:S:1:pos:R:3 relative_energy_eV=0.006170872119582782 branch=left pbc="F F F"
O       -1.69014443       0.06713874       0.64647525
C       -0.47872659       0.44244970       0.10073070
C        0.47074048      -0.45704140      -0.13814789
O        1.67522021      -0.07406402      -0.69412765
H       -2.21098497       0.86208895       0.79705745
H       -0.31491127       1.49177157      -0.12514887
H        0.32805992      -1.50931829       0.08365796
H        2.31022507      -0.79558704      -0.56384574
8
Properties=species:S:1:pos:R:3 relative_energy_eV=0.008271516683635127 branch=left pbc="F F F"
O       -1.68432128       0.06853440       0.66034532
C       -0.47973190       0.43969257       0.09866129
C        0.46300183      -0.46338014      -0.15095515
O        1.66844986      -0.08349995      -0.70781195
H       -2.19985422       0.86720251       0.80834583
H       -0.31256557       1.48673879      -0.13874054
H        0.31563889      -1.51760360       0.06062084
H        2.31886081      -0.77024634      -0.52381443
8
Properties=species:S:1:pos:R:3 relative_energy_eV=0.010258821521347272 branch=left pbc="F F F"
O       -1.68188085       0.06728186       0.66397207
C       -0.47972301       0.43991996       0.09993908
C        0.46002339      -0.46418085      -0.15372609
O        1.66560170      -0.08809234      -0.71350418
H       -2.19444577       0.86894260       0.81098497
H       -0.31258035       1.48575509      -0.14314863
H        0.31310753      -1.51985634       0.05229775
H        2.31937578      -0.76233173      -0.51016375
8
Properties=species:S:1:pos:R:3 relative_energy_eV=0.012703596410574391 branch=left pbc="F F F"
O       -1.68459447       0.06574796       0.66633102
C       -0.48192808       0.44119079       0.09788772
C        0.46271518      -0.45939751      -0.14975442
O        1.67226962      -0.07529769      -0.69421120
H       -2.20426232       0.86485693       0.80429944
H       -0.31276931       1.48793260      -0.14354700
H        0.31634083      -1.51259375       0.06214613
H        2.32170700      -0.78500110      -0.53650046
8
Properties=species:S:1:pos:R:3 relative_energy_eV=0.01767956635922019 branch=left pbc="F F F"
O       -1.66987769       0.07653487       0.68411511
C       -0.47770451       0.43367567       0.08246520
C        0.45731213      -0.47772777      -0.17420208
O        1.66615569      -0.09470181      -0.72581181
H       -2.19578465       0.87027745       0.82858933
H       -0.31393349       1.48246759      -0.15489039
H        0.28506351      -1.52912744       0.03345215
H        2.33824742      -0.73396028      -0.46706628
8
Properties=species:S:1:pos:R:3 relative_energy_eV=0.020184516184599488 branch=left pbc="F F F"
O       -1.66744535       0.07852655       0.68641606
C       -0.47698965       0.43292204       0.07965044
C        0.45708466      -0.48033739      -0.17781089
O        1.66610332      -0.09807780      -0.73051201
H       -2.19623485       0.87078101       0.83239663
H       -0.31480019       1.48240559      -0.15574580
H        0.28086257      -1.53135250       0.03003113
H        2.34089791      -0.72742922      -0.45777433
8
Properties=species:S:1:pos:R:3 relative_energy_eV=0.025187036329953116 branch=left pbc="F F F"
O       -1.65548353       0.08055965       0.70209048
C       -0.47565492       0.43874418       0.08074331
C        0.45935559      -0.47473994      -0.17745691
O        1.67341388      -0.09128867      -0.72293937
H       -2.20120422       0.86580891       0.83047397
H       -0.32983790       1.48623638      -0.17031771
H        0.27748674      -1.53165662       0.01570690
H        2.34140278      -0.74622559      -0.45164944
8
Properties=species:S:1:pos:R:3 relative_energy_eV=0.02570366847248806 branch=left pbc="F F F"
O       -1.65518117       0.08434730       0.69894718
C       -0.47467330       0.43454949       0.08181888
C        0.45315051      -0.48391259      -0.18407199
O        1.66279921      -0.10949166      -0.74837221
H       -2.18551345       0.87479188       0.84223515
H       -0.32484825       1.47990272      -0.17035722
H        0.27365508      -1.54560283       0.00055939
H        2.34008977      -0.70714599      -0.41410796
8
Properties=species:S:1:pos:R:3 relative_energy_eV=0.02860216239332658 branch=left pbc="F F F"
O       -1.65010461       0.08180820       0.70146725
C       -0.47272232       0.43495670       0.08490418
C        0.45016623      -0.48498447      -0.18717327
O        1.65665042      -0.11903376      -0.76160396
H       -2.17443479       0.87606353       0.84517904
H       -0.32634752       1.47941287      -0.17439881
H        0.26863647      -1.54793431      -0.01100524
H        2.33763450      -0.69285043      -0.39071798
8
Properties=species:S:1:pos:R:3 relative_energy_eV=0.031056925966368 branch=left pbc="F F F"
O       -1.65069865       0.07909345       0.69705401
C       -0.47159331       0.43240994       0.08616330
C        0.44648805      -0.48893839      -0.19067619
O        1.64807758      -0.13089547      -0.77707814
H       -2.16235481       0.87925213       0.84921148
H       -0.32078771       1.47720115      -0.17136361
H        0.26458232      -1.55023245      -0.01493540
H        2.33576491      -0.67045202      -0.37172423
8
Properties=species:S:1:pos:R:3 relative_energy_eV=0.032994079734635307 branch=left pbc="F F F"
O       -1.65290505       0.07619465       0.69097631
C       -0.47073776       0.42949535       0.08585985
C        0.44375680      -0.49282759      -0.19373573
O        1.64063644      -0.14057656      -0.78955243
H       -2.15312679       0.88141208       0.85217164
H       -0.31385390       1.47545255      -0.16569894
H        0.26070217      -1.55034951      -0.01362067
H        2.33500648      -0.65136261      -0.35974880
8
Properties=species:S:1:pos:R:3 relative_energy_eV=0.03410994675869006 branch=left pbc="F F F"
O       -1.65521093       0.07439804       0.68586451
C       -0.47012539       0.42736988       0.08476840
C        0.44239811      -0.49548769      -0.19582459
O        1.63631152      -0.14620832      -0.79721555
H       -2.14854714       0.88224461       0.85391738
H       -0.30848041       1.47461132      -0.16026415
H        0.25791527      -1.54972006      -0.00990486
H        2.33521734      -0.63976942      -0.35468990
8
Properties=species:S:1:pos:R:3 relative_energy_eV=0.03529798557065078 branch=left pbc="F F F"
O       -1.65815194       0.07326037       0.67951832
C       -0.46913760       0.42503622       0.08321602
C        0.44156380      -0.49873627      -0.19869841
O        1.63227915      -0.15193160      -0.80536138
H       -2.14601834       0.88303738       0.85617169
H       -0.30292288       1.47361066      -0.15315992
H        0.25533614      -1.54821450      -0.00412360
H        2.33653004      -0.62862390      -0.35091148
8
Properties=species:S:1:pos:R:3 relative_energy_eV=0.037178123174271605 branch=left pbc="F F F"
O       -1.66625825       0.07642752       0.66818519
C       -0.46922193       0.41954241       0.08115207
C        0.43964810      -0.50638950      -0.20302820
O        1.62659776      -0.16078435      -0.81758315
H       -2.14339485       0.88877358       0.86274399
H       -0.29285067       1.46869854      -0.14224529
H        0.25628777      -1.55224544       0.00265563
H        2.33867045      -0.60658441      -0.34522902
8
Properties=species:S:1:pos:R:3 relative_energy_eV=0.03999710750122176 branch=left pbc="F F F"
O       -1.67744478       0.08484574       0.65680110
C       -0.47127496       0.41181224       0.07992539
C        0.43623895      -0.51716399      -0.20653417
O        1.62064668      -0.16931779      -0.82837197
H       -2.14054664       0.90049411       0.87259758
H       -0.28193561       1.45922440      -0.13369282
H        0.26332415      -1.56347872       0.00371224
H        2.34047059      -0.57897764      -0.33778612
8
Properties=species:S:1:pos:R:3 relative_energy_eV=0.04252203422220191 branch=left pbc="F F F"
O       -1.68590168       0.09238997       0.65027821
C       -0.47379927       0.40627860       0.08055784
C        0.43334332      -0.52455166      -0.20766180
O        1.61676489      -0.17349105      -0.83449560
H       -2.13848098       0.91083254       0.88001890
H       -0.27499921       1.45184862      -0.13057484
H        0.27147634      -1.57525478       0.00066371
H        2.34107498      -0.56061390      -0.33213518
8
Properties=species:S:1:pos:R:3 relative_energy_eV=0.04401197182960459 branch=left pbc="F F F"
O       -1.68969627       0.09731661       0.64925353
C       -0.47581671       0.40335031       0.08166030
C        0.43124232      -0.52849337      -0.20678414
O        1.61460384      -0.17348210      -0.83460266
H       -2.13687296       0.91800584       0.88384509
H       -0.27281195       1.44665141      -0.13257273
H        0.27790324      -1.58332530      -0.00537711
H        2.34092689      -0.55258505      -0.32877105
8
Properties=species:S:1:pos:R:3 relative_energy_eV=0.0451942896042965 branch=left pbc="F F F"
O       -1.69286382       0.10033267       0.64868469
C       -0.47799890       0.40095597       0.08279496
C        0.42946873      -0.53118176      -0.20489949
O        1.61204499      -0.17153476      -0.83417476
H       -2.13415826       0.92376940       0.88617832
H       -0.27006598       1.44309174      -0.13498640
H        0.28273812      -1.59130067      -0.01030625
H        2.34031351      -0.54669424      -0.32663983
8
Properties=species:S:1:pos:R:3 relative_energy_eV=0.047053072610651725 branch=left pbc="F F F"
O       -1.69552912       0.10411965       0.65043619
C       -0.48151603       0.39660080       0.08234544
C        0.42634947      -0.53618156      -0.20048411
O        1.60704007      -0.16520994      -0.82762050
H       -2.12760050       0.93268487       0.88826257
H       -0.26633687       1.43536545      -0.14154724
H        0.28778544      -1.60173645      -0.02004746
H        2.33928594      -0.53820448      -0.32469365
8
Properties=species:S:1:pos:R:3 relative_energy_eV=0.05011559035938262 branch=left pbc="F F F"
O       -1.69971591       0.10576234       0.64889565
C       -0.48549281       0.39008290       0.07932804
C        0.42346954      -0.54272212      -0.19605707
O        1.59928402      -0.15695007      -0.82199898
H       -2.11704991       0.94058893       0.88945458
H       -0.25692475       1.42715323      -0.14453762
H        0.28749654      -1.61228103      -0.02369516
H        2.33841169      -0.52419587      -0.32473818
8
Properties=species:S:1:pos:R:3 relative_energy_eV=0.05331794508583698 branch=left pbc="F F F"
O       -1.70210653       0.10596711       0.64674888
C       -0.48747751       0.38449715       0.07483069
C        0.42151390      -0.54850365      -0.19388649
O        1.59358356      -0.15084274      -0.81696226
H       -2.10853635       0.94492198       0.88968740
H       -0.24888720       1.41986081      -0.14467538
H        0.28312549      -1.61652225      -0.02287007
H        2.33826305      -0.51194009      -0.32622150
8
Properties=species:S:1:pos:R:3 relative_energy_eV=0.05535484601841745 branch=left pbc="F F F"
O       -1.70376100       0.10481921       0.64321277
C       -0.48768381       0.38147759       0.07227250
C        0.42133437      -0.55149470      -0.19451371
O        1.59080981      -0.14852557      -0.81709520
H       -2.10437113       0.94516296       0.88942647
H       -0.24320390       1.41691791      -0.14143922
H        0.27769800      -1.61623043      -0.01739101
H        2.33865607      -0.50468865      -0.32782134
8
Properties=species:S:1:pos:R:3 relative_energy_eV=0.05740044122831023 branch=left pbc="F F F"
O       -1.70504298       0.10396415       0.63952433
C       -0.48652770       0.37811674       0.07150184
C        0.42089266      -0.55363093      -0.19690059
O        1.59053514      -0.14648015      -0.81788791
H       -2.10160248       0.94479519       0.88903222
H       -0.23898875       1.41309294      -0.13803198
H        0.27159180      -1.61337366      -0.01107497
H        2.33862071      -0.49904595      -0.32951167
8
Properties=species:S:1:pos:R:3 relative_energy_eV=0.06158347562632116 branch=left pbc="F F F"
O       -1.70808111       0.10472494       0.63553736
C       -0.48471458       0.37291578       0.07881297
C        0.42114693      -0.55711425      -0.20219005
O        1.59036001      -0.13944577      -0.81927426
H       -2.09799957       0.94767861       0.88890086
H       -0.23557129       1.40413277      -0.13874787
H        0.26665666      -1.61047973      -0.00736115
H        2.33768136      -0.49497401      -0.32902659
8
Properties=species:S:1:pos:R:3 relative_energy_eV=0.06964628053265187 branch=left pbc="F F F"
O       -1.71282023       0.10882204       0.63575888
C       -0.48185005       0.36570033       0.09358343
C        0.41944880      -0.55735160      -0.20751454
O        1.59278725      -0.12810811      -0.81640213
H       -2.09388805       0.95610523       0.88931390
H       -0.23570635       1.38978630      -0.14799602
H        0.26829646      -1.61327028      -0.01362328
H        2.33321056      -0.49424559      -0.32646897
8
Properties=species:S:1:pos:R:3 relative_energy_eV=0.08930694758510072 branch=left pbc="F F F"
O       -1.71835476       0.11883892       0.64889093
C       -0.47966905       0.36018519       0.11914274
C        0.41851788      -0.55904620      -0.20918827
O        1.59205226      -0.10773554      -0.79999924
H       -2.08930126       0.97716888       0.89135638
H       -0.24589386       1.36737196      -0.17880115
H        0.28654564      -1.62650518      -0.04760184
H        2.32558156      -0.50283975      -0.31714828
8
Properties=species:S:1:pos:R:3 relative_energy_eV=0.10894144457961374 branch=left pbc="F F F"
O       -1.72141067       0.12674925       0.66319734
C       -0.47867937       0.35669007       0.13243936
C        0.41699003      -0.55861364      -0.20572012
O        1.59097620      -0.09549455      -0.78425232
H       -2.08729242       0.99267293       0.89293278
H       -0.25531568       1.35604125      -0.20315580
H        0.30454691      -1.63936742      -0.07835963
H        2.31966341      -0.51123960      -0.31043036
8
Properties=species:S:1:pos:R:3 relative_energy_eV=0.17173263135464367 branch=left pbc="F F F"
O       -1.72081285       0.14693312       0.70727920
C       -0.48580129       0.34887149       0.14657405
C        0.41435013      -0.57131544      -0.18557095
O        1.58838291      -0.07251043      -0.73948536
H       -2.08617183       1.02531715       0.89652623
H       -0.28142973       1.34775059      -0.26237244
H        0.35219217      -1.66217485      -0.16062104
H        2.30876892      -0.53543338      -0.29567846
8
Properties=species:S:1:pos:R:3 relative_energy_eV=0.316075530753551 branch=left pbc="F F F"
O       -1.71944567       0.16866489       0.75687801
C       -0.49492450       0.34245567       0.15200624
C        0.41102020      -0.58725323      -0.15962722
O        1.58905015      -0.05196633      -0.69264405
H       -2.08609624       1.05406302       0.89958690
H       -0.30874343       1.34624609      -0.32191109
H        0.40050468      -1.68456965      -0.24526367
H        2.29811327      -0.56020223      -0.28237391
8
Properties=species:S:1:pos:R:3 relative_energy_eV=0.3931605764055348 branch=left pbc="F F F"
O       -1.71999149       0.17680480       0.77641913
C       -0.49751541       0.34320202       0.15196788
C        0.41000884      -0.59593299      -0.14895168
O        1.59065534      -0.04466582      -0.67572319
H       -2.08597375       1.06218195       0.90029873
H       -0.31911384       1.34658678      -0.34367520
H        0.41715200      -1.69177362      -0.27572965
H        2.29425677      -0.56896490      -0.27795482
8
Properties=species:S:1:pos:R:3 relative_energy_eV=0.4878093293054917 branch=left pbc="F F F"
O       -1.75062692       0.14847135       0.73152583
C       -0.50544237       0.33035884       0.17708845
C        0.41998859      -0.57261355      -0.15466936
O        1.58505817      -0.05122306      -0.73689735
H       -2.07846017       1.06569445       0.90296989
H       -0.27299790       1.38192562      -0.30566973
H        0.41298177      -1.72409644      -0.22229329
H        2.27897723      -0.55107900      -0.28540327
8
Properties=species:S:1:pos:R:3 relative_energy_eV=0.7070595427794615 branch=left pbc="F F F"
O       -1.69280679       0.19936224       0.78473044
C       -0.55007190       0.30835244       0.16941368
C        0.43474836      -0.56654957      -0.16194554
O        1.60161043      -0.05609759      -0.63839729
H       -2.08056102       1.07114137       0.90347345
H       -0.32804126       1.34266105      -0.36785074
H        0.42330319      -1.70147967      -0.30349747
H        2.28129744      -0.56995207      -0.27927535
8
Properties=species:S:1:pos:R:3 relative_energy_eV=0.725218225565186 branch=left pbc="F F F"
O       -1.68597755       0.20555445       0.86405958
C       -0.49700094       0.35564533       0.12017581
C        0.40415932      -0.61470828      -0.11612661
O        1.58787824      -0.02186932      -0.57964063
H       -2.09602942       1.09087043       0.90249894
H       -0.38473686       1.31326138      -0.42868191
H        0.45745055      -1.69054245      -0.39684807
H        2.30373521      -0.61077332      -0.25878587
8
Properties=species:S:1:pos:R:3 relative_energy_eV=1.0505574892758887 branch=left pbc="F F F"
O       -1.64114086       0.24614036       0.93103137
C       -0.50021957       0.35855836       0.08815097
C        0.39686093      -0.62824417      -0.10987197
O        1.59924876      -0.01216920      -0.48709238
H       -2.10328004       1.09532410       0.90163774
H       -0.44819981       1.26563499      -0.48954390
H        0.46740065      -1.65932393      -0.48025439
H        2.31880857      -0.63848229      -0.24740615
8
Properties=species:S:1:pos:R:3 relative_energy_eV=1.5269930002050387 branch=left pbc="F F F"
O       -1.59456204       0.28869485       0.99612127
C       -0.50486575       0.36317996       0.05274002
C        0.38840280      -0.64181204      -0.10689134
O        1.61264464      -0.00128186      -0.39440648
H       -2.10917300       1.09675382       0.90029312
H       -0.51202905       1.21260403      -0.54534305
H        0.47367084      -1.62401271      -0.55862796
H        2.33539027      -0.66668781      -0.23723423
8
Properties=species:S:1:pos:R:3 relative_energy_eV=1.9606867410248014 branch=left pbc="F F F"
O       -1.54301800       0.34152698       1.05495383
C       -0.53084391       0.35685727       0.02318522
C        0.38955273      -0.64448634      -0.11513502
O        1.63409697       0.00288652      -0.29682358
H       -2.11029489       1.09342035       0.90003434
H       -0.57331203       1.15647724      -0.59723079
H        0.47488241      -1.58863836      -0.63258375
H        2.34841553      -0.69060543      -0.22974883
8
Properties=species:S:1:pos:R:3 relative_energy_eV=2.181941383351841 branch=left pbc="F F F"
O       -1.51734525       0.36103863       1.07957241
C       -0.54910677       0.35834624       0.00990775
C        0.39306576      -0.64605472      -0.12088536
O        1.64531827       0.00451770      -0.25508263
H       -2.11228586       1.09468682       0.89880686
H       -0.59791607       1.12960482      -0.61587565
H        0.47436185      -1.57449134      -0.66278112
H        2.35338691      -0.70020991      -0.22701083
8
Properties=species:S:1:pos:R:3 relative_energy_eV=2.2472523096976147 branch=left pbc="F F F"
O       -1.45650746       0.42057476       1.11944674
C       -0.60387813       0.31280527       0.00768807
C        0.41180649      -0.62303525      -0.14809934
O        1.66992243      -0.00907583      -0.15911466
H       -2.10923064       1.09142188       0.90019556
H       -0.64811359       1.08694786      -0.66674446
H        0.46897245      -1.54099031      -0.72298859
H        2.35650734      -0.71121016      -0.22373187
8
Properties=species:S:1:pos:R:3 relative_energy_eV=2.3829120503733066 branch=left pbc="F F F"
O       -1.39641303       0.48281997       1.15543793
C       -0.66191956       0.25463603       0.01474723
C        0.43253690      -0.59283684      -0.17758408
O        1.69509804      -0.02483691      -0.06362761
H       -2.10396820       1.08652955       0.90252198
H       -0.69642219       1.05141435      -0.72214499
H        0.46210900      -1.50964231      -0.78206468
H        2.35845797      -0.72064563      -0.22063433
8
Properties=species:S:1:pos:R:3 relative_energy_eV=2.394115948786748 branch=left pbc="F F F"
O       -1.39219472       0.48637644       1.15732792
C       -0.66602037       0.25001892       0.01652884
C        0.43378512      -0.59040175      -0.17941517
O        1.69711236      -0.02594613      -0.05774967
H       -2.10392465       1.08646451       0.90256008
H       -0.69933853       1.05014525      -0.72635555
H        0.46158832      -1.50814221      -0.78584615
H        2.35847141      -0.72107682      -0.22039885
8
Properties=species:S:1:pos:R:3 relative_energy_eV=2.4330639241798053 branch=ts pbc="F F F"
O       -1.38626357       0.49142591       1.15938154
C       -0.67110967       0.24426482       0.01662862
C        0.43514466      -0.58550546      -0.18433185
O        1.69994490      -0.02852932      -0.04909619
H       -2.10208292       1.08531283       0.90373808
H       -0.78225958       0.97709600      -0.77605311
H        0.45029158      -1.45721061      -0.85487271
H        2.35619256      -0.72673081      -0.21539953
8
Properties=species:S:1:pos:R:3 relative_energy_eV=2.3933783905513337 branch=right pbc="F F F"
O       -1.38033242       0.49647538       1.16143517
C       -0.67619896       0.23851072       0.01672839
C        0.43650420      -0.58060917      -0.18924853
O        1.70277744      -0.03111252      -0.04044271
H       -2.10024118       1.08416114       0.90491608
H       -0.86518063       0.90404675      -0.82575067
H        0.43899483      -1.40627900      -0.92389927
H        2.35391372      -0.73238481      -0.21040021
8
Properties=species:S:1:pos:R:3 relative_energy_eV=2.382283424714842 branch=right pbc="F F F"
O       -1.37642078       0.49983293       1.16239288
C       -0.67768006       0.23676109       0.01445273
C        0.43655157      -0.57778780      -0.19282239
O        1.70468437      -0.03365724      -0.03442278
H       -2.10019170       1.08415889       0.90499360
H       -0.86888531       0.89894324      -0.82536825
H        0.43844172      -1.40297019      -0.92567938
H        2.35373720      -0.73247243      -0.21020817
8
Properties=species:S:1:pos:R:3 relative_energy_eV=2.220820330832794 branch=right pbc="F F F"
O       -1.31913531       0.55027093       1.17622993
C       -0.69941819       0.21015092      -0.01642664
C        0.43878907      -0.53634681      -0.24501854
O        1.73028408      -0.07001356       0.05514772
H       -2.09854630       1.08336227       0.90650638
H       -0.92452210       0.82502178      -0.82247257
H        0.43052727      -1.35433422      -0.95290771
H        2.35225850      -0.73530284      -0.20772031
8
Properties=species:S:1:pos:R:3 relative_energy_eV=2.122042511394284 branch=right pbc="F F F"
O       -1.26216602       0.60056686       1.18801524
C       -0.71915881       0.18279900      -0.04474318
C        0.44154987      -0.49296194      -0.29562027
O        1.75442409      -0.10818706       0.14436680
H       -2.09605801       1.08249959       0.90847474
H       -0.98163114       0.75114385      -0.82063112
H        0.42288788      -1.30574518      -0.98072827
H        2.35038920      -0.73730672      -0.20579568
8
Properties=species:S:1:pos:R:3 relative_energy_eV=2.0408484903418866 branch=right pbc="F F F"
O       -1.23605839       0.62396985       1.18423784
C       -0.72040029       0.16823860      -0.05075521
C        0.44383762      -0.46404661      -0.31450619
O        1.76526242      -0.13561222       0.18649194
H       -2.09105508       1.08300066       0.91149912
H       -1.01799236       0.71134283      -0.82068651
H        0.41951200      -1.28077866      -0.99593458
H        2.34713116      -0.73330612      -0.20700819
8
Properties=species:S:1:pos:R:3 relative_energy_eV=1.8444276585396437 branch=right pbc="F F F"
O       -1.19601212       0.65886628       1.17121279
C       -0.71803591       0.15229803      -0.05546974
C        0.45517877      -0.41775047      -0.34090113
O        1.77757718      -0.18369458       0.25606314
H       -2.07949868       1.08589405       0.91729336
H       -1.08680148       0.63880313      -0.81887097
H        0.41441566      -1.23596584      -1.02009969
H        2.34341373      -0.72564250      -0.21588963
8
Properties=species:S:1:pos:R:3 relative_energy_eV=1.6317491609879653 branch=right pbc="F F F"
O       -1.15970567       0.69131346       1.15773605
C       -0.71316529       0.14020163      -0.05774320
C        0.46804772      -0.37416468      -0.36337206
O        1.78867821      -0.23196843       0.32143392
H       -2.06702726       1.08914081       0.92302486
H       -1.15640961       0.56701354      -0.81788970
H        0.41009597      -1.19238548      -1.04341468
H        2.33972315      -0.71634299      -0.22643716
8
Properties=species:S:1:pos:R:3 relative_energy_eV=1.4332972140937272 branch=right pbc="F F F"
O       -1.12602586       0.72297081       1.14259183
C       -0.70796257       0.13167481      -0.05765497
C        0.48282008      -0.33185805      -0.38218810
O        1.79819847      -0.28181645       0.38178850
H       -2.05300296       1.09186106       0.92929237
H       -1.22556795       0.49478822      -0.81709682
H        0.40677708      -1.14996300      -1.06720485
H        2.33500101      -0.70484976      -0.23619000
8
Properties=species:S:1:pos:R:3 relative_energy_eV=1.2116574675310403 branch=right pbc="F F F"
O       -1.09906449       0.74958613       1.11451146
C       -0.69280958       0.12773346      -0.04720472
C        0.49829032      -0.28745899      -0.38752685
O        1.79688802      -0.33642992       0.42706219
H       -2.03258425       1.09429346       0.93930746
H       -1.29473815       0.42257191      -0.81656071
H        0.40587037      -1.11026643      -1.09125607
H        2.32838514      -0.68722229      -0.24499491
8
Properties=species:S:1:pos:R:3 relative_energy_eV=0.9188305515908723 branch=right pbc="F F F"
O       -1.08418820       0.76534425       1.08217292
C       -0.68542071       0.13512744      -0.03304017
C        0.52042566      -0.26222761      -0.37595178
O        1.76673936      -0.37995146       0.44088009
H       -2.00677962       1.09431284       0.95277464
H       -1.33720659       0.36655469      -0.81355211
H        0.41024297      -1.07966147      -1.10796313
H        2.32642459      -0.66669173      -0.25198274
8
Properties=species:S:1:pos:R:3 relative_energy_eV=0.5510519150157052 branch=right pbc="F F F"
O       -1.07419504       0.78839525       1.06419925
C       -0.66501689       0.15037192      -0.02746426
C        0.54711500      -0.26110869      -0.34121580
O        1.68721018      -0.42516265       0.42303987
H       -1.97053464       1.09293341       0.97340247
H       -1.37371895       0.30166547      -0.81846386
H        0.42588313      -1.03890767      -1.12431721
H        2.33349481      -0.63538067      -0.25584297
8
Properties=species:S:1:pos:R:3 relative_energy_eV=0.35796823808686895 branch=right pbc="F F F"
O       -1.04489440       0.81662031       1.08388961
C       -0.67025801       0.16774681      -0.03313077
C        0.55131854      -0.28137772      -0.34762120
O        1.66033862      -0.44623112       0.43577148
H       -1.96249747       1.09311758       0.98208209
H       -1.40254568       0.24880197      -0.83378512
H        0.43832080      -1.00178789      -1.14498158
H        2.34045527      -0.62408386      -0.24888709
8
Properties=species:S:1:pos:R:3 relative_energy_eV=0.14580489619584114 branch=right pbc="F F F"
O       -1.04468866       0.82938092       1.12560558
C       -0.66785014       0.20551114      -0.03196722
C        0.51176110      -0.35451200      -0.33303845
O        1.63538752      -0.42128122       0.39237703
H       -1.95807924       1.08998007       0.99182872
H       -1.38433304       0.24583813      -0.86493294
H        0.46541565      -0.99572988      -1.17045963
H        2.35262451      -0.62638126      -0.21607574
8
Properties=species:S:1:pos:R:3 relative_energy_eV=0.07892605495817406 branch=right pbc="F F F"
O       -1.03096225       0.84617699       1.14549272
C       -0.66956119       0.22581089      -0.04281834
C        0.47941505      -0.37804351      -0.33219750
O        1.64125647      -0.41250973       0.41196618
H       -1.95473487       1.09002782       0.99997680
H       -1.39509559       0.22065927      -0.87508052
H        0.47757494      -0.98768797      -1.20978052
H        2.36234514      -0.63162793      -0.20422146
8
Properties=species:S:1:pos:R:3 relative_energy_eV=0.05359182423671882 branch=right pbc="F F F"
O       -1.03109529       0.84248400       1.13781752
C       -0.67165826       0.22992901      -0.04374775
C        0.47757996      -0.38690552      -0.32272534
O        1.63854683      -0.40478513       0.40716808
H       -1.95434041       1.09206328       1.00630178
H       -1.39061093       0.22482737      -0.87094356
H        0.48120293      -0.99193793      -1.22360978
H        2.36061288      -0.63286925      -0.19692360
8
Properties=species:S:1:pos:R:3 relative_energy_eV=0.03130269684515952 branch=right pbc="F F F"
O       -1.02891884       0.84344070       1.12034518
C       -0.66947116       0.22922260      -0.04810242
C        0.47922663      -0.39426077      -0.32232988
O        1.63598804      -0.40099120       0.41362697
H       -1.94872244       1.09575545       1.01895827
H       -1.39789237       0.21872876      -0.86104033
H        0.48503964      -0.98609565      -1.24084604
H        2.35498824      -0.63299408      -0.18727441
8
Properties=species:S:1:pos:R:3 relative_energy_eV=0.01382055435624352 branch=right pbc="F F F"
O       -1.01718829       0.84978164       1.10342009
C       -0.66650103       0.22684929      -0.05800894
C        0.48050368      -0.40321425      -0.32641831
O        1.62901848      -0.39908834       0.42523789
H       -1.94259359       1.10135534       1.03563194
H       -1.41489521       0.20179485      -0.84980822
H        0.49274634      -0.97144641      -1.26362995
H        2.34914738      -0.63322635      -0.17308718
8
Properties=species:S:1:pos:R:3 relative_energy_eV=-7.213434491859516e-05 branch=right pbc="F F F"
O       -1.00381041       0.85953441       1.09074170
C       -0.66640570       0.22146980      -0.07040435
C        0.48109803      -0.40969701      -0.33559563
O        1.61974304      -0.39890819       0.43545873
H       -1.93261350       1.10607826       1.05153652
H       -1.43476352       0.18147999      -0.83887400
H        0.50316167      -0.95335172      -1.28265784
H        2.34382815      -0.63379982      -0.15686783
8
Properties=species:S:1:pos:R:3 relative_energy_eV=-0.015116065422262182 branch=right pbc="F F F"
O       -0.98266520       0.87219936       1.07779322
C       -0.66967325       0.21388323      -0.08374483
C        0.47947824      -0.41229340      -0.34890968
O        1.60385359      -0.40140015       0.44379442
H       -1.91769322       1.11123783       1.06890305
H       -1.46158104       0.15248610      -0.82649936
H        0.51959596      -0.92939732      -1.30247861
H        2.33892270      -0.63390999      -0.13552093
8
Properties=species:S:1:pos:R:3 relative_energy_eV=-0.032441020133774146 branch=right pbc="F F F"
O       -0.95581861       0.88718978       1.06412123
C       -0.67989099       0.20266125      -0.09816832
C        0.47433767      -0.40979991      -0.36793151
O        1.58162215      -0.40428687       0.44895212
H       -1.89383457       1.11634682       1.08748719
H       -1.49358159       0.11635215      -0.81029020
H        0.54379987      -0.90128503      -1.32396685
H        2.33360390      -0.63437263      -0.10686642
8
Properties=species:S:1:pos:R:3 relative_energy_eV=-0.04606061914546444 branch=right pbc="F F F"
O       -0.93184637       0.89731609       1.05325754
C       -0.69180778       0.19286927      -0.10569965
C        0.46737661      -0.40121182      -0.38408979
O        1.55966285      -0.40686932       0.44883120
H       -1.86976508       1.11997823       1.09998678
H       -1.51984323       0.08480719      -0.79592712
H        0.56709850      -0.88025068      -1.34128418
H        2.32936237      -0.63383350      -0.08173759
8
Properties=species:S:1:pos:R:3 relative_energy_eV=-0.05321884233944729 branch=right pbc="F F F"
O       -0.92186977       0.89750383       1.04930565
C       -0.70133067       0.18676803      -0.10417795
C        0.46329050      -0.39096218      -0.39399409
O        1.54944414      -0.40557264       0.44498490
H       -1.85559934       1.12092724       1.10127563
H       -1.52841845       0.07351291      -0.78757226
H        0.57873405      -0.87609580      -1.34680802
H        2.32598741      -0.63327595      -0.06967669
8
Properties=species:S:1:pos:R:3 relative_energy_eV=-0.05575854644666833 branch=right pbc="F F F"
O       -0.91691387       0.89671665       1.04885678
C       -0.70283975       0.18529648      -0.10156867
C        0.46188222      -0.38497140      -0.39712614
O        1.54378869      -0.40463483       0.44455868
H       -1.84908310       1.12164678       1.10080654
H       -1.53344344       0.06616789      -0.78435180
H        0.58267757      -0.87616317      -1.35247233
H        2.32416957      -0.63125299      -0.06536589
8
Properties=species:S:1:pos:R:3 relative_energy_eV=-0.05786857658131339 branch=right pbc="F F F"
O       -0.91738652       0.89211926       1.05149703
C       -0.70357807       0.18357299      -0.09806559
C        0.46317099      -0.38101999      -0.40023095
O        1.54399837      -0.39965385       0.44389717
H       -1.84782408       1.12197379       1.09699889
H       -1.53109656       0.06871794      -0.78242764
H        0.58088158      -0.88276551      -1.35303773
H        2.32207217      -0.63013923      -0.06529402
8
Properties=species:S:1:pos:R:3 relative_energy_eV=-0.060400160929020785 branch=right pbc="F F F"
O       -0.91648566       0.88671768       1.05617422
C       -0.70220373       0.18096276      -0.09580495
C        0.46472115      -0.37905923      -0.40487677
O        1.54206474      -0.39059669       0.44385833
H       -1.84554705       1.12344768       1.09380822
H       -1.53038975       0.06986080      -0.77971687
H        0.57851051      -0.89030888      -1.35671965
H        2.31956768      -0.62821873      -0.06338538
8
Properties=species:S:1:pos:R:3 relative_energy_eV=-0.06243784406251507 branch=right pbc="F F F"
O       -0.91399370       0.88061764       1.06075954
C       -0.70074666       0.17734594      -0.09551619
C        0.46560994      -0.38011791      -0.41058448
O        1.53913168      -0.37858110       0.44275854
H       -1.84235955       1.12577641       1.09226806
H       -1.53136500       0.07098804      -0.77704696
H        0.57669684      -0.89647797      -1.36044663
H        2.31726434      -0.62674568      -0.05885474
8
Properties=species:S:1:pos:R:3 relative_energy_eV=-0.06389977593244112 branch=right pbc="F F F"
O       -0.91090816       0.87532326       1.06361252
C       -0.70054568       0.17391068      -0.09695670
C        0.46514616      -0.38237341      -0.41469796
O        1.53625103      -0.36782548       0.44072207
H       -1.83792184       1.12794512       1.09243361
H       -1.53419155       0.07133110      -0.77562377
H        0.57620960      -0.89945141      -1.36274872
H        2.31619833      -0.62605451      -0.05340389
8
Properties=species:S:1:pos:R:3 relative_energy_eV=-0.06579504153251037 branch=right pbc="F F F"
O       -0.90597610       0.86671641       1.06627489
C       -0.70193611       0.16908584      -0.09978526
C        0.46364552      -0.38556526      -0.41880734
O        1.53326336      -0.35242406       0.43708905
H       -1.83045538       1.13104377       1.09340956
H       -1.53969555       0.07201996      -0.77511616
H        0.57578022      -0.90243384      -1.36433184
H        2.31561193      -0.62563749      -0.04539578
8
Properties=species:S:1:pos:R:3 relative_energy_eV=-0.06783427454774937 branch=right pbc="F F F"
O       -0.90126486       0.85510104       1.06860801
C       -0.70513440       0.16390677      -0.10308542
C        0.46138813      -0.38827107      -0.42108384
O        1.53189455      -0.33451778       0.43233175
H       -1.82099420       1.13441169       1.09442350
H       -1.54628738       0.07402209      -0.77657078
H        0.57479169      -0.90621268      -1.36382350
H        2.31584437      -0.62563477      -0.03746259
8
Properties=species:S:1:pos:R:3 relative_energy_eV=-0.06936179006515886 branch=right pbc="F F F"
O       -0.89877650       0.84405059       1.06981968
C       -0.70910466       0.16027417      -0.10516141
C        0.45951212      -0.38895220      -0.42074387
O        1.53310984      -0.32008645       0.42826241
H       -1.81317180       1.13709716       1.09511001
H       -1.55129190       0.07680303      -0.77968708
H        0.57358790      -0.91028664      -1.36125793
H        2.31637291      -0.62609441      -0.03300467
8
Properties=species:S:1:pos:R:3 relative_energy_eV=-0.06999546386578004 branch=right pbc="F F F"
O       -0.89931170       0.83875106       1.07007872
C       -0.71145273       0.15932070      -0.10539396
C        0.45889021      -0.38784871      -0.41931048
O        1.53510025      -0.31444657       0.42664938
H       -1.81026423       1.13835326       1.09556104
H       -1.55250104       0.07850015      -0.78224156
H        0.57329035      -0.91304974      -1.35878408
H        2.31648680      -0.62677490      -0.03322194
8
Properties=species:S:1:pos:R:3 relative_energy_eV=-0.07033061804395402 branch=right pbc="F F F"
O       -0.90040835       0.83631830       1.07024478
C       -0.71262384       0.15917648      -0.10519108
C        0.45891235      -0.38656546      -0.41852837
O        1.53650533      -0.31200008       0.42621501
H       -1.80967807       1.13941294       1.09639715
H       -1.55239018       0.07903335      -0.78391441
H        0.57389000      -0.91496413      -1.35718021
H        2.31603067      -0.62760614      -0.03470575
8
Properties=species:S:1:pos:R:3 relative_energy_eV=-0.07075907379112323 branch=right pbc="F F F"
O       -0.90227569       0.83385792       1.07081390
C       -0.71378924       0.15902697      -0.10508539
C        0.45919694      -0.38482874      -0.41800215
O        1.53804088      -0.30887232       0.42573210
H       -1.80963676       1.14135423       1.09844629
H       -1.55187734       0.07896252      -0.78619846
H        0.57584221      -0.91742112      -1.35509872
H        2.31473690      -0.62927422      -0.03727044
8
Properties=species:S:1:pos:R:3 relative_energy_eV=-0.07111475273904944 branch=right pbc="F F F"
O       -0.90380306       0.83192019       1.07177213
C       -0.71455800       0.15860925      -0.10533416
C        0.45953657      -0.38363526      -0.41827256
O        1.53884776      -0.30515841       0.42486331
H       -1.80990049       1.14376614       1.10125406
H       -1.55147302       0.07818425      -0.78822242
H        0.57881380      -0.91944993      -1.35340691
H        2.31277433      -0.63143101      -0.03931631
8
Properties=species:S:1:pos:R:3 relative_energy_eV=-0.0713011730058497 branch=right pbc="F F F"
O       -0.90422264       0.83122554       1.07263928
C       -0.71472069       0.15805581      -0.10580543
C        0.45963748      -0.38350321      -0.41908240
O        1.53859795      -0.30232148       0.42378803
H       -1.80994193       1.14535458       1.10326858
H       -1.55151619       0.07713256      -0.78898446
H        0.58127583      -0.92001770      -1.35289926
H        2.31112808      -0.63312088      -0.03958720
8
Properties=species:S:1:pos:R:3 relative_energy_eV=-0.07136577050459891 branch=right pbc="F F F"
O       -0.90382976       0.83108658       1.07304191
C       -0.71465087       0.15762239      -0.10609971
C        0.45956016      -0.38380155      -0.41974059
O        1.53809675      -0.30065732       0.42296316
H       -1.80969626       1.14583138       1.10384759
H       -1.55184732       0.07646134      -0.78875267
H        0.58228233      -0.91971214      -1.35317459
H        2.31032286      -0.63402546      -0.03874796
8
Properties=species:S:1:pos:R:3 relative_energy_eV=-0.07141339511872502 branch=right pbc="F F F"
O       -0.90338113       0.83100073       1.07328821
C       -0.71459707       0.15727445      -0.10626720
C        0.45946700      -0.38396545      -0.42020757
O        1.53777288      -0.29908746       0.42218253
H       -1.80932981       1.14593997       1.10391293
H       -1.55223599       0.07582175      -0.78825734
H        0.58283067      -0.91915889      -1.35356716
H        2.30971134      -0.63501989      -0.03774725
8
Properties=species:S:1:pos:R:3 relative_energy_eV=-0.0715180186480211 branch=right pbc="F F F"
O       -0.90266342       0.83068242       1.07362571
C       -0.71459088       0.15671003      -0.10640477
C        0.45940029      -0.38382908      -0.42089013
O        1.53762089      -0.29560377       0.42065180
H       -1.80867428       1.14599095       1.10372016
H       -1.55300251       0.07438957      -0.78716206
H        0.58366759      -0.91792985      -1.35424705
H        2.30848021      -0.63760506      -0.03595651
8
Properties=species:S:1:pos:R:3 relative_energy_eV=-0.07171774885955529 branch=right pbc="F F F"
O       -0.90184075       0.83018843       1.07406372
C       -0.71466434       0.15593513      -0.10638180
C        0.45954788      -0.38272238      -0.42178811
O        1.53820965      -0.28860310       0.41778682
H       -1.80780504       1.14587816       1.10304663
H       -1.55434910       0.07114276      -0.78495956
H        0.58510384      -0.91521841      -1.35531542
H        2.30603574      -0.64379538      -0.03311515
8
Properties=species:S:1:pos:R:3 relative_energy_eV=-0.0720667831155879 branch=right pbc="F F F"
O       -0.90132873       0.82973965       1.07445780
C       -0.71484368       0.15511869      -0.10585179
C        0.46033432      -0.37951391      -0.42275614
O        1.54072104      -0.27634966       0.41295827
H       -1.80727798       1.14540487       1.10151391
H       -1.55642290       0.06475990      -0.78101090
H        0.58730864      -0.90993409      -1.35682392
H        2.30174717      -0.65642025      -0.02915009
8
Properties=species:S:1:pos:R:3 relative_energy_eV=-0.07240420636571798 branch=right pbc="F F F"
O       -0.90219107       0.83104324       1.07416123
C       -0.71477806       0.15522719      -0.10451086
C        0.46197927      -0.37461532      -0.42291175
O        1.54537134      -0.26546812       0.40831401
H       -1.80869469       1.14414441       1.09933277
H       -1.55797091       0.05717994      -0.77658658
H        0.58903575      -0.90312446      -1.35817229
H        2.29748627      -0.67158169      -0.02628942
8
Properties=species:S:1:pos:R:3 relative_energy_eV=-0.07261381291937141 branch=right pbc="F F F"
O       -0.90399836       0.83323426       1.07345043
C       -0.71448547       0.15619431      -0.10316698
C        0.46338530      -0.37129583      -0.42222010
O        1.54919950      -0.26328934       0.40679550
H       -1.81143462       1.14297095       1.09791025
H       -1.55775504       0.05370127      -0.77456714
H        0.58886240      -0.89955046      -1.35860336
H        2.29646416      -0.67915996      -0.02626149
8
Properties=species:S:1:pos:R:3 relative_energy_eV=-0.07276091323819855 branch=right pbc="F F F"
O       -0.90600260       0.83365677       1.07346494
C       -0.71457521       0.15666218      -0.10222544
C        0.46435714      -0.36870810      -0.42194568
O        1.55231327      -0.26052107       0.40525477
H       -1.81353407       1.14290043       1.09739925
H       -1.55738282       0.05185616      -0.77370750
H        0.58832420      -0.89848637      -1.35860805
H        2.29673796      -0.68455480      -0.02629516
8
Properties=species:S:1:pos:R:3 relative_energy_eV=-0.07287048567286547 branch=right pbc="F F F"
O       -0.90817981       0.83543909       1.07313675
C       -0.71423914       0.15758438      -0.10138890
C        0.46522217      -0.36746162      -0.42158737
O        1.55415294      -0.26399530       0.40546206
H       -1.81623860       1.14275654       1.09754781
H       -1.55640304       0.05192017      -0.77409188
H        0.58671402      -0.89858138      -1.35838202
H        2.29920933      -0.68485666      -0.02735932
8
Properties=species:S:1:pos:R:3 relative_energy_eV=-0.07296240870891779 branch=right pbc="F F F"
O       -0.90910343       0.83503694       1.07365322
C       -0.71434282       0.15735907      -0.10116642
C        0.46557494      -0.36672655      -0.42222082
O        1.55517121      -0.26159557       0.40383118
H       -1.81704525       1.14342661       1.09801191
H       -1.55656031       0.05116091      -0.77391849
H        0.58618884      -0.89872403      -1.35862046
H        2.30035469      -0.68713218      -0.02623298
8
Properties=species:S:1:pos:R:3 relative_energy_eV=-0.07301379945329245 branch=right pbc="F F F"
O       -0.90920061       0.83511473       1.07399834
C       -0.71425460       0.15703833      -0.10122372
C        0.46559137      -0.36707605      -0.42288526
O        1.55513286      -0.26076654       0.40269888
H       -1.81728898       1.14378536       1.09849941
H       -1.55676952       0.05093682      -0.77381336
H        0.58582736      -0.89867517      -1.35911616
H        2.30120000      -0.68755227      -0.02482099
8
Properties=species:S:1:pos:R:3 relative_energy_eV=-0.07303833210062294 branch=right pbc="F F F"
O       -0.90903961       0.83504879       1.07419042
C       -0.71425891       0.15663256      -0.10118817
C        0.46563609      -0.36700580      -0.42336661
O        1.55537110      -0.25889241       0.40145084
H       -1.81718858       1.14389380       1.09863283
H       -1.55710410       0.05022976      -0.77335651
H        0.58592996      -0.89810920      -1.35960969
H        2.30089192      -0.68899230      -0.02341597
8
Properties=species:S:1:pos:R:3 relative_energy_eV=-0.07304914760516112 branch=right pbc="F F F"
O       -0.90893130       0.83483196       1.07433964
C       -0.71435404       0.15617644      -0.10104745
C        0.46572494      -0.36662406      -0.42377433
O        1.55591298      -0.25642977       0.40003763
H       -1.81701636       1.14395591       1.09869669
H       -1.55740950       0.04935309      -0.77284185
H        0.58611810      -0.89749737      -1.36007406
H        2.30019305      -0.69096098      -0.02199914
8
Properties=species:S:1:pos:R:3 relative_energy_eV=-0.07305443382574595 branch=right pbc="F F F"
O       -0.90889520       0.83454885       1.07440424
C       -0.71449416       0.15582724      -0.10088820
C        0.46581530      -0.36614446      -0.42402763
O        1.55645974      -0.25435893       0.39896326
H       -1.81682673       1.14399459       1.09877368
H       -1.55759315       0.04864183      -0.77251855
H        0.58624694      -0.89712838      -1.36035411
H        2.29952513      -0.69257555      -0.02101556
8
Properties=species:S:1:pos:R:3 relative_energy_eV=-0.07305914296921401 branch=right pbc="F F F"
O       -0.90888284       0.83440697       1.07438771
C       -0.71457590       0.15570447      -0.10081954
C        0.46585130      -0.36588842      -0.42410351
O        1.55670298      -0.25350332       0.39856694
H       -1.81671552       1.14398513       1.09887687
H       -1.55760629       0.04834492      -0.77247433
H        0.58623421      -0.89706509      -1.36042395
H        2.29922993      -0.69317946      -0.02067306
8
Properties=species:S:1:pos:R:3 relative_energy_eV=-0.07305757942594937 branch=right pbc="F F F"
O       -0.90884175       0.83437025       1.07432927
C       -0.71461811       0.15567505      -0.10080705
C        0.46586141      -0.36573761      -0.42413260
O        1.55679779      -0.25309903       0.39841633
H       -1.81663774       1.14392665       1.09902749
H       -1.55754606       0.04816305      -0.77253556
H        0.58614021      -0.89708903      -1.36043055
H        2.29908215      -0.69340410      -0.02053020
8
Properties=species:S:1:pos:R:3 relative_energy_eV=-0.0730565755693533 branch=right pbc="F F F"
O       -0.90872379       0.83447168       1.07418824
C       -0.71463140       0.15572129      -0.10084835
C        0.46585494      -0.36560017      -0.42415165
O        1.55680818      -0.25284691       0.39837205
H       -1.81656720       1.14374635       1.09932945
H       -1.55737672       0.04793848      -0.77271197
H        0.58590059      -0.89716763      -1.36040031
H        2.29897331      -0.69345788      -0.02044034
8
Properties=species:S:1:pos:R:3 relative_energy_eV=-0.07305878684837808 branch=right pbc="F F F"
O       -0.90855602       0.83476063       1.07400661
C       -0.71458299       0.15585518      -0.10094347
C        0.46583522      -0.36555595      -0.42415720
O        1.55670807      -0.25291860       0.39847059
H       -1.81657786       1.14346028       1.09967227
H       -1.55716125       0.04775614      -0.77291897
H        0.58559991      -0.89724744      -1.36034392
H        2.29897283      -0.69330501      -0.02044879
8
Properties=species:S:1:pos:R:3 relative_energy_eV=-0.07306593357043312 branch=right pbc="F F F"
O       -0.90840101       0.83513484       1.07384780
C       -0.71449738       0.15601711      -0.10104797
C        0.46581585      -0.36559638      -0.42415613
O        1.55657315      -0.25318675       0.39861713
H       -1.81667266       1.14314879       1.09992948
H       -1.55700028       0.04767339      -0.77305288
H        0.58537103      -0.89730077      -1.36028390
H        2.29904920      -0.69308499      -0.02051644
8
Properties=species:S:1:pos:R:3 relative_energy_eV=-0.07306411815352476 branch=right pbc="F F F"
O       -0.90827675       0.83550303       1.07371771
C       -0.71441349       0.15616171      -0.10113371
C        0.46580596      -0.36565405      -0.42416123
O        1.55648245      -0.25340826       0.39870612
H       -1.81680779       1.14283510       1.10010633
H       -1.55692340       0.04766256      -0.77309820
H        0.58524295      -0.89735334      -1.36022582
H        2.29912799      -0.69294153      -0.02057410
8
Properties=species:S:1:pos:R:3 relative_energy_eV=-0.07306813582999894 branch=right pbc="F F F"
O       -0.90808544       0.83609470       1.07349894
C       -0.71429835       0.15637522      -0.10125453
C        0.46580088      -0.36571954      -0.42418427
O        1.55641644      -0.25356761       0.39873518
H       -1.81704428       1.14226578       1.10038352
H       -1.55687849       0.04769615      -0.77310446
H        0.58511564      -0.89749978      -1.36011728
H        2.29921151      -0.69283968      -0.02062000
8
Properties=species:S:1:pos:R:3 relative_energy_eV=-0.07307315154594107 branch=right pbc="F F F"
O       -0.90770148       0.83723381       1.07302339
C       -0.71412225       0.15676110      -0.10147188
C        0.46580198      -0.36577338      -0.42425376
O        1.55641161      -0.25349339       0.39860723
H       -1.81749232       1.14102936       1.10098980
H       -1.55688206       0.04780904      -0.77306540
H        0.58494260      -0.89793253      -1.35986880
H        2.29927986      -0.69282875      -0.02062351
8
Properties=species:S:1:pos:R:3 relative_energy_eV=-0.07308620113599318 branch=right pbc="F F F"
O       -0.90701049       0.83916697       1.07211003
C       -0.71389885       0.15738163      -0.10182848
C        0.46581290      -0.36575724      -0.42440342
O        1.55656612      -0.25280868       0.39814176
H       -1.81821090       1.13870645       1.10217826
H       -1.55699596       0.04806944      -0.77296899
H        0.58471483      -0.89893128      -1.35937614
H        2.29926034      -0.69302202      -0.02051599
8
Properties=species:S:1:pos:R:3 relative_energy_eV=-0.07310018562111509 branch=right pbc="F F F"
O       -0.90617734       0.84136470       1.07092212
C       -0.71374922       0.15803883      -0.10222225
C        0.46582877      -0.36560884      -0.42460703
O        1.55693302      -0.25133653       0.39731623
H       -1.81894423       1.13578021       1.10376128
H       -1.55724951       0.04844979      -0.77285010
H        0.58452281      -0.90041928      -1.35871702
H        2.29907373      -0.69346357      -0.02026626
8
Properties=species:S:1:pos:R:3 relative_energy_eV=-0.0731044888643737 branch=right pbc="F F F"
O       -0.90569657       0.84250417       1.07013336
C       -0.71378763       0.15831508      -0.10240590
C        0.46583624      -0.36540739      -0.42473810
O        1.55730607      -0.24989740       0.39660688
H       -1.81921318       1.13398693       1.10483432
H       -1.55749733       0.04871902      -0.77279452
H        0.58447658      -0.90154062      -1.35828278
H        2.29881390      -0.69387447      -0.02001632
8
Properties=species:S:1:pos:R:3 relative_energy_eV=-0.07310060825875553 branch=right pbc="F F F"
O       -0.90564827       0.84249449       1.06999167
C       -0.71388783       0.15823637      -0.10237000
C        0.46583656      -0.36531280      -0.42475201
O        1.55743956      -0.24940203       0.39641058
H       -1.81911911       1.13382919       1.10501975
H       -1.55757867       0.04871796      -0.77279308
H        0.58450971      -0.90174488      -1.35825231
H        2.29868616      -0.69401297      -0.01991767
