8
Properties=species:S:1:pos:R:3 relative_energy_eV=0.0 branch=left pbc="F F F"
O        0.74560022      -1.41244442      -0.71056258
C        0.04654081      -0.76812385       0.03484753
C        0.52131970      -0.41653964       1.44009035
O       -0.14920127       0.24730350       2.19335483
H       -0.84017576       2.09115686      -2.06635356
H       -0.95916698      -0.40092513      -0.24078672
H       -0.91192608       1.59724991      -2.60441964
H        1.52226247      -0.81403995       1.70260993
8
Properties=species:S:1:pos:R:3 relative_energy_eV=0.00014488964006886818 branch=left pbc="F F F"
O        0.74500402      -1.40483755      -0.71368153
C        0.04495429      -0.76629924       0.03560603
C        0.52138818      -0.41839834       1.44119422
O       -0.14950392       0.23962023       2.19846644
H       -0.84168389       2.10098104      -2.07664130
H       -0.96291465      -0.40151491      -0.23633390
H       -0.90621422       1.58697502      -2.60003473
H        1.52422330      -0.81288901       1.70020487
8
Properties=species:S:1:pos:R:3 relative_energy_eV=0.00014399318752111867 branch=left pbc="F F F"
O        0.74636353      -1.41776270      -0.70819850
C        0.04755608      -0.76954605       0.03448638
C        0.52105265      -0.41526476       1.43939792
O       -0.14855902       0.25312101       2.18990016
H       -0.83879325       2.08287238      -2.05780956
H       -0.95684494      -0.40066202      -0.24369874
H       -0.91622492       1.60558591      -2.60901771
H        1.52070295      -0.81470648       1.70372021
8
Properties=species:S:1:pos:R:3 relative_energy_eV=0.000281222106423229 branch=left pbc="F F F"
O        0.74837098      -1.42082399      -0.70698060
C        0.04875425      -0.77090167       0.03376333
C        0.52089662      -0.41420365       1.43837121
O       -0.14749835       0.25935659       2.18504769
H       -0.83824830       2.07869750      -2.05196712
H       -0.95562361      -0.40216635      -0.24592100
H       -0.91920992       1.61033242      -2.60967530
H        1.51781140      -0.81665355       1.70614197
8
Properties=species:S:1:pos:R:3 relative_energy_eV=0.0031588114634359954 branch=left pbc="F F F"
O        0.73821470      -1.44204827      -0.70232365
C        0.03844555      -0.78561362       0.03257430
C        0.51958277      -0.40340192       1.42542233
O       -0.16427441       0.24270051       2.18205115
H       -0.82235682       2.13203356      -2.06719648
H       -0.97199354      -0.43052342      -0.24469095
H       -0.89998144       1.57273752      -2.55285806
H        1.53761627      -0.76224708       1.67580161
8
Properties=species:S:1:pos:R:3 relative_energy_eV=0.0005917561293244944 branch=left pbc="F F F"
O        0.74968594      -1.43090765      -0.70273491
C        0.04994999      -0.77519932       0.03278021
C        0.52051743      -0.41168079       1.43607543
O       -0.14838690       0.26792341       2.17730969
H       -0.83639404       2.07619579      -2.04392090
H       -0.95287203      -0.40603812      -0.25151768
H       -0.92441468       1.61826935      -2.60770389
H        1.51716734      -0.81492537       1.70849229
8
Properties=species:S:1:pos:R:3 relative_energy_eV=0.0012613250401045661 branch=left pbc="F F F"
O        0.76030455      -1.42112585      -0.70371198
C        0.05926742      -0.76769657       0.03243823
C        0.52040964      -0.41944364       1.44342930
O       -0.13783667       0.28057121       2.17509277
H       -0.85274824       2.06394608      -2.04548838
H       -0.93820368      -0.38878729      -0.25654796
H       -0.93591712       1.62898441      -2.62702848
H        1.49997717      -0.85281105       1.73059666
8
Properties=species:S:1:pos:R:3 relative_energy_eV=0.0016995076248349505 branch=left pbc="F F F"
O        0.76880301      -1.40995306      -0.70525266
C        0.06694132      -0.76002740       0.03298155
C        0.52047152      -0.42749631       1.45074275
O       -0.12905927       0.28591625       2.17758188
H       -0.86874443       2.06012613      -2.05332962
H       -0.92605958      -0.37244241      -0.25882325
H       -0.94327659       1.63251680      -2.64279905
H        1.48617711      -0.88500272       1.74767851
8
Properties=species:S:1:pos:R:3 relative_energy_eV=0.001972506171114219 branch=left pbc="F F F"
O        0.77502308      -1.40244460      -0.70579162
C        0.07250842      -0.75476135       0.03348553
C        0.52031855      -0.43360206       1.45576403
O       -0.12324188       0.28780061       2.17985637
H       -0.88137153       2.06393826      -2.06302490
H       -0.91699103      -0.36067971      -0.26060829
H       -0.94727820       1.63039277      -2.64969974
H        1.47628569      -0.90700666       1.75879867
8
Properties=species:S:1:pos:R:3 relative_energy_eV=0.002298992793839716 branch=left pbc="F F F"
O        0.78151540      -1.39151263      -0.70661518
C        0.07852017      -0.74723880       0.03538316
C        0.52033154      -0.44231566       1.46298832
O       -0.11693027       0.28419450       2.18772472
H       -0.89775421       2.07211889      -2.08018544
H       -0.90661508      -0.34414479      -0.26069001
H       -0.95030079       1.62505566      -2.65928401
H        1.46648637      -0.93251994       1.76945840
8
Properties=species:S:1:pos:R:3 relative_energy_eV=0.0025331029219159973 branch=left pbc="F F F"
O        0.78471143      -1.39007672      -0.70528646
C        0.08166365      -0.74574557       0.03599748
C        0.52039124      -0.44551723       1.46516501
O       -0.11434864       0.28457872       2.18784623
H       -0.90436505       2.07651976      -2.08517054
H       -0.90129120      -0.33870122      -0.26181462
H       -0.95310582       1.62473355      -2.66276544
H        1.46159754      -0.94215407       1.77480828
8
Properties=species:S:1:pos:R:3 relative_energy_eV=0.0028241959253136883 branch=left pbc="F F F"
O        0.78993060      -1.39042188      -0.70314897
C        0.08621978      -0.74406461       0.03592261
C        0.51961571      -0.44970810       1.46749438
O       -0.11271243       0.28386110       2.18854853
H       -0.91602801       2.09710469      -2.10229108
H       -0.89275468      -0.33086957      -0.26644837
H       -0.95410396       1.61217269      -2.65207784
H        1.45508617      -0.95443712       1.78078063
8
Properties=species:S:1:pos:R:3 relative_energy_eV=0.0028728688248520484 branch=left pbc="F F F"
O        0.79050368      -1.39118096      -0.70267462
C        0.08672775      -0.74426162       0.03580476
C        0.51951709      -0.44992437       1.46747090
O       -0.11270871       0.28415443       2.18798986
H       -0.91705029       2.09975414      -2.10380753
H       -0.89183738      -0.33053323      -0.26720834
H       -0.95430995       1.61082246      -2.65018039
H        1.45441099      -0.95519365       1.78138526
8
Properties=species:S:1:pos:R:3 relative_energy_eV=0.0029698918378926464 branch=left pbc="F F F"
O        0.78923880      -1.38385053      -0.70498290
C        0.08575673      -0.74101678       0.03759252
C        0.52023848      -0.45192294       1.47016503
O       -0.11088836       0.28001040       2.19422787
H       -0.91692481       2.08876393      -2.10133208
H       -0.89358011      -0.32688605      -0.26252124
H       -0.95424202       1.61704912      -2.66535838
H        1.45565447      -0.95850993       1.78098905
8
Properties=species:S:1:pos:R:3 relative_energy_eV=0.0030149391068334808 branch=left pbc="F F F"
O        0.79183159      -1.39528979      -0.70093374
C        0.08799373      -0.74524396       0.03510085
C        0.51900806      -0.44985708       1.46685837
O       -0.11376751       0.28461750       2.18642697
H       -0.91987422       2.11108793      -2.11041836
H       -0.88913987      -0.32995364      -0.27061442
H       -0.95407133       1.60387603      -2.63961983
H        1.45327272      -0.95559980       1.78198006
8
Properties=species:S:1:pos:R:3 relative_energy_eV=0.003059144916733203 branch=left pbc="F F F"
O        0.79213740      -1.39684982      -0.70039590
C        0.08828151      -0.74572137       0.03480541
C        0.51884337      -0.44959672       1.46647815
O       -0.11423101       0.28495726       2.18568172
H       -0.92036815       2.11439167      -2.11209984
H       -0.88852719      -0.33019192      -0.27171193
H       -0.95395438       1.60185449      -2.63595542
H        1.45307164      -0.95520639       1.78197769
8
Properties=species:S:1:pos:R:3 relative_energy_eV=0.004059935029545159 branch=left pbc="F F F"
O        0.78953730      -1.38702128      -0.70022528
C        0.08839881      -0.73968338       0.04061284
C        0.52144164      -0.45531549       1.47364326
O       -0.10982544       0.27420128       2.19889555
H       -0.92290559       2.09008895      -2.10477869
H       -0.88767478      -0.31806411      -0.26293648
H       -0.95895481       1.62364432      -2.67932930
H        1.45523604      -0.96421304       1.78289797
8
Properties=species:S:1:pos:R:3 relative_energy_eV=0.0031470163730773493 branch=left pbc="F F F"
O        0.79224095      -1.40133356      -0.69864677
C        0.08893850      -0.74698827       0.03419231
C        0.51865315      -0.44874375       1.46564779
O       -0.11519921       0.28583145       2.18388002
H       -0.92079517       2.11926195      -2.11371210
H       -0.88699760      -0.33070324      -0.27424814
H       -0.95450506       1.59989794      -2.63023124
H        1.45291761      -0.95358533       1.78189803
8
Properties=species:S:1:pos:R:3 relative_energy_eV=0.003284491637714382 branch=left pbc="F F F"
O        0.79384845      -1.40128791      -0.70017727
C        0.08901743      -0.74831487       0.03252437
C        0.51797275      -0.44771827       1.46378176
O       -0.11592944       0.28899123       2.18008241
H       -0.92093986       2.12803880      -2.11647291
H       -0.88814640      -0.33543923      -0.27493950
H       -0.95213776       1.59204085      -2.61881501
H        1.45156802      -0.95267343       1.78279607
8
Properties=species:S:1:pos:R:3 relative_energy_eV=0.0035308125989104155 branch=left pbc="F F F"
O        0.79567225      -1.40576973      -0.70058400
C        0.08892236      -0.75209478       0.02919095
C        0.51670948      -0.44474447       1.45942782
O       -0.11777861       0.29634307       2.17070768
H       -0.91873769       2.13863845      -2.11730477
H       -0.88920177      -0.34310239      -0.27881067
H       -0.94995481       1.58223815      -2.59730394
H        1.44962197      -0.94787115       1.78345685
8
Properties=species:S:1:pos:R:3 relative_energy_eV=0.004063729345944012 branch=left pbc="F F F"
O        0.79779392      -1.40964228      -0.70201054
C        0.08802980      -0.75667569       0.02515343
C        0.51480006      -0.44084029       1.45385413
O       -0.12023422       0.30630532       2.15890991
H       -0.91505567       2.15034351      -2.11794209
H       -0.89139160      -0.35225704      -0.28433257
H       -0.94615129       1.56808155      -2.56806368
H        1.44746220      -0.94167796       1.78321135
8
Properties=species:S:1:pos:R:3 relative_energy_eV=0.004256762326804164 branch=left pbc="F F F"
O        0.79880855      -1.41354401      -0.70128687
C        0.08796244      -0.75961405       0.02397111
C        0.51406936      -0.43884664       1.45153454
O       -0.12146670       0.31093026       2.15335683
H       -0.91333582       2.15535418      -2.11742900
H       -0.89181337      -0.35686149      -0.28737261
H       -0.94576381       1.56456677      -2.55673669
H        1.44679253      -0.93834790       1.78274264
8
Properties=species:S:1:pos:R:3 relative_energy_eV=0.004448549932021706 branch=left pbc="F F F"
O        0.79960520      -1.42897361      -0.69571525
C        0.08878972      -0.76684240       0.02164508
C        0.51295026      -0.43391140       1.44679553
O       -0.12497531       0.31915376       2.14274741
H       -0.91009148       2.16656282      -2.11687923
H       -0.88984580      -0.36503354      -0.29665020
H       -0.94780183       1.56166367      -2.53405230
H        1.44662238      -0.92898219       1.78088895
8
Properties=species:S:1:pos:R:3 relative_energy_eV=0.004590402605572308 branch=left pbc="F F F"
O        0.80083994      -1.43712220      -0.69249563
C        0.08957184      -0.77182494       0.02168636
C        0.51229065      -0.43186097       1.44478075
O       -0.12693294       0.32369504       2.13651179
H       -0.90862118       2.17315970      -2.11646879
H       -0.88884954      -0.37121831      -0.30014680
H       -0.94995016       1.56332963      -2.52526850
H        1.44690456      -0.92452085       1.78018084
8
Properties=species:S:1:pos:R:3 relative_energy_eV=0.005096449595839658 branch=left pbc="F F F"
O        0.80108288      -1.42051899      -0.69778260
C        0.08732320      -0.76429287       0.02346148
C        0.51261809      -0.43337624       1.44934198
O       -0.12129911       0.32000796       2.14829958
H       -0.91091460       2.16246225      -2.11323488
H       -0.89389316      -0.36777919      -0.29518094
H       -0.94537789       1.56112909      -2.54413444
H        1.44571376      -0.93399490       1.77800981
8
Properties=species:S:1:pos:R:3 relative_energy_eV=0.005430732499007718 branch=left pbc="F F F"
O        0.79937840      -1.46934295      -0.67797358
C        0.08991520      -0.78109106       0.01571624
C        0.51076776      -0.42051392       1.43808400
O       -0.12991230       0.33509631       2.12732897
H       -0.90426102       2.18806158      -2.11291751
H       -0.88309705      -0.38163000      -0.32247787
H       -0.95447128       1.56029436      -2.49244568
H        1.44693339      -0.90723720       1.77346552
8
Properties=species:S:1:pos:R:3 relative_energy_eV=0.006197875602993008 branch=left pbc="F F F"
O        0.80005628      -1.47380233      -0.67914270
C        0.08867891      -0.78174014       0.01310008
C        0.51000689      -0.41800653       1.43691004
O       -0.13009661       0.33677799       2.12678940
H       -0.90251590       2.19109597      -2.11556147
H       -0.88460396      -0.38250352      -0.32627221
H       -0.95275597       1.55452921      -2.47911750
H        1.44648344      -0.90271354       1.77207445
8
Properties=species:S:1:pos:R:3 relative_energy_eV=0.0070396231440099655 branch=left pbc="F F F"
O        0.80370206      -1.50847115      -0.66358682
C        0.09290844      -0.79894959       0.01235514
C        0.50952059      -0.41217968       1.43080775
O       -0.13373117       0.35287254       2.10725349
H       -0.90050218       2.20602979      -2.09858542
H       -0.87626080      -0.39956366      -0.33808806
H       -0.96690894       1.57328035      -2.47701545
H        1.44652501      -0.88938141       1.77563957
8
Properties=species:S:1:pos:R:3 relative_energy_eV=0.008035871463107469 branch=left pbc="F F F"
O        0.79891919      -1.55553113      -0.64548267
C        0.09880073      -0.81565128       0.00757932
C        0.50783918      -0.40558305       1.41884399
O       -0.14944440       0.36165502       2.08062117
H       -0.89503744       2.23282538      -2.10735490
H       -0.85898151      -0.40287062      -0.35858028
H       -0.97771149       1.57349786      -2.42232082
H        1.45086872      -0.86470503       1.77547448
8
Properties=species:S:1:pos:R:3 relative_energy_eV=0.009357059127978573 branch=left pbc="F F F"
O        0.79200238      -1.57899225      -0.63684307
C        0.10248302      -0.81908561       0.00382073
C        0.50690270      -0.40241958       1.41213640
O       -0.15867773       0.36413750       2.06686259
H       -0.89241274       2.23973214      -2.10895617
H       -0.84564520      -0.39193325      -0.37143202
H       -0.98177074       1.56628023      -2.39218471
H        1.45237127      -0.85408200       1.77537660
8
Properties=species:S:1:pos:R:3 relative_energy_eV=0.00989998779095913 branch=left pbc="F F F"
O        0.78978327      -1.58805064      -0.63295957
C        0.10427079      -0.81987540       0.00238823
C        0.50674153      -0.40072665       1.40969267
O       -0.16028132       0.36805977       2.06034428
H       -0.89172783       2.23782252      -2.09998514
H       -0.84006606      -0.38720857      -0.37648513
H       -0.98469887       1.56582625      -2.39084662
H        1.45123143      -0.85221001       1.77663165
8
Properties=species:S:1:pos:R:3 relative_energy_eV=0.01031427829821041 branch=left pbc="F F F"
O        0.78916541      -1.57246073      -0.64126243
C        0.10091515      -0.81563327       0.00312166
C        0.50655483      -0.40422019       1.41232475
O       -0.16266522       0.35430320       2.07203872
H       -0.89162402       2.24543069      -2.13315122
H       -0.84742984      -0.38642551      -0.37032953
H       -0.97520367       1.55424263      -2.36579806
H        1.45554036      -0.85159974       1.77183640
8
Properties=species:S:1:pos:R:3 relative_energy_eV=0.010574504899523163 branch=left pbc="F F F"
O        0.79078212      -1.56648501      -0.64450145
C        0.09938291      -0.81596331       0.00352719
C        0.50630332      -0.40487142       1.41291317
O       -0.16260067       0.35203835       2.07425754
H       -0.89081851       2.24925648      -2.14321730
H       -0.85207680      -0.39156318      -0.36743973
H       -0.97208815       1.55206378      -2.35722952
H        1.45636878      -0.85083867       1.77047035
8
Properties=species:S:1:pos:R:3 relative_energy_eV=0.010859739420084225 branch=left pbc="F F F"
O        0.79643730      -1.56738098      -0.64422868
C        0.09832308      -0.82454104       0.00457902
C        0.50593717      -0.40339571       1.41146563
O       -0.16247615       0.35773731       2.06886942
H       -0.88820641       2.26038379      -2.14826857
H       -0.85863320      -0.41251701      -0.36551767
H       -0.97294474       1.55900607      -2.34851769
H        1.45681595      -0.84565551       1.77039882
8
Properties=species:S:1:pos:R:3 relative_energy_eV=0.01094481888867449 branch=left pbc="F F F"
O        0.79852649      -1.56878184      -0.64380711
C        0.09814676      -0.82772431       0.00459185
C        0.50559081      -0.40236810       1.41038392
O       -0.16214291       0.36160305       2.06492959
H       -0.88688888       2.26300695      -2.14661679
H       -0.86038150      -0.41965032      -0.36556166
H       -0.97371214       1.56139851      -2.34593402
H        1.45611437      -0.84384703       1.77079450
8
Properties=species:S:1:pos:R:3 relative_energy_eV=0.011043874424103706 branch=left pbc="F F F"
O        0.80220040      -1.57980517      -0.63851620
C        0.09940803      -0.83683616       0.00441791
C        0.50514938      -0.39918480       1.40680358
O       -0.16219947       0.37296568       2.05218727
H       -0.88432947       2.26850026      -2.13604421
H       -0.85995619      -0.43426122      -0.36918919
H       -0.97920893       1.57086782      -2.34405785
H        1.45418925      -0.83860949       1.77317902
8
Properties=species:S:1:pos:R:3 relative_energy_eV=0.011095635415586003 branch=left pbc="F F F"
O        0.80370689      -1.58434608      -0.63646746
C        0.09993969      -0.84040403       0.00417248
C        0.50483818      -0.39773728       1.40514060
O       -0.16209035       0.37821483       2.04626511
H       -0.88309984       2.27002141      -2.13062543
H       -0.85964706      -0.43984827      -0.37086190
H       -0.98141924       1.57433298      -2.34311015
H        1.45302472      -0.83659663       1.77426709
8
Properties=species:S:1:pos:R:3 relative_energy_eV=0.011301476143671607 branch=left pbc="F F F"
O        0.80219653      -1.56811804      -0.64538123
C        0.09723743      -0.83256639       0.00470642
C        0.50501028      -0.40127855       1.40912101
O       -0.16227159       0.36688800       2.06070495
H       -0.88449603       2.26855532      -2.14677852
H       -0.86505844      -0.43205307      -0.36376862
H       -0.97346310       1.56317208      -2.34067019
H        1.45609793      -0.84096246       1.77084647
8
Properties=species:S:1:pos:R:3 relative_energy_eV=0.011548625455361616 branch=left pbc="F F F"
O        0.80897535      -1.60964472      -0.62528360
C        0.10339278      -0.85698114       0.00206535
C        0.50327353      -0.39004301       1.39613059
O       -0.16275683       0.40521552       2.01537391
H       -0.87681929       2.27528395      -2.09996276
H       -0.85519720      -0.46314512      -0.38171918
H       -0.99297805       1.58954739      -2.33795406
H        1.44736267      -0.82659590       1.78013020
8
Properties=species:S:1:pos:R:3 relative_energy_eV=0.011799734461419575 branch=left pbc="F F F"
O        0.81054817      -1.61977170      -0.62042562
C        0.10479359      -0.86277608       0.00120254
C        0.50262674      -0.38699426       1.39272284
O       -0.16271711       0.41527307       2.00369113
H       -0.87465752       2.27630771      -2.08755730
H       -0.85271719      -0.47070457      -0.38652148
H       -0.99759436       1.59541483      -2.33665852
H        1.44497063      -0.82311199       1.78232691
8
Properties=species:S:1:pos:R:3 relative_energy_eV=0.012374890552564466 branch=left pbc="F F F"
O        0.80821439      -1.59685412      -0.63399963
C        0.10060705      -0.85168646       0.00056278
C        0.50257548      -0.39062737       1.39676721
O       -0.16358894       0.40263995       2.02068555
H       -0.87468364       2.27383155      -2.10702708
H       -0.86130814      -0.46113821      -0.37761317
H       -0.98534486       1.57577119      -2.32820705
H        1.44878164      -0.82829958       1.77761180
8
Properties=species:S:1:pos:R:3 relative_energy_eV=0.012376216061966261 branch=left pbc="F F F"
O        0.81335585      -1.64239952      -0.60999832
C        0.10796699      -0.87505836      -0.00067181
C        0.50271635      -0.38076629       1.38577719
O       -0.16242326       0.43476507       1.97997287
H       -0.87107969       2.27812945      -2.06194775
H       -0.84687448      -0.48543480      -0.39697017
H       -1.00822065       1.61014515      -2.33666469
H        1.43981179      -0.81574362       1.78928325
8
Properties=species:S:1:pos:R:3 relative_energy_eV=0.012693438499809417 branch=left pbc="F F F"
O        0.81626608      -1.65156050      -0.60638246
C        0.10924077      -0.88128822      -0.00105107
C        0.50299528      -0.37828332       1.38286151
O       -0.16120724       0.44410442       1.96831217
H       -0.86964923       2.27840368      -2.05015670
H       -0.84567835      -0.49359720      -0.40044448
H       -1.01321041       1.61886691      -2.33821370
H        1.43649596      -0.81300867       1.79385534
8
Properties=species:S:1:pos:R:3 relative_energy_eV=0.013125992843924905 branch=left pbc="F F F"
O        0.81745730      -1.63749442      -0.61555997
C        0.10637694      -0.87614743      -0.00195001
C        0.50182104      -0.37879717       1.38363438
O       -0.16174901       0.44150230       1.97390149
H       -0.86711203       2.27898403      -2.05840707
H       -0.85405680      -0.49353253      -0.39382344
H       -1.00501404       1.60423308      -2.32841926
H        1.43752950      -0.81511080       1.78940447
8
Properties=species:S:1:pos:R:3 relative_energy_eV=0.013351729434361914 branch=left pbc="F F F"
O        0.81790089      -1.68806879      -0.58262874
C        0.11642287      -0.89710930       0.00041099
C        0.50148635      -0.37285298       1.37729126
O       -0.16221973       0.46111357       1.94626515
H       -0.86985918       2.28555384      -2.02375966
H       -0.83016033      -0.50601451      -0.41419643
H       -1.03163391       1.64570667      -2.34969230
H        1.43331584      -0.80469131       1.79509046
8
Properties=species:S:1:pos:R:3 relative_energy_eV=0.013978298077745421 branch=left pbc="F F F"
O        0.82099584      -1.71301946      -0.56718038
C        0.12115737      -0.90962493       0.00228262
C        0.50162615      -0.37027581       1.37418185
O       -0.16104679       0.47237232       1.92989579
H       -0.87106546       2.28963101      -2.00552360
H       -0.82074982      -0.51579984      -0.42291763
H       -1.04563458       1.66950978      -2.36188316
H        1.42997005      -0.79915583       1.79992530
8
Properties=species:S:1:pos:R:3 relative_energy_eV=0.014385959616447508 branch=left pbc="F F F"
O        0.82286140      -1.70988108      -0.56911587
C        0.12033491      -0.90942611       0.00259893
C        0.50086573      -0.37047632       1.37434073
O       -0.16102409       0.47231785       1.93039415
H       -0.86988091       2.29215443      -2.00750084
H       -0.82426415      -0.51780889      -0.42027641
H       -1.04381225       1.66565262      -2.35924995
H        1.43017213      -0.79889527       1.79759004
8
Properties=species:S:1:pos:R:3 relative_energy_eV=0.014828633227807586 branch=left pbc="F F F"
O        0.81521938      -1.74663647      -0.54439874
C        0.12856386      -0.92022068       0.00421021
C        0.50351008      -0.36874843       1.37272444
O       -0.16391221       0.47552612       1.92169985
H       -0.87669655       2.29338610      -1.99144668
H       -0.79931925      -0.51443733      -0.43751680
H       -1.06348087       1.69810962      -2.38109115
H        1.43136825      -0.79334159       1.80459973
8
Properties=species:S:1:pos:R:3 relative_energy_eV=0.016718366106942995 branch=left pbc="F F F"
O        0.82836051      -1.72800859      -0.55271009
C        0.12625851      -0.91857667       0.00439392
C        0.49774561      -0.36865883       1.37131285
O       -0.15545305       0.49068384       1.90959847
H       -0.87251688       2.28069490      -1.98286335
H       -0.81282461      -0.52564874      -0.42921629
H       -1.05707756       1.69523149      -2.37289037
H        1.42076018      -0.80208010       1.80115567
8
Properties=species:S:1:pos:R:3 relative_energy_eV=0.01544685509725241 branch=left pbc="F F F"
O        0.82599819      -1.72685569      -0.55541745
C        0.12335049      -0.91797462       0.00528401
C        0.49937930      -0.36988630       1.37308431
O       -0.15969782       0.47977600       1.92084938
H       -0.87144894       2.29525799      -1.99575918
H       -0.81691029      -0.52409977      -0.42668346
H       -1.05411325       1.68350973      -2.36975804
H        1.42869505      -0.79609005       1.79718126
8
Properties=species:S:1:pos:R:3 relative_energy_eV=0.01570779696066893 branch=left pbc="F F F"
O        0.81773480      -1.78255381      -0.52030668
C        0.13454151      -0.93705326       0.00723219
C        0.50433456      -0.36617789       1.36913054
O       -0.16056541       0.49057432       1.90051034
H       -0.88075214       2.29286907      -1.96438582
H       -0.78200102      -0.52431681      -0.45435435
H       -1.08478415       1.73752704      -2.40320900
H        1.42674447      -0.78723122       1.81416374
8
Properties=species:S:1:pos:R:3 relative_energy_eV=0.01597183828107518 branch=left pbc="F F F"
O        0.81548976      -1.80342691      -0.50678023
C        0.13924162      -0.94439204       0.00749191
C        0.50572071      -0.36417053       1.36687309
O       -0.15930698       0.49845759       1.88906909
H       -0.88424474       2.28713217      -1.94812161
H       -0.76815727      -0.52523796      -0.46582518
H       -1.09683952       1.76075328      -2.41590777
H        1.42334900      -0.78547807       1.82198169
8
Properties=species:S:1:pos:R:3 relative_energy_eV=0.016166484657333058 branch=left pbc="F F F"
O        0.81391730      -1.81797122      -0.49804981
C        0.14325336      -0.94915782       0.00682771
C        0.50673279      -0.36197639       1.36453914
O       -0.15801703       0.50597063       1.87865363
H       -0.88642775       2.28047091      -1.93427081
H       -0.75827737      -0.52588686      -0.47384828
H       -1.10517857       1.77735711      -2.42391911
H        1.41924981      -0.78516878       1.82884856
8
Properties=species:S:1:pos:R:3 relative_energy_eV=0.016252497531240806 branch=left pbc="F F F"
O        0.81381334      -1.82389588      -0.49463212
C        0.14534563      -0.95114182       0.00618869
C        0.50693139      -0.36062643       1.36307492
O       -0.15689850       0.51088386       1.87227852
H       -0.88712481       2.27591312      -1.92652240
H       -0.75427608      -0.52669421      -0.47708331
H       -1.10871699       1.78496571      -2.42687262
H        1.41617854      -0.78576676       1.83234936
8
Properties=species:S:1:pos:R:3 relative_energy_eV=0.016355973200916196 branch=left pbc="F F F"
O        0.81361206      -1.82822986      -0.49306731
C        0.14779339      -0.95217129       0.00521848
C        0.50723681      -0.35923108       1.36170258
O       -0.15664181       0.51448922       1.86686393
H       -0.88742004       2.27285770      -1.92091983
H       -0.75169033      -0.52705386      -0.47801728
H       -1.11106920       1.78962307      -2.42841013
H        1.41343163      -0.78664629       1.83541061
8
Properties=species:S:1:pos:R:3 relative_energy_eV=0.016387208560445288 branch=left pbc="F F F"
O        0.81394818      -1.82889021      -0.49303433
C        0.14842738      -0.95237023       0.00484601
C        0.50719430      -0.35872304       1.36118720
O       -0.15629149       0.51595560       1.86483905
H       -0.88728659       2.27167042      -1.91903396
H       -0.75153718      -0.52751822      -0.47795877
H       -1.11144462       1.79057942      -2.42834064
H        1.41224253      -0.78706613       1.83627647
8
Properties=species:S:1:pos:R:3 relative_energy_eV=0.016424441533672507 branch=left pbc="F F F"
O        0.81433027      -1.83228608      -0.48927257
C        0.14943871      -0.95390360       0.00531379
C        0.50665683      -0.35878181       1.36085129
O       -0.15516380       0.51956437       1.86118370
H       -0.88837035       2.26762505      -1.91392135
H       -0.74789018      -0.52789069      -0.48081815
H       -1.11429637       1.79758192      -2.43184683
H        1.41054737      -0.78827153       1.83729117
8
Properties=species:S:1:pos:R:3 relative_energy_eV=0.016561772202294378 branch=left pbc="F F F"
O        0.81837761      -1.83241374      -0.48738240
C        0.14919985      -0.95587926       0.00524729
C        0.50466026      -0.35764141       1.35902050
O       -0.15057849       0.52899194       1.85166754
H       -0.88736508       2.25984857      -1.90291151
H       -0.74828344      -0.53245454      -0.48359762
H       -1.11588525       1.80342581      -2.43213396
H        1.40512701      -0.79023972       1.83887121
8
Properties=species:S:1:pos:R:3 relative_energy_eV=0.016635839462651347 branch=left pbc="F F F"
O        0.81202223      -1.82943438      -0.49445627
C        0.15051074      -0.95083826       0.00418695
C        0.50780898      -0.35865150       1.36144104
O       -0.15922936       0.51227191       1.86704238
H       -0.88741648       2.27536463      -1.92309608
H       -0.75121629      -0.52469188      -0.47446106
H       -1.11085774       1.78688908      -2.42768121
H        1.41363044      -0.78727199       1.83580530
8
Properties=species:S:1:pos:R:3 relative_energy_eV=0.01786795136104047 branch=left pbc="F F F"
O        0.80839753      -1.83888467      -0.49014841
C        0.15567478      -0.95062945       0.00147535
C        0.50928175      -0.35583790       1.35935058
O       -0.15891860       0.51633447       1.86076181
H       -0.89042596       2.26440543      -1.91576351
H       -0.74257942      -0.52046444      -0.47910404
H       -1.11435151       1.79797157      -2.42919917
H        1.40817392      -0.78925735       1.84140845
8
Properties=species:S:1:pos:R:3 relative_energy_eV=0.017142470524049713 branch=left pbc="F F F"
O        0.81923788      -1.83654164      -0.48302843
C        0.15297815      -0.95761206       0.00682202
C        0.50358237      -0.35930794       1.35979200
O       -0.15141159       0.53089696       1.84811509
H       -0.88927576       2.25917286      -1.90015779
H       -0.74375285      -0.53206890      -0.48217037
H       -1.12026966       1.81211731      -2.43935770
H        1.40416393      -0.79301895       1.83876622
8
Properties=species:S:1:pos:R:3 relative_energy_eV=0.017621885823245975 branch=left pbc="F F F"
O        0.82154554      -1.84432472      -0.47417914
C        0.15414492      -0.96142076       0.00627556
C        0.50149620      -0.35701796       1.35665649
O       -0.14405936       0.54658085       1.83273125
H       -0.89080814       2.23985524      -1.87901423
H       -0.73549035      -0.53472819      -0.49386042
H       -1.12626596       1.83072297      -2.44347022
H        1.39468957      -0.79602975       1.84364179
8
Properties=species:S:1:pos:R:3 relative_energy_eV=0.01818888602156221 branch=left pbc="F F F"
O        0.82466398      -1.84897580      -0.46856554
C        0.15341013      -0.96507471       0.00585104
C        0.50017747      -0.35471948       1.35397183
O       -0.13726801       0.55961091       1.82121056
H       -0.89132176       2.22552060      -1.86258957
H       -0.73144356      -0.53988285      -0.50299915
H       -1.13022451       1.84484177      -2.44601595
H        1.38725863      -0.79768272       1.84791786
8
Properties=species:S:1:pos:R:3 relative_energy_eV=0.018580077906335646 branch=left pbc="F F F"
O        0.82771742      -1.85367328      -0.46500440
C        0.15366923      -0.96797588       0.00406055
C        0.49961223      -0.35109238       1.35044687
O       -0.13047934       0.57288947       1.80839220
H       -0.89158582       2.21023791      -1.84631336
H       -0.72873628      -0.54525068      -0.51067860
H       -1.13313432       1.85796202      -2.44610259
H        1.37818921      -0.79945943       1.85398041
8
Properties=species:S:1:pos:R:3 relative_energy_eV=0.01887657774204854 branch=left pbc="F F F"
O        0.82885091      -1.86025570      -0.46141467
C        0.15561321      -0.96994508       0.00132305
C        0.49974482      -0.34690218       1.34665056
O       -0.12481072       0.58491718       1.79571408
H       -0.89259515       2.19392305      -1.83082542
H       -0.72419295      -0.54795327      -0.51828283
H       -1.13605860       1.87119857      -2.44541706
H        1.36870076      -0.80134477       1.86103338
8
Properties=species:S:1:pos:R:3 relative_energy_eV=0.019102832731732633 branch=left pbc="F F F"
O        0.82891813      -1.86567204      -0.45902810
C        0.15803280      -0.97087921      -0.00116160
C        0.50012291      -0.34356144       1.34372061
O       -0.12131992       0.59318714       1.78637813
H       -0.89356688       2.18179815      -1.81995426
H       -0.72030821      -0.54889701      -0.52324331
H       -1.13812348       1.88062941      -2.44450641
H        1.36149689      -0.80296716       1.86657604
8
Properties=species:S:1:pos:R:3 relative_energy_eV=0.019239685575485055 branch=left pbc="F F F"
O        0.82887913      -1.86857355      -0.45809071
C        0.15996188      -0.97107586      -0.00284443
C        0.50036206      -0.34148449       1.34192393
O       -0.11964061       0.59787636       1.78074260
H       -0.89401322       2.17500064      -1.81389684
H       -0.71832387      -0.54930415      -0.52524498
H       -1.13910078       1.88542579      -2.44359116
H        1.35712764      -0.80422689       1.86978270
8
Properties=species:S:1:pos:R:3 relative_energy_eV=0.019308410554003785 branch=left pbc="F F F"
O        0.82894095      -1.86964732      -0.45794549
C        0.16118147      -0.97094389      -0.00378778
C        0.50042524      -0.34039417       1.34098275
O       -0.11899353       0.60020145       1.77776785
H       -0.89407796       2.17189260      -1.81104017
H       -0.71769846      -0.54958347      -0.52557707
H       -1.13938933       1.88721484      -2.44285052
H        1.35486386      -0.80510219       1.87123153
8
Properties=species:S:1:pos:R:3 relative_energy_eV=0.019337723369972082 branch=left pbc="F F F"
O        0.82905261      -1.86985715      -0.45803583
C        0.16187696      -0.97072758      -0.00427102
C        0.50040086      -0.33985841       1.34051768
O       -0.11879275       0.60129071       1.77628216
H       -0.89399199       2.17064924      -1.80981096
H       -0.71768556      -0.54981990      -0.52533008
H       -1.13938471       1.88764000      -2.44231508
H        1.35377679      -0.80567908       1.87174423
8
Properties=species:S:1:pos:R:3 relative_energy_eV=0.019355935884959763 branch=left pbc="F F F"
O        0.82914424      -1.86978897      -0.45805408
C        0.16231070      -0.97047245      -0.00454238
C        0.50036567      -0.33954844       1.34024604
O       -0.11874531       0.60184329       1.77547475
H       -0.89388198       2.17013052      -1.80923361
H       -0.71785424      -0.55001842      -0.52502712
H       -1.13930024       1.88760895      -2.44192188
H        1.35321339      -0.80611662       1.87183938
8
Properties=species:S:1:pos:R:3 relative_energy_eV=0.0193780166155193 branch=left pbc="F F F"
O        0.82909403      -1.86974176      -0.45745877
C        0.16279887      -0.96989918      -0.00482622
C        0.50040921      -0.33913687       1.33987720
O       -0.11873070       0.60226074       1.77478165
H       -0.89379810       2.16961543      -1.80866267
H       -0.71803026      -0.55013865      -0.52502180
H       -1.13922149       1.88746158      -2.44150236
H        1.35273066      -0.80678345       1.87159407
8
Properties=species:S:1:pos:R:3 relative_energy_eV=0.019440294277046632 branch=left pbc="F F F"
O        0.82826191      -1.87058940      -0.45486789
C        0.16321862      -0.96881231      -0.00504940
C        0.50083558      -0.33855169       1.33933039
O       -0.11873508       0.60207283       1.77481537
H       -0.89412892       2.16868250      -1.80802492
H       -0.71729685      -0.54942133      -0.52672690
H       -1.13953290       1.88789796      -2.44154535
H        1.35262987      -0.80764072       1.87084981
8
Properties=species:S:1:pos:R:3 relative_energy_eV=0.019552697606741276 branch=left pbc="F F F"
O        0.82651378      -1.87275689      -0.45072096
C        0.16315592      -0.96776632      -0.00503858
C        0.50164022      -0.33808744       1.33884534
O       -0.11873160       0.60104142       1.77603570
H       -0.89504487       2.16725454      -1.80746410
H       -0.71501937      -0.54725890      -0.53050877
H       -1.14042048       1.88926917      -2.44240786
H        1.35315863      -0.80805773       1.87004034
8
Properties=species:S:1:pos:R:3 relative_energy_eV=0.019774595787566795 branch=left pbc="F F F"
O        0.82314760      -1.87710979      -0.44537103
C        0.16269470      -0.96688841      -0.00504783
C        0.50262697      -0.33782366       1.33846453
O       -0.11885894       0.59930058       1.77820161
H       -0.89673506       2.16407075      -1.80626604
H       -0.70959954      -0.54172989      -0.53694868
H       -1.14205750       1.89150753      -2.44385002
H        1.35403399      -0.80768922       1.86959858
8
Properties=species:S:1:pos:R:3 relative_energy_eV=0.020114312068471918 branch=left pbc="F F F"
O        0.81734858      -1.88409593      -0.44015213
C        0.16289602      -0.96608851      -0.00560283
C        0.50322756      -0.33780872       1.33836563
O       -0.11974609       0.59723979       1.78039723
H       -0.89921778       2.15811638      -1.80386811
H       -0.69953406      -0.53128293      -0.54501216
H       -1.14439087       1.89411739      -2.44527725
H        1.35466884      -0.80655953       1.86993074
8
Properties=species:S:1:pos:R:3 relative_energy_eV=0.020492756373641896 branch=left pbc="F F F"
O        0.81055745      -1.89176679      -0.43654006
C        0.16444751      -0.96526740      -0.00672350
C        0.50319395      -0.33804210       1.33865302
O       -0.12150227       0.59543268       1.78174522
H       -0.90182880       2.15117589      -1.80106725
H       -0.68761165      -0.51883840      -0.55179328
H       -1.14678918       1.89633016      -2.44631626
H        1.35478517      -0.80538606       1.87082324
8
Properties=species:S:1:pos:R:3 relative_energy_eV=0.020769565438058635 branch=left pbc="F F F"
O        0.80573943      -1.89686339      -0.43511955
C        0.16642631      -0.96451064      -0.00782800
C        0.50274531      -0.33825805       1.33903904
O       -0.12311762       0.59458218       1.78192300
H       -0.90347003       2.14621166      -1.79895897
H       -0.67928761      -0.51000549      -0.55524313
H       -1.14827839       1.89732429      -2.44662224
H        1.35449478      -0.80484254       1.87159097
8
Properties=species:S:1:pos:R:3 relative_energy_eV=0.02096221294505085 branch=left pbc="F F F"
O        0.80259913      -1.89984172      -0.43487338
C        0.16838720      -0.96373428      -0.00882634
C        0.50219766      -0.33841796       1.33940806
O       -0.12442331       0.59441309       1.78142955
H       -0.90434409       2.14291136      -1.79741241
H       -0.67413093      -0.50439192      -0.55662933
H       -1.14906616       1.89748575      -2.44644758
H        1.35403269      -0.80478628       1.87213255
8
Properties=species:S:1:pos:R:3 relative_energy_eV=0.021038964426224993 branch=left pbc="F F F"
O        0.80137524      -1.90065515      -0.43515764
C        0.16939227      -0.96317568      -0.00941604
C        0.50180135      -0.33837948       1.33952962
O       -0.12490836       0.59476993       1.78078261
H       -0.90445281       2.14137261      -1.79642665
H       -0.67242855      -0.50246123      -0.55696321
H       -1.14915578       1.89706373      -2.44590501
H        1.35362881      -0.80489667       1.87233745
8
Properties=species:S:1:pos:R:3 relative_energy_eV=0.021142451269042795 branch=left pbc="F F F"
O        0.80015043      -1.90065903      -0.43607624
C        0.17059283      -0.96208333      -0.01044628
C        0.50125421      -0.33822887       1.33958210
O       -0.12520866       0.59597722       1.77940655
H       -0.90405795       2.13930110      -1.79460654
H       -0.67153765      -0.50135547      -0.55731935
H       -1.14878041       1.89571927      -2.44439657
H        1.35283939      -0.80503285       1.87263746
8
Properties=species:S:1:pos:R:3 relative_energy_eV=0.02118519906161964 branch=left pbc="F F F"
O        0.79984295      -1.90024041      -0.43661446
C        0.17081056      -0.96153915      -0.01089763
C        0.50098346      -0.33804106       1.33947047
O       -0.12501594       0.59679874       1.77869750
H       -0.90364622       2.13835341      -1.79354519
H       -0.67173855      -0.50154337      -0.55768519
H       -1.14839048       1.89481976      -2.44337689
H        1.35240640      -0.80496986       1.87273253
8
Properties=species:S:1:pos:R:3 relative_energy_eV=0.021652322681802616 branch=left pbc="F F F"
O        0.79953807      -1.89758427      -0.43868741
C        0.17050951      -0.95800056      -0.01352076
C        0.50014378      -0.33819408       1.33875490
O       -0.12249719       0.60111079       1.77651494
H       -0.90124200       2.13405718      -1.78837959
H       -0.67598520      -0.50506759      -0.56189303
H       -1.14601510       1.89028189      -2.43782913
H        1.35080031      -0.80296529       1.87382121
8
Properties=species:S:1:pos:R:3 relative_energy_eV=0.022301267186776386 branch=left pbc="F F F"
O        0.79908569      -1.89813458      -0.43754792
C        0.17040637      -0.95590575      -0.01429939
C        0.49951504      -0.33852178       1.33876851
O       -0.12160428       0.60211447       1.77795005
H       -0.90092702       2.13326259      -1.78751783
H       -0.67728150      -0.50686740      -0.56501774
H       -1.14567964       1.88985495      -2.43701539
H        1.35173751      -0.80216443       1.87346084
8
Properties=species:S:1:pos:R:3 relative_energy_eV=0.02875252555259067 branch=left pbc="F F F"
O        0.81820808      -1.86901204      -0.45463005
C        0.16026420      -0.94653319      -0.03443139
C        0.48824383      -0.33156031       1.32566751
O       -0.10093578       0.63317574       1.74263779
H       -0.88227067       2.10709921      -1.75038196
H       -0.70611514      -0.51296791      -0.55832026
H       -1.12845562       1.84789359      -2.39637000
H        1.32631329      -0.80445699       1.87460949
8
Properties=species:S:1:pos:R:3 relative_energy_eV=0.03440839372979099 branch=left pbc="F F F"
O        0.82559241      -1.85985264      -0.46016839
C        0.15715462      -0.94490751      -0.04067860
C        0.48347308      -0.32969826       1.32240127
O       -0.09375619       0.64260606       1.73091308
H       -0.87660569       2.09935392      -1.73873818
H       -0.71583303      -0.51292978      -0.55557291
H       -1.12397007       1.83526496      -2.38567225
H        1.31919704      -0.80619862       1.87629712
8
Properties=species:S:1:pos:R:3 relative_energy_eV=0.03947957103537192 branch=left pbc="F F F"
O        0.83030182      -1.86797166      -0.45063132
C        0.15916675      -0.94447808      -0.03857072
C        0.48473485      -0.33345674       1.32794272
O       -0.09948997       0.63960538       1.73539448
H       -0.88126209       2.10543168      -1.74593226
H       -0.71350259      -0.50149322      -0.55424586
H       -1.13080690       1.84261892      -2.39938873
H        1.32611031      -0.81661815       1.87421281
8
Properties=species:S:1:pos:R:3 relative_energy_eV=0.04226737624685484 branch=left pbc="F F F"
O        0.84133320      -1.83771309      -0.47297813
C        0.14905866      -0.93683353      -0.04636364
C        0.47899465      -0.31582512       1.31180986
O       -0.08560799       0.67788056       1.70065148
H       -0.86018915       2.07553953      -1.70435800
H       -0.73797844      -0.51569285      -0.55703032
H       -1.10955372       1.79753933      -2.35025633
H        1.29919496      -0.82125670       1.86730621
8
Properties=species:S:1:pos:R:3 relative_energy_eV=0.047689435827123816 branch=left pbc="F F F"
O        0.85197226      -1.79341674      -0.50733824
C        0.13458259      -0.92829162      -0.05815160
C        0.46953889      -0.29082058       1.28739638
O       -0.06252256       0.72755630       1.65430732
H       -0.83040510       2.03392272      -1.64709015
H       -0.77029064      -0.54223071      -0.56139070
H       -1.07786833       1.73553466      -2.27848269
H        1.26024505      -0.81861589       1.85953082
8
Properties=species:S:1:pos:R:3 relative_energy_eV=0.05394817359319859 branch=left pbc="F F F"
O        0.86141500      -1.75244695      -0.53862529
C        0.12127367      -0.92096345      -0.06764696
C        0.46089072      -0.26756977       1.26479974
O       -0.04163321       0.77342162       1.61190231
H       -0.80316943       1.99578277      -1.59463800
H       -0.79900177      -0.56646064      -0.56566545
H       -1.04886608       1.67865257      -2.21260632
H        1.22434327      -0.81677800       1.85126113
8
Properties=species:S:1:pos:R:3 relative_energy_eV=0.055547633761307225 branch=left pbc="F F F"
O        0.86201802      -1.74692053      -0.54246056
C        0.11987309      -0.92061068      -0.06699162
C        0.46026419      -0.26461284       1.26153996
O       -0.03986175       0.77983596       1.60695334
H       -0.79979840       1.99104792      -1.58793938
H       -0.80161889      -0.56933846      -0.56675676
H       -1.04547268       1.67163175      -2.20480205
H        1.21984859      -0.81739497       1.84923822
8
Properties=species:S:1:pos:R:3 relative_energy_eV=0.058579405396812945 branch=left pbc="F F F"
O        0.86470897      -1.75409966      -0.53340539
C        0.11742999      -0.91535016      -0.06751067
C        0.46004961      -0.26250358       1.26181421
O       -0.04243947       0.78151943       1.61240017
H       -0.80169847       1.99215036      -1.59145183
H       -0.80155183      -0.56866208      -0.57117631
H       -1.04607348       1.67366414      -2.20498447
H        1.22482686      -0.82308030       1.84309544
8
Properties=species:S:1:pos:R:3 relative_energy_eV=0.06264204780381988 branch=left pbc="F F F"
O        0.87513825      -1.71605473      -0.57126494
C        0.10880656      -0.91681744      -0.08546446
C        0.45196753      -0.25126690       1.24516724
O       -0.01895789       0.80766432       1.56941192
H       -0.78077397       1.96108980      -1.55425813
H       -0.83148389      -0.58390180      -0.56218613
H       -1.02072429       1.63011154      -2.14849185
H        1.19127986      -0.80718664       1.85586750
8
Properties=species:S:1:pos:R:3 relative_energy_eV=0.07771525676889723 branch=left pbc="F F F"
O        0.88873501      -1.70401776      -0.58698258
C        0.10431523      -0.91937163      -0.09952678
C        0.44814290      -0.25023460       1.23799914
O       -0.00668716       0.82081127       1.55682132
H       -0.77295274       1.94841855      -1.54101521
H       -0.85869527      -0.58710992      -0.56369730
H       -1.01073644       1.61353760      -2.12608859
H        1.18313064      -0.79839536       1.87127117
8
Properties=species:S:1:pos:R:3 relative_energy_eV=0.0939964536428306 branch=left pbc="F F F"
O        0.89652185      -1.65728461      -0.63377323
C        0.09014663      -0.90785440      -0.12537388
C        0.43808696      -0.22932909       1.21502820
O        0.02439944       0.86556540       1.50840845
H       -0.73942689       1.90455320      -1.47789478
H       -0.90093907      -0.62374987      -0.56687526
H       -0.97741874       1.55139298      -2.05518037
H        1.14388200      -0.77965546       1.88444202
8
Properties=species:S:1:pos:R:3 relative_energy_eV=0.11051832455268595 branch=left pbc="F F F"
O        0.89649374      -1.60645088      -0.68384501
C        0.07686841      -0.89478157      -0.14694001
C        0.42940906      -0.20641466       1.19427998
O        0.05391247       0.90896822       1.45452257
H       -0.70440178       1.85993735      -1.41122701
H       -0.93317615      -0.66360312      -0.56687765
H       -0.94427527       1.48795715      -1.98534194
H        1.10042169      -0.76197434       1.89421023
8
Properties=species:S:1:pos:R:3 relative_energy_eV=0.127983779087117 branch=left pbc="F F F"
O        0.89160415      -1.56302681      -0.72906670
C        0.06663754      -0.88657717      -0.15989173
C        0.42433260      -0.18908703       1.18102312
O        0.07647393       0.94341977       1.40869759
H       -0.67576718       1.82392815      -1.35607673
H       -0.95426406      -0.69647713      -0.56814058
H       -0.91922368       1.43872988      -1.93325413
H        1.06545887      -0.74727152       1.90549034
8
Properties=species:S:1:pos:R:3 relative_energy_eV=0.14403578208566614 branch=left pbc="F F F"
O        0.88316471      -1.53489054      -0.76126118
C        0.06031532      -0.88334994      -0.16090180
C        0.42248606      -0.17922185       1.17526271
O        0.08803421       0.96530468       1.37744062
H       -0.65809230       1.80079805      -1.32122217
H       -0.96087235      -0.71710692      -0.57186753
H       -0.90478028       1.41089966      -1.90334905
H        1.04499679      -0.73879500       1.91467958
8
Properties=species:S:1:pos:R:3 relative_energy_eV=0.16249415238326037 branch=left pbc="F F F"
O        0.87266898      -1.51225069      -0.79236559
C        0.05926858      -0.88686389      -0.15310176
C        0.42262106      -0.17727854       1.17345299
O        0.09199146       0.97508039       1.34645645
H       -0.64803849       1.78500875      -1.30117589
H       -0.95602949      -0.72375111      -0.56744032
H       -0.89640198       1.39656078      -1.88552269
H        1.02917203      -0.73286755       1.92847799
8
Properties=species:S:1:pos:R:3 relative_energy_eV=0.18339890847164497 branch=left pbc="F F F"
O        0.86522581      -1.49291185      -0.82408437
C        0.06468647      -0.89785956      -0.14358271
C        0.42479447      -0.18466689       1.17370447
O        0.09011597       0.96983006       1.31257454
H       -0.64535308       1.77712011      -1.29657087
H       -0.94414054      -0.71281781      -0.54505982
H       -0.89312255       1.39249885      -1.87752010
H        1.01304561      -0.72755477       1.94932003
8
Properties=species:S:1:pos:R:3 relative_energy_eV=0.2070557946080953 branch=left pbc="F F F"
O        0.86542564      -1.47928642      -0.85223283
C        0.07501536      -0.91192373      -0.13855855
C        0.42931661      -0.19958676       1.17417223
O        0.08410107       0.95322556       1.28107225
H       -0.64848251       1.77726809      -1.30460687
H       -0.93278422      -0.68799561      -0.50705558
H       -0.89414700       1.39496915      -1.87798052
H        0.99680723      -0.72303215       1.97397105
8
Properties=species:S:1:pos:R:3 relative_energy_eV=0.22898777536465786 branch=left pbc="F F F"
O        0.87205814      -1.46576732      -0.87270231
C        0.08188682      -0.91841823      -0.14441452
C        0.43071566      -0.20687185       1.16735270
O        0.08423149       0.94390183       1.25539140
H       -0.64710918       1.77474688      -1.30471567
H       -0.93254499      -0.67244527      -0.47109086
H       -0.88999130       1.38590778      -1.86745701
H        0.97600554      -0.71741571       1.98641743
8
Properties=species:S:1:pos:R:3 relative_energy_eV=0.2510440056994412 branch=left pbc="F F F"
O        0.88313398      -1.45492187      -0.88796849
C        0.08935395      -0.91716690      -0.15669814
C        0.43228822      -0.21099293       1.15707647
O        0.08547228       0.93970336       1.23395290
H       -0.64321274       1.77198231      -1.30023822
H       -0.94129075      -0.66133923      -0.43653818
H       -0.88432549       1.37039378      -1.85382113
H        0.95383273      -0.71402041       1.99301595
8
Properties=species:S:1:pos:R:3 relative_energy_eV=0.28008343200144736 branch=left pbc="F F F"
O        0.89591448      -1.43476657      -0.90258419
C        0.09233264      -0.90378583      -0.17857465
C        0.42882960      -0.20000329       1.13550581
O        0.09730551       0.95402546       1.20979405
H       -0.62714692       1.75799162      -1.27273047
H       -0.96451327      -0.67102824      -0.40975701
H       -0.86700097       1.32993719      -1.81563751
H        0.91953108      -0.70873222       1.98276514
8
Properties=species:S:1:pos:R:3 relative_energy_eV=0.3148366398891085 branch=left pbc="F F F"
O        0.90495816      -1.41657034      -0.91397240
C        0.09637283      -0.88513111      -0.19695529
C        0.42673345      -0.18699821       1.11405976
O        0.10666625       0.97633195       1.18913039
H       -0.60962400       1.74307366      -1.24180862
H       -0.98975234      -0.68672353      -0.39380735
H       -0.84955261       1.28782113      -1.77742044
H        0.88945045      -0.70816544       1.96955512
8
Properties=species:S:1:pos:R:3 relative_energy_eV=0.34009165905627015 branch=left pbc="F F F"
O        0.90589814      -1.39461129      -0.92160924
C        0.08984123      -0.86528032      -0.21107412
C        0.41987255      -0.16425388       1.09194868
O        0.12155095       1.00935185       1.17226839
H       -0.58827872       1.72046365      -1.20231313
H       -1.01019272      -0.71833344      -0.39870003
H       -0.82677293       1.24207625      -1.72835963
H        0.86333367      -0.70577471       1.94662025
8
Properties=species:S:1:pos:R:3 relative_energy_eV=0.36565723883904866 branch=left pbc="F F F"
O        0.90114638      -1.36211026      -0.92797383
C        0.06916514      -0.84343331      -0.22719721
C        0.40512301      -0.12564602       1.06450373
O        0.14918269       1.05625652       1.15556909
H       -0.55833799       1.68547083      -1.14604196
H       -1.03029287      -0.77193670      -0.42165897
H       -0.79299546       1.18172714      -1.65613036
H        0.83226128      -0.69669009       1.90771070
8
Properties=species:S:1:pos:R:3 relative_energy_eV=0.4005738900432334 branch=left pbc="F F F"
O        0.89408758      -1.32907861      -0.93311634
C        0.04520212      -0.82337715      -0.24204964
C        0.38970382      -0.08477181       1.03864720
O        0.17848990       1.10370279       1.14086470
H       -0.52837315       1.64992098      -1.08981649
H       -1.04731566      -0.82825314      -0.44938820
H       -0.75904463       1.12227611      -1.58324061
H        0.80250219      -0.68678105       1.86688056
8
Properties=species:S:1:pos:R:3 relative_energy_eV=0.43162393891270767 branch=left pbc="F F F"
O        0.88738885      -1.30408368      -0.93718670
C        0.02475881      -0.81029120      -0.25046948
C        0.37628811      -0.05151107       1.01905521
O        0.20207075       1.14066996       1.13069283
H       -0.50556480       1.62150646      -1.04646597
H       -1.05831541      -0.87242850      -0.47468211
H       -0.73295154       1.07855832      -1.52723958
H        0.78157737      -0.67878216       1.83507698
8
Properties=species:S:1:pos:R:3 relative_energy_eV=0.48051662704983755 branch=left pbc="F F F"
O        0.87663022      -1.27691925      -0.93864171
C        0.00328000      -0.80258682      -0.26084993
C        0.35901804      -0.01157328       1.00237594
O        0.22898335       1.17848483       1.11957310
H       -0.48238054       1.58751001      -1.00087673
H       -1.06826829      -0.91954991      -0.50636400
H       -0.70463058       1.03747422      -1.46701970
H        0.76261993      -0.66920166       1.80058422
8
Properties=species:S:1:pos:R:3 relative_energy_eV=0.5571930294845515 branch=left pbc="F F F"
O        0.87173446      -1.25680232      -0.94216358
C       -0.01771781      -0.79641772      -0.26642737
C        0.34103773       0.02187145       0.98809818
O        0.25321239       1.20899426       1.11077598
H       -0.46292791       1.55474842      -0.96099996
H       -1.07913236      -0.95946952      -0.53584075
H       -0.67997455       1.00719521      -1.41539497
H        0.74902019      -0.65648165       1.77073366
8
Properties=species:S:1:pos:R:3 relative_energy_eV=0.6943803826288786 branch=left pbc="F F F"
O        0.85907157      -1.27730570      -0.94245385
C       -0.00267241      -0.73817371      -0.27592417
C        0.35773214       0.01430149       1.00584054
O        0.21214094       1.21320809       1.05980870
H       -0.46796738       1.54004605      -0.96779808
H       -1.06007604      -0.93861608      -0.51562813
H       -0.68275823       1.02010347      -1.41665008
H        0.75978155      -0.70992544       1.80158627
8
Properties=species:S:1:pos:R:3 relative_energy_eV=0.7646734788868343 branch=left pbc="F F F"
O        0.86512676      -1.23649276      -0.93690755
C       -0.04401517      -0.75688641      -0.29291056
C        0.31836751       0.05214250       0.96663289
O        0.26143403       1.24486323       1.05673815
H       -0.43046108       1.49776386      -0.88836636
H       -1.08910265      -1.00145937      -0.56148796
H       -0.64401686       0.97145143      -1.33834245
H        0.73791959      -0.64774431       1.74342505
8
Properties=species:S:1:pos:R:3 relative_energy_eV=0.8996382444602204 branch=left pbc="F F F"
O        0.87118579      -1.20121760      -0.92796519
C       -0.08275514      -0.75994044      -0.31512577
C        0.28408810       0.07966394       0.92839554
O        0.29561600       1.27263781       1.03395600
H       -0.39243904       1.45600597      -0.80583998
H       -1.11378361      -1.05595504      -0.59762642
H       -0.60671645       0.92684851      -1.26234501
H        0.72005645      -0.59440498       1.69533205
8
Properties=species:S:1:pos:R:3 relative_energy_eV=0.9565624094611849 branch=left pbc="F F F"
O        0.87488104      -1.18425977      -0.92603518
C       -0.09908132      -0.77257100      -0.32181453
C        0.26846471       0.09128048       0.91188735
O        0.31528359       1.28591967       1.03516638
H       -0.37634845       1.44169326      -0.77113839
H       -1.12569152      -1.07792949      -0.61458452
H       -0.59314581       0.90573178      -1.23578788
H        0.71088987      -0.56622676       1.67108797
8
Properties=species:S:1:pos:R:3 relative_energy_eV=0.9884944308323611 branch=left pbc="F F F"
O        0.87310724      -1.17607263      -0.92165332
C       -0.10272978      -0.77608209      -0.32897572
C        0.26322762       0.08830954       0.90473841
O        0.32046490       1.29559794       1.03089390
H       -0.36845815       1.43566922      -0.75349586
H       -1.13008625      -1.08598624      -0.61967446
H       -0.58759952       0.89688351      -1.22495522
H        0.70732603      -0.55468109       1.66190349
8
Properties=species:S:1:pos:R:3 relative_energy_eV=1.329473288270492 branch=left pbc="F F F"
O        0.86644888      -1.18267663      -0.92583993
C       -0.09212980      -0.78310944      -0.32212996
C        0.27276396       0.08627074       0.92209244
O        0.32255365       1.29871526       1.05348460
H       -0.39493967       1.41094312      -0.81264741
H       -1.12467055      -1.08080258      -0.61846507
H       -0.58358082       0.94261726      -1.21554099
H        0.70880646      -0.56831954       1.66782753
8
Properties=species:S:1:pos:R:3 relative_energy_eV=1.110052736596117 branch=left pbc="F F F"
O        0.88356938      -1.16925150      -0.93538274
C       -0.11185193      -0.81079761      -0.31314997
C        0.25247674       0.10599325       0.89927218
O        0.34362881       1.29812195       1.06720040
H       -0.36569471       1.44249651      -0.74970126
H       -1.13703393      -1.08858058      -0.63134324
H       -0.59002482       0.88146618      -1.23222034
H        0.70018257      -0.53581003       1.64410620
8
Properties=species:S:1:pos:R:3 relative_energy_eV=1.4185456176974185 branch=left pbc="F F F"
O        0.87931517      -1.15337344      -0.92492726
C       -0.10832014      -0.81899328      -0.32557610
C        0.23500613       0.11146868       0.87435722
O        0.35114727       1.29878924       1.05778304
H       -0.33832245       1.46389542      -0.68882887
H       -1.14881583      -1.09574404      -0.63686471
H       -0.59186784       0.83105621      -1.23912050
H        0.69710978      -0.51346062       1.63195839
8
Properties=species:S:1:pos:R:3 relative_energy_eV=1.6905295111955638 branch=left pbc="F F F"
O        0.88514757      -1.14102102      -0.90639405
C       -0.12916906      -0.77679370      -0.36183941
C        0.22386492       0.11000919       0.85007459
O        0.32974720       1.29227773       0.97734222
H       -0.29946716       1.45343984      -0.59728135
H       -1.15653742      -1.10961263      -0.63250127
H       -0.57523693       0.79013896      -1.20754991
H        0.69690298      -0.49480021       1.62693039
8
Properties=species:S:1:pos:R:3 relative_energy_eV=1.952440724529879 branch=left pbc="F F F"
O        0.88698116      -1.13189666      -0.88523029
C       -0.14999139      -0.71821644      -0.40423506
C        0.21871469       0.08912381       0.83150926
O        0.29953233       1.29811860       0.88219525
H       -0.26909383       1.42124943      -0.52485636
H       -1.15943763      -1.12458095      -0.62467130
H       -0.54863692       0.77295509      -1.15132808
H        0.69718369      -0.48311471       1.62539778
8
Properties=species:S:1:pos:R:3 relative_energy_eV=2.2295989956446647 branch=left pbc="F F F"
O        0.89169534      -1.12804818      -0.86561727
C       -0.17244259      -0.66219377      -0.43693675
C        0.21766512       0.06821956       0.81124008
O        0.26986580       1.30242446       0.79630221
H       -0.25335916       1.37375400      -0.48557132
H       -1.15927380      -1.13951867      -0.61651884
H       -0.51773621       0.78719273      -1.08263820
H        0.69883759      -0.47819196       1.62852128
8
Properties=species:S:1:pos:R:3 relative_energy_eV=2.3608036655450633 branch=left pbc="F F F"
O        0.89921076      -1.13092473      -0.86269336
C       -0.18490829      -0.64399926      -0.44252158
C        0.21856360       0.04900852       0.80734396
O        0.26220357       1.31453345       0.77393809
H       -0.25139212       1.35991412      -0.48004625
H       -1.15841669      -1.14387815      -0.61400089
H       -0.50870196       0.79554059      -1.06217964
H        0.69869322      -0.47655637       1.62894084
8
Properties=species:S:1:pos:R:3 relative_energy_eV=2.4328343504921577 branch=ts pbc="F F F"
O        0.90045547      -1.13133360      -0.86198582
C       -0.18838717      -0.63671687      -0.44567968
C        0.21909893       0.04526266       0.80722122
O        0.25962917       1.31599872       0.76708777
H       -0.20024838       1.38374331      -0.36267412
H       -1.15703612      -1.15750129      -0.60556899
H       -0.50518305       0.72456477      -1.05341733
H        0.69882930      -0.47469380       1.63096637
8
Properties=species:S:1:pos:R:3 relative_energy_eV=2.196846922412078 branch=right pbc="F F F"
O        0.90170018      -1.13174248      -0.86127829
C       -0.19186606      -0.62943448      -0.44883778
C        0.21963426       0.04151680       0.80709849
O        0.25705477       1.31746398       0.76023745
H       -0.14910464       1.40757250      -0.24530199
H       -1.15565555      -1.17112442      -0.59713710
H       -0.50166413       0.65358895      -1.04465503
H        0.69896537      -0.47283122       1.63299189
8
Properties=species:S:1:pos:R:3 relative_energy_eV=2.0589482971381585 branch=right pbc="F F F"
O        0.90633274      -1.13206019      -0.85684078
C       -0.20249396      -0.61244824      -0.45807854
C        0.22141514       0.03117502       0.80508294
O        0.25589709       1.32110294       0.75412221
H       -0.14023813       1.42266930      -0.22562276
H       -1.15472255      -1.17419868      -0.59452216
H       -0.50640485       0.63102979      -1.05532321
H        0.69927873      -0.47226032       1.63429993
8
Properties=species:S:1:pos:R:3 relative_energy_eV=1.651540457601186 branch=right pbc="F F F"
O        0.91518742      -1.12458347      -0.83319061
C       -0.23606188      -0.55168923      -0.49789523
C        0.22522828       0.00500184       0.78468834
O        0.25433810       1.32584220       0.73544754
H       -0.10617994       1.47806701      -0.15037760
H       -1.15178118      -1.18578924      -0.58387854
H       -0.52283430       0.53963820      -1.09243992
H        0.70116770      -0.47147770       1.64076363
8
Properties=species:S:1:pos:R:3 relative_energy_eV=1.426141190121598 branch=right pbc="F F F"
O        0.92687275      -1.11270116      -0.80821987
C       -0.27621287      -0.49294430      -0.53765628
C        0.22890192      -0.01813767       0.75922466
O        0.26344223       1.32621128       0.73879538
H       -0.08118145       1.53307240      -0.09766566
H       -1.14821773      -1.19516809      -0.57305720
H       -0.53529121       0.44485797      -1.12179181
H        0.70075056      -0.47018085       1.64348839
8
Properties=species:S:1:pos:R:3 relative_energy_eV=1.2137258591683349 branch=right pbc="F F F"
O        0.93330889      -1.09254421      -0.78752674
C       -0.30388772      -0.48568744      -0.54671952
C        0.23342310      -0.02910798       0.73568370
O        0.28409971       1.31739287       0.76748013
H       -0.07401245       1.57851789      -0.08632412
H       -1.14420195      -1.19572655      -0.56797337
H       -0.54535491       0.39222298      -1.14891312
H        0.69568954      -0.47005801       1.63741063
8
Properties=species:S:1:pos:R:3 relative_energy_eV=0.9675053129594744 branch=right pbc="F F F"
O        0.93810314      -1.04532591      -0.74965730
C       -0.33136677      -0.51664337      -0.53746237
C        0.24523382      -0.03309037       0.70068991
O        0.31628438       1.30407013       0.79988190
H       -0.06135029       1.63728028      -0.06655816
H       -1.14472810      -1.19628820      -0.56291513
H       -0.56211931       0.33947087      -1.19362011
H        0.67900734      -0.47446392       1.61275884
8
Properties=species:S:1:pos:R:3 relative_energy_eV=0.7665608203924421 branch=right pbc="F F F"
O        0.94853926      -0.98391249      -0.69205551
C       -0.36055610      -0.52432582      -0.54173532
C        0.26425559      -0.04011865       0.66147012
O        0.35089783       1.29824404       0.81639466
H       -0.03382307       1.70805314      -0.01736060
H       -1.15917335      -1.21503087      -0.55374219
H       -0.58615897       0.25825290      -1.24677777
H        0.65508303      -0.48615283       1.57692417
8
Properties=species:S:1:pos:R:3 relative_energy_eV=0.48456101335068524 branch=right pbc="F F F"
O        0.96311277      -0.91358686      -0.62435324
C       -0.39298092      -0.53839240      -0.54450052
C        0.28684956      -0.04278951       0.61781566
O        0.38990511       1.29789320       0.82895453
H       -0.00265816       1.77678876       0.03603214
H       -1.17749587      -1.24260353      -0.54223497
H       -0.61404084       0.18230691      -1.30555538
H        0.62637259      -0.50460720       1.53695932
8
Properties=species:S:1:pos:R:3 relative_energy_eV=0.16197964945422427 branch=right pbc="F F F"
O        0.95729251      -0.84863099      -0.54854520
C       -0.42979539      -0.51607461      -0.56303535
C        0.33974456      -0.07949401       0.56793071
O        0.40871695       1.31148664       0.81654597
H        0.02083143       1.79319345       0.06514332
H       -1.17951640      -1.28459141      -0.52802863
H       -0.63594249       0.15650633      -1.33871225
H        0.59773304      -0.51738605       1.53181895
8
Properties=species:S:1:pos:R:3 relative_energy_eV=0.047516462761450384 branch=right pbc="F F F"
O        0.96742729      -0.77686954      -0.47964252
C       -0.45524911      -0.53724984      -0.55917762
C        0.37083108      -0.07628821       0.53169149
O        0.44519802       1.31110375       0.81890708
H        0.04527929       1.83484501       0.10086443
H       -1.19757796      -1.31897145      -0.51761787
H       -0.66136737       0.11699651      -1.38608192
H        0.56452298      -0.53855695       1.49417442
8
Properties=species:S:1:pos:R:3 relative_energy_eV=-0.019714729852239543 branch=right pbc="F F F"
O        0.97545347      -0.78610063      -0.50214574
C       -0.44894351      -0.54798173      -0.55662981
C        0.35326628      -0.04962783       0.55651730
O        0.45001202       1.30606347       0.81596531
H        0.04414695       1.83035504       0.09832774
H       -1.19602798      -1.31880323      -0.51737913
H       -0.66002198       0.12350368      -1.38126806
H        0.56117897      -0.54239946       1.48972988
8
Properties=species:S:1:pos:R:3 relative_energy_eV=-0.08142222216974915 branch=right pbc="F F F"
O        0.97248031      -0.77793686      -0.50475699
C       -0.45507317      -0.53585397      -0.56269399
C        0.35470644      -0.04857771       0.56147032
O        0.45924642       1.30849129       0.80281751
H        0.04676833       1.81474153       0.09265762
H       -1.17964224      -1.33640430      -0.50996268
H       -0.66508578       0.13943990      -1.37757375
H        0.54566392      -0.54889056       1.50115943
8
Properties=species:S:1:pos:R:3 relative_energy_eV=-0.1942368054005783 branch=right pbc="F F F"
O        0.96888842      -0.73400272      -0.50542782
C       -0.45998132      -0.51780197      -0.56264531
C        0.34410234      -0.03861893       0.56867043
O        0.51038050       1.31536392       0.77105383
H        0.05852284       1.78506527       0.07956724
H       -1.13399070      -1.39657072      -0.48569936
H       -0.69170579       0.17898848      -1.37671027
H        0.48284791      -0.57741399       1.51430872
8
Properties=species:S:1:pos:R:3 relative_energy_eV=-0.22965646568172815 branch=right pbc="F F F"
O        0.96867183      -0.71210592      -0.50126589
C       -0.46311439      -0.51908610      -0.56411627
C        0.33924687      -0.03848114       0.57031179
O        0.53774348       1.31763073       0.76161640
H        0.06344309       1.78101843       0.07517960
H       -1.11079223      -1.41371505      -0.47701427
H       -0.70750921       0.18772627      -1.37177854
H        0.45137476      -0.58797788       1.51018464
8
Properties=species:S:1:pos:R:3 relative_energy_eV=-0.2640579707813231 branch=right pbc="F F F"
O        0.96941102      -0.69376413      -0.50015678
C       -0.46183608      -0.52355676      -0.56342350
C        0.33044392      -0.04053525       0.56879830
O        0.56830516       1.31793203       0.75353979
H        0.06855431       1.78067724       0.06943690
H       -1.07835746      -1.42191196      -0.47114715
H       -0.72996979       0.19233138      -1.35597310
H        0.41251313      -0.59616321       1.50204299
8
Properties=species:S:1:pos:R:3 relative_energy_eV=-0.2791776076055612 branch=right pbc="F F F"
O        0.97128161      -0.69196203      -0.50185992
C       -0.45916893      -0.52408795      -0.56309391
C        0.32892021      -0.04080912       0.56553677
O        0.57647989       1.31447340       0.75145582
H        0.07294097       1.78402252       0.06836993
H       -1.06202161      -1.41966803      -0.47188871
H       -0.74350652       0.18882026      -1.34308425
H        0.39413859      -0.59577971       1.49768171
8
Properties=species:S:1:pos:R:3 relative_energy_eV=-0.2917694077905253 branch=right pbc="F F F"
O        0.97497941      -0.69386531      -0.50610181
C       -0.45376706      -0.52184013      -0.56235343
C        0.33046680      -0.03905454       0.56054207
O        0.57976740       1.30886090       0.75052164
H        0.08144626       1.78930360       0.06912315
H       -1.04600954      -1.41837757      -0.47447345
H       -0.76129578       0.18234251      -1.32837527
H        0.37347674      -0.59236012       1.49423455
8
Properties=species:S:1:pos:R:3 relative_energy_eV=-0.2973530907966051 branch=right pbc="F F F"
O        0.97844505      -0.69460160      -0.50943553
C       -0.45009622      -0.52121943      -0.56233196
C        0.33329671      -0.03697615       0.55783949
O        0.57930044       1.30674959       0.75155892
H        0.08990503       1.79321597       0.07141745
H       -1.03957068      -1.42106614      -0.47614603
H       -0.77348455       0.17788275      -1.32262907
H        0.36126844      -0.58897566       1.49284416
8
Properties=species:S:1:pos:R:3 relative_energy_eV=-0.3018749933789877 branch=right pbc="F F F"
O        0.98274638      -0.69387779      -0.51318466
C       -0.44679510      -0.52295357      -0.56327110
C        0.33648005      -0.03535087       0.55558706
O        0.57779463       1.30688141       0.75498954
H        0.10122460       1.79837019       0.07481744
H       -1.03598071      -1.42685754      -0.47759177
H       -0.78651499       0.17342653      -1.32024173
H        0.35010936      -0.58462904       1.49201266
8
Properties=species:S:1:pos:R:3 relative_energy_eV=-0.3045811997844794 branch=right pbc="F F F"
O        0.98582885      -0.69183245      -0.51578589
C       -0.44564789      -0.52618590      -0.56513070
C        0.33783679      -0.03517207       0.55436965
O        0.57635800       1.30832746       0.75966171
H        0.11100843       1.80369772       0.07728447
H       -1.03534336      -1.43301771      -0.47829100
H       -0.79530327       0.17045863      -1.32106377
H        0.34432666      -0.58126635       1.49207296
8
Properties=species:S:1:pos:R:3 relative_energy_eV=-0.3067764502548016 branch=right pbc="F F F"
O        0.98759323      -0.68874561      -0.51801250
C       -0.44613509      -0.53010520      -0.56750874
C        0.33712253      -0.03578748       0.55354925
O        0.57475129       1.30979552       0.76529416
H        0.12093487       1.80982149       0.07862282
H       -1.03514233      -1.43956786      -0.47866505
H       -0.80176768       0.16822973      -1.32306018
H        0.34170741      -0.57863126       1.49289768
8
Properties=species:S:1:pos:R:3 relative_energy_eV=-0.30905958932999056 branch=right pbc="F F F"
O        0.98767864      -0.68434954      -0.52028739
C       -0.44818055      -0.53426151      -0.57007244
C        0.33414778      -0.03664500       0.55288998
O        0.57236855       1.31055692       0.77179971
H        0.13297559       1.81710032       0.07876611
H       -1.03364257      -1.44691844      -0.47903568
H       -0.80723809       0.16608238      -1.32519098
H        0.34095487      -0.57655580       1.49424813
8
Properties=species:S:1:pos:R:3 relative_energy_eV=-0.31202573437713 branch=right pbc="F F F"
O        0.98547330      -0.67740364      -0.52321200
C       -0.45216701      -0.53885244      -0.57271136
C        0.32807873      -0.03731332       0.55229586
O        0.56793136       1.31022943       0.78026768
H        0.15123378       1.82676399       0.07746789
H       -1.02911951      -1.45673029      -0.47982271
H       -0.81358719       0.16303241      -1.32705059
H        0.34122076      -0.57471682       1.49588268
8
Properties=species:S:1:pos:R:3 relative_energy_eV=-0.3155007138448127 branch=right pbc="F F F"
O        0.98055199      -0.66822311      -0.52635816
C       -0.45771442      -0.54255584      -0.57430399
C        0.31950368      -0.03701813       0.55205494
O        0.56090896       1.30862966       0.78945000
H        0.17520416       1.83677807       0.07436834
H       -1.02086614      -1.46786566      -0.48133151
H       -0.82062887       0.15894499      -1.32766096
H        0.34210488      -0.57368065       1.49689878
8
Properties=species:S:1:pos:R:3 relative_energy_eV=-0.31924680452902976 branch=right pbc="F F F"
O        0.97396730      -0.65840554      -0.52890255
C       -0.46348577      -0.54399856      -0.57378973
C        0.31071276      -0.03524764       0.55245369
O        0.55182711       1.30654968       0.79726538
H        0.20083148       1.84348992       0.06965632
H       -1.01015701      -1.47776742      -0.48360313
H       -0.82760147       0.15440049      -1.32634149
H        0.34296984      -0.57401161       1.49637895
8
Properties=species:S:1:pos:R:3 relative_energy_eV=-0.32319006386842375 branch=right pbc="F F F"
O        0.96772628      -0.64876177      -0.53070082
C       -0.46832519      -0.54339231      -0.57120606
C        0.30371670      -0.03211118       0.55343989
O        0.54068514       1.30524934       0.80389150
H        0.22652866       1.84553042       0.06364122
H       -0.99893960      -1.48557188      -0.48671784
H       -0.83537852       0.14951597      -1.32322986
H        0.34305077      -0.57544929       1.49399940
8
Properties=species:S:1:pos:R:3 relative_energy_eV=-0.32774893038913433 branch=right pbc="F F F"
O        0.96284167      -0.63686731      -0.53296867
C       -0.47286305      -0.54276682      -0.56767897
C        0.29774756      -0.02814999       0.55478513
O        0.52441226       1.30572858       0.81362183
H        0.25954309       1.84548784       0.05522037
H       -0.98708039      -1.49448516      -0.49124805
H       -0.84770654       0.14317163      -1.31892240
H        0.34216965      -0.57710946       1.49030818
8
Properties=species:S:1:pos:R:3 relative_energy_eV=-0.33515284660188627 branch=right pbc="F F F"
O        0.95712188      -0.61349095      -0.53731110
C       -0.48081199      -0.54249152      -0.56194840
C        0.28871843      -0.02213165       0.55774586
O        0.49077095       1.31002440       0.83313506
H        0.32221748       1.84117828       0.03734429
H       -0.96777196      -1.51032483      -0.49949966
H       -0.87237612       0.13308587      -1.31107392
H        0.34119557      -0.58084029       1.48472528
8
Properties=species:S:1:pos:R:3 relative_energy_eV=-0.34402382459848013 branch=right pbc="F F F"
O        0.95613321      -0.58993429      -0.53824462
C       -0.48664594      -0.53785515      -0.55351651
C        0.28574115      -0.01652839       0.56339340
O        0.45420542       1.32068695       0.84375946
H        0.37398885       1.81578723       0.01525689
H       -0.95255397      -1.51619698      -0.50640872
H       -0.89354373       0.12934552      -1.30033194
H        0.34173929      -0.59029559       1.47920943
8
Properties=species:S:1:pos:R:3 relative_energy_eV=-0.3496980473437361 branch=right pbc="F F F"
O        0.95888800      -0.57555326      -0.54032930
C       -0.48811836      -0.53929536      -0.55315449
C        0.28246958      -0.01663525       0.56652394
O        0.43649291       1.32605391       0.84854844
H        0.40127805       1.80570362       0.00527109
H       -0.94744413      -1.52132838      -0.50771669
H       -0.90617222       0.12973603      -1.29616183
H        0.34167043      -0.59367200       1.48013621
8
Properties=species:S:1:pos:R:3 relative_energy_eV=-0.3415887389683121 branch=right pbc="F F F"
O        0.97485704      -0.56048820      -0.53935747
C       -0.48019151      -0.54080878      -0.55740884
C        0.28515060      -0.02424976       0.57340775
O        0.42065555       1.33648840       0.83392610
H        0.40353617       1.77196640      -0.00552554
H       -0.95738634      -1.51186982      -0.50149400
H       -0.91243917       0.14531375      -1.28967027
H        0.34488192      -0.60134266       1.48923963
8
Properties=species:S:1:pos:R:3 relative_energy_eV=-0.3544495095275124 branch=right pbc="F F F"
O        0.96941428      -0.53645450      -0.54491296
C       -0.48637195      -0.54382544      -0.55658406
C        0.27248981      -0.02288000       0.57590430
O        0.38484633       1.33752620       0.85082727
H        0.46519396       1.77105703      -0.02275464
H       -0.94209738      -1.52682629      -0.50726277
H       -0.93381722       0.13898842      -1.28193606
H        0.34940644      -0.60257609       1.48983625
8
Properties=species:S:1:pos:R:3 relative_energy_eV=-0.3578544735428295 branch=right pbc="F F F"
O        0.96304021      -0.56513817      -0.54125128
C       -0.48407459      -0.54177871      -0.55742631
C        0.27812822      -0.02134446       0.56857911
O        0.42226211       1.32507775       0.84351046
H        0.41363729       1.79677026      -0.00130432
H       -0.95050604      -1.51992621      -0.50513069
H       -0.91048505       0.13597347      -1.29044441
H        0.34706210      -0.59462462       1.48658481
8
Properties=species:S:1:pos:R:3 relative_energy_eV=-0.36050464898926293 branch=right pbc="F F F"
O        0.96682185      -0.55424721      -0.54238313
C       -0.48273504      -0.54293980      -0.55808511
C        0.27609104      -0.02288846       0.57123544
O        0.40679298       1.32850645       0.84280781
H        0.43106108       1.78490547      -0.00930462
H       -0.94937623      -1.52013553      -0.50499673
H       -0.91851585       0.13906707      -1.28503473
H        0.34892444      -0.59725870       1.48887844
8
Properties=species:S:1:pos:R:3 relative_energy_eV=-0.3622366593162951 branch=right pbc="F F F"
O        0.96852957      -0.54164507      -0.54390288
C       -0.48195920      -0.54384571      -0.55838839
C        0.27227842      -0.02355742       0.57320795
O        0.38783859       1.33002419       0.84241491
H        0.45495615       1.77426294      -0.01795329
H       -0.94548181      -1.52216513      -0.50562420
H       -0.92803057       0.14111685      -1.27708951
H        0.35093312      -0.59918133       1.49045275
8
Properties=species:S:1:pos:R:3 relative_energy_eV=-0.3635486175517144 branch=right pbc="F F F"
O        0.96856849      -0.53669583      -0.54473101
C       -0.48094441      -0.54451043      -0.55880541
C        0.27011021      -0.02377203       0.57327410
O        0.37903474       1.32926299       0.84005896
H        0.46533200       1.76995253      -0.02041654
H       -0.94359376      -1.52294711      -0.50574804
H       -0.93144827       0.14254835      -1.27148094
H        0.35200526      -0.59882917       1.49096623
8
Properties=species:S:1:pos:R:3 relative_energy_eV=-0.36561463733050914 branch=right pbc="F F F"
O        0.96696758      -0.53043231      -0.54655738
C       -0.47983554      -0.54667935      -0.55964834
C        0.26613234      -0.02339718       0.57176473
O        0.36641134       1.32704836       0.83485124
H        0.48189586       1.76639425      -0.02048524
H       -0.93977806      -1.52615718      -0.50621174
H       -0.93589874       0.14417082      -1.26128013
H        0.35316947      -0.59593811       1.49068420
8
Properties=species:S:1:pos:R:3 relative_energy_eV=-0.3666779731011047 branch=right pbc="F F F"
O        0.96527341      -0.52453053      -0.54840106
C       -0.48088951      -0.54879286      -0.55951397
C        0.26308510      -0.02246733       0.57088694
O        0.35591003       1.32785215       0.83321156
H        0.49841811       1.76395017      -0.02031822
H       -0.93554274      -1.53102065      -0.50747533
H       -0.94093319       0.14403673      -1.25498378
H        0.35374305      -0.59401839       1.48971122
8
Properties=species:S:1:pos:R:3 relative_energy_eV=-0.36855090521930833 branch=right pbc="F F F"
O        0.96122229      -0.51633387      -0.55216001
C       -0.48438931      -0.55367725      -0.55875501
C        0.25842431      -0.02002628       0.56859853
O        0.34023461       1.33136122       0.83047054
H        0.52628155       1.76269121      -0.01548282
H       -0.92801164      -1.54211296      -0.51047741
H       -0.94915582       0.14232866      -1.24599917
H        0.35445825      -0.58922147       1.48692268
8
Properties=species:S:1:pos:R:3 relative_energy_eV=-0.369459496860145 branch=right pbc="F F F"
O        0.95910730      -0.51092776      -0.55421311
C       -0.48756154      -0.55648175      -0.55761431
C        0.25610121      -0.01825187       0.56808843
O        0.33096028       1.33555426       0.82994528
H        0.54382808       1.76174133      -0.01232957
H       -0.92353675      -1.54920110      -0.51283339
H       -0.95519452       0.14006038      -1.24321643
H        0.35536017      -0.58748422       1.48529046
8
Properties=species:S:1:pos:R:3 relative_energy_eV=-0.3698649043790283 branch=right pbc="F F F"
O        0.95753687      -0.51069085      -0.55496264
C       -0.49005398      -0.55788708      -0.55657833
C        0.25581067      -0.01707356       0.56790821
O        0.32965672       1.33893495       0.82961551
H        0.54925021       1.76397731      -0.00737883
H       -0.92202632      -1.55283082      -0.51455595
H       -0.95757743       0.13707849      -1.24537027
H        0.35646749      -0.58649918       1.48443967
8
Properties=species:S:1:pos:R:3 relative_energy_eV=-0.37016076622694527 branch=right pbc="F F F"
O        0.95665550      -0.50506523      -0.55583443
C       -0.49183127      -0.55865109      -0.55572367
C        0.25375121      -0.01624530       0.56880788
O        0.32128914       1.34167328       0.82928427
H        0.56358509       1.76160010      -0.00739719
H       -0.91845925      -1.55614977      -0.51619506
H       -0.96383762       0.13491257      -1.24426921
H        0.35791143      -0.58706530       1.48444477
8
Properties=species:S:1:pos:R:3 relative_energy_eV=-0.37039062409530743 branch=right pbc="F F F"
O        0.95677774      -0.50581062      -0.55533092
C       -0.49127145      -0.55784656      -0.55600664
C        0.25388228      -0.01659224       0.56916373
O        0.32256371       1.34080674       0.82895468
H        0.56153744       1.76219141      -0.00738403
H       -0.91876373      -1.55450462      -0.51597232
H       -0.96388787       0.13431915      -1.24545819
H        0.35822612      -0.58755400       1.48515105
8
Properties=species:S:1:pos:R:3 relative_energy_eV=-0.3706235678109806 branch=right pbc="F F F"
O        0.95592747      -0.50457134      -0.55517475
C       -0.49128324      -0.55704555      -0.55630425
C        0.25283839      -0.01658736       0.56984028
O        0.32059192       1.34056747       0.82770457
H        0.56607500       1.76280090      -0.00585944
H       -0.91687097      -1.55385374      -0.51652009
H       -0.96767414       0.13156160      -1.24684224
H        0.35945979      -0.58786273       1.48627327
8
Properties=species:S:1:pos:R:3 relative_energy_eV=-0.3706521974572752 branch=right pbc="F F F"
O        0.95546662      -0.50359105      -0.55548041
C       -0.49155961      -0.55729435      -0.55642578
C        0.25226510      -0.01629091       0.56973983
O        0.31913883       1.34088939       0.82735131
H        0.56922281       1.76269936      -0.00489147
H       -0.91585531      -1.55458493      -0.51673849
H       -0.96928217       0.13064335      -1.24665610
H        0.35966796      -0.58746160       1.48621847
8
Properties=species:S:1:pos:R:3 relative_energy_eV=-0.37070098830190545 branch=right pbc="F F F"
O        0.95471632      -0.50149066      -0.55616354
C       -0.49203187      -0.55782686      -0.55673913
C        0.25117066      -0.01567076       0.56941796
O        0.31653946       1.34155185       0.82692320
H        0.57494944       1.76195480      -0.00323344
H       -0.91406186      -1.55606434      -0.51683493
H       -0.97202966       0.12918073      -1.24616016
H        0.35981175      -0.58662550       1.48590741
8
Properties=species:S:1:pos:R:3 relative_energy_eV=-0.3707231279231564 branch=right pbc="F F F"
O        0.95439740      -0.50014761      -0.55657716
C       -0.49223066      -0.55804012      -0.55699899
C        0.25056184      -0.01528187       0.56920962
O        0.31548386       1.34188517       0.82695862
H        0.57765780       1.76115346      -0.00239176
H       -0.91321889      -1.55671006      -0.51653308
H       -0.97331419       0.12836016      -1.24615331
H        0.35972708      -0.58620987       1.48560341
8
Properties=species:S:1:pos:R:3 relative_energy_eV=-0.3707452239896156 branch=right pbc="F F F"
O        0.95423968      -0.49895114      -0.55693820
C       -0.49232119      -0.55802031      -0.55726535
C        0.25011738      -0.01496223       0.56905804
O        0.31528006       1.34204362       0.82738841
H        0.57903202       1.76022746      -0.00186604
H       -0.91275027      -1.55692331      -0.51584645
H       -0.97397941       0.12762852      -1.24667217
H        0.35944596      -0.58603335       1.48525913
8
Properties=species:S:1:pos:R:3 relative_energy_eV=-0.3707490891665657 branch=right pbc="F F F"
O        0.95426938      -0.49866408      -0.55707139
C       -0.49229688      -0.55783077      -0.55736228
C        0.25010700      -0.01489729       0.56903138
O        0.31592733       1.34193443       0.82791996
H        0.57848032       1.75995338      -0.00183356
H       -0.91286633      -1.55664997      -0.51525879
H       -0.97372443       0.12731651      -1.24740559
H        0.35916783      -0.58615292       1.48509764
8
Properties=species:S:1:pos:R:3 relative_energy_eV=-0.37075708915836003 branch=right pbc="F F F"
O        0.95432906      -0.49882868      -0.55713113
C       -0.49225840      -0.55764971      -0.55736747
C        0.25028247      -0.01494484       0.56902764
O        0.31670002       1.34174229       0.82834433
H        0.57743507       1.76016181      -0.00189105
H       -0.91313997      -1.55631694      -0.51485138
H       -0.97322320       0.12717823      -1.24806513
H        0.35893917      -0.58633289       1.48505156
