8
Properties=species:S:1:pos:R:3 relative_energy_eV=0.0 branch=left pbc="F F F"
O        0.93434439      -0.35830589      -0.69768088
C       -0.48798900      -0.56833453      -0.52811611
C        0.33519277      -0.01796559       0.53662555
O        0.30234167       1.32038724       0.88321277
H        0.41669761       1.81351262       0.06094426
H       -0.80095776      -1.60649711      -0.50567677
H       -1.11666663       0.10110172      -1.10608251
H        0.61304088      -0.62860050       1.38958152
8
Properties=species:S:1:pos:R:3 relative_energy_eV=6.582452442671638e-06 branch=left pbc="F F F"
O        0.93461922      -0.35878980      -0.69763664
C       -0.48785535      -0.56812277      -0.52805449
C        0.33571458      -0.01802943       0.53656853
O        0.30346834       1.32027771       0.88349765
H        0.41494208       1.81379828       0.06082506
H       -0.80118577      -1.60636918      -0.50576614
H       -1.11653361       0.10135832      -1.10645146
H        0.61283445      -0.62882517       1.38982533
8
Properties=species:S:1:pos:R:3 relative_energy_eV=3.704484515765216e-05 branch=left pbc="F F F"
O        0.93451504      -0.35815838      -0.69750362
C       -0.48784108      -0.56849366      -0.52812139
C        0.33616128      -0.01785981       0.53648827
O        0.30325308       1.32050964       0.88308198
H        0.41579578       1.81352228       0.06095490
H       -0.80118338      -1.60707462      -0.50666696
H       -1.11723109       0.10134603      -1.10589222
H        0.61253431      -0.62849353       1.39046687
8
Properties=species:S:1:pos:R:3 relative_energy_eV=0.0001242094340341282 branch=left pbc="F F F"
O        0.93497406      -0.35782169      -0.69669199
C       -0.48736477      -0.56894326      -0.52805441
C        0.33697603      -0.01823965       0.53697063
O        0.30290625       1.32035386       0.88221540
H        0.41453092       1.81243399       0.05900906
H       -0.80152921      -1.60766008      -0.50987990
H       -1.11705555       0.10320177      -1.10279314
H        0.61256620      -0.62802699       1.39203218
8
Properties=species:S:1:pos:R:3 relative_energy_eV=0.00027640224561764626 branch=left pbc="F F F"
O        0.93485477      -0.35655487      -0.69602555
C       -0.48712568      -0.56977768      -0.52788393
C        0.33640830      -0.01849255       0.53766205
O        0.29988673       1.32065824       0.88051156
H        0.41760574       1.81059990       0.05711378
H       -0.80099365      -1.60852126      -0.51317615
H       -1.11742778       0.10450990      -1.09845965
H        0.61279552      -0.62712374       1.39306573
8
Properties=species:S:1:pos:R:3 relative_energy_eV=0.00043269396155665163 branch=left pbc="F F F"
O        0.93481663      -0.35589858      -0.69554188
C       -0.48690762      -0.57018239      -0.52749130
C        0.33533718      -0.01882832       0.53845013
O        0.29719329       1.32094938       0.87920909
H        0.42019417       1.80882616       0.05504631
H       -0.80009434      -1.60877458      -0.51574713
H       -1.11757772       0.10573058      -1.09472129
H        0.61304236      -0.62652433       1.39360391
8
Properties=species:S:1:pos:R:3 relative_energy_eV=0.0005438664911707747 branch=left pbc="F F F"
O        0.93458859      -0.35545141      -0.69545694
C       -0.48694750      -0.57029286      -0.52705458
C        0.33408930      -0.01895997       0.53897386
O        0.29475634       1.32139255       0.87828645
H        0.42346801       1.80756978       0.05398844
H       -0.79896997      -1.60888128      -0.51692421
H       -1.11815594       0.10603298      -1.09263077
H        0.61317511      -0.62611185       1.39362561
8
Properties=species:S:1:pos:R:3 relative_energy_eV=0.0006652953679804341 branch=left pbc="F F F"
O        0.93431832      -0.35524984      -0.69549404
C       -0.48718075      -0.57009975      -0.52650867
C        0.33275035      -0.01904388       0.53947701
O        0.29271543       1.32186537       0.87775037
H        0.42680949       1.80616886       0.05303917
H       -0.79738364      -1.60884312      -0.51776485
H       -1.11928770       0.10610214      -1.09143251
H        0.61326243      -0.62560186       1.39374138
8
Properties=species:S:1:pos:R:3 relative_energy_eV=0.0008249920920206932 branch=left pbc="F F F"
O        0.93378640      -0.35497707      -0.69569235
C       -0.48789133      -0.56971260      -0.52595202
C        0.33140691      -0.01907421       0.53982624
O        0.28980892       1.32235789       0.87713668
H        0.43218434       1.80481431       0.05281407
H       -0.79539958      -1.60912216      -0.51824799
H       -1.12156278       0.10561638      -1.09120453
H        0.61367104      -0.62460460       1.39412779
8
Properties=species:S:1:pos:R:3 relative_energy_eV=0.001187262851090054 branch=left pbc="F F F"
O        0.93255527      -0.35375586      -0.69586311
C       -0.48958245      -0.56944508      -0.52581737
C        0.33005367      -0.01896546       0.53998871
O        0.28546839       1.32250493       0.87672601
H        0.44110190       1.80272556       0.05329373
H       -0.79256547      -1.61023687      -0.51882601
H       -1.12595401       0.10452366      -1.09226154
H        0.61492663      -0.62205294       1.39556749
8
Properties=species:S:1:pos:R:3 relative_energy_eV=0.0015083311764101381 branch=left pbc="F F F"
O        0.93148295      -0.35236004      -0.69602567
C       -0.49091717      -0.56961914      -0.52616012
C        0.32973346      -0.01884572       0.53972319
O        0.28170130       1.32227738       0.87622267
H        0.44789512       1.80209668       0.05451453
H       -0.79150538      -1.61145938      -0.51859142
H       -1.12855651       0.10348157      -1.09326258
H        0.61617018      -0.62027341       1.39638730
8
Properties=species:S:1:pos:R:3 relative_energy_eV=0.0021508921063286834 branch=left pbc="F F F"
O        0.92976716      -0.34962465      -0.69591035
C       -0.49236651      -0.57029530      -0.52726658
C        0.33072214      -0.01881213       0.53929059
O        0.27806421       1.32091711       0.87685990
H        0.45244382       1.80086413       0.05457620
H       -0.79093319      -1.61280843      -0.51823487
H       -1.12950548       0.10356208      -1.09399370
H        0.61781180      -0.61850487       1.39748674
8
Properties=species:S:1:pos:R:3 relative_energy_eV=0.003527660425788781 branch=left pbc="F F F"
O        0.92424385      -0.34108516      -0.69817849
C       -0.49548067      -0.57351140      -0.52864491
C        0.32825776      -0.01632410       0.53710184
O        0.26361456       1.32355516       0.87341787
H        0.48017773       1.80058437       0.06258781
H       -0.78825125      -1.61743929      -0.51259408
H       -1.13430877       0.09594380      -1.09490593
H        0.61775074      -0.61642543       1.39402381
8
Properties=species:S:1:pos:R:3 relative_energy_eV=0.005861038644070504 branch=left pbc="F F F"
O        0.92236408      -0.33173448      -0.69739378
C       -0.49661947      -0.57511464      -0.52844675
C        0.32469249      -0.01541994       0.53820973
O        0.25466236       1.32594921       0.87338742
H        0.49837884       1.79873405       0.06050447
H       -0.78887645      -1.61947049      -0.50922567
H       -1.13667356       0.09033595      -1.09547169
H        0.61807565      -0.61798168       1.39124423
8
Properties=species:S:1:pos:R:3 relative_energy_eV=0.00834642269910546 branch=left pbc="F F F"
O        0.91776675      -0.32179569      -0.69986712
C       -0.49850369      -0.57796182      -0.52815136
C        0.31666243      -0.01114784       0.53733256
O        0.24306412       1.33300360       0.87019667
H        0.53065507       1.79615678       0.06755359
H       -0.78414753      -1.62400087      -0.50369671
H       -1.14412162       0.07855677      -1.09603167
H        0.61462839      -0.61751290       1.38547205
8
Properties=species:S:1:pos:R:3 relative_energy_eV=0.011155779975524638 branch=left pbc="F F F"
O        0.91804428      -0.31634582      -0.70002997
C       -0.49813383      -0.57921994      -0.52692560
C        0.30927108      -0.00951406       0.53906067
O        0.23873500       1.33667717       0.86808855
H        0.54813983       1.79636830       0.06931433
H       -0.78520304      -1.62602825      -0.50217712
H       -1.14973352       0.07100957      -1.09806541
H        0.61488411      -0.61764892       1.38354261
8
Properties=species:S:1:pos:R:3 relative_energy_eV=0.014549382212862838 branch=left pbc="F F F"
O        0.91641861      -0.31273822      -0.70255519
C       -0.49851926      -0.58243320      -0.52646068
C        0.30129289      -0.00655957       0.53842364
O        0.23166115       1.34072048       0.86252339
H        0.57201483       1.79913852       0.08041846
H       -0.78497669      -1.62991686      -0.49955202
H       -1.15759984       0.06159419      -1.10095243
H        0.61571222      -0.61450726       1.38096293
8
Properties=species:S:1:pos:R:3 relative_energy_eV=0.019269483142124955 branch=left pbc="F F F"
O        0.91645375      -0.31449784      -0.70479537
C       -0.49905797      -0.58568945      -0.52637568
C        0.29796298      -0.00600156       0.53665281
O        0.22428872       1.34118385       0.85451770
H        0.58813187       1.80757187       0.09459335
H       -0.78925544      -1.63276834      -0.49745917
H       -1.16278100       0.05595943      -1.10449691
H        0.62026098      -0.61045987       1.38017139
8
Properties=species:S:1:pos:R:3 relative_energy_eV=0.02877968165648781 branch=left pbc="F F F"
O        0.91792991      -0.32004218      -0.70802518
C       -0.49538656      -0.57846778      -0.51954369
C        0.30261000      -0.00267851       0.54134725
O        0.21681383       1.35011404       0.86615854
H        0.57469780       1.79678125       0.06921947
H       -0.78008533      -1.62671780      -0.49150307
H       -1.14931293       0.06748980      -1.09355656
H        0.60873720      -0.63118072       1.36871137
8
Properties=species:S:1:pos:R:3 relative_energy_eV=0.04092271374975098 branch=left pbc="F F F"
O        0.90115107      -0.32270695      -0.72592263
C       -0.50420348      -0.59085856      -0.52388457
C        0.29940020       0.00672803       0.52260704
O        0.17634851       1.35981534       0.83854859
H        0.64956496       1.81367818       0.13332409
H       -0.76862976      -1.64144819      -0.47135190
H       -1.16363410       0.04674481      -1.09447490
H        0.60600652      -0.61665453       1.35396241
8
Properties=species:S:1:pos:R:3 relative_energy_eV=0.05480460573471646 branch=left pbc="F F F"
O        0.89237850      -0.32373327      -0.73507462
C       -0.50837202      -0.59768999      -0.52818521
C        0.29897804       0.01044913       0.51153759
O        0.15440335       1.36141641       0.82372427
H        0.68578545       1.82345707       0.16571967
H       -0.76229653      -1.64869570      -0.45816847
H       -1.16940323       0.03973819      -1.09372421
H        0.60453038      -0.60964370       1.34697913
8
Properties=species:S:1:pos:R:3 relative_energy_eV=0.06317922904509032 branch=left pbc="F F F"
O        0.89521384      -0.32685119      -0.73513685
C       -0.50516702      -0.59544032      -0.52936908
C        0.30330858       0.00795876       0.51167442
O        0.14955468       1.35517584       0.82783866
H        0.67273415       1.82468281       0.15144382
H       -0.76154414      -1.64472482      -0.45102533
H       -1.16017821       0.05349161      -1.08782606
H        0.60208207      -0.61899454       1.34520854
8
Properties=species:S:1:pos:R:3 relative_energy_eV=0.06612872014284221 branch=left pbc="F F F"
O        0.88128991      -0.32175877      -0.74464754
C       -0.51579755      -0.60988399      -0.53570674
C        0.29396934       0.01404808       0.49644068
O        0.13333785       1.36144025       0.79783896
H        0.74160342       1.84107302       0.22207233
H       -0.76044393      -1.66173039      -0.44705595
H       -1.18705135       0.02050695      -1.10062828
H        0.60909624      -0.58839696       1.34449470
8
Properties=species:S:1:pos:R:3 relative_energy_eV=0.06964596769284981 branch=left pbc="F F F"
O        0.87380838      -0.31700932      -0.74869974
C       -0.52169202      -0.61725113      -0.53877083
C        0.28738334       0.01752904       0.48926367
O        0.12880174       1.36619230       0.78278242
H        0.77812679       1.84739020       0.25857993
H       -0.75915701      -1.67098866      -0.44716422
H       -1.20346298       0.00056653      -1.10844930
H        0.61219566      -0.57113077       1.34526623
8
Properties=species:S:1:pos:R:3 relative_energy_eV=0.07137711518862488 branch=left pbc="F F F"
O        0.87044359      -0.31398723      -0.75017148
C       -0.52452539      -0.62068379      -0.54008402
C        0.28311452       0.01921851       0.48627081
O        0.12826166       1.36879392       0.77657281
H        0.79606777       1.84985095       0.27505926
H       -0.75850157      -1.67555765      -0.44832689
H       -1.21239214      -0.01014150      -1.11273828
H        0.61353546      -0.56219500       1.34622596
8
Properties=species:S:1:pos:R:3 relative_energy_eV=0.07262064804126567 branch=left pbc="F F F"
O        0.86815630      -0.31182147      -0.75104738
C       -0.52662162      -0.62318178      -0.54042709
C        0.27923941       0.02076528       0.48462167
O        0.12908073       1.37173292       0.77356768
H        0.80896785       1.85090709       0.28622090
H       -0.75837636      -1.67904987      -0.45080076
H       -1.21920697      -0.01907082      -1.11629283
H        0.61476455      -0.55498314       1.34696598
8
Properties=species:S:1:pos:R:3 relative_energy_eV=0.07377313263987162 branch=left pbc="F F F"
O        0.86658502      -0.31150691      -0.75186279
C       -0.52840676      -0.62530437      -0.53979883
C        0.27645174       0.02236875       0.48381349
O        0.12946856       1.37487579       0.77269549
H        0.81839840       1.85217759       0.29505068
H       -0.75996265      -1.68203652      -0.45466936
H       -1.22371960      -0.02686669      -1.11956879
H        0.61718917      -0.54840941       1.34714829
8
Properties=species:S:1:pos:R:3 relative_energy_eV=0.07482760021957802 branch=left pbc="F F F"
O        0.86544081      -0.31278146      -0.75263893
C       -0.52983882      -0.62705974      -0.53859495
C        0.27542279       0.02392520       0.48362531
O        0.12918019       1.37799421       0.77316220
H        0.82350523       1.85332349       0.30169778
H       -0.76270401      -1.68431948      -0.45898720
H       -1.22544375      -0.03254610      -1.12210089
H        0.62044146      -0.54323791       1.34664484
8
Properties=species:S:1:pos:R:3 relative_energy_eV=0.0755560549441725 branch=left pbc="F F F"
O        0.86486038      -0.31477291      -0.75309960
C       -0.53068158      -0.62798288      -0.53753238
C        0.27615583       0.02491961       0.48390406
O        0.12801975       1.37967528       0.77401466
H        0.82456146       1.85459538       0.30519619
H       -0.76556689      -1.68546455      -0.46212857
H       -1.22482084      -0.03509785      -1.12345797
H        0.62347579      -0.54057389       1.34591176
8
Properties=species:S:1:pos:R:3 relative_energy_eV=0.07624401670454972 branch=left pbc="F F F"
O        0.86391984      -0.31640843      -0.75326267
C       -0.53149663      -0.62849443      -0.53663253
C        0.27782126       0.02601135       0.48460476
O        0.12678080       1.38120902       0.77480353
H        0.82423836       1.85507617       0.30749353
H       -0.76761036      -1.68610851      -0.46485178
H       -1.22357868      -0.03678922      -1.12430142
H        0.62592932      -0.53919777       1.34495470
8
Properties=species:S:1:pos:R:3 relative_energy_eV=0.07761326378022204 branch=left pbc="F F F"
O        0.86103178      -0.31552762      -0.75272998
C       -0.53322398      -0.62779181      -0.53572874
C        0.27996449       0.02824585       0.48654779
O        0.12572452       1.38341981       0.77514475
H        0.82679421       1.85330772       0.30891764
H       -0.76613501      -1.68633334      -0.46797306
H       -1.22429944      -0.04089131      -1.12524881
H        0.62614735      -0.53913112       1.34387853
8
Properties=species:S:1:pos:R:3 relative_energy_eV=0.08245667787559796 branch=left pbc="F F F"
O        0.85237001      -0.30290794      -0.75121660
C       -0.53758245      -0.62462878      -0.53512969
C        0.27789714       0.03391112       0.49047591
O        0.12981186       1.38970622       0.77324844
H        0.84328600       1.84129204       0.30889650
H       -0.74974279      -1.68586427      -0.47089205
H       -1.23582938      -0.05470929      -1.12681689
H        0.61579354      -0.54150091       1.34424252
8
Properties=species:S:1:pos:R:3 relative_energy_eV=0.09238184485639067 branch=left pbc="F F F"
O        0.84227047      -0.28189997      -0.74947959
C       -0.54214057      -0.62015814      -0.53515971
C        0.26862622       0.04032615       0.49358110
O        0.13867315       1.39743615       0.76961834
H        0.86950692       1.82332810       0.30692177
H       -0.72338718      -1.68554240      -0.47134107
H       -1.25587176      -0.07260762      -1.12873859
H        0.59832666      -0.54558406       1.34740591
8
Properties=species:S:1:pos:R:3 relative_energy_eV=0.10126818971730245 branch=left pbc="F F F"
O        0.83756194      -0.26701186      -0.74890358
C       -0.54390518      -0.61787469      -0.53543305
C        0.25866500       0.04376474       0.49405199
O        0.14645824       1.40237456       0.76697769
H        0.88809190       1.81121054       0.30491985
H       -0.70509929      -1.68591667      -0.46961325
H       -1.27135791      -0.08301719      -1.13015771
H        0.58558919      -0.54823118       1.35096626
8
Properties=species:S:1:pos:R:3 relative_energy_eV=0.1073169301953385 branch=left pbc="F F F"
O        0.83663496      -0.25920100      -0.74926960
C       -0.54352885      -0.61700602      -0.53582053
C        0.25056865       0.04509032       0.49298124
O        0.15135936       1.40453497       0.76639231
H        0.89880749       1.80498876       0.30320488
H       -0.69550744      -1.68725668      -0.46722280
H       -1.28061777      -0.08707353      -1.13086045
H        0.57828749      -0.54877854       1.35340317
8
Properties=species:S:1:pos:R:3 relative_energy_eV=0.11611999122760608 branch=left pbc="F F F"
O        0.83901606      -0.25170468      -0.75146056
C       -0.54235714      -0.61910526      -0.53670208
C        0.23986027       0.04734001       0.48857372
O        0.15900096       1.40648768       0.76903756
H        0.90992361       1.79693765       0.30117128
H       -0.68599261      -1.69114300      -0.46180582
H       -1.29012257      -0.08840258      -1.12956742
H        0.56667527      -0.54511151       1.35356159
8
Properties=species:S:1:pos:R:3 relative_energy_eV=0.1321789167004681 branch=left pbc="F F F"
O        0.83246759      -0.24076099      -0.76191353
C       -0.53585832      -0.62439554      -0.54616613
C        0.22768672       0.05002408       0.48463125
O        0.16911858       1.41031319       0.78145611
H        0.92261363       1.77952667       0.29887640
H       -0.67391601      -1.70178547      -0.45326444
H       -1.29525980      -0.08787580      -1.12400199
H        0.54915140      -0.52974776       1.35319066
8
Properties=species:S:1:pos:R:3 relative_energy_eV=0.14364818170633953 branch=left pbc="F F F"
O        0.83729044      -0.23572247      -0.76234383
C       -0.54147843      -0.62808281      -0.54772524
C        0.22623415       0.05677681       0.47654553
O        0.17597689       1.41166424       0.78859415
H        0.92824957       1.76945113       0.29832729
H       -0.66693154      -1.70850971      -0.44793848
H       -1.29649462      -0.08854604      -1.11674278
H        0.53315731      -0.52173275       1.34409174
8
Properties=species:S:1:pos:R:3 relative_energy_eV=0.17098460735996923 branch=left pbc="F F F"
O        0.82257622      -0.22783219      -0.77062407
C       -0.54010923      -0.63643379      -0.55930951
C        0.22898007       0.06316817       0.47787769
O        0.17965864       1.41544903       0.80253437
H        0.92813540       1.75176209       0.30004467
H       -0.65994081      -1.71632840      -0.44664382
H       -1.28759466      -0.08816762      -1.10920301
H        0.52429817      -0.50631891       1.33813203
8
Properties=species:S:1:pos:R:3 relative_energy_eV=0.2127025371282798 branch=left pbc="F F F"
O        0.81509336      -0.22224158      -0.77773293
C       -0.54342656      -0.63976241      -0.56250021
C        0.23900357       0.06679397       0.47951202
O        0.18270646       1.41369411       0.80826444
H        0.92843018       1.74210424       0.30109324
H       -0.65716887      -1.71850341      -0.44523607
H       -1.27939717      -0.09177447      -1.10274106
H        0.51076282      -0.49501204       1.33214893
8
Properties=species:S:1:pos:R:3 relative_energy_eV=0.3503042339998501 branch=left pbc="F F F"
O        0.82563033      -0.20818294      -0.83102596
C       -0.54464287      -0.62519618      -0.55581785
C        0.26504359       0.04175169       0.49012307
O        0.20612694       1.39650990       0.78406180
H        0.94937513       1.75009712       0.29595956
H       -0.66636126      -1.70397288      -0.42153040
H       -1.28581827      -0.11493642      -1.09899597
H        0.44665002      -0.48077147       1.37003461
8
Properties=species:S:1:pos:R:3 relative_energy_eV=0.5785972960002255 branch=left pbc="F F F"
O        0.85598239      -0.20350002      -0.86888540
C       -0.53988955      -0.60756616      -0.54707040
C        0.28029386       0.00717307       0.49484850
O        0.23159512       1.38461297       0.75058824
H        0.97986678       1.77304105       0.28516349
H       -0.67835501      -1.68601134      -0.38921977
H       -1.31724341      -0.13311985      -1.10290871
H        0.38375319      -0.47933039       1.41029353
8
Properties=species:S:1:pos:R:3 relative_energy_eV=0.7325219151089186 branch=left pbc="F F F"
O        0.89508817      -0.21239459      -0.86834109
C       -0.53905118      -0.59975925      -0.54271287
C        0.28243364      -0.01034165       0.48767687
O        0.24811675       1.38639855       0.72965737
H        1.00341957       1.79358864       0.27527777
H       -0.68343013      -1.67560803      -0.36422567
H       -1.35544895      -0.13828189      -1.10574998
H        0.34487528      -0.48830209       1.42122748
8
Properties=species:S:1:pos:R:3 relative_energy_eV=0.822027703529784 branch=left pbc="F F F"
O        0.93219852      -0.22726230      -0.84962135
C       -0.54326388      -0.59805045      -0.54211439
C        0.27882396      -0.01431577       0.47550395
O        0.25761266       1.39504474       0.72007192
H        1.01941182       1.80813731       0.26782584
H       -0.68325593      -1.67112074      -0.34727245
H       -1.38742224      -0.13721072      -1.10490276
H        0.32189811      -0.49992217       1.41331935
8
Properties=species:S:1:pos:R:3 relative_energy_eV=0.8998040794549524 branch=left pbc="F F F"
O        0.97263285      -0.24966599      -0.81739168
C       -0.55176291      -0.59847877      -0.54767937
C        0.27198245      -0.01147077       0.46086992
O        0.26566785       1.41144161       0.71563163
H        1.03331828       1.82080806       0.26083533
H       -0.67992020      -1.66977940      -0.33143939
H       -1.41956080      -0.13314007      -1.10026237
H        0.30364535      -0.51441461       1.39224624
8
Properties=species:S:1:pos:R:3 relative_energy_eV=0.9698938478841228 branch=left pbc="F F F"
O        1.00553385      -0.27200056      -0.78468429
C       -0.56338353      -0.59990837      -0.55946309
C        0.26774063      -0.00433733       0.45106808
O        0.27139428       1.42903331       0.71465306
H        1.04327202       1.82955426       0.25553632
H       -0.67577617      -1.67070004      -0.31892391
H       -1.44377336      -0.12916683      -1.09327579
H        0.29099507      -0.52717428       1.36790005
8
Properties=species:S:1:pos:R:3 relative_energy_eV=1.0277913284990063 branch=left pbc="F F F"
O        1.02305665      -0.28847834      -0.76179407
C       -0.57320466      -0.60236409      -0.57498497
C        0.26751349       0.00268431       0.45124958
O        0.27540118       1.44294034       0.71427617
H        1.04790319       1.83373614       0.25286745
H       -0.67287480      -1.67178116      -0.31113397
H       -1.45720297      -0.12660408      -1.08740454
H        0.28541066      -0.53483292       1.34973485
8
Properties=species:S:1:pos:R:3 relative_energy_eV=1.0481331440405484 branch=left pbc="F F F"
O        1.02688784      -0.29292317      -0.75571961
C       -0.57878172      -0.60333950      -0.58079854
C        0.26978353       0.00637565       0.45356966
O        0.27611012       1.44590586       0.71416569
H        1.04878593       1.83443812       0.25231800
H       -0.67196900      -1.67205981      -0.30943943
H       -1.45854803      -0.12673908      -1.08479368
H        0.28373409      -0.53635787       1.34350841
8
Properties=species:S:1:pos:R:3 relative_energy_eV=1.0982072839778994 branch=left pbc="F F F"
O        1.04360861      -0.29546796      -0.72824169
C       -0.59136571      -0.59666174      -0.54583500
C        0.27346587       0.01459640       0.43555239
O        0.28036788       1.43236683       0.71183976
H        1.04841747       1.83477447       0.25341455
H       -0.66874556      -1.67593202      -0.31180922
H       -1.45654986      -0.12923124      -1.07797057
H        0.26680401      -0.52914450       1.29586032
8
Properties=species:S:1:pos:R:3 relative_energy_eV=1.1684377359870268 branch=left pbc="F F F"
O        1.04943124      -0.29624476      -0.71528770
C       -0.60637947      -0.59271192      -0.53401124
C        0.28095400       0.02252017       0.43365979
O        0.28557725       1.42452728       0.70735714
H        1.04414645       1.83273199       0.25635025
H       -0.66700850      -1.67796916      -0.31364338
H       -1.44898802      -0.13355612      -1.07136170
H        0.25826974      -0.52399723       1.26974738
8
Properties=species:S:1:pos:R:3 relative_energy_eV=1.4909105158903913 branch=left pbc="F F F"
O        1.12890862      -0.27289787      -0.71118491
C       -0.66707937      -0.60036950      -0.46195986
C        0.31433683       0.05728313       0.34604060
O        0.29085430       1.41155944       0.70776707
H        1.04133802       1.83152802       0.26213889
H       -0.66162077      -1.68050727      -0.31147293
H       -1.44507343      -0.14091552      -1.05054975
H        0.19433833      -0.55038025       1.25203138
8
Properties=species:S:1:pos:R:3 relative_energy_eV=2.1282843648241396 branch=left pbc="F F F"
O        1.20025098      -0.25194606      -0.70736094
C       -0.72161259      -0.60728242      -0.39702734
C        0.34435856       0.08882034       0.26691141
O        0.29560760       1.39979123       0.70814285
H        1.03878408       1.83041069       0.26735386
H       -0.65678025      -1.68276097      -0.30957590
H       -1.44146889      -0.14753144      -1.03182889
H        0.13686304      -0.57420119       1.23619546
8
Properties=species:S:1:pos:R:3 relative_energy_eV=2.258536670167814 branch=left pbc="F F F"
O        1.21598769      -0.24730994      -0.70358835
C       -0.72856369      -0.60828931      -0.37585099
C        0.34663406       0.09594571       0.24169253
O        0.29585815       1.39468753       0.70939346
H        1.03917704       1.83048495       0.26787603
H       -0.65570810      -1.68332708      -0.30995825
H       -1.44242711      -0.14732430      -1.02992331
H        0.12504448      -0.57956738       1.23316940
8
Properties=species:S:1:pos:R:3 relative_energy_eV=2.38878394162748 branch=ts pbc="F F F"
O        1.23296137      -0.24145690      -0.69510497
C       -0.74748172      -0.61313500      -0.35221916
C        0.35231744       0.10353406       0.20883536
O        0.29646135       1.38953047       0.70967861
H        1.04662862       1.83182135       0.28081729
H       -0.64542236      -1.68601787      -0.34278649
H       -1.46835439      -0.14478627      -0.99571449
H        0.01195362      -0.62447817       1.18959916
8
Properties=species:S:1:pos:R:3 relative_energy_eV=2.3261889394780155 branch=right pbc="F F F"
O        1.24993504      -0.23560387      -0.68662158
C       -0.76639975      -0.61798069      -0.32858732
C        0.35800083       0.11112240       0.17597820
O        0.29706455       1.38437341       0.70996376
H        1.05408019       1.83315775       0.29375854
H       -0.63513663      -1.68870867      -0.37561473
H       -1.49428168      -0.14224823      -0.96150567
H       -0.10113725      -0.66938895       1.14602893
8
Properties=species:S:1:pos:R:3 relative_energy_eV=2.259921656717779 branch=right pbc="F F F"
O        1.26144974      -0.23051649      -0.67722783
C       -0.78216667      -0.62362911      -0.32306005
C        0.36473131       0.11595272       0.15808648
O        0.29751594       1.37975648       0.70907665
H        1.05418004       1.83289782       0.29480311
H       -0.63559378      -1.68809254      -0.37836753
H       -1.49626754      -0.14199881      -0.95942015
H       -0.10172373      -0.66964691       1.14950945
8
Properties=species:S:1:pos:R:3 relative_energy_eV=2.011570753333217 branch=right pbc="F F F"
O        1.32738002      -0.20416434      -0.63267171
C       -0.85210895      -0.64803814      -0.27939165
C        0.39085485       0.13852306       0.06423479
O        0.30152277       1.35750021       0.70248003
H        1.05417382       1.83219768       0.30104299
H       -0.63835572      -1.68716971      -0.39372733
H       -1.50985735      -0.14000700      -0.95063804
H       -0.11148416      -0.67411861       1.16207106
8
Properties=species:S:1:pos:R:3 relative_energy_eV=1.8639031688589967 branch=right pbc="F F F"
O        1.40034356      -0.18229448      -0.59779665
C       -0.90092915      -0.66188321      -0.23386137
C        0.39894684       0.16251637      -0.01415125
O        0.30651310       1.33173221       0.68827804
H        1.05476366       1.83464294       0.30966906
H       -0.64274289      -1.68797274      -0.41044059
H       -1.52464721      -0.14104495      -0.93871258
H       -0.13012265      -0.68097299       1.17041548
8
Properties=species:S:1:pos:R:3 relative_energy_eV=1.5319143839424214 branch=right pbc="F F F"
O        1.47683814      -0.15427401      -0.55185101
C       -0.92193200      -0.66537411      -0.17907164
C        0.40757917       0.18274622      -0.11170244
O        0.31087003       1.29712960       0.66097818
H        1.05603696       1.83968877       0.32471849
H       -0.65096087      -1.68712500      -0.43275600
H       -1.54636852      -0.14603925      -0.91565943
H       -0.16993769      -0.69202911       1.17874404
8
Properties=species:S:1:pos:R:3 relative_energy_eV=1.4097765151263957 branch=right pbc="F F F"
O        1.55171264      -0.12683567      -0.50710853
C       -0.93768842      -0.66895567      -0.12514515
C        0.41785195       0.20313922      -0.20906052
O        0.31411131       1.26345537       0.63283842
H        1.05704966       1.84399386       0.34025436
H       -0.65952061      -1.68495617      -0.45469173
H       -1.56767162      -0.15120370      -0.89023840
H       -0.21371977      -0.70391418       1.18655176
8
Properties=species:S:1:pos:R:3 relative_energy_eV=1.1316197300748172 branch=right pbc="F F F"
O        1.53870853      -0.13143595      -0.52057490
C       -0.90575982      -0.65296100      -0.13460242
C        0.40373117       0.18423342      -0.16952678
O        0.31561002       1.27063187       0.62586527
H        1.05711819       1.84766410       0.34275586
H       -0.66226103      -1.68854810      -0.45391413
H       -1.57145923      -0.15600226      -0.88955341
H       -0.21356269      -0.69885899       1.17295072
8
Properties=species:S:1:pos:R:3 relative_energy_eV=0.6751431047769074 branch=right pbc="F F F"
O        1.53916197      -0.12514924      -0.52696843
C       -0.83600814      -0.62287243      -0.11216359
C        0.40877028       0.14349038      -0.13685424
O        0.31177453       1.27730538       0.59401197
H        1.06066650       1.86055355       0.35721361
H       -0.67476541      -1.68996789      -0.46329390
H       -1.59843078      -0.17361163      -0.86511168
H       -0.24904387      -0.69502501       1.12656653
8
Properties=species:S:1:pos:R:3 relative_energy_eV=0.11305580503903911 branch=right pbc="F F F"
O        1.58335341      -0.11867144      -0.52370036
C       -0.78313684      -0.61999882      -0.06677744
C        0.44307094       0.13152649      -0.14597220
O        0.30320107       1.28287977       0.54850512
H        1.06305178       1.87282143       0.37951203
H       -0.68778064      -1.67877871      -0.47461039
H       -1.63417910      -0.19441585      -0.80956999
H       -0.32545562      -0.70063971       1.06601357
8
Properties=species:S:1:pos:R:3 relative_energy_eV=-0.2908014067688782 branch=right pbc="F F F"
O        1.62368407      -0.11627138      -0.52359901
C       -0.74420366      -0.62649350      -0.02859637
C        0.48048331       0.12548305      -0.15563648
O        0.29581351       1.29613581       0.50982151
H        1.06533263       1.88293451       0.39876584
H       -0.69508349      -1.66730511      -0.48200253
H       -1.65967885      -0.21355870      -0.75000794
H       -0.40422262      -0.70620148       1.00465538
8
Properties=species:S:1:pos:R:3 relative_energy_eV=-0.779982682625814 branch=right pbc="F F F"
O        1.65294842      -0.12649933      -0.54055044
C       -0.72794128      -0.64766258      -0.02981679
C        0.52447426       0.13860223      -0.16371375
O        0.28796600       1.32462000       0.48303292
H        1.06734255       1.88886417       0.41077721
H       -0.69160093      -1.65332316      -0.47863741
H       -1.66455797      -0.22811247      -0.68449630
H       -0.48650620      -0.72176561       0.97680498
8
Properties=species:S:1:pos:R:3 relative_energy_eV=-1.3278728409086398 branch=right pbc="F F F"
O        1.67918703      -0.13982646      -0.56421768
C       -0.71477812      -0.66242429      -0.06223537
C        0.56096672       0.15674875      -0.17315064
O        0.27923422       1.35285153       0.45626195
H        1.07449662       1.89782351       0.41995994
H       -0.67827615      -1.64497570      -0.47351487
H       -1.65472673      -0.24161607      -0.60318684
H       -0.58397876      -0.74385794       0.97348397
8
Properties=species:S:1:pos:R:3 relative_energy_eV=-1.6345842210894261 branch=right pbc="F F F"
O        1.69984408      -0.14296795      -0.57638283
C       -0.70118761      -0.66255566      -0.08315105
C        0.59125183       0.16911050      -0.18918133
O        0.27813692       1.37007811       0.42401715
H        1.08175395       1.90770611       0.43036073
H       -0.66310369      -1.64949667      -0.47832497
H       -1.64257241      -0.25393638      -0.52323862
H       -0.68199827      -0.76321465       0.96930142
8
Properties=species:S:1:pos:R:3 relative_energy_eV=-1.7837133085313326 branch=right pbc="F F F"
O        1.70243626      -0.14165330      -0.58539146
C       -0.68232516      -0.66453739      -0.10602689
C        0.60319909       0.18091939      -0.19834446
O        0.28842518       1.38160478       0.38966666
H        1.08957105       1.91672701       0.43761598
H       -0.63821299      -1.66125709      -0.48774406
H       -1.62313554      -0.25513893      -0.44985746
H       -0.77783314      -0.78194099       0.97348221
8
Properties=species:S:1:pos:R:3 relative_energy_eV=-1.835700699555673 branch=right pbc="F F F"
O        1.68899750      -0.13771054      -0.58406802
C       -0.67692018      -0.66879525      -0.10544712
C        0.59184692       0.18094310      -0.19759759
O        0.29370602       1.37951400       0.38229803
H        1.09517882       1.91792904       0.43589899
H       -0.62343698      -1.66846359      -0.49495404
H       -1.61429021      -0.24374342      -0.44130616
H       -0.79295713      -0.78494985       0.97857644
8
Properties=species:S:1:pos:R:3 relative_energy_eV=-1.910897172742807 branch=right pbc="F F F"
O        1.65129388      -0.13068261      -0.58233869
C       -0.67036802      -0.68146851      -0.09390774
C        0.55493931       0.17543838      -0.19055454
O        0.30122710       1.37991197       0.37397409
H        1.10870395       1.91362482       0.42583950
H       -0.58311561      -1.68236051      -0.51449467
H       -1.58868243      -0.20902650      -0.43688470
H       -0.81187345      -0.79071355       0.99176729
8
Properties=species:S:1:pos:R:3 relative_energy_eV=-1.9339608678410514 branch=right pbc="F F F"
O        1.63806933      -0.13159517      -0.58603079
C       -0.67153129      -0.68670252      -0.08451326
C        0.54542934       0.17350949      -0.18434590
O        0.29671514       1.38543238       0.37345719
H        1.11520382       1.90840058       0.41911904
H       -0.56562318      -1.68293627      -0.52209885
H       -1.57660027      -0.19609348      -0.43744923
H       -0.81953816      -0.79529152       0.99526236
8
Properties=species:S:1:pos:R:3 relative_energy_eV=-1.9674678011733704 branch=right pbc="F F F"
O        1.61788259      -0.13684237      -0.59834563
C       -0.67579455      -0.69714092      -0.06352527
C        0.53325551       0.17361622      -0.16867128
O        0.28562421       1.40176240       0.37301483
H        1.12482986       1.89228064       0.40278348
H       -0.53097011      -1.67499255      -0.53524160
H       -1.55238803      -0.17409186      -0.43896132
H       -0.84031475      -0.80986806       1.00234733
8
Properties=species:S:1:pos:R:3 relative_energy_eV=-1.9783824096793978 branch=right pbc="F F F"
O        1.61370923      -0.13840886      -0.60396990
C       -0.67754851      -0.69811062      -0.05552780
C        0.53493845       0.17532760      -0.16234027
O        0.28177328       1.40715835       0.37217150
H        1.12680313       1.88477136       0.39523039
H       -0.52039571      -1.66553699      -0.53759092
H       -1.54536600      -0.17045656      -0.44052977
H       -0.85178914      -0.82002076       1.00595732
8
Properties=species:S:1:pos:R:3 relative_energy_eV=-1.9908342597873343 branch=right pbc="F F F"
O        1.61221104      -0.13816570      -0.61031415
C       -0.67786308      -0.69560116      -0.04510478
C        0.53777860       0.17791417      -0.15451320
O        0.27950744       1.41052828       0.37004939
H        1.12856393       1.87508549       0.38377597
H       -0.50910985      -1.64713718      -0.53868711
H       -1.53897231      -0.16954669      -0.44456970
H       -0.86999105      -0.83835369       1.01276414
8
Properties=species:S:1:pos:R:3 relative_energy_eV=-1.9976850627945169 branch=right pbc="F F F"
O        1.61106222      -0.13501604      -0.61188020
C       -0.67743953      -0.69025051      -0.03755618
C        0.53966118       0.17820626      -0.15039791
O        0.28094420       1.40912427       0.36924799
H        1.13010088       1.87044392       0.37476532
H       -0.50391610      -1.63314959      -0.53863287
H       -1.53706197      -0.17132427      -0.45052937
H       -0.88122615      -0.85331050       1.01838378
8
Properties=species:S:1:pos:R:3 relative_energy_eV=-2.0009865629563137 branch=right pbc="F F F"
O        1.61081645      -0.13197708      -0.61125660
C       -0.67586072      -0.68607344      -0.03392040
C        0.53837190       0.17793112      -0.14796013
O        0.28414492       1.40639918       0.36988426
H        1.13221507       1.87081645       0.36874130
H       -0.50280711      -1.62577149      -0.53843315
H       -1.53750261      -0.17377308      -0.45488389
H       -0.88725318      -0.86282812       1.02122917
8
Properties=species:S:1:pos:R:3 relative_energy_eV=-2.0025892004141497 branch=right pbc="F F F"
O        1.60973957      -0.13013041      -0.60965826
C       -0.67552293      -0.68414575      -0.03323129
C        0.53753723       0.17749531      -0.14703481
O        0.28778171       1.40525827       0.37240303
H        1.13375351       1.87385464       0.36541051
H       -0.50422910      -1.62489638      -0.53830760
H       -1.53878460      -0.17608239      -0.45750937
H       -0.88815067      -0.86662976       1.02132836
8
Properties=species:S:1:pos:R:3 relative_energy_eV=-2.004611872059286 branch=right pbc="F F F"
O        1.60814344      -0.12874608      -0.60824802
C       -0.67526098      -0.68337484      -0.03285850
C        0.53595322       0.17813709      -0.14445549
O        0.29296019       1.40539299       0.37754562
H        1.13717075       1.87978887       0.35968960
H       -0.50590521      -1.62529519      -0.53868284
H       -1.54018838      -0.17930023      -0.45987880
H       -0.89074833      -0.87187907       1.02028901
8
Properties=species:S:1:pos:R:3 relative_energy_eV=-2.0072137119650506 branch=right pbc="F F F"
O        1.60469207      -0.12767800      -0.60711835
C       -0.67625031      -0.68399598      -0.03193080
C        0.53484372       0.18006943      -0.13944573
O        0.30105685       1.40817726       0.38707944
H        1.14240121       1.88859240       0.34933911
H       -0.50698289      -1.62651185      -0.53993921
H       -1.54145245      -0.18367416      -0.46285016
H       -0.89618349      -0.88025557       1.01826629
8
Properties=species:S:1:pos:R:3 relative_energy_eV=-2.009072031265532 branch=right pbc="F F F"
O        1.60165442      -0.12781488      -0.60762584
C       -0.67783534      -0.68607415      -0.03045146
C        0.53466487       0.18289875      -0.13359035
O        0.30747572       1.41224942       0.39635649
H        1.14720875       1.89539662       0.33844648
H       -0.50563125      -1.62682606      -0.54177369
H       -1.54170429      -0.18672364      -0.46437341
H       -0.90370818      -0.88838251       1.01641236
8
Properties=species:S:1:pos:R:3 relative_energy_eV=-2.0097712451452026 branch=right pbc="F F F"
O        1.60042962      -0.12837228      -0.60858674
C       -0.67917415      -0.68767742      -0.02956447
C        0.53555508       0.18430027      -0.13067008
O        0.30968919       1.41454077       0.40066365
H        1.14839116       1.89680224       0.33304854
H       -0.50331789      -1.62632630      -0.54293771
H       -1.54155642      -0.18720135      -0.46425584
H       -0.90789189      -0.89134238       1.01570323
8
Properties=species:S:1:pos:R:3 relative_energy_eV=-2.010052022000309 branch=right pbc="F F F"
O        1.60039208      -0.12867432      -0.60919870
C       -0.67978247      -0.68822477      -0.02926334
C        0.53619849       0.18458566      -0.12947850
O        0.30974017       1.41461329       0.40235507
H        1.14825280       1.89629651       0.33066674
H       -0.50136296      -1.62543313      -0.54349335
H       -1.54169579      -0.18682320      -0.46376394
H       -0.90961759      -0.89161648       1.01557660
8
Properties=species:S:1:pos:R:3 relative_energy_eV=-2.010355984398302 branch=right pbc="F F F"
O        1.60056205      -0.12875819      -0.60948731
C       -0.68042033      -0.68839150      -0.02939769
C        0.53678511       0.18427870      -0.12839392
O        0.30987206       1.41356332       0.40476750
H        1.14741447       1.89543595       0.32772494
H       -0.49890975      -1.62432941      -0.54408677
H       -1.54239952      -0.18625888      -0.46313307
H       -0.91077936      -0.89081643       1.01540692
8
Properties=species:S:1:pos:R:3 relative_energy_eV=-2.0106878855722243 branch=right pbc="F F F"
O        1.60076947      -0.12855639      -0.60925460
C       -0.68101540      -0.68805453      -0.03002625
C        0.53703967       0.18346697      -0.12707389
O        0.31059831       1.41113320       0.40886387
H        1.14620200       1.89493680       0.32330766
H       -0.49609656      -1.62307871      -0.54479793
H       -1.54384224      -0.18585821      -0.46260955
H       -0.91153051      -0.88926558       1.01499129
8
Properties=species:S:1:pos:R:3 relative_energy_eV=-2.0108766103858216 branch=right pbc="F F F"
O        1.60079635      -0.12822782      -0.60853409
C       -0.68113399      -0.68739151      -0.03086983
C        0.53675595       0.18261505      -0.12640488
O        0.31173584       1.40880025       0.41241414
H        1.14511113       1.89515626       0.32000805
H       -0.49477927      -1.62256288      -0.54519894
H       -1.54509416      -0.18592405      -0.46252002
H       -0.91126710      -0.88774175       1.01450616
8
Properties=species:S:1:pos:R:3 relative_energy_eV=-2.0109331226931317 branch=right pbc="F F F"
O        1.60065227      -0.12811433      -0.60804602
C       -0.68088149      -0.68696565      -0.03122943
C        0.53638255       0.18233997      -0.12636597
O        0.31237781       1.40786526       0.41383823
H        1.14475465       1.89567813       0.31895939
H       -0.49499554      -1.62264161      -0.54525339
H       -1.54536238      -0.18621147      -0.46274963
H       -0.91080312      -0.88722674       1.01424740
8
Properties=species:S:1:pos:R:3 relative_energy_eV=-2.010948788449241 branch=right pbc="F F F"
O        1.60052058      -0.12817772      -0.60790562
C       -0.68061391      -0.68683426      -0.03127662
C        0.53621009       0.18232682      -0.12650019
O        0.31254433       1.40767514       0.41420411
H        1.14459024       1.89594301       0.31884794
H       -0.49543535      -1.62277361      -0.54523430
H       -1.54511609      -0.18634126      -0.46290882
H       -0.91057513      -0.88709457       1.01417408
8
Properties=species:S:1:pos:R:3 relative_energy_eV=-2.0109614872762904 branch=right pbc="F F F"
O        1.60037426      -0.12832916      -0.60792053
C       -0.68030906      -0.68679879      -0.03120040
C        0.53613574       0.18235726      -0.12659535
O        0.31256429       1.40753607       0.41459926
H        1.14435643       1.89615051       0.31868466
H       -0.49586772      -1.62283287      -0.54525208
H       -1.54460610      -0.18636706      -0.46306636
H       -0.91052309      -0.88699241       1.01415139
8
Properties=species:S:1:pos:R:3 relative_energy_eV=-2.010976084072354 branch=right pbc="F F F"
O        1.60027604      -0.12851637      -0.60810424
C       -0.68000133      -0.68686278      -0.03105313
C        0.53619392       0.18233640      -0.12663331
O        0.31247755       1.40733780       0.41508086
H        1.14392797       1.89626736       0.31842027
H       -0.49622683      -1.62282530      -0.54531472
H       -1.54388674      -0.18622101      -0.46318722
H       -0.91063583      -0.88679253       1.01419208
8
Properties=species:S:1:pos:R:3 relative_energy_eV=-2.010986136622705 branch=right pbc="F F F"
O        1.60027901      -0.12862452      -0.60842388
C       -0.67979276      -0.68700125      -0.03087164
C        0.53639431       0.18222510      -0.12654609
O        0.31235839       1.40704486       0.41560286
H        1.14342939       1.89637400       0.31804152
H       -0.49645179      -1.62278739      -0.54540319
H       -1.54317654      -0.18593419      -0.46328651
H       -0.91091526      -0.88657306       1.01428752
8
Properties=species:S:1:pos:R:3 relative_energy_eV=-2.0109958973253015 branch=right pbc="F F F"
O        1.60041176      -0.12860627      -0.60887642
C       -0.67964963      -0.68720048      -0.03068814
C        0.53672616       0.18197515      -0.12638137
O        0.31226074       1.40662713       0.41610930
H        1.14280895       1.89654648       0.31766455
H       -0.49668430      -1.62282420      -0.54547547
H       -1.54245407      -0.18549346      -0.46339214
H       -0.91129487      -0.88630079       1.01444026
8
Properties=species:S:1:pos:R:3 relative_energy_eV=-2.0110088252158675 branch=right pbc="F F F"
O        1.60067232      -0.12841345      -0.60945345
C       -0.67955735      -0.68743317      -0.03050645
C        0.53717531       0.18157704      -0.12613834
O        0.31223884       1.40604948       0.41662615
H        1.14211003       1.89691139       0.31729925
H       -0.49703506      -1.62301571      -0.54548807
H       -1.54172633      -0.18491969      -0.46356983
H       -0.91175301      -0.88603233       1.01463132
8
Properties=species:S:1:pos:R:3 relative_energy_eV=-2.0110171354581325 branch=right pbc="F F F"
O        1.60095532      -0.12811033      -0.60992863
C       -0.67951632      -0.68759103      -0.03042208
C        0.53754152       0.18118147      -0.12596734
O        0.31232337       1.40554202       0.41691685
H        1.14158178       1.89734901       0.31717808
H       -0.49744917      -1.62335682      -0.54537792
H       -1.54124888      -0.18442669      -0.46376766
H       -0.91206286      -0.88586408       1.01476926
8
Properties=species:S:1:pos:R:3 relative_energy_eV=-2.0110279918953893 branch=right pbc="F F F"
O        1.60107952      -0.12789863      -0.61010429
C       -0.67951537      -0.68760466      -0.03043984
C        0.53765253       0.18101450      -0.12593712
O        0.31243362       1.40533217       0.41697155
H        1.14145152       1.89762179       0.31724418
H       -0.49769766      -1.62362886      -0.54520509
H       -1.54115437      -0.18423835      -0.46390579
H       -0.91212502      -0.88587442       1.01477696
8
Properties=species:S:1:pos:R:3 relative_energy_eV=-2.011021699986486 branch=right pbc="F F F"
O        1.60108833      -0.12781352      -0.61014194
C       -0.67951317      -0.68756636      -0.03048614
C        0.53763202       0.18099785      -0.12598510
O        0.31249237       1.40530230       0.41695252
H        1.14147448       1.89769323       0.31734710
H       -0.49777312      -1.62377145      -0.54504355
H       -1.54118102      -0.18419528      -0.46396940
H       -0.91209515      -0.88592322       1.01472709
