8
Properties=species:S:1:pos:R:3 relative_energy_eV=2.278714807437609 branch=ts pbc="F F F"
O       -1.53299669       1.09228583       0.18648207
C       -1.00883316      -0.06229028      -0.13928054
C        0.36993038      -0.01542176       0.11115337
O        1.20648751      -0.90703337      -0.55265216
H       -1.58043916      -0.83316763      -0.65737922
H       -0.22075762       1.31821337       0.13413816
H        0.66123162       0.18258956       1.14675401
H        2.10538752      -0.77518524      -0.22921454
