8
Properties=species:S:1:pos:R:3 relative_energy_eV=1.9628080877755565 branch=ts pbc="F F F"
C       -0.17743177      -0.01584908      -1.17801308
O       -1.04609420       0.63991835      -1.65170711
C        0.15366192       0.02226097       1.08419457
O       -0.57648290       0.72362821       1.75726012
H        0.52270127      -0.67426976      -1.73413834
H        0.62886060       0.62050894       0.03626142
H       -0.47791666      -0.71092076       0.22131757
H        0.97269615      -0.60526366       1.46482221
