8
Properties=species:S:1:pos:R:3 relative_energy_eV=0.02727811629210919 branch=ts pbc="F F F"
C       -0.07586140       0.07907960      -1.32354783
O        0.25085912      -0.87532647      -1.94491368
C        0.07723048      -0.07993417       1.32445215
O       -0.24434815       0.87785707       1.94329712
H        0.10037211       1.10687939      -1.68980285
H        0.36707049       0.09047069       0.01158654
H       -0.36407023      -0.09305966      -0.01079835
H       -0.11125318      -1.10596910       1.68972574
