8
Properties=species:S:1:pos:R:3 relative_energy_eV=2.371523418850302 branch=ts pbc="F F F"
C        0.15138903      -0.07471185      -1.07214961
O       -0.80937330       0.73598133      -0.92974130
C        0.00112322       0.14299246       1.46081687
O       -0.25783576      -0.60292117       2.31122045
H       -0.04109660      -1.14808574      -1.23544737
H        1.09638775       0.25419056      -1.53671072
H       -0.74791204       0.90459498       0.74610018
H        0.60731171      -0.21203702       0.25590756
