12
Properties=species:S:1:pos:R:3 relative_energy_eV=1.8200013769073848 branch=ts pbc="F F F"
O       -0.38008605      -1.53239033       0.78873834
C        0.38724123      -0.55898965       0.40821454
C        0.07798005       0.24705737      -0.81744046
O        0.86999897       1.34107266      -1.02454009
C       -0.89465211      -0.09959899      -1.65385431
O       -0.12587960       0.43704618       1.74096034
H       -0.66038385      -0.68910298       1.71563549
H        1.28011487       1.57613172      -0.18389059
H        1.46911372      -0.64947325       0.59021428
H       -1.49203239      -0.96912719      -1.43060202
H       -1.10758841       0.47144601      -2.54350772
H        0.57614516       0.42596659       2.41004266
