12
Properties=species:S:1:pos:R:3 relative_energy_eV=2.6757026908398984 branch=ts pbc="F F F"
O        0.93182347      -1.02500450       1.26462967
C        1.07335287       0.20388673       0.56298326
C        0.08821836       0.61254807      -0.37172827
O        0.60940119       1.51477092      -1.15963528
C       -1.22093836       0.00369506      -0.64324794
O       -1.75297251      -0.70091210       0.44879147
H        1.31553933      -1.72996532       0.72761922
H        1.67085772       0.98867573      -0.55073834
H        1.41906564       0.96705934       1.26796223
H       -1.12031529      -0.63379324      -1.53641150
H       -1.93241711       0.78374655      -0.92448188
H       -1.01830501      -1.10437526       0.94291702
