12
Properties=species:S:1:pos:R:3 relative_energy_eV=2.559541138349232 branch=ts pbc="F F F"
O        0.41106521      -0.82213785       1.75528772
C        0.93158319       0.02069437       0.81420637
C        0.22192197       0.47007173      -0.28205927
O        0.70165585       1.32906624      -1.19585722
C       -1.13040023      -0.07787874      -0.61532712
O       -1.49070413      -1.23830021       0.06084897
H        0.89925065      -1.12050480       0.51794726
H        1.57469497       1.65885103      -0.93871619
H        1.89391424       0.49580398       1.03290368
H       -1.15424024      -0.24120492      -1.69981912
H       -1.84712630       0.74234768      -0.44154140
H       -0.99255885      -1.24683990       0.92562306
