12
Properties=species:S:1:pos:R:3 relative_energy_eV=0.0 branch=left pbc="F F F"
O        1.29653451       0.79225349      -0.80888093
C        0.22582365       0.39784133      -1.44486381
C       -0.99361330      -0.22438272      -1.11931699
O       -1.52217260      -0.66575310      -0.00586989
C        0.96951855       0.06924960       1.85725297
O       -0.14183975      -0.46697577       2.09528145
H        0.29184446       0.60774267      -2.51298046
H       -0.66445633      -0.09762051      -0.97297181
H       -1.69240145      -0.39833880      -1.96643695
H       -0.75751497      -0.55784052       1.19615612
H        1.25321488       0.41864667       0.84049792
H        1.63766363       0.17094673       2.71061332
12
Properties=species:S:1:pos:R:3 relative_energy_eV=3.2001189538277686e-06 branch=left pbc="F F F"
O        1.29652811       0.79230461      -0.80883934
C        0.22583526       0.39784938      -1.44485682
C       -0.99364311      -0.22441327      -1.11922403
O       -1.52223936      -0.66575105      -0.00575562
C        0.96952627       0.06925200       1.85726021
O       -0.14180542      -0.46698395       2.09523719
H        0.29186761       0.60769502      -2.51308499
H       -0.66448909      -0.09762371      -0.97295008
H       -1.69233945      -0.39835349      -1.96644333
H       -0.75737844      -0.55772820       1.19598113
H        1.25310207       0.41867266       0.84054116
H        1.63763684       0.17084908       2.71061547
12
Properties=species:S:1:pos:R:3 relative_energy_eV=7.819708116585389e-06 branch=left pbc="F F F"
O        1.29652275       0.79237762      -0.80872686
C        0.22586028       0.39786782      -1.44487175
C       -0.99363304      -0.22442377      -1.11908645
O       -1.52225409      -0.66570459      -0.00559642
C        0.96942574       0.06921731       1.85722556
O       -0.14185080      -0.46703999       2.09518819
H        0.29196173       0.60764079      -2.51323181
H       -0.66446278      -0.09761621      -0.97279291
H       -1.69230355      -0.39842800      -1.96634435
H       -0.75703594      -0.55750242       1.19569622
H        1.25275694       0.41864189       0.84057222
H        1.63761404       0.17073863       2.71044928
12
Properties=species:S:1:pos:R:3 relative_energy_eV=1.1850017472170293e-05 branch=left pbc="F F F"
O        1.29649760       0.79245858      -0.80860501
C        0.22589120       0.39789009      -1.44491488
C       -0.99353264      -0.22437832      -1.11897331
O       -1.52211957      -0.66557609      -0.00544436
C        0.96918761       0.06913260       1.85713348
O       -0.14201854      -0.46716185       2.09518397
H        0.29215263       0.60759114      -2.51329498
H       -0.66433432      -0.09758084      -0.97250368
H       -1.69232911      -0.39857619      -1.96608181
H       -0.75665310      -0.55726177       1.19539871
H        1.25221975       0.41856391       0.84050556
H        1.63763975       0.17066781       2.71007723
12
Properties=species:S:1:pos:R:3 relative_energy_eV=2.2551488655153662e-05 branch=left pbc="F F F"
O        1.29645484       0.79252498      -0.80854500
C        0.22592308       0.39790640      -1.44495064
C       -0.99337734      -0.22429529      -1.11893455
O       -1.52186331      -0.66540251      -0.00532898
C        0.96890606       0.06902661       1.85703333
O       -0.14223183      -0.46730352       2.09524604
H        0.29237763       0.60755534      -2.51321009
H       -0.66416131      -0.09752006      -0.97225838
H       -1.69240678      -0.39874797      -1.96573987
H       -0.75644795      -0.55712209       1.19516948
H        1.25169845       0.41848350       0.84034584
H        1.63772973       0.17066370       2.70965376
12
Properties=species:S:1:pos:R:3 relative_energy_eV=4.229898695484735e-05 branch=left pbc="F F F"
O        1.29641412       0.79260356      -0.80853964
C        0.22599247       0.39792556      -1.44494351
C       -0.99317432      -0.22418699      -1.11894592
O       -1.52144340      -0.66516326      -0.00516235
C        0.96857853       0.06888840       1.85696005
O       -0.14249101      -0.46747616       2.09540517
H        0.29265375       0.60751613      -2.51295547
H       -0.66396223      -0.09741133      -0.97218953
H       -1.69256294      -0.39897428      -1.96527772
H       -0.75645552      -0.55707192       1.19487293
H        1.25111575       0.41839259       0.84008865
H        1.63793607       0.17072676       2.70916828
12
Properties=species:S:1:pos:R:3 relative_energy_eV=6.27319732302567e-05 branch=left pbc="F F F"
O        1.29645759       0.79274122      -0.80854569
C        0.22616220       0.39796012      -1.44481701
C       -0.99297095      -0.22409435      -1.11894913
O       -1.52083117      -0.66485333      -0.00480276
C        0.96820462       0.06870426       1.85696480
O       -0.14275537      -0.46766749       2.09568242
H        0.29298144       0.60745708      -2.51253409
H       -0.66378603      -0.09722336      -0.97255431
H       -1.69284815      -0.39928974      -1.96468063
H       -0.75672090      -0.55709505       1.19431441
H        1.25036904       0.41826122       0.83977099
H        1.63833898       0.17086851       2.70863194
12
Properties=species:S:1:pos:R:3 relative_energy_eV=0.00010078205559693743 branch=left pbc="F F F"
O        1.29667224       0.79293725      -0.80847830
C        0.22644079       0.39802306      -1.44458411
C       -0.99287915      -0.22409146      -1.11884030
O       -1.52024997      -0.66459310      -0.00425378
C        0.96794652       0.06855158       1.85704797
O       -0.14292123      -0.46780352       2.09595401
H        0.29324122       0.60739434      -2.51217794
H       -0.66374452      -0.09701235      -0.97337865
H       -1.69319700      -0.39960574      -1.96417405
H       -0.75714238      -0.55715857       1.19358049
H        1.24960743       0.41809096       0.83956948
H        1.63882735       0.17103660       2.70821613
12
Properties=species:S:1:pos:R:3 relative_energy_eV=0.00015363711645477451 branch=left pbc="F F F"
O        1.29703734       0.79316255      -0.80833752
C        0.22674326       0.39811540      -1.44440666
C       -0.99289215      -0.22416653      -1.11859524
O       -1.51984775      -0.66444864      -0.00367059
C        0.96779202       0.06846220       1.85707128
O       -0.14294485      -0.46784636       2.09610459
H        0.29339377       0.60737520      -2.51215446
H       -0.66376495      -0.09683884      -0.97421028
H       -1.69346138      -0.39982369      -1.96386196
H       -0.75760493      -0.55728486       1.19309030
H        1.24897195       0.41790179       0.83952301
H        1.63917899       0.17116083       2.70792849
12
Properties=species:S:1:pos:R:3 relative_energy_eV=0.00023695546587987337 branch=left pbc="F F F"
O        1.29774076       0.79359219      -0.80817802
C        0.22727793       0.39838853      -1.44457415
C       -0.99274618      -0.22423047      -1.11800708
O       -1.51917351      -0.66424649      -0.00272347
C        0.96750826       0.06838519       1.85674168
O       -0.14306000      -0.46794409       2.09628376
H        0.29368205       0.60748243      -2.51279619
H       -0.66357995      -0.09658822      -0.97488476
H       -1.69368499      -0.40008358      -1.96326789
H       -0.75865004      -0.55780070       1.19325189
H        1.24792572       0.41754010       0.83940349
H        1.63936128       0.17127416       2.70723169
12
Properties=species:S:1:pos:R:3 relative_energy_eV=0.00045857473924115766 branch=left pbc="F F F"
O        1.29898518       0.79456149      -0.80849612
C        0.22827838       0.39909851      -1.44581133
C       -0.99177102      -0.22398390      -1.11690046
O       -1.51722488      -0.66358294      -0.00098047
C        0.96619558       0.06804582       1.85537976
O       -0.14361547      -0.46838345       2.09698069
H        0.29464021       0.60791926      -2.51481232
H       -0.66232060      -0.09598819      -0.97449962
H       -1.69372087      -0.40058192      -1.96123860
H       -0.76149037      -0.55952473       1.19546226
H        1.24553210       0.41678346       0.83845448
H        1.63911311       0.17140562       2.70494266
12
Properties=species:S:1:pos:R:3 relative_energy_eV=0.000890770452315337 branch=left pbc="F F F"
O        1.30016603       0.79587771      -0.80990147
C        0.22954280       0.40016109      -1.44815207
C       -0.98962675      -0.22316270      -1.11575496
O       -1.51407320      -0.66241376       0.00102736
C        0.96393421       0.06743020       1.85320715
O       -0.14501026      -0.46942443       2.09859143
H        0.29622814       0.60857915      -2.51755871
H       -0.65990461      -0.09511684      -0.97247440
H       -1.69344166      -0.40126931      -1.95769579
H       -0.76572227      -0.56227050       1.19973245
H        1.24217694       0.41586665       0.83630931
H        1.63833198       0.17151180       2.70115064
12
Properties=species:S:1:pos:R:3 relative_energy_eV=0.0013753622988588177 branch=left pbc="F F F"
O        1.30087901       0.79705890      -0.81202043
C        0.23046257       0.40100234      -1.45013562
C       -0.98740293      -0.22218243      -1.11521167
O       -1.51129718      -0.66131316       0.00233143
C        0.96136952       0.06660402       1.85138554
O       -0.14637652      -0.47054966       2.10068348
H        0.29754625       0.60902520      -2.51946645
H       -0.65737229      -0.09430456      -0.96996791
H       -1.69279503      -0.40172580      -1.95439009
H       -0.76926191      -0.56467666       1.20393371
H        1.23929341       0.41521698       0.83372980
H        1.63755644       0.17161389       2.69760917
12
Properties=species:S:1:pos:R:3 relative_energy_eV=0.0017874254644993925 branch=left pbc="F F F"
O        1.30146852       0.79817837      -0.81461069
C        0.23130219       0.40166294      -1.45135916
C       -0.98538042      -0.22126027      -1.11492893
O       -1.50946630      -0.66055417       0.00303549
C        0.95937577       0.06588521       1.85024318
O       -0.14785256      -0.47177808       2.10313858
H        0.29804263       0.60902737      -2.52032446
H       -0.65540226      -0.09371097      -0.96791362
H       -1.69182211      -0.40180137      -1.95213382
H       -0.77154104      -0.56633747       1.20730062
H        1.23690425       0.41473569       0.83120929
H        1.63697267       0.17172180       2.69482448
12
Properties=species:S:1:pos:R:3 relative_energy_eV=0.0022328353061311645 branch=left pbc="F F F"
O        1.30286652       0.79992612      -0.81833648
C        0.23228443       0.40225556      -1.45179015
C       -0.98350497      -0.22044222      -1.11456151
O       -1.50807532      -0.65997033       0.00365383
C        0.95674007       0.06479948       1.84938332
O       -0.14908981      -0.47308053       2.10645838
H        0.29754043       0.60848513      -2.52072347
H       -0.65328230      -0.09300425      -0.96624906
H       -1.69001112      -0.40135421      -1.95058862
H       -0.77320454      -0.56774040       1.21088804
H        1.23382067       0.41400155       0.82830364
H        1.63651727       0.17189314       2.69204306
12
Properties=species:S:1:pos:R:3 relative_energy_eV=0.002821219595716684 branch=left pbc="F F F"
O        1.30573313       0.80270344      -0.82332374
C        0.23406567       0.40311119      -1.45156072
C       -0.98132949      -0.21966932      -1.11332637
O       -1.50700704      -0.65956128       0.00457775
C        0.95414468       0.06374639       1.84825078
O       -0.15090886      -0.47488104       2.11089502
H        0.29574872       0.60722374      -2.52080693
H       -0.65116565      -0.09222366      -0.96515445
H       -1.68712733      -0.40026671      -1.94990737
H       -0.77455667      -0.56916574       1.21547254
H        1.22902542       0.41261122       0.82476943
H        1.63597878       0.17214083       2.68859504
12
Properties=species:S:1:pos:R:3 relative_energy_eV=0.0035131323056702968 branch=left pbc="F F F"
O        1.30955700       0.80575227      -0.82751472
C        0.23587664       0.40382155      -1.45053799
C       -0.97982324      -0.21932722      -1.11154922
O       -1.50630180      -0.65931970       0.00558472
C        0.95145370       0.06274931       1.84667257
O       -0.15195235      -0.47620145       2.11468859
H        0.29337815       0.60569351      -2.52068859
H       -0.64924095      -0.09142319      -0.96481078
H       -1.68383210      -0.39880872      -1.95015244
H       -0.77558574      -0.57047659       1.22027261
H        1.22353448       0.41084346       0.82141667
H        1.63553755       0.17246584       2.68509958
12
Properties=species:S:1:pos:R:3 relative_energy_eV=0.004150295053477748 branch=left pbc="F F F"
O        1.31283710       0.80796714      -0.82943136
C        0.23735926       0.40432574      -1.44939973
C       -0.97881179      -0.21922217      -1.10971979
O       -1.50589821      -0.65919051       0.00636023
C        0.95014790       0.06246671       1.84479318
O       -0.15270386      -0.47701945       2.11678793
H        0.29125676       0.60436277      -2.52032785
H       -0.64808043      -0.09090896      -0.96491653
H       -1.68117619      -0.39751220      -1.95096215
H       -0.77635332      -0.57151425       1.22419492
H        1.21882493       0.40923359       0.81889517
H        1.63519922       0.17278066       2.68220699
12
Properties=species:S:1:pos:R:3 relative_energy_eV=0.004734208925583516 branch=left pbc="F F F"
O        1.31523733       0.80925097      -0.82924600
C        0.23838283       0.40459265      -1.44826770
C       -0.97821193      -0.21924208      -1.10817993
O       -1.50539958      -0.65894502       0.00665037
C        0.94929527       0.06244114       1.84279998
O       -0.15267519      -0.47715977       2.11736268
H        0.28929970       0.60316174      -2.51974166
H       -0.64713973      -0.09051925      -0.96494685
H       -1.67890218      -0.39633909      -1.95195335
H       -0.77718265      -0.57246065       1.22744271
H        1.21481489       0.40783553       0.81681201
H        1.63508260       0.17315290       2.67974873
12
Properties=species:S:1:pos:R:3 relative_energy_eV=0.00548286644880136 branch=left pbc="F F F"
O        1.31675317       0.80973218      -0.82729067
C        0.23905430       0.40462869      -1.44683913
C       -0.97700640      -0.21883966      -1.10732125
O       -1.50477894      -0.65859085       0.00669264
C        0.94918117       0.06282698       1.84041314
O       -0.15262747      -0.47707652       2.11698614
H        0.28674528       0.60164773      -2.51881754
H       -0.64583660      -0.09011130      -0.96429772
H       -1.67605531      -0.39485300      -1.95322707
H       -0.77876427      -0.57373808       1.23071259
H        1.21033375       0.40619758       0.81476286
H        1.63560268       0.17394532       2.67670701
12
Properties=species:S:1:pos:R:3 relative_energy_eV=0.006647510681432323 branch=left pbc="F F F"
O        1.31661134       0.80901683      -0.82345632
C        0.24076234       0.40507327      -1.44510750
C       -0.97539336      -0.21819170      -1.10662790
O       -1.50445244      -0.65808148       0.00536874
C        0.94858090       0.06298279       1.83796998
O       -0.15217946      -0.47678248       2.11660893
H        0.28358444       0.59969545      -2.51697460
H       -0.64422281      -0.08991859      -0.96195628
H       -1.67186526      -0.39270987      -1.95479126
H       -0.78201489      -0.57572885       1.23400111
H        1.20535306       0.40454619       0.81153359
H        1.63783748       0.17586750       2.67191252
12
Properties=species:S:1:pos:R:3 relative_energy_eV=0.008182024990674108 branch=left pbc="F F F"
O        1.31600064       0.80815988      -0.82023995
C        0.24146369       0.40492013      -1.44264154
C       -0.97278754      -0.21678688      -1.10758596
O       -1.50599231      -0.65845511       0.00442985
C        0.94780128       0.06280562       1.83665509
O       -0.15234278      -0.47690746       2.11717041
H        0.28111601       0.59813443      -2.51539256
H       -0.64235310      -0.08986033      -0.95837972
H       -1.66695576      -0.39021225      -1.95647456
H       -0.78655933      -0.57805495       1.23617293
H        1.20108647       0.40302360       0.80904773
H        1.64212406       0.17900240       2.66571928
12
Properties=species:S:1:pos:R:3 relative_energy_eV=0.01029381864827883 branch=left pbc="F F F"
O        1.31507459       0.80719749      -0.81771373
C        0.24368629       0.40539112      -1.43985635
C       -0.97125970      -0.21604340      -1.10772483
O       -1.50978003      -0.65962399       0.00252527
C        0.94599881       0.06206939       1.83576853
O       -0.15303551      -0.47758206       2.11945218
H        0.28058944       0.59742759      -2.51327795
H       -0.64139884      -0.09045397      -0.95372273
H       -1.66186333      -0.38759326      -1.95834177
H       -0.79215195      -0.58063583       1.23739615
H        1.19826051       0.40220338       0.80609474
H        1.64848106       0.18341261       2.65788149
12
Properties=species:S:1:pos:R:3 relative_energy_eV=0.014003095280713751 branch=left pbc="F F F"
O        1.31653791       0.80743661      -0.81611150
C        0.24494560       0.40498273      -1.43508368
C       -0.97013712      -0.21569187      -1.10699951
O       -1.51798131      -0.66269787       0.00068157
C        0.94298847       0.06076742       1.83489792
O       -0.15467252      -0.47892381       2.12320628
H        0.28369453       0.59830911      -2.51035879
H       -0.64134412      -0.09173434      -0.94798261
H       -1.65604525      -0.38444446      -1.96131972
H       -0.79964801      -0.58399735       1.23855968
H        1.19629604       0.40164845       0.80319759
H        1.65796713       0.19011444       2.64579375
12
Properties=species:S:1:pos:R:3 relative_energy_eV=0.018888053889895673 branch=left pbc="F F F"
O        1.32007628       0.80861808      -0.81492017
C        0.24638139       0.40444684      -1.42960389
C       -0.97212970      -0.21716567      -1.10438050
O       -1.52721802      -0.66619735      -0.00129961
C        0.94014960       0.06011991       1.83148996
O       -0.15679247      -0.48034926       2.12624765
H        0.29024656       0.60059509      -2.50587029
H       -0.64235204      -0.09335623      -0.94307242
H       -1.65140863      -0.38178443      -1.96453411
H       -0.80642291      -0.58723336       1.24067354
H        1.19515786       0.40130508       0.80083893
H        1.66691342       0.19677036       2.63291188
12
Properties=species:S:1:pos:R:3 relative_energy_eV=0.024045188636591774 branch=left pbc="F F F"
O        1.32511882       0.80999538      -0.81163968
C        0.24587940       0.40295541      -1.42430523
C       -0.97411013      -0.21894530      -1.10008332
O       -1.53506618      -0.66909472      -0.00338645
C        0.93797199       0.06032287       1.82567945
O       -0.15754838      -0.48067197       2.12653668
H        0.29891478       0.60352617      -2.49899695
H       -0.64475803      -0.09516047      -0.94051344
H       -1.64908696      -0.38023078      -1.96746749
H       -0.81122123      -0.59001682       1.24474729
H        1.19434344       0.40141975       0.79709282
H        1.67216380       0.20166956       2.62081727
12
Properties=species:S:1:pos:R:3 relative_energy_eV=0.030180477293470176 branch=left pbc="F F F"
O        1.32958231       0.81089295      -0.80774601
C        0.24492943       0.40110508      -1.41839872
C       -0.97907779      -0.22189496      -1.09696121
O       -1.54017632      -0.67083253      -0.00530975
C        0.93807358       0.06212578       1.81728714
O       -0.15784799      -0.48026823       2.12399562
H        0.30857185       0.60656834      -2.48979747
H       -0.64610211      -0.09625320      -0.93895153
H       -1.64762500      -0.37925703      -1.96931494
H       -0.81448145      -0.59248939       1.25051974
H        1.19298248       0.40122764       0.79372114
H        1.67377233       0.20484461       2.60943694
12
Properties=species:S:1:pos:R:3 relative_energy_eV=0.04675348424643744 branch=left pbc="F F F"
O        1.33269492       0.80872949      -0.79507260
C        0.24273336       0.39691388      -1.40475477
C       -0.98216471      -0.22432521      -1.09213543
O       -1.54610898      -0.67242425      -0.00946749
C        0.93838833       0.06665173       1.79659425
O       -0.15305488      -0.47607262       2.11336391
H        0.32843566       0.61206946      -2.46607288
H       -0.65133531      -0.09890065      -0.93941126
H       -1.64811893      -0.37926292      -1.97089657
H       -0.81772087      -0.59686125       1.26622695
H        1.18990383       0.40195440       0.78141644
H        1.66894890       0.20729699       2.58869039
12
Properties=species:S:1:pos:R:3 relative_energy_eV=0.061693622987149865 branch=left pbc="F F F"
O        1.33156566       0.80548618      -0.78514230
C        0.24241988       0.39457743      -1.39475714
C       -0.98529587      -0.22583001      -1.09219427
O       -1.54830144      -0.67284199      -0.01166802
C        0.94027419       0.06987504       1.78509951
O       -0.15035173      -0.47353667       2.10642370
H        0.33975259       0.61503589      -2.45151742
H       -0.65222019      -0.09933345      -0.94021719
H       -1.64845974      -0.37957307      -1.97022880
H       -0.81877522      -0.59927186       1.27648976
H        1.18858405       0.40357391       0.76982181
H        1.66340913       0.20760765       2.57637130
12
Properties=species:S:1:pos:R:3 relative_energy_eV=0.08935468770141597 branch=left pbc="F F F"
O        1.32281909       0.79885107      -0.77701185
C        0.24711305       0.39394506      -1.38082240
C       -0.98236120      -0.22370525      -1.09690188
O       -1.55223538      -0.67466863      -0.01049153
C        0.94002088       0.07226523       1.77309184
O       -0.14489810      -0.46936566       2.09727489
H        0.35108270       0.61776658      -2.43549075
H       -0.65417126      -0.09995349      -0.94267471
H       -1.64981307      -0.38055091      -1.96844225
H       -0.81827941      -0.60140499       1.28875599
H        1.18731895       0.40552542       0.75688528
H        1.65600507       0.20706463       2.56430831
12
Properties=species:S:1:pos:R:3 relative_energy_eV=0.11557253409227997 branch=left pbc="F F F"
O        1.31700943       0.79273719      -0.76270512
C        0.25020104       0.39345364      -1.37097982
C       -0.98134012      -0.22266174      -1.10028006
O       -1.55556415      -0.67596334      -0.01105328
C        0.93975224       0.07359762       1.76557022
O       -0.14439371      -0.46938669       2.09820416
H        0.35608772       0.61917623      -2.42965541
H       -0.65260172      -0.09888077      -0.94515662
H       -1.65093020      -0.38152353      -1.96600976
H       -0.81794528      -0.60233953       1.29451896
H        1.19008093       0.41110600       0.73623176
H        1.65224515       0.20645397       2.55979590
12
Properties=species:S:1:pos:R:3 relative_energy_eV=0.19326300670763885 branch=left pbc="F F F"
O        1.31778130       0.78221386      -0.71105363
C        0.25195830       0.39267596      -1.36425760
C       -0.98407688      -0.22517801      -1.09317062
O       -1.56106561      -0.67597949      -0.02361411
C        0.93605436       0.07497830       1.74912061
O       -0.14805125      -0.47527690       2.11883484
H        0.35931006       0.62042878      -2.42799245
H       -0.64936323      -0.09660381      -0.95043644
H       -1.65452729      -0.38407843      -1.96131009
H       -0.81913674      -0.60330282       1.29748056
H        1.20359944       0.43032689       0.67486217
H        1.65011888       0.20556474       2.56001768
12
Properties=species:S:1:pos:R:3 relative_energy_eV=0.23067521374105127 branch=left pbc="F F F"
O        1.32231049       0.78120226      -0.69551610
C        0.24780868       0.39103372      -1.36655596
C       -0.98666900      -0.22714994      -1.08869657
O       -1.56108804      -0.67494650      -0.02916809
C        0.93588829       0.07627944       1.74216004
O       -0.14986443      -0.47759259       2.12618450
H        0.35964256       0.62056551      -2.42787753
H       -0.64785445      -0.09576926      -0.95141407
H       -1.65503149      -0.38450808      -1.96029025
H       -0.81978182      -0.60347022       1.29708242
H        1.20701939       0.43477155       0.66129759
H        1.65022115       0.20535317       2.56127495
12
Properties=species:S:1:pos:R:3 relative_energy_eV=0.38888979515650135 branch=ts pbc="F F F"
O        1.32297216       0.78079540      -0.69199095
C        0.24687373       0.39069978      -1.36734031
C       -0.98676217      -0.22733833      -1.08783369
O       -1.56143564      -0.67497268      -0.02982942
C        0.93254412       0.07364884       1.74718544
O       -0.14966438      -0.47781997       2.12772344
H        0.35973390       0.62044818      -2.42672941
H       -0.64249258      -0.09184269      -0.96011861
H       -1.65671703      -0.38555628      -1.95882309
H       -0.80997738      -0.60024852       1.30264834
H        1.23816270       0.47888438       0.52279368
H        1.64944424       0.20330900       2.56960479
12
Properties=species:S:1:pos:R:3 relative_energy_eV=0.16429656962282024 branch=right pbc="F F F"
O        1.32363383       0.78038855      -0.68846580
C        0.24593879       0.39036584      -1.36812466
C       -0.98685533      -0.22752672      -1.08697081
O       -1.56178324      -0.67499887      -0.03049075
C        0.92919996       0.07101825       1.75221084
O       -0.14946434      -0.47804735       2.12926238
H        0.35982523       0.62033085      -2.42558128
H       -0.63713071      -0.08791612      -0.96882315
H       -1.65840256      -0.38660447      -1.95735592
H       -0.80017293      -0.59702682       1.30821425
H        1.26930601       0.52299721       0.38428977
H        1.64866733       0.20126483       2.57793463
12
Properties=species:S:1:pos:R:3 relative_energy_eV=0.10346344117351691 branch=right pbc="F F F"
O        1.33068907       0.78433189      -0.69017353
C        0.24101787       0.38867580      -1.37246880
C       -0.98804943      -0.22856560      -1.08397890
O       -1.56136590      -0.67429366      -0.03316659
C        0.91963457       0.06299320       1.76923467
O       -0.14648825      -0.47820656       2.13638775
H        0.35995330       0.62036811      -2.42530480
H       -0.63683153      -0.08735359      -0.97130759
H       -1.65839977      -0.38667479      -1.95688652
H       -0.79831984      -0.59629102       1.30852283
H        1.27336894       0.52932527       0.36337201
H        1.64755301       0.19993613       2.58186895
12
Properties=species:S:1:pos:R:3 relative_energy_eV=0.04036195613298332 branch=right pbc="F F F"
O        1.34297182       0.79327997      -0.70229364
C        0.23963892       0.38882077      -1.37908334
C       -0.99080142      -0.22998824      -1.08281047
O       -1.56191503      -0.67498237      -0.03032354
C        0.91231008       0.05329030       1.79684241
O       -0.15922197      -0.48893500       2.16133043
H        0.36013410       0.62066808      -2.42628230
H       -0.63578248      -0.08580293      -0.97775331
H       -1.65839542      -0.38702711      -1.95462781
H       -0.79150409      -0.59388153       1.31104614
H        1.28123238       0.54381750       0.31207457
H        1.64409514       0.19498576       2.59798034
12
Properties=species:S:1:pos:R:3 relative_energy_eV=0.014642771153376088 branch=right pbc="F F F"
O        1.34640299       0.79838376      -0.71725156
C        0.24176774       0.39022380      -1.38180291
C       -0.98981529      -0.22983928      -1.08114828
O       -1.55970930      -0.67455638      -0.02712263
C        0.90938279       0.05192125       1.79601317
O       -0.16521878      -0.49383440       2.17213645
H        0.36032888       0.62112186      -2.42844372
H       -0.63569077      -0.08543344      -0.97994072
H       -1.65942286      -0.38764383      -1.95364805
H       -0.78822044      -0.59324945       1.31473012
H        1.28161611       0.54605559       0.30191708
H        1.64134095       0.19109571       2.61066052
12
Properties=species:S:1:pos:R:3 relative_energy_eV=-0.007047272936688387 branch=right pbc="F F F"
O        1.35148055       0.80637336      -0.74047690
C        0.24272452       0.39197156      -1.38875811
C       -0.98819546      -0.22923261      -1.08066436
O       -1.55157895      -0.67232938      -0.01918354
C        0.90614567       0.04991876       1.79625746
O       -0.17315605      -0.50029957       2.18611131
H        0.35937493       0.62179854      -2.43540288
H       -0.63204736      -0.08333336      -0.98310903
H       -1.66070269      -0.38876814      -1.95023708
H       -0.78354434      -0.59349802       1.32533081
H        1.28165314       0.54936669       0.28568578
H        1.63060807       0.18227735       2.63054601
12
Properties=species:S:1:pos:R:3 relative_energy_eV=-0.01880183772482269 branch=right pbc="F F F"
O        1.35283178       0.81035389      -0.75353141
C        0.24523692       0.39489210      -1.39740627
C       -0.98411241      -0.22782771      -1.07824264
O       -1.54179477      -0.66889403      -0.01394284
C        0.90390476       0.04810398       1.79810297
O       -0.17589744      -0.50295015       2.19267002
H        0.35709531       0.62195871      -2.44315643
H       -0.63081005      -0.08256315      -0.98499407
H       -1.66242459      -0.39013938      -1.94666143
H       -0.78189159      -0.59508823       1.33603470
H        1.28168057       0.55181785       0.27383114
H        1.61894354       0.17458132       2.64339575
12
Properties=species:S:1:pos:R:3 relative_energy_eV=-0.03664198340084113 branch=right pbc="F F F"
O        1.35503364       0.81666364      -0.77267703
C        0.24508802       0.39841439      -1.41420862
C       -0.97833810      -0.22534104      -1.07772621
O       -1.51897430      -0.66066682      -0.00289786
C        0.90128975       0.04512888       1.80260286
O       -0.17894406      -0.50646273       2.20234114
H        0.35127283       0.62231322      -2.46259311
H       -0.62215896      -0.07826275      -0.98846077
H       -1.66488991      -0.39287087      -1.93705706
H       -0.78233459      -0.60014701       1.35850416
H        1.28143375       0.55602733       0.25292931
H        1.59428398       0.15944896       2.66534269
12
Properties=species:S:1:pos:R:3 relative_energy_eV=-0.04731655533032608 branch=right pbc="F F F"
O        1.35377971       0.81807448      -0.77823227
C        0.24632509       0.40194031      -1.42769129
C       -0.97100682      -0.22202548      -1.07748228
O       -1.50166288      -0.65394405       0.00284771
C        0.90025742       0.04312166       1.80725572
O       -0.17779796      -0.50688432       2.20637637
H        0.34569437       0.62218131      -2.47822474
H       -0.61709716      -0.07572176      -0.99096042
H       -1.66752583      -0.39553023      -1.92864287
H       -0.78789988      -0.60582672       1.37340150
H        1.28113091       0.55821699       0.24186418
H        1.57856508       0.15064303       2.67558789
12
Properties=species:S:1:pos:R:3 relative_energy_eV=-0.05307459530195047 branch=right pbc="F F F"
O        1.35255456       0.81794414      -0.77781831
C        0.24695227       0.40412300      -1.43614562
C       -0.96767411      -0.22021232      -1.07884410
O       -1.48955547      -0.64881744       0.00472176
C        0.90006833       0.04198270       1.81058399
O       -0.17672617      -0.50700730       2.20924245
H        0.34151778       0.62208742      -2.48977861
H       -0.61123320      -0.07277561      -0.99336391
H       -1.66959301      -0.39778312      -1.92131911
H       -0.79591129      -0.61118257       1.38179825
H        1.28021442       0.55866546       0.23775841
H        1.57214797       0.14722084       2.67926431
12
Properties=species:S:1:pos:R:3 relative_energy_eV=-0.05648292890145967 branch=right pbc="F F F"
O        1.35223625       0.81773716      -0.77599107
C        0.24776736       0.40561384      -1.44125161
C       -0.96353911      -0.21785722      -1.08112097
O       -1.48322310      -0.64603011       0.00545067
C        0.89922133       0.04093291       1.81278989
O       -0.17713732      -0.50761767       2.21160750
H        0.33903985       0.62215960      -2.49718346
H       -0.60762442      -0.07072522      -0.99630635
H       -1.67196999      -0.39989079      -1.91581002
H       -0.80340604      -0.61553623       1.38667290
H        1.27859275       0.55787245       0.23786382
H        1.57280450       0.14758648       2.67937821
12
Properties=species:S:1:pos:R:3 relative_energy_eV=-0.06006592027188162 branch=right pbc="F F F"
O        1.35260105       0.81800170      -0.77477126
C        0.25103779       0.40826987      -1.44682222
C       -0.96113100      -0.21636058      -1.08295084
O       -1.47634501      -0.64256033       0.00427137
C        0.89670649       0.03906087       1.81522107
O       -0.17957020      -0.50951833       2.21622053
H        0.33706147       0.62255099      -2.50477145
H       -0.60305033      -0.06798895      -1.00083272
H       -1.67529595      -0.40267612      -1.90914889
H       -0.81248652      -0.62076189       1.39241747
H        1.27548235       0.55606667       0.23927340
H        1.57775194       0.15016129       2.67799305
12
Properties=species:S:1:pos:R:3 relative_energy_eV=-0.06281302696697821 branch=right pbc="F F F"
O        1.35455258       0.81946096      -0.77610571
C        0.25335105       0.41002212      -1.45054176
C       -0.95800367      -0.21452330      -1.08507330
O       -1.47228038      -0.64048109       0.00413078
C        0.89277732       0.03666058       1.81730580
O       -0.18360197      -0.51248278       2.22257533
H        0.33705603       0.62347820      -2.50976490
H       -0.60021221      -0.06593930      -1.00583702
H       -1.67840877      -0.40500210      -1.90456177
H       -0.81788343      -0.62441080       1.39849788
H        1.27181177       0.55423558       0.23940069
H        1.58360378       0.15322712       2.67607348
12
Properties=species:S:1:pos:R:3 relative_energy_eV=-0.06505461600318085 branch=right pbc="F F F"
O        1.35648313       0.82112686      -0.77899007
C        0.25584941       0.41169708      -1.45366868
C       -0.95675191      -0.21379024      -1.08603871
O       -1.46844535      -0.63843164       0.00387093
C        0.88802910       0.03398361       1.81903405
O       -0.18771497      -0.51584731       2.23054254
H        0.33867930       0.62485661      -2.51272413
H       -0.59841345      -0.06443404      -1.01038376
H       -1.68063675      -0.40659300      -1.90184132
H       -0.81989706      -0.62675211       1.40555296
H        1.26791677       0.55274635       0.23740605
H        1.58766389       0.15568303       2.67333962
12
Properties=species:S:1:pos:R:3 relative_energy_eV=-0.06774532411873224 branch=right pbc="F F F"
O        1.35821957       0.82284423      -0.78284158
C        0.25790581       0.41332270      -1.45768476
C       -0.95504954      -0.21280037      -1.08743544
O       -1.46261875      -0.63551815       0.00457143
C        0.88142587       0.03045222       1.82063445
O       -0.19215580      -0.52011594       2.24207829
H        0.34217372       0.62719984      -2.51586905
H       -0.59675122      -0.06286892      -1.01584252
H       -1.68267362      -0.40800058      -1.89988136
H       -0.82027208      -0.62922246       1.41684063
H        1.26258298       0.55106705       0.23309715
H        1.58997521       0.15788560       2.66843227
12
Properties=species:S:1:pos:R:3 relative_energy_eV=-0.07147472790893517 branch=right pbc="F F F"
O        1.35889893       0.82388661      -0.78640636
C        0.25997230       0.41537801      -1.46393385
C       -0.95278860      -0.21139058      -1.08979947
O       -1.45233777      -0.63045577       0.00599028
C        0.87161891       0.02553978       1.82160456
O       -0.19689498      -0.52576673       2.25955099
H        0.34866107       0.63127654      -2.52030798
H       -0.59466026      -0.06084808      -1.02329012
H       -1.68475247      -0.40943872      -1.89841939
H       -0.82032864      -0.63310531       1.43590337
H        1.25426608       0.54838768       0.22691084
H        1.59110761       0.16078174       2.65829664
12
Properties=species:S:1:pos:R:3 relative_energy_eV=-0.07543617290684779 branch=right pbc="F F F"
O        1.35728072       0.82293448      -0.78670194
C        0.26115095       0.41718352      -1.47080514
C       -0.95042265      -0.20970955      -1.09321553
O       -1.43963358      -0.62420566       0.00777788
C        0.86103924       0.02074766       1.82057923
O       -0.19969309      -0.53092547       2.27846665
H        0.35732871       0.63650651      -2.52508072
H       -0.59284246      -0.05896736      -1.03090376
H       -1.68607270      -0.41033813      -1.89854422
H       -0.82125766      -0.63819568       1.45932039
H        1.24453228       0.54479719       0.22211895
H        1.59135247       0.16441769       2.64308771
12
Properties=species:S:1:pos:R:3 relative_energy_eV=-0.07808147275136434 branch=right pbc="F F F"
O        1.35399067       0.82018705      -0.78294030
C        0.26109866       0.41801028      -1.47519464
C       -0.94921101      -0.20855369      -1.09626861
O       -1.43035093      -0.61957631       0.00892211
C        0.85466380       0.01843342       1.81766484
O       -0.19890450      -0.53304761       2.28995990
H        0.36446315       0.64067531      -2.52821346
H       -0.59219506      -0.05807819      -1.03546903
H       -1.68606827      -0.41028226      -1.90050418
H       -0.82402131      -0.64287538       1.47701433
H        1.23759573       0.54160182       0.22199376
H        1.59170131       0.16775077       2.62913482
12
Properties=species:S:1:pos:R:3 relative_energy_eV=-0.07908232688168937 branch=right pbc="F F F"
O        1.35179975       0.81815556      -0.77956901
C        0.26067573       0.41812209      -1.47660549
C       -0.94920280      -0.20820872      -1.09773645
O       -1.42713521      -0.61794340       0.00936082
C        0.85362816       0.01851889       1.81535423
O       -0.19679124      -0.53273326       2.29238606
H        0.36739818       0.64241140      -2.52951632
H       -0.59235683      -0.05800651      -1.03673212
H       -1.68551402      -0.40983118      -1.90254032
H       -0.82747221      -0.64577225       1.48437739
H        1.23531496       0.54012864       0.22412279
H        1.59241779       0.16940395       2.62319796
12
Properties=species:S:1:pos:R:3 relative_energy_eV=-0.07957386015550583 branch=right pbc="F F F"
O        1.35097180       0.81729290      -0.77826232
C        0.26039612       0.41809665      -1.47702779
C       -0.94961505      -0.20823084      -1.09831564
O       -1.42651741      -0.61756345       0.00946697
C        0.85425568       0.01913458       1.81417281
O       -0.19526193      -0.53219018       2.29243920
H        0.36862810       0.64317037      -2.53007656
H       -0.59279511      -0.05815195      -1.03716318
H       -1.68498542      -0.40937268      -1.90435250
H       -0.83046621      -0.64774412       1.48811237
H        1.23484782       0.53967243       0.22539289
H        1.59330388       0.17013150       2.62171330
12
Properties=species:S:1:pos:R:3 relative_energy_eV=-0.08008323972535436 branch=right pbc="F F F"
O        1.35070029       0.81688571      -0.77821620
C        0.26016971       0.41805055      -1.47727638
C       -0.95040733      -0.20843834      -1.09882638
O       -1.42691737      -0.61754270       0.00921773
C        0.85537622       0.01992427       1.81346251
O       -0.19373277      -0.53175542       2.29266170
H        0.36998767       0.64398511      -2.53033662
H       -0.59365403      -0.05844054      -1.03776708
H       -1.68424445      -0.40869201      -1.90706182
H       -0.83407453      -0.65014841       1.49290564
H        1.23483368       0.53963621       0.22567938
H        1.59472519       0.17078079       2.62165705
12
Properties=species:S:1:pos:R:3 relative_energy_eV=-0.08045221688189486 branch=right pbc="F F F"
O        1.35103911       0.81706457      -0.77956586
C        0.26008290       0.41803814      -1.47746413
C       -0.95116455      -0.20867295      -1.09930223
O       -1.42803558      -0.61772952       0.00840354
C        0.85614189       0.02036235       1.81370547
O       -0.19289401      -0.53183430       2.29384226
H        0.37114070       0.64465091      -2.53017218
H       -0.59450497      -0.05867976      -1.03851119
H       -1.68360529      -0.40807640      -1.90964108
H       -0.83660103      -0.65208990       1.49775835
H        1.23510339       0.54004031       0.22444773
H        1.59605974       0.17117175       2.62259888
12
Properties=species:S:1:pos:R:3 relative_energy_eV=-0.08064746147101687 branch=right pbc="F F F"
O        1.35152757       0.81744538      -0.78121006
C        0.26010469       0.41807430      -1.47767005
C       -0.95154401      -0.20876401      -1.09983083
O       -1.42919715      -0.61789801       0.00721859
C        0.85625755       0.02035991       1.81453738
O       -0.19271054      -0.53227010       2.29558909
H        0.37168655       0.64498896      -2.52987129
H       -0.59492567      -0.05873275      -1.03911771
H       -1.68326823      -0.40774035      -1.91122235
H       -0.83741473      -0.65308015       1.50139189
H        1.23545789       0.54058190       0.22268760
H        1.59678837       0.17128011       2.62359728
12
Properties=species:S:1:pos:R:3 relative_energy_eV=-0.08074535701234709 branch=right pbc="F F F"
O        1.35178046       0.81763224      -0.78211710
C        0.26014071       0.41812186      -1.47785636
C       -0.95158316      -0.20870850      -1.10036803
O       -1.42999540      -0.61796411       0.00608010
C        0.85606969       0.02021907       1.81525662
O       -0.19272140      -0.53266213       2.29700303
H        0.37159714       0.64501995      -2.52973607
H       -0.59493170      -0.05865060      -1.03939148
H       -1.68316759      -0.40764525      -1.91185587
H       -0.83715168      -0.65331388       1.50336140
H        1.23579191       0.54096174       0.22162218
H        1.59693330       0.17123479       2.62410113
12
Properties=species:S:1:pos:R:3 relative_energy_eV=-0.08080099211656488 branch=right pbc="F F F"
O        1.35181225       0.81758010      -0.78231212
C        0.26016332       0.41816175      -1.47798714
C       -0.95151950      -0.20859553      -1.10091789
O       -1.43057607      -0.61798468       0.00507217
C        0.85591933       0.02016443       1.81567879
O       -0.19262384      -0.53288314       2.29791809
H        0.37112381       0.64489685      -2.52981373
H       -0.59479273      -0.05853607      -1.03943787
H       -1.68311588      -0.40761909      -1.91219646
H       -0.83661976      -0.65327507       1.50445587
H        1.23613537       0.54117134       0.22138607
H        1.59685595       0.17116430       2.62425377
12
Properties=species:S:1:pos:R:3 relative_energy_eV=-0.08082956002181163 branch=right pbc="F F F"
O        1.35173223       0.81737367      -0.78201471
C        0.26017543       0.41818475      -1.47803107
C       -0.95148886      -0.20850299      -1.10134906
O       -1.43094969      -0.61799432       0.00439651
C        0.85592994       0.02025365       1.81579275
O       -0.19240167      -0.53292346       2.29827566
H        0.37050988       0.64472896      -2.53005024
H       -0.59469700      -0.05845829      -1.03937485
H       -1.68303049      -0.40757908      -1.91253636
H       -0.83622992      -0.65319057       1.50495838
H        1.23642786       0.54121905       0.22180881
H        1.59678455       0.17113381       2.62422373
12
Properties=species:S:1:pos:R:3 relative_energy_eV=-0.08083835685829399 branch=right pbc="F F F"
O        1.35167090       0.81716246      -0.78162673
C        0.26018883       0.41819396      -1.47800595
C       -0.95152719      -0.20846762      -1.10158062
O       -1.43112819      -0.61800212       0.00411455
C        0.85603615       0.02040792       1.81577133
O       -0.19218157      -0.53288296       2.29828974
H        0.36997373       0.64459423      -2.53030930
H       -0.59471661      -0.05843227      -1.03933006
H       -1.68289993      -0.40750635      -1.91293310
H       -0.83606973      -0.65314321       1.50510824
H        1.23660317       0.54117375       0.22240827
H        1.59681269       0.17114740       2.62419319
12
Properties=species:S:1:pos:R:3 relative_energy_eV=-0.08084336082720256 branch=right pbc="F F F"
O        1.35167368       0.81701230      -0.78138398
C        0.26020293       0.41819770      -1.47796500
C       -0.95159312      -0.20847043      -1.10166689
O       -1.43116370      -0.61799419       0.00407704
C        0.85612905       0.02054220       1.81578603
O       -0.19204789      -0.53286290       2.29825013
H        0.36956078       0.64450666      -2.53050857
H       -0.59481146      -0.05842763      -1.03935979
H       -1.68274393      -0.40741863      -1.91334329
H       -0.83601742      -0.65312306       1.50513047
H        1.23665981       0.54110424       0.22284768
H        1.59691351       0.17117892       2.62423571
12
Properties=species:S:1:pos:R:3 relative_energy_eV=-0.08085508494514215 branch=right pbc="F F F"
O        1.35171945       0.81690502      -0.78131497
C        0.26021342       0.41820228      -1.47794223
C       -0.95164881      -0.20848450      -1.10168972
O       -1.43109789      -0.61795593       0.00413907
C        0.85616474       0.02063439       1.81589977
O       -0.19199974      -0.53289730       2.29828937
H        0.36922115       0.64445216      -2.53063684
H       -0.59493103      -0.05841605      -1.03945915
H       -1.68257038      -0.40733103      -1.91373625
H       -0.83597083      -0.65310808       1.50514060
H        1.23662061       0.54103521       0.22305802
H        1.59704156       0.17120902       2.62435187
12
Properties=species:S:1:pos:R:3 relative_energy_eV=-0.08085295046475949 branch=right pbc="F F F"
O        1.35176769       0.81682238      -0.78138443
C        0.26021160       0.41820801      -1.47795235
C       -0.95166407      -0.20849028      -1.10169684
O       -1.43097089      -0.61788953       0.00420924
C        0.85614153       0.02068088       1.81608226
O       -0.19201563      -0.53297340       2.29841165
H        0.36897961       0.64443254      -2.53067636
H       -0.59502235      -0.05838530      -1.03958429
H       -1.68241606      -0.40727109      -1.91401770
H       -0.83590262      -0.65309193       1.50516751
H        1.23650658       0.54097674       0.22304321
H        1.59714682       0.17122617       2.62449766
