12
Properties=species:S:1:pos:R:3 relative_energy_eV=3.1486327721104317 branch=ts pbc="F F F"
O       -1.86085118       0.95998991       0.85326495
C       -1.08306386       1.25533910      -0.03344010
C        0.11074112       0.46372776      -0.39322098
O       -0.64449679      -1.04766657      -1.27084788
C        0.71398641      -0.37102923       0.58320577
O        2.10612477      -0.44211732       0.49544807
H       -1.25926062       2.14001361      -0.67964067
H        0.70790199       0.81572668      -1.22808416
H       -1.55174643      -1.06685419      -0.94040343
H        0.06505132      -1.32364940      -0.13949227
H        0.27369370      -0.33764565       1.57418659
H        2.42193490      -1.04582172       1.17902110
