12
Properties=species:S:1:pos:R:3 relative_energy_eV=3.75926315138895 branch=ts pbc="F F F"
O        1.68446796       0.91723070      -1.74676297
C        1.58845638       0.74217615      -0.54374523
C        0.78509278      -0.35878605       0.02316924
O        0.78830220      -0.54044767       1.31691685
C       -1.22891533       0.07794928      -0.11577758
O       -1.50686704      -1.02187154       0.67946612
H        2.04342894       1.41512377       0.20760111
H        0.53769844      -1.20400243      -0.61237701
H       -1.09009227       1.05764945       0.32454552
H       -0.13758701      -0.96201480       1.48422315
H       -1.19420567      -0.01966826      -1.19214422
H       -2.37653572      -0.10494159       0.07014816
