16
Properties=species:S:1:pos:R:3 relative_energy_eV=0.0 branch=left pbc="F F F"
O        0.19630214      -1.29467372      -1.72137659
C       -0.64038133      -0.69340336      -0.78182512
C       -0.62008448       0.79649224      -0.55598991
O       -1.80552022       1.52272069      -0.29990964
C       -0.20111907      -0.13530392       0.54805807
O       -1.08322522      -0.28452843       1.62470523
C        1.22432777      -0.24517961       1.02669631
O        2.18942259      -0.29056692      -0.03336563
H       -2.37218710       1.45583400      -1.07806559
H        0.14246296       1.36077472      -1.09057638
H        1.10727716      -1.22420112      -1.38576997
H       -1.62137401      -1.14867089      -0.75583975
H       -1.74602665       0.41430682       1.53525944
H        1.33034441      -1.18151089       1.56970451
H        1.43632156       0.57180177       1.72199268
H        2.32459200       0.60531158      -0.36190176
16
Properties=species:S:1:pos:R:3 relative_energy_eV=5.243351552053355e-06 branch=left pbc="F F F"
O        0.19624711      -1.29456951      -1.72157767
C       -0.64031242      -0.69350320      -0.78173402
C       -0.62024355       0.79639306      -0.55595917
O       -1.80555502       1.52281446      -0.29975954
C       -0.20111431      -0.13522136       0.54815482
O       -1.08325759      -0.28453468       1.62479143
C        1.22432251      -0.24504786       1.02680245
O        2.18931901      -0.29074016      -0.03334697
H       -2.37202714       1.45608318      -1.07807058
H        0.14229778       1.36040671      -1.09078336
H        1.10727079      -1.22381888      -1.38614977
H       -1.62119009      -1.14889649      -0.75572635
H       -1.74618170       0.41417587       1.53510130
H        1.33020957      -1.18134979       1.56987524
H        1.43649004       0.57193428       1.72205637
H        2.32485750       0.60507733      -0.36187829
16
Properties=species:S:1:pos:R:3 relative_energy_eV=1.3561373634729534e-05 branch=left pbc="F F F"
O        0.19606389      -1.29458160      -1.72160137
C       -0.64027018      -0.69360292      -0.78151664
C       -0.62036110       0.79632493      -0.55593056
O       -1.80560510       1.52291830      -0.29970694
C       -0.20108325      -0.13510337       0.54827601
O       -1.08318251      -0.28447844       1.62493164
C        1.22432800      -0.24491674       1.02688001
O        2.18921409      -0.29078139      -0.03336591
H       -2.37177743       1.45619179      -1.07821416
H        0.14213660       1.36013588      -1.09100906
H        1.10722870      -1.22353516      -1.38654717
H       -1.62113765      -1.14889847      -0.75561799
H       -1.74637671       0.41391074       1.53489008
H        1.33016487      -1.18125349       1.56984135
H        1.43662147       0.57188440       1.72227034
H        2.32516882       0.60498850      -0.36178376
16
Properties=species:S:1:pos:R:3 relative_energy_eV=1.2788163076038472e-05 branch=left pbc="F F F"
O        0.19577580      -1.29472651      -1.72133229
C       -0.64028243      -0.69364369      -0.78116765
C       -0.62036510       0.79633226      -0.55587078
O       -1.80562455       1.52300882      -0.29982572
C       -0.20102584      -0.13494089       0.54844517
O       -1.08298718      -0.28433556       1.62514609
C        1.22436628      -0.24483331       1.02691308
O        2.18908042      -0.29064349      -0.03348868
H       -2.37143788       1.45610399      -1.07857799
H        0.14200749       1.36002976      -1.09124241
H        1.10713446      -1.22336827      -1.38684557
H       -1.62124601      -1.14865170      -0.75547599
H       -1.74671363       0.41346238       1.53461607
H        1.33024500      -1.18133684       1.56949990
H        1.43679037       0.57159577       1.72262500
H        2.32541530       0.60515023      -0.36162234
16
Properties=species:S:1:pos:R:3 relative_energy_eV=2.431170105410274e-05 branch=left pbc="F F F"
O        0.19543147      -1.29499040      -1.72080763
C       -0.64040486      -0.69361258      -0.78078388
C       -0.62028056       0.79639591      -0.55577964
O       -1.80563584       1.52302890      -0.30008493
C       -0.20095407      -0.13479905       0.54860733
O       -1.08273472      -0.28419296       1.62536664
C        1.22443934      -0.24483098       1.02689316
O        2.18894725      -0.29043458      -0.03369212
H       -2.37106590       1.45596799      -1.07908429
H        0.14182537       1.36006381      -1.09154683
H        1.10702296      -1.22316051      -1.38701414
H       -1.62154664      -1.14826517      -0.75533883
H       -1.74708477       0.41288887       1.53436751
H        1.33043332      -1.18154075       1.56903124
H        1.43701660       0.57122702       1.72294721
H        2.32572360       0.60545746      -0.36128490
16
Properties=species:S:1:pos:R:3 relative_energy_eV=3.525554348016158e-05 branch=left pbc="F F F"
O        0.19518474      -1.29517313      -1.72016978
C       -0.64062054      -0.69349409      -0.78045079
C       -0.62014987       0.79651913      -0.55568020
O       -1.80559817       1.52304055      -0.30042659
C       -0.20088947      -0.13468095       0.54874466
O       -1.08249502      -0.28415894       1.62554799
C        1.22454506      -0.24491145       1.02685154
O        2.18880912      -0.29034542      -0.03394518
H       -2.37075334       1.45589221      -1.07963387
H        0.14158823       1.36014973      -1.09197002
H        1.10694508      -1.22273789      -1.38699990
H       -1.62191915      -1.14796911      -0.75515070
H       -1.74752457       0.41220392       1.53424089
H        1.33063431      -1.18179728       1.56867020
H        1.43732891       0.57097216       1.72306961
H        2.32604723       0.60569355      -0.36090198
16
Properties=species:S:1:pos:R:3 relative_energy_eV=3.7543662983807735e-05 branch=left pbc="F F F"
O        0.19515114      -1.29512732      -1.71969519
C       -0.64091044      -0.69334385      -0.78030372
C       -0.62010813       0.79664445      -0.55565133
O       -1.80557912       1.52307607      -0.30070208
C       -0.20086138      -0.13463659       0.54877305
O       -1.08235758      -0.28436805       1.62561346
C        1.22465304      -0.24503445       1.02681495
O        2.18875215      -0.29062634      -0.03411186
H       -2.37062395       1.45610055      -1.08000656
H        0.14125765       1.36015472      -1.09256590
H        1.10697871      -1.22188364      -1.38687568
H       -1.62226247      -1.14798647      -0.75493795
H       -1.74788141       0.41149909       1.53438091
H        1.33073263      -1.18187734       1.56880756
H        1.43763574       0.57110981       1.72279503
H        2.32655598       0.60550234      -0.36053882
16
Properties=species:S:1:pos:R:3 relative_energy_eV=5.6388253142358735e-05 branch=left pbc="F F F"
O        0.19540812      -1.29468587      -1.71959025
C       -0.64115934      -0.69319412      -0.78035406
C       -0.62022389       0.79677739      -0.55574813
O       -1.80559439       1.52324943      -0.30082748
C       -0.20088904      -0.13460399       0.54870795
O       -1.08231549      -0.28481798       1.62560755
C        1.22473686      -0.24511456       1.02682328
O        2.18881859      -0.29139261      -0.03409501
H       -2.37073737       1.45655701      -1.08011999
H        0.14095665       1.36002073      -1.09324638
H        1.10713303      -1.22065390      -1.38670102
H       -1.62239413      -1.14837596      -0.75464925
H       -1.74825341       0.41072684       1.53478866
H        1.33063023      -1.18164677       1.56954616
H        1.43786278       0.57168555       1.72215145
H        2.32715335       0.60467178      -0.36049760
16
Properties=species:S:1:pos:R:3 relative_energy_eV=8.095761586446315e-05 branch=left pbc="F F F"
O        0.19577815      -1.29408527      -1.71985549
C       -0.64131249      -0.69310348      -0.78054262
C       -0.62050769       0.79688884      -0.55598649
O       -1.80573588       1.52352431      -0.30081457
C       -0.20097243      -0.13455958       0.54856451
O       -1.08229398      -0.28535566       1.62562389
C        1.22476746      -0.24508891       1.02685135
O        2.18908451      -0.29243659      -0.03385797
H       -2.37104705       1.45714967      -1.08001895
H        0.14077991       1.35979571      -1.09385343
H        1.10733645      -1.21931571      -1.38660602
H       -1.62234847      -1.14887657      -0.75434862
H       -1.74860700       0.40991652       1.53536599
H        1.33039803      -1.18110958       1.57064813
H        1.43789775       0.57248899       1.72137752
H        2.32791530       0.60337028      -0.36075139
16
Properties=species:S:1:pos:R:3 relative_energy_eV=9.254331052943598e-05 branch=left pbc="F F F"
O        0.19608835      -1.29343629      -1.72030833
C       -0.64130225      -0.69300869      -0.78072696
C       -0.62082781       0.79703378      -0.55626469
O       -1.80596199       1.52385940      -0.30077921
C       -0.20107452      -0.13442252       0.54844690
O       -1.08217935      -0.28578501       1.62576757
C        1.22475354      -0.24491959       1.02689097
O        2.18949656      -0.29351765      -0.03344227
H       -2.37143522       1.45755176      -1.07989500
H        0.14082261       1.35964305      -1.09418776
H        1.10745351      -1.21832307      -1.38661896
H       -1.62213862      -1.14914603      -0.75404058
H       -1.74912419       0.40893500       1.53588357
H        1.33014300      -1.18037886       1.57168664
H        1.43779084       0.57321416       1.72073586
H        2.32862814       0.60190354      -0.36135194
16
Properties=species:S:1:pos:R:3 relative_energy_eV=0.00012061356028425507 branch=left pbc="F F F"
O        0.19599679      -1.29329807      -1.72057235
C       -0.64125570      -0.69291826      -0.78076281
C       -0.62104422       0.79718097      -0.55651663
O       -1.80623396       1.52413409      -0.30099510
C       -0.20116617      -0.13419712       0.54840759
O       -1.08185700      -0.28589290       1.62613979
C        1.22473368      -0.24471585       1.02685363
O        2.19001195      -0.29406566      -0.03308985
H       -2.37173310       1.45764196      -1.08006741
H        0.14108027       1.35960565      -1.09421829
H        1.10733411      -1.21784158      -1.38674418
H       -1.62205921      -1.14885884      -0.75370630
H       -1.74980105       0.40786792       1.53622826
H        1.33009875      -1.17991793       1.57204506
H        1.43761999       0.57344075       1.72056686
H        2.32940747       0.60103786      -0.36177248
16
Properties=species:S:1:pos:R:3 relative_energy_eV=0.000144223275128752 branch=left pbc="F F F"
O        0.19565249      -1.29311650      -1.72077764
C       -0.64114581      -0.69267906      -0.78074881
C       -0.62112634       0.79736935      -0.55658527
O       -1.80645100       1.52428149      -0.30132124
C       -0.20117177      -0.13393230       0.54841261
O       -1.08141751      -0.28587735       1.62650081
C        1.22472605      -0.24442843       1.02680965
O        2.19050873      -0.29452652      -0.03265567
H       -2.37196900       1.45738580      -1.08035111
H        0.14136004       1.35974668      -1.09391223
H        1.10697881      -1.21798922      -1.38697837
H       -1.62195859      -1.14819860      -0.75342238
H       -1.75055456       0.40658696       1.53635077
H        1.33007737      -1.17935247       1.57217446
H        1.43751708       0.57358357       1.72040596
H        2.33010664       0.60034957      -0.36210574
16
Properties=species:S:1:pos:R:3 relative_energy_eV=0.00015980244825186674 branch=left pbc="F F F"
O        0.19465475      -1.29386544      -1.72044443
C       -0.64126121      -0.69244348      -0.78046487
C       -0.62100371       0.79750469      -0.55659265
O       -1.80652044       1.52441909      -0.30228612
C       -0.20110950      -0.13356675       0.54849485
O       -1.08060005      -0.28548675       1.62713497
C        1.22480791      -0.24432454       1.02655813
O        2.19097190      -0.29393067      -0.03272234
H       -2.37196238       1.45687724      -1.08130888
H        0.14182887       1.35975852      -1.09341227
H        1.10625497      -1.21832337      -1.38718946
H       -1.62228462      -1.14707611      -0.75283441
H       -1.75150103       0.40525352       1.53636353
H        1.33023479      -1.17970510       1.57119001
H        1.43754940       0.57301175       1.72083595
H        2.33107297       0.60110038      -0.36152621
16
Properties=species:S:1:pos:R:3 relative_energy_eV=0.00019347257875779178 branch=left pbc="F F F"
O        0.19368426      -1.29364075      -1.72056170
C       -0.64139928      -0.69195704      -0.78040598
C       -0.62094592       0.79764702      -0.55633315
O       -1.80648548       1.52450021      -0.30306821
C       -0.20087050      -0.13327877       0.54839610
O       -1.07973570      -0.28551865       1.62733894
C        1.22491151      -0.24403470       1.02631830
O        2.19130804      -0.29411348      -0.03255601
H       -2.37202958       1.45633313      -1.08196574
H        0.14206738       1.35968817      -1.09260646
H        1.10536468      -1.21892218      -1.38753764
H       -1.62238252      -1.14627925      -0.75226267
H       -1.75215448       0.40350090       1.53639208
H        1.32974912      -1.17921035       1.57114140
H        1.43770382       0.57337949       1.72021792
H        2.33234727       0.60110923      -0.36071139
16
Properties=species:S:1:pos:R:3 relative_energy_eV=0.00024858684446371626 branch=left pbc="F F F"
O        0.19258789      -1.29372754      -1.72051614
C       -0.64189219      -0.69162617      -0.78024425
C       -0.62092805       0.79765766      -0.55608126
O       -1.80624185       1.52483196      -0.30409746
C       -0.20056358      -0.13300005       0.54819227
O       -1.07861639      -0.28563286       1.62752204
C        1.22509505      -0.24396679       1.02583561
O        2.19132733      -0.29368125      -0.03313270
H       -2.37184291       1.45595814      -1.08290866
H        0.14242639       1.35906804      -1.09181580
H        1.10443709      -1.21899649      -1.38764312
H       -1.62277114      -1.14607955      -0.75128653
H       -1.75250395       0.40200406       1.53655292
H        1.32869596      -1.17939419       1.57081283
H        1.43797782       0.57371038       1.71953495
H        2.33394516       0.60207761      -0.35892893
16
Properties=species:S:1:pos:R:3 relative_energy_eV=0.00033351075944665354 branch=left pbc="F F F"
O        0.19243839      -1.29245836      -1.72124770
C       -0.64235742      -0.69143261      -0.78045467
C       -0.62126732       0.79763663      -0.55582678
O       -1.80607710       1.52533172      -0.30417980
C       -0.20027864      -0.13295551       0.54773013
O       -1.07788227      -0.28648504       1.62715409
C        1.22518241      -0.24373495       1.02543531
O        2.19101162      -0.29445731      -0.03360525
H       -2.37172377       1.45605205      -1.08292691
H        0.14256568       1.35824417      -1.09119172
H        1.10406691      -1.21856430      -1.38756308
H       -1.62276446      -1.14720881      -0.75056123
H       -1.75198345       0.40087479       1.53689499
H        1.32663570      -1.17851722       1.57210538
H        1.43814078       0.57531453       1.71763336
H        2.33542556       0.60156319      -0.35760040
16
Properties=species:S:1:pos:R:3 relative_energy_eV=0.00042488596591283567 branch=left pbc="F F F"
O        0.19296004      -1.29121905      -1.72199222
C       -0.64275729      -0.69157627      -0.78065489
C       -0.62174380       0.79765932      -0.55577915
O       -1.80609862       1.52602497      -0.30378139
C       -0.20023060      -0.13297049       0.54732413
O       -1.07741456      -0.28740341       1.62696140
C        1.22514612      -0.24350492       1.02504006
O        2.19055981      -0.29529611      -0.03427751
H       -2.37153229       1.45634261      -1.08265978
H        0.14287261       1.35756151      -1.09082937
H        1.10427569      -1.21772853      -1.38710570
H       -1.62274441      -1.14885191      -0.75007020
H       -1.75120699       0.40030576       1.53722701
H        1.32446466      -1.17771876       1.57339709
H        1.43814553       0.57683619       1.71597462
H        2.33643671       0.60074202      -0.35697838
16
Properties=species:S:1:pos:R:3 relative_energy_eV=0.0005306480088620447 branch=left pbc="F F F"
O        0.19402102      -1.28969704      -1.72286448
C       -0.64290502      -0.69181331      -0.78095080
C       -0.62229593       0.79785145      -0.55578103
O       -1.80645151       1.52668930      -0.30290171
C       -0.20045574      -0.13304725       0.54702315
O       -1.07725921      -0.28844254       1.62698319
C        1.22490707      -0.24297985       1.02474259
O        2.19021944      -0.29678575      -0.03459275
H       -2.37148955       1.45658997      -1.08200859
H        0.14323325       1.35754587      -1.09039902
H        1.10489779      -1.21714856      -1.38645041
H       -1.62256827      -1.15042748      -0.75014315
H       -1.75043776       0.39973327       1.53744575
H        1.32247483      -1.17629959       1.57487355
H        1.43803943       0.57857313       1.71427172
H        2.33720278       0.59886134      -0.35745228
16
Properties=species:S:1:pos:R:3 relative_energy_eV=0.000661292082440923 branch=left pbc="F F F"
O        0.19519138      -1.28841600      -1.72353053
C       -0.64293861      -0.69207075      -0.78123594
C       -0.62284924       0.79828761      -0.55572623
O       -1.80718351       1.52737973      -0.30207215
C       -0.20110248      -0.13312198       0.54692430
O       -1.07712234      -0.28958368       1.62766819
C        1.22439331      -0.24198220       1.02431740
O        2.19007037      -0.29865523      -0.03479144
H       -2.37168563       1.45656763      -1.08149597
H        0.14384036       1.35853792      -1.08933635
H        1.10566406      -1.21724664      -1.38541889
H       -1.62255023      -1.15143506      -0.75083940
H       -1.75009228       0.39862129       1.53756774
H        1.32085914      -1.17445102       1.57573994
H        1.43803202       0.58046914       1.71262189
H        2.33860630       0.59630217      -0.35859685
16
Properties=species:S:1:pos:R:3 relative_energy_eV=0.0008912821613193955 branch=left pbc="F F F"
O        0.19625381      -1.28704955      -1.72412453
C       -0.64289605      -0.69207672      -0.78181432
C       -0.62348815       0.79895502      -0.55533284
O       -1.80836483       1.52791245      -0.30148267
C       -0.20228942      -0.13338394       0.54695242
O       -1.07710356      -0.29132391       1.62889217
C        1.22347172      -0.24007056       1.02373350
O        2.19020241      -0.30175965      -0.03454046
H       -2.37261869       1.45637719      -1.08099313
H        0.14428986       1.36106818      -1.08683250
H        1.10633962      -1.21863313      -1.38395711
H       -1.62263646      -1.15164613      -0.75281770
H       -1.75026908       0.39642854       1.53783312
H        1.31978010      -1.17131307       1.57640541
H        1.43842994       0.58356387       1.71003868
H        2.34203138       0.59215434      -0.36016432
16
Properties=species:S:1:pos:R:3 relative_energy_eV=0.0012813456687581493 branch=left pbc="F F F"
O        0.19678428      -1.28598085      -1.72449854
C       -0.64295864      -0.69166260      -0.78284721
C       -0.62426910       0.79949129      -0.55452409
O       -1.80962896       1.52807699      -0.30150454
C       -0.20381907      -0.13399183       0.54695693
O       -1.07740000      -0.29372508       1.63001346
C        1.22232380      -0.23754064       1.02301192
O        2.19041661      -0.30573085      -0.03403821
H       -2.37457336       1.45652296      -1.08054987
H        0.14394062       1.36460007      -1.08276274
H        1.10659266      -1.22111516      -1.38222306
H       -1.62278286      -1.15121020      -0.75623449
H       -1.75095089       0.39373283       1.53876711
H        1.31969325      -1.16730655       1.57708995
H        1.43935037       0.58802973       1.70632542
H        2.34841391       0.58701283      -0.36118632
16
Properties=species:S:1:pos:R:3 relative_energy_eV=0.001893876451504184 branch=left pbc="F F F"
O        0.19720396      -1.28467102      -1.72510294
C       -0.64315480      -0.69085615      -0.78464849
C       -0.62555533       0.79948285      -0.55342418
O       -1.81075977       1.52776301      -0.30145778
C       -0.20539551      -0.13512692       0.54656493
O       -1.07866668      -0.29704821       1.62966082
C        1.22119819      -0.23490841       1.02232601
O        2.19019620      -0.31068928      -0.03356826
H       -2.37749062       1.45793233      -1.07934135
H        0.14205860       1.36789831      -1.07777287
H        1.10658004      -1.22364984      -1.38043639
H       -1.62236839      -1.15145047      -0.76113181
H       -1.75143579       0.39188288       1.54120798
H        1.32031026      -1.16236639       1.57949487
H        1.44029879       0.59430498       1.70071672
H        2.35811344       0.58070530      -0.36129152
16
Properties=species:S:1:pos:R:3 relative_energy_eV=0.002733599740167847 branch=left pbc="F F F"
O        0.19794177      -1.28290694      -1.72659303
C       -0.64351306      -0.69016259      -0.78716936
C       -0.62769836       0.79869331      -0.55252887
O       -1.81189807       1.52689738      -0.30009614
C       -0.20679208      -0.13677841       0.54548792
O       -1.08140312      -0.30114173       1.62692843
C        1.22033643      -0.23293110       1.02168445
O        2.18904678      -0.31584246      -0.03392576
H       -2.38061084       1.46123436      -1.07690700
H        0.13886012       1.36923441      -1.07357723
H        1.10651319      -1.22510347      -1.37933371
H       -1.62119226      -1.15345503      -0.76656415
H       -1.75064187       0.39251743       1.54573196
H        1.32123185      -1.15682456       1.58479534
H        1.44002028       0.60182529       1.69343055
H        2.37093184       0.57394711      -0.35956767
16
Properties=species:S:1:pos:R:3 relative_energy_eV=0.0036392495949257864 branch=left pbc="F F F"
O        0.19906786      -1.28078604      -1.72915080
C       -0.64392547      -0.69015027      -0.78983923
C       -0.63035778       0.79743880      -0.55226218
O       -1.81334223       1.52561659      -0.29687646
C       -0.20781884      -0.13860960       0.54387092
O       -1.08508253      -0.30517030       1.62256898
C        1.21981728      -0.23191009       1.02115870
O        2.18742571      -0.32024502      -0.03507712
H       -2.38276536       1.46567076      -1.07352733
H        0.13553052       1.36815902      -1.07185798
H        1.10658180      -1.22504584      -1.37960736
H       -1.61968935      -1.15686706      -0.77098370
H       -1.74803185       0.39565146       1.55123708
H        1.32183321      -1.15136840       1.59229126
H        1.43789051       0.60885277       1.68600623
H        2.38399913       0.56796623      -0.35615529
16
Properties=species:S:1:pos:R:3 relative_energy_eV=0.004521845579802175 branch=left pbc="F F F"
O        0.20017962      -1.27921210      -1.73200996
C       -0.64436693      -0.69086915      -0.79207888
C       -0.63300132       0.79620988      -0.55258375
O       -1.81517458       1.52416332      -0.29245538
C       -0.20856442      -0.14024636       0.54210638
O       -1.08866696      -0.30840830       1.61820596
C        1.21953944      -0.23166797       1.02047266
O        2.18611860      -0.32325191      -0.03673751
H       -2.38357942       1.47000936      -1.07026358
H        0.13302248       1.36574493      -1.07242050
H        1.10674084      -1.22403635      -1.38104440
H       -1.61863615      -1.16032926      -0.77390069
H       -1.74432397       0.39999755       1.55641551
H        1.32201422      -1.14662237       1.59984511
H        1.43431506       0.61400666       1.68005063
H        2.39551610       0.56371510      -0.35180587
16
Properties=species:S:1:pos:R:3 relative_energy_eV=0.005192788925342029 branch=left pbc="F F F"
O        0.20081126      -1.27840195      -1.73410072
C       -0.64468670      -0.69177515      -0.79334634
C       -0.63472237       0.79555249      -0.55304066
O       -1.81698754       1.52303274      -0.28871483
C       -0.20906010      -0.14121937       0.54085243
O       -1.09099803      -0.31035224       1.61549091
C        1.21942102      -0.23166810       1.01973671
O        2.18561641      -0.32476873      -0.03819613
H       -2.38321010       1.47262859      -1.06820250
H        0.13196642       1.36370678      -1.07395779
H        1.10672838      -1.22327940      -1.38272136
H       -1.61830050      -1.16233505      -0.77509922
H       -1.74134283       0.40331804       1.55967138
H        1.32197228      -1.14334257       1.60487497
H        1.43103623       0.61643213       1.67659655
H        2.40288878       0.56167483      -0.34804768
16
Properties=species:S:1:pos:R:3 relative_energy_eV=0.005888953905014205 branch=left pbc="F F F"
O        0.20019582      -1.27916192      -1.73562780
C       -0.64523973      -0.69290589      -0.79402566
C       -0.63588617       0.79524965      -0.55358521
O       -1.81924439       1.52149150      -0.28535706
C       -0.20958300      -0.14195627       0.53982458
O       -1.09242992      -0.31168983       1.61416287
C        1.21932201      -0.23170888       1.01841966
O        2.18596720      -0.32484734      -0.03984796
H       -2.38200818       1.47413180      -1.06765651
H        0.13194833       1.36210581      -1.07617101
H        1.10599894      -1.22340092      -1.38504980
H       -1.61942069      -1.16218812      -0.77518320
H       -1.73851595       0.40597142       1.56191445
H        1.32260816      -1.14076375       1.60760462
H        1.42768392       0.61706106       1.67461111
H        2.40973625       0.56181472      -0.34223739
16
Properties=species:S:1:pos:R:3 relative_energy_eV=0.006753996834959253 branch=left pbc="F F F"
O        0.19863423      -1.27810793      -1.73858354
C       -0.64575376      -0.69344832      -0.79506344
C       -0.63657132       0.79529369      -0.55370805
O       -1.82213595       1.51916805      -0.28249119
C       -0.21005754      -0.14291868       0.53888362
O       -1.09346929      -0.31439353       1.61313262
C        1.21900389      -0.23064127       1.01739678
O        2.18678069      -0.32632095      -0.03990167
H       -2.38137425       1.47478936      -1.06716703
H        0.13225159       1.36138962      -1.07811981
H        1.10425774      -1.22618121      -1.38859509
H       -1.62101073      -1.15996814      -0.77466171
H       -1.73585608       0.40700028       1.56315422
H        1.32434745      -1.13607672       1.61067029
H        1.42556278       0.61946149       1.67095012
H        2.41652317       0.56015734      -0.33410046
16
Properties=species:S:1:pos:R:3 relative_energy_eV=0.007910710110081709 branch=left pbc="F F F"
O        0.19307029      -1.28196477      -1.74143195
C       -0.64778464      -0.69535492      -0.79601807
C       -0.63689465       0.79337432      -0.55485012
O       -1.82418823       1.51465732      -0.28157052
C       -0.21018700      -0.14559688       0.53746392
O       -1.09346944      -0.31704267       1.61249719
C        1.21850428      -0.23028626       1.01646187
O        2.18786163      -0.32518819      -0.03994984
H       -2.38126577       1.47750438      -1.06879446
H        0.13124575       1.35940244      -1.08214631
H        1.10043549      -1.22769009      -1.39414472
H       -1.62648613      -1.15495363      -0.77296282
H       -1.72940397       0.41023814       1.56421469
H        1.32879763      -1.13471178       1.61071334
H        1.42403428       0.62154619       1.66826593
H        2.42686308       0.56526951      -0.31595246
16
Properties=species:S:1:pos:R:3 relative_energy_eV=0.00919411466929887 branch=left pbc="F F F"
O        0.19340860      -1.27347127      -1.74888488
C       -0.64728719      -0.69398236      -0.79954305
C       -0.63798386       0.79289288      -0.55431314
O       -1.82589605       1.51093487      -0.27823562
C       -0.20989490      -0.14821195       0.53588854
O       -1.09489672      -0.32354200       1.60860794
C        1.21737668      -0.22720611       1.01830664
O        2.18793270      -0.33423829      -0.03351644
H       -2.38525790       1.48005081      -1.06403345
H        0.12830301       1.36010158      -1.08238414
H        1.09995688      -1.23117431      -1.39761792
H       -1.62552560      -1.15384857      -0.77479784
H       -1.72470563       0.40956995       1.56439556
H        1.32997844      -1.12442527       1.62085550
H        1.42534314       0.63300375       1.65793513
H        2.43028098       0.55274942      -0.31086721
16
Properties=species:S:1:pos:R:3 relative_energy_eV=0.010400913050034433 branch=left pbc="F F F"
O        0.19264561      -1.27086898      -1.75317275
C       -0.64767608      -0.69454348      -0.80171714
C       -0.63890422       0.79061439      -0.55511271
O       -1.82562948       1.50818128      -0.27706485
C       -0.20930393      -0.15112512       0.53436719
O       -1.09580174      -0.32694500       1.60528023
C        1.21667861      -0.22645053       1.02025941
O        2.18724992      -0.33863018      -0.02991006
H       -2.38806324       1.48439694      -1.06078505
H        0.12474278       1.35853407      -1.08441561
H        1.09959676      -1.22943323      -1.40001605
H       -1.62594049      -1.15457953      -0.77582192
H       -1.71832522       0.41226209       1.56498926
H        1.33084528      -1.12131276       1.62684992
H        1.42607626       0.63970175       1.65247043
H        2.43294173       0.54940145      -0.30440470
16
Properties=species:S:1:pos:R:3 relative_energy_eV=0.01146939391583146 branch=left pbc="F F F"
O        0.19577500      -1.26343278      -1.75821726
C       -0.64658982      -0.69406699      -0.80440145
C       -0.64037555       0.78930933      -0.55534189
O       -1.82482667       1.50692238      -0.27410191
C       -0.20863417      -0.15331074       0.53307843
O       -1.09742635      -0.33061939       1.60091749
C        1.21594046      -0.22522676       1.02311322
O        2.18605174      -0.34646735      -0.02494097
H       -2.39193091       1.48834604      -1.05487317
H        0.12107515       1.35787723      -1.08486212
H        1.10167546      -1.22713363      -1.40045883
H       -1.62256619      -1.15863354      -0.77853083
H       -1.71367134       0.41368872       1.56546621
H        1.32877312      -1.11550689       1.63673055
H        1.42673855       0.64846151       1.64584718
H        2.43112404       0.53899605      -0.30762906
16
Properties=species:S:1:pos:R:3 relative_energy_eV=0.012897015743874363 branch=left pbc="F F F"
O        0.20038031      -1.25678154      -1.76302025
C       -0.64541748      -0.69504875      -0.80735023
C       -0.64256888       0.78695779      -0.55633595
O       -1.82398913       1.50608852      -0.26978135
C       -0.20761448      -0.15619263       0.53115803
O       -1.09931296      -0.33359959       1.59553185
C        1.21537743      -0.22465919       1.02666715
O        2.18560193      -0.35502606      -0.01995425
H       -2.39558017       1.49450390      -1.04669649
H        0.11598747       1.35647968      -1.08667195
H        1.10519938      -1.22052343      -1.40059890
H       -1.61851218      -1.16568542      -0.78285814
H       -1.70633258       0.41769682       1.56638448
H        1.32412708      -1.11035424       1.64922954
H        1.42549648       0.65697655       1.64015913
H        2.42829027       0.52837080      -0.31406708
16
Properties=species:S:1:pos:R:3 relative_energy_eV=0.014763832348762662 branch=left pbc="F F F"
O        0.20713225      -1.24891968      -1.76798289
C       -0.64347029      -0.69626540      -0.81094012
C       -0.64531729       0.78529147      -0.55692052
O       -1.82396173       1.50491240      -0.26226378
C       -0.20637901      -0.15894077       0.52885635
O       -1.10077845      -0.33685901       1.59008735
C        1.21496262      -0.22354231       1.03004069
O        2.18721351      -0.36643040      -0.01393524
H       -2.39927871       1.50050670      -1.03693636
H        0.11032730       1.35702972      -1.08822690
H        1.10986449      -1.21313481      -1.40045553
H       -1.61352898      -1.17321752      -0.78961433
H       -1.69864853       0.42140558       1.56700642
H        1.31649948      -1.10189610       1.66505073
H        1.42175986       0.66643828       1.63416875
H        2.42473592       0.51282512      -0.32613906
16
Properties=species:S:1:pos:R:3 relative_energy_eV=0.01711844967394427 branch=left pbc="F F F"
O        0.21322487      -1.24437492      -1.77122702
C       -0.64199907      -0.69808177      -0.81466407
C       -0.64787653       0.78415854      -0.55694689
O       -1.82608922       1.50288228      -0.25349317
C       -0.20504999      -0.16144059       0.52594312
O       -1.10079701      -0.33977907       1.58611243
C        1.21505022      -0.22201682       1.03175710
O        2.19267660      -0.37775098      -0.00761285
H       -2.40118168       1.50538909      -1.02761800
H        0.10415791       1.36027552      -1.08953826
H        1.11400140      -1.20593641      -1.40084204
H       -1.61081644      -1.17808431      -0.79834475
H       -1.69087959       0.42469589       1.56693647
H        1.30767485      -1.09196297       1.68053578
H        1.41595233       0.67391190       1.62927456
H        2.42308373       0.49731788      -0.33847684
16
Properties=species:S:1:pos:R:3 relative_energy_eV=0.01859611564759689 branch=left pbc="F F F"
O        0.21619615      -1.24194783      -1.77249963
C       -0.64122253      -0.69844242      -0.81678889
C       -0.64901533       0.78446101      -0.55609626
O       -1.82787703       1.50121713      -0.24798262
C       -0.20437975      -0.16228132       0.52432114
O       -1.10005281      -0.34185890       1.58479930
C        1.21527272      -0.22048960       1.03163164
O        2.19712557      -0.38456505      -0.00365039
H       -2.40174678       1.50636132      -1.02348979
H        0.10104073       1.36392107      -1.08935233
H        1.11544405      -1.20414567      -1.40139211
H       -1.60998746      -1.17862586      -0.80363544
H       -1.68800677       0.42489892       1.56625899
H        1.30280464      -1.08466622       1.68876316
H        1.41257040       0.67768053       1.62616875
H        2.42296657       0.48768619      -0.34525997
16
Properties=species:S:1:pos:R:3 relative_energy_eV=0.02054716208476748 branch=left pbc="F F F"
O        0.21642814      -1.24482219      -1.77065490
C       -0.64178220      -0.69852179      -0.81854891
C       -0.64963738       0.78543255      -0.55458039
O       -1.83155524       1.49866665      -0.24395034
C       -0.20359319      -0.16264798       0.52232798
O       -1.09736584      -0.34376769       1.58531814
C        1.21644398      -0.21897337       1.02889161
O        2.20492388      -0.38911575       0.00035772
H       -2.40058745       1.50522061      -1.02226465
H        0.09731429       1.37049130      -1.08763966
H        1.11426382      -1.20429208      -1.40194937
H       -1.61317513      -1.17411334      -0.81022473
H       -1.68596947       0.42335857       1.56422804
H        1.29951646      -1.07762240       1.69392465
H        1.41035886       0.67810861       1.62370695
H        2.42554882       0.48180159      -0.34714658
16
Properties=species:S:1:pos:R:3 relative_energy_eV=0.022396674923584214 branch=left pbc="F F F"
O        0.21826513      -1.24133942      -1.77073424
C       -0.64069522      -0.69587066      -0.81994445
C       -0.64990800       0.78763451      -0.55227830
O       -1.83405444       1.49736573      -0.24113794
C       -0.20315128      -0.16181572       0.52152926
O       -1.09596215      -0.34667006       1.58532791
C        1.21734665      -0.21617829       1.02746174
O        2.20897409      -0.39512618       0.00445476
H       -2.40096340       1.50174681      -1.02144594
H        0.09562950       1.37712410      -1.08364802
H        1.11252654      -1.20897265      -1.40099996
H       -1.61334921      -1.17001614      -0.81486513
H       -1.68809063       0.41788697       1.56202387
H        1.29777294      -1.06970579       1.69945399
H        1.41152552       0.68129881       1.61804298
H        2.42526631       0.47184129      -0.35144498
16
Properties=species:S:1:pos:R:3 relative_energy_eV=0.024799179980618646 branch=left pbc="F F F"
O        0.21996916      -1.22814593      -1.77707579
C       -0.64079372      -0.69326695      -0.82156846
C       -0.65071682       0.78976587      -0.55049645
O       -1.83195793       1.49910881      -0.23328377
C       -0.20517477      -0.16226089       0.52051500
O       -1.10089108      -0.34914144       1.58075659
C        1.21191358      -0.21628198       1.02857881
O        2.20682753      -0.40250259       0.01110416
H       -2.39889187       1.50325234      -1.01315997
H        0.09722516       1.37005357      -1.08962259
H        1.11975132      -1.20753732      -1.41002651
H       -1.60449950      -1.18529556      -0.81152197
H       -1.68550992       0.42213139       1.56393887
H        1.29222544      -1.05994317       1.71083218
H        1.40825110       0.68455669       1.61388007
H        2.42340467       0.46471047      -0.36105463
16
Properties=species:S:1:pos:R:3 relative_energy_eV=0.026809341845364543 branch=left pbc="F F F"
O        0.22902685      -1.21282649      -1.78076270
C       -0.63706100      -0.68602817      -0.82428141
C       -0.65166022       0.79562416      -0.54740005
O       -1.83449233       1.49932166      -0.22793274
C       -0.20630665      -0.16023184       0.52071919
O       -1.10284984      -0.35355806       1.57804883
C        1.21021799      -0.21252584       1.02988775
O        2.20620530      -0.41470288       0.01903163
H       -2.40296370       1.49963777      -1.00623334
H        0.09712820       1.37678575      -1.08248191
H        1.12582596      -1.21267881      -1.40380281
H       -1.59559673      -1.18777251      -0.81788701
H       -1.69089926       0.41275271       1.56234347
H        1.28855474      -1.04578552       1.72285268
H        1.41230896       0.69461104       1.60185281
H        2.41369405       0.43658035      -0.38215886
16
Properties=species:S:1:pos:R:3 relative_energy_eV=0.02982728246752231 branch=left pbc="F F F"
O        0.23339515      -1.21276968      -1.78057396
C       -0.63604348      -0.68594126      -0.82441349
C       -0.65180822       0.79584061      -0.54828149
O       -1.83308730       1.49804037      -0.22414541
C       -0.20802817      -0.16067352       0.52037484
O       -1.10528415      -0.35114254       1.57714186
C        1.20708608      -0.21343576       1.03083946
O        2.20237665      -0.41534304       0.01806204
H       -2.40270655       1.50330632      -1.00223329
H        0.09726357       1.37413681      -1.08602449
H        1.13547045      -1.20362828      -1.39785850
H       -1.59069041      -1.19408388      -0.81834314
H       -1.68871490       0.41715270       1.56509561
H        1.28585571      -1.04855874       1.72245387
H        1.40888602       0.69422144       1.60166414
H        2.40716187       0.43208177      -0.39196249
16
Properties=species:S:1:pos:R:3 relative_energy_eV=0.03331347283528885 branch=left pbc="F F F"
O        0.24780509      -1.16458390      -1.80223630
C       -0.62577778      -0.67630370      -0.82968717
C       -0.65150432       0.80098854      -0.54124386
O       -1.83215996       1.50393515      -0.21902225
C       -0.20659135      -0.15703542       0.52323492
O       -1.11105015      -0.36346079       1.57097114
C        1.20739073      -0.20013656       1.03828729
O        2.19659863      -0.44425364       0.03006322
H       -2.41035828       1.49264232      -0.98946518
H        0.10084159       1.37960970      -1.07426587
H        1.13252734      -1.23115599      -1.40441193
H       -1.57240985      -1.19952676      -0.81548772
H       -1.70576369       0.39827917       1.56366603
H        1.28027313      -1.01961500       1.74842027
H        1.41345388       0.72385930       1.58215458
H        2.39785721       0.38596090      -0.41918163
16
Properties=species:S:1:pos:R:3 relative_energy_eV=0.043252998364550876 branch=left pbc="F F F"
O        0.26584526      -1.11430269      -1.82452719
C       -0.61279326      -0.66437154      -0.83769678
C       -0.65083994       0.80824958      -0.53135316
O       -1.83410275       1.50807005      -0.21310530
C       -0.20358812      -0.15198492       0.52623192
O       -1.11445116      -0.37757740       1.56710174
C        1.21178237      -0.18219977       1.04316595
O        2.19891385      -0.47970235       0.04646642
H       -2.42007925       1.47575632      -0.97758432
H        0.10000666       1.39825418      -1.05172540
H        1.12752306      -1.26766824      -1.40537269
H       -1.55717857      -1.19259191      -0.81990828
H       -1.73099276       0.36845062       1.56028620
H        1.27395638      -0.98222113       1.77535530
H        1.42052968       0.76160144       1.55737942
H        2.38660063       0.32144111      -0.45291832
16
Properties=species:S:1:pos:R:3 relative_energy_eV=0.04679359361580282 branch=left pbc="F F F"
O        0.26879021      -1.10582379      -1.82942504
C       -0.61036768      -0.66360132      -0.83939089
C       -0.65061876       0.80856427      -0.52958985
O       -1.83378555       1.50926797      -0.21180749
C       -0.20313350      -0.15129240       0.52674034
O       -1.11555135      -0.37980081       1.56653236
C        1.21282943      -0.17883592       1.04382341
O        2.20079592      -0.48603730       0.04930670
H       -2.42118360       1.47335506      -0.97488538
H        0.09892340       1.40130993      -1.04811916
H        1.12844709      -1.27309693      -1.40547263
H       -1.55474209      -1.19214189      -0.82039848
H       -1.73632393       0.36500358       1.56081213
H        1.27225615      -0.97644088       1.77882242
H        1.42087544       0.76880847       1.55408258
H        2.38392089       0.30996532      -0.45923556
16
Properties=species:S:1:pos:R:3 relative_energy_eV=0.05131081841318519 branch=left pbc="F F F"
O        0.26646113      -1.11944718      -1.82803222
C       -0.61200914      -0.67112992      -0.83934127
C       -0.65005120       0.80350613      -0.53228733
O       -1.83018182       1.50738283      -0.20952126
C       -0.20408680      -0.15367589       0.52547498
O       -1.11752932      -0.37209877       1.56887615
C        1.21139368      -0.18193028       1.04171390
O        2.20341327      -0.47883062       0.04494407
H       -2.41694980       1.48055481      -0.97412629
H        0.09543077       1.39632149      -1.05565834
H        1.14091171      -1.25817084      -1.40202507
H       -1.55806531      -1.19602154      -0.81871724
H       -1.73181272       0.37811744       1.56709695
H        1.26994874      -0.98916735       1.76695110
H        1.41150535       0.76350105       1.56512358
H        2.38275358       0.32029200      -0.45867623
16
Properties=species:S:1:pos:R:3 relative_energy_eV=0.05250410592270782 branch=left pbc="F F F"
O        0.27726595      -1.08516621      -1.83532102
C       -0.60283656      -0.65232303      -0.84072240
C       -0.64923112       0.81733356      -0.52321691
O       -1.83931140       1.50659497      -0.20864222
C       -0.20069214      -0.14572524       0.52954378
O       -1.11372796      -0.38917846       1.56551722
C        1.21602938      -0.17121537       1.04519738
O        2.20401090      -0.50637246       0.06233826
H       -2.42329422       1.45697679      -0.97322965
H        0.09650083       1.42410409      -1.03074370
H        1.11657224      -1.29630928      -1.39857097
H       -1.54999549      -1.17632108      -0.83068092
H       -1.75183770       0.33800583       1.55433055
H        1.26984016      -0.95575711       1.79320778
H        1.43170010       0.78912828       1.52811749
H        2.38013904       0.27542811      -0.47532920
16
Properties=species:S:1:pos:R:3 relative_energy_eV=0.05583239471161505 branch=left pbc="F F F"
O        0.28389317      -1.07241192      -1.83624676
C       -0.59856524      -0.64791122      -0.84019076
C       -0.65174911       0.82114787      -0.52243787
O       -1.84231423       1.51194197      -0.21016226
C       -0.20114824      -0.14182962       0.53171011
O       -1.11581890      -0.39595832       1.56207056
C        1.21558884      -0.16916995       1.04875580
O        2.19920005      -0.51514043       0.06594074
H       -2.43361356       1.45696213      -0.96976437
H        0.10002709       1.42798812      -1.02256892
H        1.12021751      -1.29802069      -1.38670701
H       -1.54012079      -1.18157004      -0.83817138
H       -1.75634995       0.33107806       1.55089824
H        1.27125476      -0.95003669       1.80362611
H        1.44373540       0.79485001       1.51809997
H        2.36689520       0.25728408      -0.49305673
16
Properties=species:S:1:pos:R:3 relative_energy_eV=0.060616524760916946 branch=left pbc="F F F"
O        0.29261860      -1.05242073      -1.83723753
C       -0.59403545      -0.63672295      -0.84170455
C       -0.65379185       0.82979780      -0.51882533
O       -1.84946107       1.51506807      -0.21290923
C       -0.20017831      -0.13742742       0.53344350
O       -1.11403632      -0.40600096       1.55928845
C        1.21741678      -0.16333293       1.05187048
O        2.19531654      -0.52859336       0.07308626
H       -2.44578947       1.44908494      -0.96809422
H        0.10451679       1.43889796      -1.00657752
H        1.11162446      -1.31537072      -1.38042003
H       -1.53217442      -1.17597789      -0.84725060
H       -1.76371866       0.30978324       1.54192764
H        1.27412035      -0.93097188       1.82176424
H        1.45882237       0.80533504       1.50219959
H        2.35988159       0.22805518      -0.50876567
16
Properties=species:S:1:pos:R:3 relative_energy_eV=0.06554396001229179 branch=left pbc="F F F"
O        0.29663976      -1.03479121      -1.84050523
C       -0.59236462      -0.62959714      -0.84362011
C       -0.65619623       0.83464406      -0.51659056
O       -1.85387012       1.52065904      -0.21755629
C       -0.19954724      -0.13549541       0.53409465
O       -1.11249505      -0.41434103       1.55667894
C        1.21894227      -0.15840392       1.05526965
O        2.19128093      -0.53617734       0.07693856
H       -2.45780956       1.44585760      -0.96665819
H        0.11091002       1.43958016      -0.99653745
H        1.10337345      -1.33089745      -1.38531404
H       -1.52653304      -1.17648526      -0.84916228
H       -1.76690059       0.29735007       1.53496768
H        1.27794531      -0.91499154       1.83766495
H        1.46871463       0.81153598       1.49761579
H        2.35904201       0.21075677      -0.51549062
16
Properties=species:S:1:pos:R:3 relative_energy_eV=0.06916762870969251 branch=left pbc="F F F"
O        0.29741355      -1.02290093      -1.84418037
C       -0.59235460      -0.62478493      -0.84592482
C       -0.65747763       0.83804058      -0.51438196
O       -1.85708299       1.52402054      -0.22125922
C       -0.19854926      -0.13507982       0.53404870
O       -1.11077453      -0.41945310       1.55592925
C        1.22131849      -0.15370703       1.05689733
O        2.19171744      -0.54074568       0.08027427
H       -2.46559337       1.44227651      -0.96645500
H        0.11477676       1.44038844      -0.98873951
H        1.09476920      -1.34615084      -1.39457834
H       -1.52546151      -1.17397735      -0.84923842
H       -1.76914968       0.28692552       1.52977977
H        1.28062512      -0.90099667       1.84872213
H        1.47360438       0.81671313       1.49688040
H        2.36335051       0.19863503      -0.51597881
16
Properties=species:S:1:pos:R:3 relative_energy_eV=0.07184200957635767 branch=left pbc="F F F"
O        0.29414691      -1.01334406      -1.85015827
C       -0.59365338      -0.62255035      -0.84756453
C       -0.65808480       0.83886192      -0.51232497
O       -1.85779415       1.52761147      -0.22447073
C       -0.19732629      -0.13567660       0.53395236
O       -1.10980847      -0.42345094       1.55539091
C        1.22393145      -0.14988969       1.05800804
O        2.19452706      -0.54344983       0.08357275
H       -2.46919127       1.43892075      -0.96701241
H        0.11755628       1.43824122      -0.98503413
H        1.08488648      -1.36100715      -1.41041180
H       -1.52694172      -1.17308006      -0.84515742
H       -1.77107432       0.28102546       1.52664892
H        1.28251258      -0.88964694       1.85648903
H        1.47521577       0.82092758       1.49909613
H        2.37222972       0.19571061      -0.50922848
16
Properties=species:S:1:pos:R:3 relative_energy_eV=0.07463200222628075 branch=left pbc="F F F"
O        0.29145690      -1.00380144      -1.85545402
C       -0.59456070      -0.61831661      -0.84951041
C       -0.65813058       0.84140909      -0.50856119
O       -1.85960653       1.52958404      -0.22666746
C       -0.19546590      -0.13571234       0.53413216
O       -1.10846951      -0.42819710       1.55534788
C        1.22846029      -0.14511449       1.05718734
O        2.20210973      -0.54931769       0.08923676
H       -2.47052544       1.43099800      -0.96867331
H        0.11729862       1.44302444      -0.97738312
H        1.07221759      -1.38008323      -1.42413658
H       -1.53028632      -1.16607932      -0.84415105
H       -1.77675670       0.26947958       1.52254445
H        1.28367010      -0.87404723       1.86380053
H        1.47897760       0.82755979       1.49595512
H        2.38074265       0.18781792      -0.50187174
16
Properties=species:S:1:pos:R:3 relative_energy_eV=0.07794860061767395 branch=left pbc="F F F"
O        0.29015355      -0.99272227      -1.86013706
C       -0.59425264      -0.61183369      -0.85087894
C       -0.65749804       0.84493335      -0.50354747
O       -1.86180760       1.52995288      -0.22752413
C       -0.19321515      -0.13466312       0.53472761
O       -1.10656691      -0.43429143       1.55477573
C        1.23354764      -0.14047887       1.05510029
O        2.21012573      -0.55935710       0.09668714
H       -2.46851223       1.41887933      -0.97103547
H        0.11498915       1.45268861      -0.96796858
H        1.05650013      -1.40171655      -1.43473799
H       -1.53376801      -1.15493348      -0.84441328
H       -1.78565252       0.25402040       1.51774307
H        1.28422218      -0.85587035       1.87092297
H        1.48478727       0.83581423       1.48625758
H        2.38807922       0.17878145      -0.49417614
16
Properties=species:S:1:pos:R:3 relative_energy_eV=0.08112641964726208 branch=left pbc="F F F"
O        0.29303274      -0.98432716      -1.86022972
C       -0.59226202      -0.60382719      -0.85176232
C       -0.65652583       0.85039229      -0.49878910
O       -1.86540141       1.52734857      -0.22630456
C       -0.19145363      -0.13241462       0.53550607
O       -1.10416881      -0.43964078       1.55429496
C        1.23766128      -0.13692047       1.05218814
O        2.21644360      -0.57044681       0.10347135
H       -2.46538164       1.40581465      -0.97329403
H        0.11073197       1.46805967      -0.95679973
H        1.04452487      -1.41842772      -1.43271698
H       -1.53554152      -1.14047899      -0.84990916
H       -1.79554949       0.23636376       1.51283573
H        1.28393161      -0.84032109       1.87618101
H        1.49265854       0.84356180       1.47034596
H        2.38843146       0.16446750      -0.49322228
16
Properties=species:S:1:pos:R:3 relative_energy_eV=0.0839152399366867 branch=left pbc="F F F"
O        0.29690969      -0.97715087      -1.85902995
C       -0.58966368      -0.59609249      -0.85219910
C       -0.65522649       0.85566749      -0.49507201
O       -1.86885305       1.52337361      -0.22402424
C       -0.19018518      -0.12993620       0.53606240
O       -1.10131119      -0.44393185       1.55374664
C        1.23986282      -0.13449776       1.05028640
O        2.21884653      -0.58011519       0.10920101
H       -2.46119475       1.39388747      -0.97516691
H        0.10700229       1.48268636      -0.94783455
H        1.03481243      -1.43139281      -1.42692558
H       -1.53617707      -1.12689111      -0.85526071
H       -1.80389392       0.22050876       1.50861141
H        1.28328929      -0.82918062       1.88068584
H        1.49947451       0.85026048       1.45342945
H        2.38743946       0.15200813      -0.49471480
16
Properties=species:S:1:pos:R:3 relative_energy_eV=0.08639340467925649 branch=left pbc="F F F"
O        0.30170294      -0.97186304      -1.85647241
C       -0.58693695      -0.58879612      -0.85278112
C       -0.65373705       0.86134483      -0.49221683
O       -1.87257682       1.51820713      -0.22097076
C       -0.18934263      -0.12758231       0.53636293
O       -1.09797530      -0.44710998       1.55364587
C        1.24067334      -0.13256345       1.04941337
O        2.21908047      -0.58725160       0.11373944
H       -2.45716592       1.38323755      -0.97681881
H        0.10388408       1.49710239      -0.94011777
H        1.02720402      -1.44124666      -1.41836791
H       -1.53625094      -1.11368372      -0.86119647
H       -1.81071195       0.20579561       1.50479420
H        1.28233424      -0.82170465       1.88493522
H        1.50531719       0.85633623       1.43645784
H        2.38563294       0.13898120      -0.49861148
16
Properties=species:S:1:pos:R:3 relative_energy_eV=0.08856043045125261 branch=left pbc="F F F"
O        0.30442521      -0.96731181      -1.85570676
C       -0.58502873      -0.58310529      -0.85362197
C       -0.65196919       0.86572676      -0.49020350
O       -1.87547913       1.51318827      -0.21824504
C       -0.18858378      -0.12605081       0.53628225
O       -1.09432932      -0.44921773       1.55411759
C        1.24034766      -0.13078495       1.05013907
O        2.21736421      -0.59114330       0.11742879
H       -2.45324610       1.37466721      -0.97824442
H        0.10264544       1.50723342      -0.93574748
H        1.01957463      -1.45055296      -1.41530430
H       -1.53708023      -1.10295536      -0.86375790
H       -1.81486478       0.19432126       1.50177927
H        1.28139388      -0.81719624       1.88951415
H        1.50773956       0.86202329       1.42377817
H        2.38822233       0.13036168      -0.50041259
16
Properties=species:S:1:pos:R:3 relative_energy_eV=0.09019090411129582 branch=left pbc="F F F"
O        0.30533023      -0.96474845      -1.85594070
C       -0.58416040      -0.57951903      -0.85455524
C       -0.65033737       0.86880434      -0.48889155
O       -1.87746154       1.50919789      -0.21633517
C       -0.18795095      -0.12537803       0.53617906
O       -1.09131340      -0.45038389       1.55513025
C        1.23981627      -0.12924502       1.05148448
O        2.21600034      -0.59202971       0.11971810
H       -2.45073690       1.36905078      -0.97939801
H        0.10265415       1.51341785      -0.93374497
H        1.01343459      -1.45766062      -1.41619260
H       -1.53836879      -1.09551763      -0.86448459
H       -1.81684997       0.18677958       1.49972378
H        1.28052898      -0.81494342       1.89329995
H        1.50774606       0.86656978       1.41638548
H        2.39280034       0.12480902      -0.50058298
16
Properties=species:S:1:pos:R:3 relative_energy_eV=0.0913364638308849 branch=left pbc="F F F"
O        0.30399898      -0.96324450      -1.85768721
C       -0.58414604      -0.57764235      -0.85536677
C       -0.64876734       0.87033407      -0.48799419
O       -1.87846084       1.50630760      -0.21547388
C       -0.18724994      -0.12538519       0.53615940
O       -1.08893818      -0.45096698       1.55652866
C        1.23943795      -0.12783303       1.05306788
O        2.21519578      -0.59146880       0.12130574
H       -2.44930072       1.36580625      -0.98027848
H        0.10369965       1.51582693      -0.93380874
H        1.00806858      -1.46383997      -1.42168731
H       -1.54023130      -1.09094975      -0.86311169
H       -1.81714968       0.18261484       1.49845638
H        1.27980283      -0.81365831       1.89625377
H        1.50538399       0.87024250       1.41405786
H        2.39978792       0.12306011      -0.49862614
16
Properties=species:S:1:pos:R:3 relative_energy_eV=0.0924551495918422 branch=left pbc="F F F"
O        0.30176076      -0.96325559      -1.85938021
C       -0.58435376      -0.57606701      -0.85605905
C       -0.64694510       0.87177261      -0.48697662
O       -1.87947855       1.50304454      -0.21508014
C       -0.18639161      -0.12563595       0.53651308
O       -1.08658216      -0.45144264       1.55873752
C        1.23962217      -0.12615761       1.05435032
O        2.21582336      -0.59072682       0.12256062
H       -2.44922999       1.36353826      -0.98118976
H        0.10508577       1.51813760      -0.93396594
H        1.00326848      -1.46946567      -1.42820251
H       -1.54239990      -1.08642019      -0.86236541
H       -1.81705189       0.17913292       1.49721156
H        1.27881611      -0.81214566       1.89848303
H        1.50167666       0.87396574       1.41396949
H        2.40751127       0.12092889      -0.49681069
16
Properties=species:S:1:pos:R:3 relative_energy_eV=0.09395504075291683 branch=left pbc="F F F"
O        0.29894554      -0.96475063      -1.86041925
C       -0.58418705      -0.57391706      -0.85639396
C       -0.64461652       0.87349497      -0.48562511
O       -1.88112937       1.49826755      -0.21512284
C       -0.18521422      -0.12591410       0.53734807
O       -1.08364882      -0.45189237       1.56215367
C        1.24063940      -0.12398122       1.05467358
O        2.21784864      -0.59154000       0.12390734
H       -2.45085997       1.36173685      -0.98209380
H        0.10661595       1.52201425      -0.93324984
H        0.99915714      -1.47514373      -1.43400577
H       -1.54475245      -1.08001344      -0.86353949
H       -1.81691736       0.17492809       1.49553502
H        1.27739959      -0.80918317       1.89969401
H        1.49620926       0.87819143       1.41564521
H        2.41564191       0.11690603      -0.49671158
16
Properties=species:S:1:pos:R:3 relative_energy_eV=0.09613542232364125 branch=left pbc="F F F"
O        0.29850851      -0.96789201      -1.85822909
C       -0.58268315      -0.57071767      -0.85598737
C       -0.64247572       0.87608526      -0.48425230
O       -1.88391360       1.49196086      -0.21505902
C       -0.18412820      -0.12573549       0.53854230
O       -1.08036639      -0.45230240       1.56602879
C        1.24241080      -0.12192931       1.05276315
O        2.22060031      -0.59542718       0.12449686
H       -2.45453641       1.36040395      -0.98273479
H        0.10713814       1.52946745      -0.92988446
H        0.99831799      -1.47803468      -1.43154656
H       -1.54563730      -1.07107720      -0.86940591
H       -1.81765626       0.16933173       1.49332741
H        1.27577213      -0.80454925       1.89885022
H        1.49139711       0.88162989       1.41672665
H        2.41838371       0.10798947      -0.50184060
16
Properties=species:S:1:pos:R:3 relative_energy_eV=0.09879002615889476 branch=left pbc="F F F"
O        0.30193095      -0.97090112      -1.85311671
C       -0.57983324      -0.56726555      -0.85510695
C       -0.64143307       0.87876303      -0.48355812
O       -1.88729108       1.48592568      -0.21459376
C       -0.18351420      -0.12498850       0.53929039
O       -1.07731917      -0.45231795       1.56883783
C        1.24387861      -0.12079760       1.04894543
O        2.22169489      -0.60177172       0.12389280
H       -2.45865347       1.35959357      -0.98273240
H        0.10626944       1.53837844      -0.92449685
H        1.00136855      -1.47718063      -1.41960486
H       -1.54450295      -1.06159393      -0.87809609
H       -1.81902912       0.16349404       1.49117005
H        1.27472133      -0.79938713       1.89633365
H        1.48900614       0.88287145       1.41615687
H        2.41383805       0.09638136      -0.51152601
16
Properties=species:S:1:pos:R:3 relative_energy_eV=0.10172740903726663 branch=left pbc="F F F"
O        0.30956931      -0.97333703      -1.84605120
C       -0.57620212      -0.56424000      -0.85463268
C       -0.64196481       0.88128695      -0.48376373
O       -1.89090603       1.48132608      -0.21337137
C       -0.18358749      -0.12374675       0.53900442
O       -1.07440699      -0.45172158       1.57006918
C        1.24435378      -0.12062793       1.04421124
O        2.22058972      -0.60873906       0.12229917
H       -2.46221126       1.35905253      -0.98222282
H        0.10389783       1.54740196      -0.91755481
H        1.00775011      -1.47302504      -1.40003849
H       -1.54219366      -1.05256636      -0.88788848
H       -1.82090248       0.15799300       1.48937583
H        1.27467095      -0.79475287       1.89308925
H        1.48970685       0.88177304       1.41364192
H        2.40296795       0.08312648      -0.52437215
16
Properties=species:S:1:pos:R:3 relative_energy_eV=0.10516555976937525 branch=left pbc="F F F"
O        0.32028467      -0.97574022      -1.83888051
C       -0.57273956      -0.56197520      -0.85574035
C       -0.64408007       0.88337689      -0.48466246
O       -1.89489742       1.47850167      -0.21152123
C       -0.18424994      -0.12221308       0.53714591
O       -1.07100979      -0.44999599       1.57029452
C        1.24369538      -0.12073686       1.03964317
O        2.21822616      -0.61464304       0.12105941
H       -2.46480332       1.35845120      -0.98139398
H        0.10009604       1.55583902      -0.90915863
H        1.01632416      -1.46790175      -1.37754469
H       -1.54100034      -1.04360502      -0.89730853
H       -1.82280715       0.15254942       1.48799603
H        1.27579320      -0.79089718       1.89015130
H        1.49243978       0.87940072       1.41058417
H        2.38985988       0.06879283      -0.53886884
16
Properties=species:S:1:pos:R:3 relative_energy_eV=0.10935675572181935 branch=left pbc="F F F"
O        0.33173493      -0.97955842      -1.83320577
C       -0.57080387      -0.56068936      -0.85927938
C       -0.64740575       0.88513352      -0.48569383
O       -1.89917073       1.47758625      -0.20936072
C       -0.18540417      -0.12068750       0.53391888
O       -1.06686433      -0.44716099       1.57044033
C        1.24247010      -0.12030060       1.03641657
O        2.21725159      -0.61753601       0.12161130
H       -2.46664747       1.35761549      -0.98070126
H        0.09506267       1.56364608      -0.89953274
H        1.02568555      -1.46394069      -1.35769539
H       -1.54303895      -1.03476516      -0.90574604
H       -1.82471024       0.14714216       1.48702289
H        1.27778273      -0.78828876       1.88835194
H        1.49625453       0.87732383       1.40830405
H        2.37893510       0.05368359      -0.55305550
16
Properties=species:S:1:pos:R:3 relative_energy_eV=0.11441633661524975 branch=left pbc="F F F"
O        0.33935100      -0.98553709      -1.83098710
C       -0.57168457      -0.56041417      -0.86484053
C       -0.65086831       0.88621867      -0.48611459
O       -1.90311427       1.47836304      -0.20786087
C       -0.18656571      -0.11968978       0.53024758
O       -1.06276787      -0.44370964       1.57152543
C        1.24177740      -0.11864934       1.03566803
O        2.22047841      -0.61628345       0.12542634
H       -2.46793007       1.35664685      -0.98047618
H        0.08993394       1.57009218      -0.89035864
H        1.03317309      -1.46362067      -1.34824435
H       -1.54938511      -1.02722211      -0.91201045
H       -1.82619701       0.14231332       1.48651626
H        1.27981823      -0.78728753       1.88823310
H        1.49936871       0.87738577       1.40847956
H        2.37574383       0.04059738      -0.56340829
16
Properties=species:S:1:pos:R:3 relative_energy_eV=0.1191326566531643 branch=left pbc="F F F"
O        0.34021076      -0.99233383      -1.83165203
C       -0.57470533      -0.56076646      -0.86982535
C       -0.65292358       0.88696897      -0.48565740
O       -1.90558426       1.47978085      -0.20759873
C       -0.18725832      -0.11957072       0.52810970
O       -1.06025813      -0.44136538       1.57347431
C        1.24252192      -0.11638921       1.03701481
O        2.22783710      -0.61242361       0.13120027
H       -2.46905812       1.35596818      -0.98086422
H        0.08636134       1.57457891      -0.88420069
H        1.03669075      -1.46609680      -1.35033304
H       -1.55688446      -1.02307667      -0.91595172
H       -1.82746357       0.13938238       1.48640093
H        1.28071765      -0.78786318       1.88909553
H        1.50106649       0.87971685       1.41030395
H        2.37986146       0.03269315      -0.56772102
16
Properties=species:S:1:pos:R:3 relative_energy_eV=0.12459079003383522 branch=left pbc="F F F"
O        0.33501875      -1.00108996      -1.83335164
C       -0.57924591      -0.56087332      -0.87383209
C       -0.65371786       0.88771740      -0.48414700
O       -1.90733049       1.48142526      -0.20856645
C       -0.18761601      -0.12015639       0.52745417
O       -1.05982184      -0.44010817       1.57650446
C        1.24536016      -0.11373550       1.03968979
O        2.24030802      -0.60733932       0.13972975
H       -2.47079078       1.35566417      -0.98170482
H        0.08373300       1.57953288      -0.87964774
H        1.03790725      -1.46981811      -1.35986676
H       -1.56498476      -1.02162809      -0.92039493
H       -1.82914260       0.13742297       1.48651062
H        1.28025360      -0.78982524       1.89006084
H        1.50267800       0.88425641       1.41248844
H        2.38852317       0.02775846      -0.56913133
16
Properties=species:S:1:pos:R:3 relative_energy_eV=0.13503224094711186 branch=left pbc="F F F"
O        0.32580487      -1.01351462      -1.83108419
C       -0.58410209      -0.55969663      -0.87532074
C       -0.65298636       0.89084354      -0.48153678
O       -1.90936921       1.48284389      -0.21041815
C       -0.18830105      -0.12125162       0.52972263
O       -1.06314481      -0.44125381       1.58011456
C        1.25157581      -0.11183199       1.04240352
O        2.26006304      -0.60257138       0.15009209
H       -2.47460055       1.35613902      -0.98281711
H        0.08079747       1.58971462      -0.87462131
H        1.04034438      -1.46922595      -1.36566265
H       -1.57016950      -1.02358549      -0.93172923
H       -1.83364492       0.13596108       1.48662315
H        1.27749352      -0.79412904       1.88921439
H        1.50906828       0.89005241       1.40978206
H        2.39230279       0.02070941      -0.57296692
16
Properties=species:S:1:pos:R:3 relative_energy_eV=0.14615856099953817 branch=left pbc="F F F"
O        0.32215588      -1.02128237      -1.82462077
C       -0.58532729      -0.55712520      -0.87270445
C       -0.65219478       0.89377629      -0.47972952
O       -1.91103048       1.48301702      -0.21135214
C       -0.18917161      -0.12162463       0.53275437
O       -1.06813915      -0.44359316       1.58113639
C        1.25655853      -0.11226110       1.04195953
O        2.27202507      -0.60327866       0.15555816
H       -2.47795876       1.35703413      -0.98307505
H        0.07904594       1.60003409      -0.87131842
H        1.04458287      -1.46223709      -1.35715318
H       -1.56755215      -1.02676905      -0.94419493
H       -1.83814159       0.13510458       1.48658659
H        1.27471547      -0.79787510       1.88664998
H        1.51772060       0.89181587       1.40206588
H        2.38384312       0.01446783      -0.58076712
16
Properties=species:S:1:pos:R:3 relative_energy_eV=0.16562252016774437 branch=left pbc="F F F"
O        0.32653948      -1.02360000      -1.80993525
C       -0.58200612      -0.55381825      -0.86452251
C       -0.65119130       0.90007800      -0.47949041
O       -1.91398137       1.48185068      -0.21065660
C       -0.19082068      -0.12094227       0.53739280
O       -1.07628252      -0.44834704       1.57877463
C        1.26028954      -0.11680897       1.03904133
O        2.27866767      -0.60708002       0.14925245
H       -2.48191102       1.35865960      -0.98204729
H        0.07673353       1.61521552      -0.86703422
H        1.05700588      -1.44434445      -1.31904471
H       -1.55302912      -1.03130160      -0.96423530
H       -1.84523724       0.13431950       1.48619743
H        1.27115337      -0.80169333       1.88015316
H        1.53449254       0.88792991       1.38313125
H        2.35070903      -0.00091384      -0.59518138
16
Properties=species:S:1:pos:R:3 relative_energy_eV=0.19293727855074394 branch=left pbc="F F F"
O        0.34011884      -1.02261368      -1.79287303
C       -0.57551842      -0.54944814      -0.85707962
C       -0.65108627       0.90516998      -0.47996745
O       -1.91656924       1.48019389      -0.20819796
C       -0.19251497      -0.11901839       0.54115130
O       -1.08289584      -0.45249206       1.57399526
C        1.26043192      -0.12170740       1.03161199
O        2.27409283      -0.61810741       0.14205090
H       -2.48452465       1.36000595      -0.98050137
H        0.07470090       1.62747584      -0.86358596
H        1.07022939      -1.42180718      -1.27139318
H       -1.53553941      -1.03470037      -0.98109289
H       -1.85092334       0.13358110       1.48563591
H        1.26955505      -0.80497229       1.87468080
H        1.55095698       0.88007724       1.36303147
H        2.31061796      -0.01243363      -0.61567076
16
Properties=species:S:1:pos:R:3 relative_energy_eV=0.24626661185720877 branch=left pbc="F F F"
O        0.38023555      -1.01660440      -1.76154679
C       -0.56024768      -0.54207724      -0.85133689
C       -0.65244936       0.91254299      -0.47964772
O       -1.92123427       1.47712681      -0.20255174
C       -0.19699037      -0.11258594       0.54106096
O       -1.09128282      -0.45739528       1.56536159
C        1.25516666      -0.13201935       1.02293051
O        2.25022400      -0.63361582       0.11044210
H       -2.48592448       1.36165648      -0.97650697
H        0.07141450       1.64158991      -0.85890220
H        1.09237035      -1.38063309      -1.18299368
H       -1.50805607      -1.03800421      -1.00108366
H       -1.85641986       0.13172192       1.48425480
H        1.26996374      -0.80730145       1.86674555
H        1.57564971       0.86235669       1.33046161
H        2.23871213      -0.03755455      -0.64489203
16
Properties=species:S:1:pos:R:3 relative_energy_eV=0.3364854635347001 branch=left pbc="F F F"
O        0.43056172      -1.01256638      -1.72626128
C       -0.54648044      -0.53582155      -0.85319128
C       -0.65406683       0.92223090      -0.47760249
O       -1.92488664       1.47351379      -0.19585660
C       -0.20247950      -0.10418879       0.54095275
O       -1.09658035      -0.46213505       1.55659134
C        1.24802609      -0.14132475       1.00997250
O        2.21806815      -0.65360647       0.08202116
H       -2.48653362       1.36286181      -0.97256269
H        0.06730894       1.65142636      -0.85425906
H        1.11240387      -1.33587773      -1.09584085
H       -1.48053094      -1.03940512      -1.01630484
H       -1.86103311       0.13052905       1.48241517
H        1.27248396      -0.81072039       1.86183964
H        1.59875362       0.84298833       1.29936312
H        2.16611685      -0.05870055      -0.67948109
16
Properties=species:S:1:pos:R:3 relative_energy_eV=0.41152042842804804 branch=left pbc="F F F"
O        0.46447107      -1.01211412      -1.70199918
C       -0.53510328      -0.53009857      -0.85662796
C       -0.65463610       0.92675263      -0.47532852
O       -1.92705130       1.47152943      -0.19232894
C       -0.20781924      -0.09850777       0.53749138
O       -1.09997653      -0.46375020       1.55322760
C        1.24426973      -0.14891224       1.00350944
O        2.19596783      -0.66217141       0.06262332
H       -2.48617593       1.36339070      -0.96992618
H        0.06479583       1.65497874      -0.85193057
H        1.12007226      -1.30964281      -1.05293664
H       -1.46966281      -1.04103761      -1.02255166
H       -1.86156390       0.12911519       1.48128434
H        1.27451176      -0.81201134       1.85953035
H        1.61081716       0.83362166       1.28390741
H        2.12821523      -0.07193880      -0.69614870
16
Properties=species:S:1:pos:R:3 relative_energy_eV=0.6590856156635709 branch=left pbc="F F F"
O        0.52928379      -0.99684333      -1.65364989
C       -0.52481976      -0.51254715      -0.89029929
C       -0.65570168       0.93095445      -0.46886987
O       -1.93025864       1.46940929      -0.18605400
C       -0.21478891      -0.09428890       0.53721380
O       -1.09909804      -0.46420962       1.54886012
C        1.23033977      -0.15477335       0.99864178
O        2.14230901      -0.69401551       0.02044757
H       -2.48534895       1.36372670      -0.96633510
H        0.05919627       1.65594345      -0.84922622
H        1.15904450      -1.27363436      -0.96817488
H       -1.45765114      -1.04281735      -1.02304584
H       -1.86077102       0.12748397       1.47861066
H        1.28142385      -0.81631555       1.85781844
H        1.62798741       0.82218520       1.26511277
H        2.05998533      -0.09105445      -0.73925449
16
Properties=species:S:1:pos:R:3 relative_energy_eV=0.7992082909404417 branch=left pbc="F F F"
O        0.55097635      -0.99850281      -1.63434652
C       -0.52510404      -0.50781631      -0.89905508
C       -0.65567839       0.93163638      -0.46731668
O       -1.93079526       1.46904468      -0.18455723
C       -0.21569674      -0.09397815       0.53722459
O       -1.09843893      -0.46433926       1.54800887
C        1.22650087      -0.15544439       0.99843031
O        2.12868303      -0.70170144       0.00870191
H       -2.48520912       1.36369349      -0.96571689
H        0.05787742       1.65583129      -0.84865976
H        1.16192835      -1.26099441      -0.95817153
H       -1.45507039      -1.04291260      -1.02250541
H       -1.86064604       0.12725293       1.47804479
H        1.28301014      -0.81726801       1.85747094
H        1.63162379       0.81980141       1.26130791
H        2.04717078      -0.09509932      -0.74706467
16
Properties=species:S:1:pos:R:3 relative_energy_eV=0.9861469244151522 branch=left pbc="F F F"
O        0.54542160      -0.95968319      -1.65857453
C       -0.52112095      -0.50077301      -0.91272413
C       -0.65718399       0.93165628      -0.46579578
O       -1.93284356       1.46912105      -0.18183550
C       -0.21667232      -0.09500978       0.53564982
O       -1.09693806      -0.46387955       1.54748809
C        1.22069067      -0.15556512       0.99995990
O        2.11031470      -0.71317517      -0.01098288
H       -2.48513104       1.36395170      -0.96483204
H        0.05589676       1.65601754      -0.84819600
H        1.21825893      -1.27676221      -0.87706516
H       -1.45091246      -1.04312653      -1.02153562
H       -1.86071283       0.12720273       1.47663602
H        1.28638351      -0.81910790       1.85713529
H        1.63665284       0.81699715       1.25642026
H        2.00902806      -0.10866048      -0.76995213
16
Properties=species:S:1:pos:R:3 relative_energy_eV=1.3896932951738563 branch=left pbc="F F F"
O        0.53359861      -0.91828091      -1.68910536
C       -0.51772580      -0.49417865      -0.92350683
C       -0.65921020       0.93161294      -0.46478806
O       -1.93454006       1.46947185      -0.17933285
C       -0.21665715      -0.09653356       0.53417245
O       -1.09564216      -0.46349945       1.54734677
C        1.21640037      -0.15523709       1.00131079
O        2.09514076      -0.72318085      -0.02636076
H       -2.48548144       1.36428111      -0.96456448
H        0.05419365       1.65621949      -0.84797701
H        1.27399076      -1.30064205      -0.79754336
H       -1.44710794      -1.04359262      -1.02097697
H       -1.86096844       0.12740063       1.47525701
H        1.28937988      -0.82092087       1.85737773
H        1.64050527       0.81488080       1.25291093
H        1.97525579      -0.11859726      -0.79242436
16
Properties=species:S:1:pos:R:3 relative_energy_eV=1.731205180303732 branch=left pbc="F F F"
O        0.52593473      -0.86956832      -1.71991253
C       -0.51340818      -0.48906382      -0.93120109
C       -0.66201738       0.93219472      -0.46432243
O       -1.93690602       1.46988249      -0.17768838
C       -0.21699750      -0.09716708       0.53164919
O       -1.09540906      -0.46272404       1.54769913
C        1.21321689      -0.15572986       1.00655696
O        2.08400911      -0.73001805      -0.04277851
H       -2.48568404       1.36483291      -0.96396546
H        0.05261477       1.65653839      -0.84785670
H        1.32755384      -1.33336480      -0.71969597
H       -1.44400463      -1.04418481      -1.02054470
H       -1.86059504       0.12712186       1.47376744
H        1.29199440      -0.82157560       1.85657591
H        1.64339600       0.81380777       1.25024828
H        1.93743407      -0.13177827      -0.81673546
16
Properties=species:S:1:pos:R:3 relative_energy_eV=1.946915135402378 branch=left pbc="F F F"
O        0.52242564      -0.81374741      -1.75306148
C       -0.50772852      -0.48797614      -0.93635254
C       -0.66572258       0.93306299      -0.46466049
O       -1.93922537       1.47064644      -0.17565606
C       -0.21702175      -0.09793060       0.53059723
O       -1.09439210      -0.46203252       1.54802519
C        1.20962388      -0.15353166       1.00791749
O        2.07997888      -0.73721359      -0.05049133
H       -2.48603294       1.36540233      -0.96386783
H        0.05199016       1.65762702      -0.84802616
H        1.37702073      -1.37455557      -0.64316919
H       -1.44177986      -1.04420930      -1.01985331
H       -1.86099022       0.12726413       1.47222259
H        1.29495035      -0.82358928       1.85732067
H        1.64558420       0.81291641       1.24846458
H        1.89245152      -0.14292978      -0.84761363
16
Properties=species:S:1:pos:R:3 relative_energy_eV=1.961847576272703 branch=left pbc="F F F"
O        0.52240600      -0.80728376      -1.75669979
C       -0.50656739      -0.48852119      -0.93649878
C       -0.66610263       0.93334121      -0.46490621
O       -1.93961236       1.47078696      -0.17541720
C       -0.21713304      -0.09800867       0.53004446
O       -1.09444424      -0.46193200       1.54827197
C        1.20938925      -0.15346758       1.00869086
O        2.07965763      -0.73707046      -0.05230853
H       -2.48598015       1.36545154      -0.96382001
H        0.05202854       1.65778207      -0.84804990
H        1.38183934      -1.37939623      -0.63518164
H       -1.44196035      -1.04419846      -1.01972104
H       -1.86097139       0.12722738       1.47207428
H        1.29517966      -0.82355650       1.85723286
H        1.64574154       0.81278014       1.24826688
H        1.88766161      -0.14473096      -0.85018248
16
Properties=species:S:1:pos:R:3 relative_energy_eV=2.0258960210758232 branch=ts pbc="F F F"
O        0.52310669      -0.80238090      -1.75857212
C       -0.50542972      -0.48885566      -0.93630330
C       -0.66642159       0.93389798      -0.46488570
O       -1.93993246       1.47086315      -0.17528058
C       -0.21689512      -0.09784624       0.52960378
O       -1.09445959      -0.46190099       1.54826891
C        1.20922853      -0.15364642       1.00859609
O        2.07969664      -0.73719843      -0.05219561
H       -2.48653181       1.36620648      -0.96353533
H        0.05229590       1.65812194      -0.84722518
H        1.44144524      -1.42400224      -0.55297091
H       -1.44061457      -1.04538116      -1.02198253
H       -1.86085283       0.12721333       1.47131876
H        1.29733032      -0.82332494       1.85731857
H        1.64669264       0.81228452       1.24614073
H        1.80668263      -0.17970091      -0.89883286
16
Properties=species:S:1:pos:R:3 relative_energy_eV=1.9677413909012103 branch=right pbc="F F F"
O        0.52380738      -0.79747805      -1.76044445
C       -0.50429205      -0.48919014      -0.93610782
C       -0.66674056       0.93445476      -0.46486520
O       -1.94025256       1.47093935      -0.17514396
C       -0.21665721      -0.09768382       0.52916309
O       -1.09447494      -0.46186997       1.54826586
C        1.20906781      -0.15382526       1.00850131
O        2.07973565      -0.73732641      -0.05208269
H       -2.48708348       1.36696143      -0.96325065
H        0.05256327       1.65846182      -0.84640045
H        1.50105114      -1.46860825      -0.47076018
H       -1.43926879      -1.04656386      -1.02424403
H       -1.86073427       0.12719929       1.47056324
H        1.29948098      -0.82309338       1.85740428
H        1.64764373       0.81178890       1.24401458
H        1.72570364      -0.21467086      -0.94748325
16
Properties=species:S:1:pos:R:3 relative_energy_eV=1.9576276486022834 branch=right pbc="F F F"
O        0.52492064      -0.79219420      -1.76157881
C       -0.50341370      -0.48925965      -0.93580394
C       -0.66686671       0.93507158      -0.46458221
O       -1.94060016       1.47093390      -0.17501303
C       -0.21616080      -0.09737603       0.52892380
O       -1.09442819      -0.46189529       1.54800581
C        1.20902201      -0.15430447       1.00778395
O        2.08030345      -0.73627592      -0.05081083
H       -2.48718362       1.36700192      -0.96327078
H        0.05253266       1.65837450      -0.84627785
H        1.50453977      -1.47067637      -0.46659340
H       -1.43896933      -1.04670741      -1.02467980
H       -1.86076404       0.12724404       1.47060279
H        1.29954415      -0.82311660       1.85757318
H        1.64758638       0.81186869       1.24394404
H        1.71948724      -0.21919314      -0.95109326
16
Properties=species:S:1:pos:R:3 relative_energy_eV=1.8727702684900578 branch=right pbc="F F F"
O        0.53560622      -0.75923315      -1.76899339
C       -0.50231090      -0.48218857      -0.93262243
C       -0.66879843       0.93552439      -0.46081819
O       -1.94269579       1.47104309      -0.17377812
C       -0.21630303      -0.09575408       0.52712622
O       -1.09288107      -0.46177339       1.54505202
C        1.21354392      -0.15252513       1.01051641
O        2.07713285      -0.73995968      -0.04869949
H       -2.48802344       1.36734529      -0.96358464
H        0.05292381       1.65887261      -0.84591647
H        1.53576061      -1.48129443      -0.43188655
H       -1.43251656      -1.04808906      -1.02932762
H       -1.86001651       0.12716769       1.47042978
H        1.29919449      -0.82206344       1.85731279
H        1.64492226       0.80976266       1.24358973
H        1.67401147      -0.24733924      -0.98127037
16
Properties=species:S:1:pos:R:3 relative_energy_eV=1.8673152622541238 branch=right pbc="F F F"
O        0.55710314      -0.71307380      -1.78044301
C       -0.50851229      -0.45962070      -0.92536113
C       -0.67357296       0.92974495      -0.45209293
O       -1.94532641       1.47141996      -0.17134689
C       -0.22251058      -0.09400276       0.52352144
O       -1.08844108      -0.46104886       1.53860144
C        1.22869776      -0.14123450       1.02728406
O        2.06042408      -0.76321652      -0.05649050
H       -2.48961898       1.36795440      -0.96441689
H        0.05464889       1.66152119      -0.84621177
H        1.59600823      -1.49113000      -0.36868041
H       -1.41608842      -1.05077453      -1.03886371
H       -1.85746740       0.12650698       1.46949234
H        1.29743708      -0.81852284       1.85448897
H        1.63697936       0.80184645       1.24303194
H        1.59979000      -0.28687383      -1.03538313
16
Properties=species:S:1:pos:R:3 relative_energy_eV=1.3962727850575902 branch=right pbc="F F F"
O        0.56378515      -0.65341551      -1.78739675
C       -0.49155640      -0.46349709      -0.92975526
C       -0.67306798       0.94489908      -0.45044560
O       -1.95117934       1.47151435      -0.16993086
C       -0.20968944      -0.09021795       0.52649622
O       -1.08987829      -0.46232307       1.53694125
C        1.21873587      -0.15446880       1.00872279
O        2.07249601      -0.74986755      -0.03470677
H       -2.49004578       1.36864928      -0.96380600
H        0.05190122       1.65791473      -0.84336915
H        1.63149342      -1.51661563      -0.32061999
H       -1.41115348      -1.05300790      -1.04552233
H       -1.85749430       0.12671889       1.46995634
H        1.29877542      -0.81977855       1.85918694
H        1.64019779       0.80837366       1.24404727
H        1.52623036      -0.33538239      -1.08266842
16
Properties=species:S:1:pos:R:3 relative_energy_eV=0.9600908377997257 branch=right pbc="F F F"
O        0.57449987      -0.59837568      -1.79323185
C       -0.47861935      -0.46347257      -0.93207389
C       -0.67307482       0.95671809      -0.44802059
O       -1.95624738       1.47161048      -0.16828606
C       -0.19995508      -0.08648473       0.52891452
O       -1.09072226      -0.46360870       1.53497990
C        1.21240116      -0.16503975       0.99494729
O        2.08461299      -0.73690646      -0.01422052
H       -2.49069620       1.36932272      -0.96348149
H        0.04977395       1.65541707      -0.84099329
H        1.66542706      -1.54378751      -0.27418148
H       -1.40450816      -1.05506925      -1.05254822
H       -1.85722034       0.12685351       1.47014769
H        1.29941135      -0.82027337       1.86325947
H        1.64199600       0.81297990       1.24492612
H        1.45247130      -0.38038826      -1.13300800
16
Properties=species:S:1:pos:R:3 relative_energy_eV=0.6847059312804049 branch=right pbc="F F F"
O        0.58511950      -0.54795114      -1.79844676
C       -0.47008569      -0.46114816      -0.93339740
C       -0.67420971       0.96701313      -0.44477339
O       -1.96098396       1.47193780      -0.16664368
C       -0.19266012      -0.08271685       0.53099192
O       -1.09163371      -0.46502070       1.53287162
C        1.20871833      -0.17524785       0.98428894
O        2.09935332      -0.72659134       0.00722725
H       -2.49140094       1.37010519      -0.96318227
H        0.04802287       1.65397521      -0.83895374
H        1.69943807      -1.57211604      -0.22786282
H       -1.39545700      -1.05689111      -1.06037044
H       -1.85648477       0.12681960       1.47013768
H        1.29897997      -0.82009566       1.86755871
H        1.64338073       0.81774820       1.24613030
H        1.37945313      -0.42032479      -1.18844643
16
Properties=species:S:1:pos:R:3 relative_energy_eV=0.5544938026541786 branch=right pbc="F F F"
O        0.57366348      -0.52786292      -1.81718647
C       -0.47685090      -0.44980693      -0.92788790
C       -0.67744607       0.96679290      -0.44011300
O       -1.96335214       1.47308918      -0.16449709
C       -0.19486088      -0.07981544       0.52894990
O       -1.09198877      -0.46727263       1.53104272
C        1.21779175      -0.17849780       0.98709681
O        2.11982485      -0.71912311       0.02808793
H       -2.49268011       1.37091418      -0.96370934
H        0.04822185       1.65647108      -0.83855497
H        1.71956224      -1.59891703      -0.19931137
H       -1.38175252      -1.05731449      -1.06904693
H       -1.85525378       0.12677042       1.46946637
H        1.29477881      -0.81772303       1.87162202
H        1.64180332       0.81851193       1.24751441
H        1.34808891      -0.43672081      -1.22634363
16
Properties=species:S:1:pos:R:3 relative_energy_eV=0.4326241477065196 branch=right pbc="F F F"
O        0.54331052      -0.52936735      -1.84319878
C       -0.49161643      -0.43148499      -0.92392437
C       -0.68165061       0.96685476      -0.43556984
O       -1.96624364       1.47541960      -0.16233890
C       -0.19644305      -0.07973843       0.53051951
O       -1.09300891      -0.47077232       1.52897100
C        1.22972198      -0.17479102       0.99868995
O        2.14611352      -0.72442707       0.04853383
H       -2.49380003       1.37224957      -0.96343707
H        0.04711643       1.66034971      -0.83749538
H        1.73560476      -1.62004178      -0.17892757
H       -1.36397333      -1.05731052      -1.08000482
H       -1.85324778       0.12629588       1.46835099
H        1.28637966      -0.81363795       1.87919486
H        1.63868623       0.81793500       1.25095518
H        1.34260080      -0.43803760      -1.26318910
16
Properties=species:S:1:pos:R:3 relative_energy_eV=0.34488967801007675 branch=right pbc="F F F"
O        0.51401580      -0.53485123      -1.86308491
C       -0.50129105      -0.41345233      -0.92617718
C       -0.68600269       0.97450001      -0.43033822
O       -1.97150911       1.47995393      -0.15908015
C       -0.19146426      -0.08069553       0.53426915
O       -1.09490755      -0.47659084       1.52733736
C        1.23744536      -0.17289575       1.00706306
O        2.17041324      -0.74274530       0.07041876
H       -2.49497282       1.37423956      -0.96220550
H        0.04317051       1.66444505      -0.83419244
H        1.75973172      -1.63408416      -0.15383546
H       -1.34847205      -1.05860895      -1.09284537
H       -1.85111155       0.12576788       1.46713820
H        1.27502164      -0.80825395       1.89281115
H        1.63764084       0.82096502       1.25750423
H        1.33184224      -0.43819789      -1.31765315
16
Properties=species:S:1:pos:R:3 relative_energy_eV=0.2779286561271874 branch=right pbc="F F F"
O        0.48737430      -0.54961758      -1.88095297
C       -0.50540631      -0.40044766      -0.92947509
C       -0.69026732       0.98178396      -0.42296749
O       -1.97699725       1.48722399      -0.15409500
C       -0.18814397      -0.08094748       0.53262482
O       -1.09547393      -0.48402667       1.52544969
C        1.24514979      -0.17354834       1.01551029
O        2.18562910      -0.76541603       0.09082394
H       -2.49674880       1.37673137      -0.96037575
H        0.03837224       1.67215739      -0.82948382
H        1.78442432      -1.64114990      -0.13316206
H       -1.34139064      -1.05987631      -1.10385579
H       -1.84864776       0.12497577       1.46591983
H        1.26118526      -0.79974802       1.90962127
H        1.63898755       0.82409351       1.26497004
H        1.33150386      -0.43269248      -1.37342235
16
Properties=species:S:1:pos:R:3 relative_energy_eV=0.2306731632033916 branch=right pbc="F F F"
O        0.46907551      -0.56255582      -1.90047410
C       -0.50819378      -0.39564472      -0.93278497
C       -0.69350523       0.98982923      -0.41568812
O       -1.98333261       1.49640473      -0.14844439
C       -0.18456386      -0.08146734       0.52875553
O       -1.09507306      -0.49102448       1.52051169
C        1.25150536      -0.17503529       1.02345778
O        2.19514203      -0.78538306       0.11318663
H       -2.49866800       1.38015951      -0.95645413
H        0.03211990       1.68303380      -0.82224407
H        1.81447032      -1.64933149      -0.10868862
H       -1.33970107      -1.05852975      -1.11237196
H       -1.84447544       0.12247316       1.46516400
H        1.24501813      -0.78794179       1.92897606
H        1.64206035       0.82427128       1.27174475
H        1.32767206      -0.42976244      -1.43751648
16
Properties=species:S:1:pos:R:3 relative_energy_eV=0.19510956474550767 branch=right pbc="F F F"
O        0.45491778      -0.57469473      -1.92231636
C       -0.50727601      -0.39366864      -0.93479479
C       -0.69670139       0.99280293      -0.41020496
O       -1.98700322       1.50592835      -0.14160288
C       -0.18316301      -0.08237189       0.52219347
O       -1.09216527      -0.49793242       1.51229370
C        1.25667298      -0.17602013       1.03364637
O        2.20007970      -0.79702647       0.13557057
H       -2.50158817       1.38437524      -0.95151854
H        0.02554097       1.69714786      -0.81309154
H        1.84582766      -1.66184442      -0.08276533
H       -1.34492423      -1.05508921      -1.11716767
H       -1.83978304       0.11910480       1.46479989
H        1.22743634      -0.77285947       1.94824051
H        1.64589777       0.81975324       1.27659641
H        1.32578189      -0.42810950      -1.50274924
16
Properties=species:S:1:pos:R:3 relative_energy_eV=0.16716662123690185 branch=right pbc="F F F"
O        0.44859506      -0.58417110      -1.94161121
C       -0.50554569      -0.39719945      -0.93766744
C       -0.69760005       0.99225875      -0.40926750
O       -1.98718161       1.51244565      -0.13667120
C       -0.18223862      -0.08374071       0.51623926
O       -1.08884678      -0.50352738       1.50169337
C        1.25753610      -0.17630847       1.04322184
O        2.19814449      -0.79799979       0.15147841
H       -2.50443460       1.38927489      -0.94420386
H        0.01887306       1.71106013      -0.80239937
H        1.87408497      -1.67635032      -0.05791962
H       -1.35443649      -1.04761489      -1.11563862
H       -1.83458358       0.11456120       1.46498985
H        1.21138688      -0.75710216       1.96426585
H        1.64999497       0.81166268       1.27860715
H        1.32580275      -0.42775345      -1.55798726
16
Properties=species:S:1:pos:R:3 relative_energy_eV=0.14753709790420544 branch=right pbc="F F F"
O        0.44958853      -0.59167293      -1.95164435
C       -0.50106378      -0.40233263      -0.94087950
C       -0.69589436       0.98754911      -0.41369860
O       -1.98198147       1.51309764      -0.13389721
C       -0.18225569      -0.08498066       0.51211092
O       -1.08662170      -0.50782360       1.49265607
C        1.25250708      -0.17661377       1.04761361
O        2.18929129      -0.78985347       0.15365533
H       -2.50725845       1.39345378      -0.93744481
H        0.01463933       1.72057147      -0.79333484
H        1.89009708      -1.68619196      -0.04151378
H       -1.36604198      -1.03849563      -1.10780556
H       -1.83110891       0.11073898       1.46549957
H        1.20147686      -0.74587854       1.97308084
H        1.65351198       0.80432583       1.27752475
H        1.33066511      -0.42639803      -1.58479277
16
Properties=species:S:1:pos:R:3 relative_energy_eV=0.13448901277479308 branch=right pbc="F F F"
O        0.45280268      -0.59816276      -1.95614498
C       -0.49649330      -0.40661095      -0.94479224
C       -0.69194332       0.98331545      -0.42071895
O       -1.97499354       1.50899405      -0.13332987
C       -0.18198129      -0.08632959       0.50976968
O       -1.08709846      -0.51250928       1.48595504
C        1.24447425      -0.17655947       1.04684888
O        2.17941841      -0.77999657       0.14740177
H       -2.50943803       1.39723068      -0.93036161
H        0.01271717       1.72580948      -0.78587080
H        1.89855949      -1.69144150      -0.02868001
H       -1.37492907      -1.02829865      -1.09742202
H       -1.82905419       0.10777039       1.46593757
H        1.19561831      -0.73922293       1.97784829
H        1.65615084       0.80026836       1.27512764
H        1.33574097      -0.42476113      -1.59443871
16
Properties=species:S:1:pos:R:3 relative_energy_eV=0.1263321466067282 branch=right pbc="F F F"
O        0.45298067      -0.60371520      -1.95849066
C       -0.49266995      -0.40713371      -0.94840748
C       -0.68821561       0.98172304      -0.42613180
O       -1.96904386       1.50315160      -0.13262551
C       -0.18180466      -0.08783571       0.50840889
O       -1.08984672      -0.51794425       1.48191306
C        1.23855112      -0.17602846       1.04365459
O        2.17421190      -0.77391735       0.14002220
H       -2.51128985       1.40004199      -0.92521664
H        0.01362987       1.72792496      -0.78113372
H        1.90252306      -1.69340604      -0.01797007
H       -1.37843314      -1.01977931      -1.08934215
H       -1.82857668       0.10623992       1.46599684
H        1.19252182      -0.73655304       1.97970495
H        1.65709671       0.80052427       1.27299217
H        1.33791626      -0.42379716      -1.59624498
16
Properties=species:S:1:pos:R:3 relative_energy_eV=0.11948120700981235 branch=right pbc="F F F"
O        0.44947528      -0.60920559      -1.96241961
C       -0.48932092      -0.40474916      -0.95229802
C       -0.68444262       0.98261640      -0.42948599
O       -1.96521552       1.49660081      -0.13114998
C       -0.18147190      -0.08999934       0.50695770
O       -1.09452201      -0.52521737       1.47760295
C        1.23541149      -0.17507422       1.03999761
O        2.17333452      -0.77095084       0.13498682
H       -2.51286794       1.40296627      -0.91987966
H        0.01694852       1.72965418      -0.77713837
H        1.90745803      -1.69532874      -0.00386356
H       -1.37832479      -1.01120497      -1.08323663
H       -1.82869715       0.10508778       1.46572038
H        1.18964276      -0.73487342       1.98040429
H        1.65659345       0.80388941       1.27109924
H        1.33554975      -0.42471565      -1.60016747
16
Properties=species:S:1:pos:R:3 relative_energy_eV=0.11346552810209687 branch=right pbc="F F F"
O        0.44231632      -0.61552511      -1.96932318
C       -0.48662499      -0.40041535      -0.95617028
C       -0.68110965       0.98513139      -0.43023414
O       -1.96328796       1.49084122      -0.12738187
C       -0.18093504      -0.09286102       0.50478946
O       -1.10005300      -0.53416718       1.47114090
C        1.23536187      -0.17346295       1.03767213
O        2.17592841      -0.77074082       0.13448295
H       -2.51463564       1.40616683      -0.91476711
H        0.02225810       1.73268558      -0.77299228
H        1.91527721      -1.69842501       0.01451705
H       -1.37678398      -1.00244805      -1.07930373
H       -1.82882463       0.10369116       1.46514065
H        1.18621626      -0.73255039       1.98043950
H        1.65463830       0.80911825       1.26935666
H        1.32980943      -0.42754298      -1.61023701
16
Properties=species:S:1:pos:R:3 relative_energy_eV=0.10818662884230434 branch=right pbc="F F F"
O        0.43442685      -0.62183096      -1.97756408
C       -0.48491791      -0.39586196      -0.95946548
C       -0.67782186       0.98822163      -0.42889638
O       -1.96329451       1.48646012      -0.12222403
C       -0.18005622      -0.09600754       0.50188051
O       -1.10543791      -0.54368168       1.46188312
C        1.23710809      -0.17101051       1.03680299
O        2.17985632      -0.77186602       0.13774330
H       -2.51576430       1.40951515      -0.90942569
H        0.02884887       1.73673349      -0.76841752
H        1.92468463      -1.70202208       0.03495372
H       -1.37611946      -0.99391133      -1.07706800
H       -1.82861651       0.10165360       1.46430766
H        1.18344014      -0.72958551       1.97900926
H        1.65119577       0.81517199       1.26724258
H        1.32201906      -0.43248282      -1.62363225
16
Properties=species:S:1:pos:R:3 relative_energy_eV=0.10372597304376541 branch=right pbc="F F F"
O        0.42821264      -0.62781773      -1.98446384
C       -0.48454783      -0.39263102      -0.96177376
C       -0.67502109       0.99056629      -0.42655146
O       -1.96331301       1.48397476      -0.11620097
C       -0.17923416      -0.09872346       0.49847103
O       -1.10944477      -0.55232996       1.45062693
C        1.23908568      -0.16766028       1.03703580
O        2.18266464      -0.77291502       0.14258944
H       -2.51606479       1.41250382      -0.90481483
H        0.03531802       1.74090406      -0.76348436
H        1.93304008      -1.70475435       0.05321140
H       -1.37826540      -0.98638324      -1.07593676
H       -1.82782413       0.09888988       1.46322298
H        1.18261939      -0.72647922       1.97602193
H        1.64658554       0.82073385       1.26447942
H        1.31574031      -0.43838280      -1.63530320
16
Properties=species:S:1:pos:R:3 relative_energy_eV=0.09975330253291759 branch=right pbc="F F F"
O        0.42512077      -0.63270001      -1.98814086
C       -0.48567602      -0.39103024      -0.96323679
C       -0.67246125       0.99170849      -0.42433774
O       -1.96258999       1.48306961      -0.11077982
C       -0.17869456      -0.10067641       0.49480916
O       -1.11198055      -0.55994755       1.43832691
C        1.23999046      -0.16367171       1.03713457
O        2.18322307      -0.77270183       0.14659317
H       -2.51472954       1.41502726      -0.90027782
H        0.04095260       1.74401579      -0.75815849
H        1.93888448      -1.70581420       0.06784444
H       -1.38351937      -0.97980592      -1.07538262
H       -1.82638291       0.09539177       1.46175685
H        1.18472195      -0.72391391       1.97155390
H        1.64089328       0.82586137       1.26078361
H        1.31179870      -0.44531691      -1.64135876
16
Properties=species:S:1:pos:R:3 relative_energy_eV=0.09630122355156345 branch=right pbc="F F F"
O        0.42473745      -0.63634789      -1.98806557
C       -0.48817744      -0.39061938      -0.96425898
C       -0.67068961       0.99164795      -0.42307244
O       -1.95991221       1.48372846      -0.10628033
C       -0.17874888      -0.10186080       0.49135643
O       -1.11321739      -0.56654976       1.42694786
C        1.23934574      -0.15965711       1.03638791
O        2.18154895      -0.77086790       0.14788736
H       -2.51207227       1.41690804      -0.89642731
H        0.04493926       1.74537962      -0.75274616
H        1.94178994      -1.70514658       0.07797202
H       -1.39086164      -0.97427832      -1.07538893
H       -1.82434733       0.09142883       1.45985785
H        1.18945795      -0.72216323       1.96686991
H        1.63466530       0.83054181       1.25646569
H        1.31109331      -0.45264815      -1.64037556
16
Properties=species:S:1:pos:R:3 relative_energy_eV=0.09308083382165933 branch=right pbc="F F F"
O        0.42601479      -0.63843300      -1.98511106
C       -0.49172282      -0.39044279      -0.96534651
C       -0.66960795       0.99102649      -0.42276988
O       -1.95589839       1.48604931      -0.10317694
C       -0.17934782      -0.10279822       0.48829861
O       -1.11384264      -0.57302974       1.41748807
C        1.23735628      -0.15612536       1.03442054
O        2.17872104      -0.76761556       0.14599360
H       -2.50794056       1.41836925      -0.89262942
H        0.04733921       1.74485712      -0.74732496
H        1.94296360      -1.70337248       0.08520405
H       -1.39895757      -0.96945185      -1.07643753
H       -1.82186759       0.08708516       1.45744846
H        1.19622394      -0.72097195       1.96284327
H        1.62798055       0.83547164       1.25171349
H        1.31213706      -0.46112244      -1.63348403
16
Properties=species:S:1:pos:R:3 relative_energy_eV=0.08993887669203104 branch=right pbc="F F F"
O        0.42680343      -0.63949141      -1.98148169
C       -0.49575276      -0.38964983      -0.96706162
C       -0.66943236       0.99057598      -0.42280814
O       -1.95088438       1.49050759      -0.10058493
C       -0.18041992      -0.10430360       0.48569366
O       -1.11444321      -0.58031139       1.41049953
C        1.23486784      -0.15337153       1.03168594
O        2.17618635      -0.76379979       0.14184005
H       -2.50319761       1.41974672      -0.88913821
H        0.04840925       1.74325967      -0.74187346
H        1.94472173      -1.70160926       0.09180827
H       -1.40655421      -0.96485619      -1.07921797
H       -1.81911027       0.08232467       1.45459588
H        1.20352367      -0.71928857       1.96071246
H        1.62104758       0.84084738       1.24689798
H        1.31378597      -0.47108484      -1.62443799
16
Properties=species:S:1:pos:R:3 relative_energy_eV=0.08662544930302829 branch=right pbc="F F F"
O        0.42577847      -0.63950388      -1.97923377
C       -0.49984498      -0.38781312      -0.96974000
C       -0.66982649       0.99083778      -0.42222687
O       -1.94606955       1.49772621      -0.09823509
C       -0.18178184      -0.10718840       0.48343840
O       -1.11541934      -0.58922018       1.40573619
C        1.23257239      -0.15149785       1.02855415
O        2.17509689      -0.76013051       0.13689925
H       -2.49813042       1.42153195      -0.88532970
H        0.04873969       1.74142065      -0.73620337
H        1.94948531      -1.70073332       0.10017921
H       -1.41306424      -0.95992217      -1.08453928
H       -1.81627549       0.07680241       1.45141416
H        1.21036620      -0.71592763       1.96100628
H        1.61374901       0.84687798       1.24203018
H        1.31417547      -0.48376431      -1.61661997
16
Properties=species:S:1:pos:R:3 relative_energy_eV=0.08305971791378397 branch=right pbc="F F F"
O        0.42200469      -0.63871158      -1.98016390
C       -0.50354097      -0.38504280      -0.97343475
C       -0.67058022       0.99201438      -0.42007968
O       -1.94187901       1.50795686      -0.09535955
C       -0.18337083      -0.11203972       0.48148543
O       -1.11688092      -0.59984581       1.40287032
C        1.23104120      -0.15039583       1.02552283
O        2.17605662      -0.75726688       0.13276072
H       -2.49375454       1.42409956      -0.88143372
H        0.04907543       1.74023401      -0.73031611
H        1.95889557      -1.70116475       0.11136590
H       -1.41823037      -0.95420550      -1.09282894
H       -1.81376353       0.07016022       1.44827271
H        1.21576042      -0.70981130       1.96385174
H        1.60621125       0.85317219       1.23703201
H        1.31250627      -0.49965745      -1.61241522
16
Properties=species:S:1:pos:R:3 relative_energy_eV=0.07968584867558093 branch=right pbc="F F F"
O        0.41680766      -0.63688453      -1.98457376
C       -0.50591715      -0.38231754      -0.97718756
C       -0.67089646       0.99372790      -0.41633526
O       -1.93955607       1.51887111      -0.09272135
C       -0.18488147      -0.11809241       0.48011064
O       -1.11850926      -0.60989184       1.40191239
C        1.23045506      -0.15002752       1.02314401
O        2.17862202      -0.75567580       0.13086818
H       -2.49128640       1.42732023      -0.87773451
H        0.05028958       1.74008617      -0.72532139
H        1.97150408      -1.70248584       0.12308886
H       -1.42145447      -0.94834562      -1.10249039
H       -1.81263474       0.06319001       1.44622697
H        1.21863582      -0.70162479       1.96787466
H        1.59984154       0.85820993       1.23227428
H        1.30853129      -0.51656386      -1.61200599
16
Properties=species:S:1:pos:R:3 relative_energy_eV=0.07673459279067174 branch=right pbc="F F F"
O        0.41233256      -0.63442676      -1.99075438
C       -0.50686120      -0.38052219      -0.98014796
C       -0.67030534       0.99524343      -0.41209985
O       -1.93839909       1.52754774      -0.09047313
C       -0.18626201      -0.12389493       0.47919449
O       -1.11991556      -0.61756366       1.40174131
C        1.23028360      -0.14978526       1.02150733
O        2.18117769      -0.75481185       0.13105387
H       -2.49133715       1.43087580      -0.87466072
H        0.05304801       1.74065117      -0.72157747
H        1.98427428      -1.70367651       0.13269617
H       -1.42353359      -0.94262677      -1.11113385
H       -1.81341618       0.05648245       1.44587973
H        1.21931891      -0.69294759       1.97100597
H        1.59533260       0.86112495       1.22754688
H        1.30381352      -0.53217440      -1.61264860
16
Properties=species:S:1:pos:R:3 relative_energy_eV=0.07396682268154109 branch=right pbc="F F F"
O        0.40971915      -0.63139598      -1.99686436
C       -0.50729547      -0.37943215      -0.98250033
C       -0.66856664       0.99616559      -0.40840573
O       -1.93721795       1.53338170      -0.08867792
C       -0.18782653      -0.12884933       0.47818626
O       -1.12108498      -0.62364744       1.40088132
C        1.22965725      -0.14899562       1.01994540
O        2.18252720      -0.75354225       0.13189456
H       -2.49291981       1.43503072      -0.87119689
H        0.05771038       1.74108943      -0.71802048
H        1.99647615      -1.70409615       0.14038457
H       -1.42617823      -0.93618675      -1.11831444
H       -1.81592182       0.04921988       1.44699567
H        1.21928442      -0.68419892       1.97230450
H        1.59174189       0.86275337       1.22164070
H        1.29944603      -0.54780049      -1.61112305
16
Properties=species:S:1:pos:R:3 relative_energy_eV=0.07120208514970727 branch=right pbc="F F F"
O        0.40920865      -0.62745614      -2.00148597
C       -0.50826212      -0.37832120      -0.98479763
C       -0.66617606       0.99649644      -0.40596548
O       -1.93474881       1.53688200      -0.08690115
C       -0.18996142      -0.13261075       0.47680268
O       -1.12200494      -0.62913125       1.39884559
C        1.22805412      -0.14736846       1.01785108
O        2.18234656      -0.75141324       0.13220310
H       -2.49526398       1.44000755      -0.86698893
H        0.06421651       1.74055897      -0.71369878
H        2.00850912      -1.70349230       0.14667229
H       -1.43039744      -0.92844781      -1.12469240
H       -1.81989895       0.04040531       1.44925395
H        1.21956557      -0.67537578       1.97197903
H        1.58821852       0.86412729       1.21357619
H        1.29614569      -0.56536499      -1.60552383
16
Properties=species:S:1:pos:R:3 relative_energy_eV=0.06852278424776159 branch=right pbc="F F F"
O        0.41044276      -0.62265412      -2.00376750
C       -0.51023776      -0.37628660      -0.98745159
C       -0.66384281       0.99647932      -0.40543912
O       -1.93112631       1.53830888      -0.08523744
C       -0.19270456      -0.13456675       0.47497243
O       -1.12261313      -0.63440180       1.39586357
C        1.22548334      -0.14510657       1.01516110
O        2.18101906      -0.74877928       0.13143586
H       -2.49746911       1.44569384      -0.86175388
H        0.07169901       1.73871312      -0.70831359
H        2.02072962      -1.70245387       0.15229692
H       -1.43598953      -0.91972597      -1.13047502
H       -1.82485992       0.03010513       1.45227100
H        1.22005918      -0.66700502       1.97102426
H        1.58482357       0.86594330       1.20358253
H        1.29413760      -0.58476800      -1.59703978
16
Properties=species:S:1:pos:R:3 relative_energy_eV=0.06639417581209273 branch=right pbc="F F F"
O        0.41233509      -0.61795129      -2.00333678
C       -0.51282383      -0.37318105      -0.99014568
C       -0.66289537       0.99667992      -0.40677103
O       -1.92769356       1.53815694      -0.08370006
C       -0.19538855      -0.13416442       0.47328900
O       -1.12273405      -0.63830248       1.39340587
C        1.22298826      -0.14310039       1.01270370
O        2.17973847      -0.74715417       0.12995975
H       -2.49888612       1.45070758      -0.85714261
H        0.07773463       1.73600768      -0.70326984
H        2.03130775      -1.70192725       0.15660393
H       -1.44086517      -0.91248079      -1.13509564
H       -1.82945644       0.02066683       1.45519360
H        1.21995609      -0.66100436       1.97071142
H        1.58266587       0.86809457       1.19431983
H        1.29356792      -0.60155171      -1.58959573
16
Properties=species:S:1:pos:R:3 relative_energy_eV=0.0651262300707458 branch=right pbc="F F F"
O        0.41317653      -0.61497084      -2.00186296
C       -0.51487335      -0.36984823      -0.99232244
C       -0.66349599       0.99744012      -0.40852865
O       -1.92617444       1.53775960      -0.08230791
C       -0.19716850      -0.13250498       0.47209690
O       -1.12251950      -0.64076622       1.39206007
C        1.22170083      -0.14194961       1.01124921
O        2.17942365      -0.74715526       0.12853383
H       -2.49906821       1.45400428      -0.85417076
H        0.08061423       1.73394838      -0.69985363
H        2.03899426      -1.70286332       0.16047983
H       -1.44345922      -0.90824255      -1.13806232
H       -1.83227029       0.01441708       1.45695779
H        1.21878352      -0.65806238       1.97152832
H        1.58206380       0.87019547       1.18834395
H        1.29382372      -0.61190591      -1.58701151
16
Properties=species:S:1:pos:R:3 relative_energy_eV=0.06446483194849861 branch=right pbc="F F F"
O        0.41322781      -0.61328875      -2.00039313
C       -0.51593095      -0.36756088      -0.99335825
C       -0.66498843       0.99853932      -0.40929722
O       -1.92668925       1.53800188      -0.08116995
C       -0.19793465      -0.13085116       0.47174070
O       -1.12202949      -0.64146773       1.39231031
C        1.22172643      -0.14169615       1.01059531
O        2.17989975      -0.74844572       0.12750247
H       -2.49870911       1.45550119      -0.85351959
H        0.08087767       1.73288442      -0.69882705
H        2.04298941      -1.70428229       0.16263868
H       -1.44366409      -0.90710564      -1.13989122
H       -1.83358576       0.01144666       1.45765168
H        1.21722133      -0.65754270       1.97238840
H        1.58267763       0.87155332       1.18567528
H        1.29446274      -0.61619014      -1.58691671
16
Properties=species:S:1:pos:R:3 relative_energy_eV=0.06391274571433314 branch=right pbc="F F F"
O        0.41293556      -0.61227806      -1.99974092
C       -0.51622577      -0.36577055      -0.99400020
C       -0.66652539       0.99986613      -0.40921997
O       -1.92818294       1.53859114      -0.07969353
C       -0.19823317      -0.12956696       0.47140525
O       -1.12147169      -0.64232458       1.39245242
C        1.22211973      -0.14155035       1.00985363
O        2.18030588      -0.74984291       0.12640267
H       -2.49827709       1.45692657      -0.85331498
H        0.08031077       1.73287461      -0.69838575
H        2.04680895      -1.70660390       0.16621746
H       -1.44336257      -0.90624437      -1.14113121
H       -1.83448085       0.00914225       1.45788053
H        1.21510314      -0.65734649       1.97282869
H        1.58376239       0.87267912       1.18363348
H        1.29496411      -0.61905602      -1.58805786
16
Properties=species:S:1:pos:R:3 relative_energy_eV=0.06321668538839731 branch=right pbc="F F F"
O        0.41383158      -0.61007306      -1.99792695
C       -0.51615578      -0.36433032      -0.99356994
C       -0.66903297       1.00172775      -0.40822408
O       -1.93173673       1.53928781      -0.07831952
C       -0.19831498      -0.12733509       0.47174750
O       -1.11998972      -0.64121371       1.39443379
C        1.22315760      -0.14179777       1.00866133
O        2.18067597      -0.75285842       0.12486781
H       -2.49793860       1.45829813      -0.85485834
H        0.07824763       1.73301848      -0.69993343
H        2.04909480      -1.70913045       0.16791600
H       -1.44152652      -0.90710629      -1.14242030
H       -1.83593014       0.00702905       1.45820597
H        1.21214669      -0.65861509       1.97186291
H        1.58667510       0.87300665       1.18164648
H        1.29634711      -0.62041202      -1.58695952
16
Properties=species:S:1:pos:R:3 relative_energy_eV=0.062335614653420635 branch=right pbc="F F F"
O        0.41493008      -0.60766893      -1.99735148
C       -0.51560987      -0.36245852      -0.99351082
C       -0.67135708       1.00414399      -0.40619463
O       -1.93551146       1.54039927      -0.07545747
C       -0.19846903      -0.12560443       0.47118926
O       -1.11831006      -0.64256247       1.39457971
C        1.22375753      -0.14124256       1.00595746
O        2.17994050      -0.75543026       0.12225730
H       -2.49776467       1.46189220      -0.85536215
H        0.07588833       1.73492300      -0.70037674
H        2.05523592      -1.71386150       0.17592533
H       -1.44090440      -0.90538522      -1.14370220
H       -1.83775138       0.00230075       1.45817442
H        1.20823087      -0.65831154       1.96934136
H        1.58982533       0.87368693       1.17707699
H        1.29742045      -0.62532505      -1.58541663
16
Properties=species:S:1:pos:R:3 relative_energy_eV=0.061278344628590276 branch=right pbc="F F F"
O        0.41860518      -0.60351879      -1.99473813
C       -0.51472408      -0.36170771      -0.99173289
C       -0.67407680       1.00623985      -0.40375744
O       -1.94069925       1.54039778      -0.07427528
C       -0.19837846      -0.12279800       0.47169691
O       -1.11530717      -0.64047725       1.39728095
C        1.22468411      -0.14126110       1.00286828
O        2.17857993      -0.75980606       0.11983642
H       -2.49810787       1.46504155      -0.85811672
H        0.07120688       1.73714743      -0.70365615
H        2.05666204      -1.71723877       0.17895755
H       -1.43848539      -0.90658472      -1.14392573
H       -1.83989987      -0.00119286       1.45814792
H        1.20477418      -0.66019873       1.96416676
H        1.59527504       0.87208264       1.17337081
H        1.29944259      -0.62662959      -1.57899357
16
Properties=species:S:1:pos:R:3 relative_energy_eV=0.06013167748278647 branch=right pbc="F F F"
O        0.42182048      -0.59914494      -1.99365510
C       -0.51445717      -0.36025704      -0.99125353
C       -0.67559440       1.00790642      -0.40149063
O       -1.94330782       1.54074118      -0.07263659
C       -0.19879750      -0.12164543       0.47094158
O       -1.11271941      -0.64200879       1.39733679
C        1.22454735      -0.14030886       0.99870349
O        2.17626227      -0.76297576       0.11734525
H       -2.49871562       1.47045230      -0.85863984
H        0.06685826       1.74095599      -0.70433600
H        2.06146633      -1.72106520       0.18780606
H       -1.43849088      -0.90448158      -1.14451212
H       -1.84149296      -0.00749681       1.45733675
H        1.20295897      -0.65913286       1.95817654
H        1.59902273       0.87080842       1.16724045
H        1.30019039      -0.63285134      -1.57123341
16
Properties=species:S:1:pos:R:3 relative_energy_eV=0.05895481116385781 branch=right pbc="F F F"
O        0.42512554      -0.59443486      -1.99245614
C       -0.51425147      -0.35861043      -0.99098397
C       -0.67692404       1.00898677      -0.40071215
O       -1.94513201       1.53940054      -0.07235151
C       -0.19892365      -0.12029957       0.47022435
O       -1.10968584      -0.64290618       1.39768665
C        1.22447299      -0.13987564       0.99505299
O        2.17411821      -0.76733110       0.11627302
H       -2.49992489       1.47591504      -0.85936603
H        0.06079845       1.74601689      -0.70522047
H        2.06432927      -1.72450367       0.19630829
H       -1.43781266      -0.90349456      -1.14366949
H       -1.84217326      -0.01259790       1.45589571
H        1.20215302      -0.65848430       1.95249874
H        1.60350101       0.86813890       1.16248308
H        1.29988036      -0.63642424      -1.56453336
16
Properties=species:S:1:pos:R:3 relative_energy_eV=0.05781470941474254 branch=right pbc="F F F"
O        0.42633899      -0.58817988      -1.99244392
C       -0.51570727      -0.35474168      -0.99283415
C       -0.67840639       1.01049726      -0.40052629
O       -1.94553274       1.53969557      -0.07115894
C       -0.19975122      -0.12014334       0.46824996
O       -1.10690897      -0.64749054       1.39645855
C        1.22438299      -0.13909302       0.99092786
O        2.17288080      -0.77226206       0.11517420
H       -2.50090011       1.48372213      -0.85807786
H        0.05539560       1.75166031      -0.70335131
H        2.07206215      -1.72869384       0.21049080
H       -1.43877379      -0.89989586      -1.14561452
H       -1.84254833      -0.02124593       1.45370644
H        1.20308892      -0.65472147       1.94855025
H        1.60593597       0.86715197       1.15508512
H        1.29799444      -0.64676392      -1.55750650
16
Properties=species:S:1:pos:R:3 relative_energy_eV=0.05666702796224854 branch=right pbc="F F F"
O        0.42683423      -0.58184824      -1.99300077
C       -0.51643480      -0.35051436      -0.99499748
C       -0.68065141       1.01231379      -0.40221615
O       -1.94736224       1.53732931      -0.07046284
C       -0.19935491      -0.11878643       0.46632502
O       -1.10350497      -0.65037591       1.39558306
C        1.22541181      -0.13966412       0.98821041
O        2.17265721      -0.77969582       0.11572385
H       -2.50281125       1.49126242      -0.85782974
H        0.04801433       1.75899963      -0.70235297
H        2.07820802      -1.73431268       0.22556822
H       -1.43778603      -0.89847037      -1.14540720
H       -1.84198221      -0.02751582       1.45092302
H        1.20338934      -0.65240777       1.94703522
H        1.61048238       0.86501453       1.15028938
H        1.29444155      -0.65183244      -1.55626134
16
Properties=species:S:1:pos:R:3 relative_energy_eV=0.05575975217834639 branch=right pbc="F F F"
O        0.42574020      -0.57399451      -1.99439519
C       -0.51852620      -0.34554096      -0.99822965
C       -0.68318570       1.01487396      -0.40290457
O       -1.94958685       1.53774072      -0.06838511
C       -0.19955172      -0.11840884       0.46381694
O       -1.10067628      -0.65513921       1.39391812
C        1.22684020      -0.14001806       0.98556070
O        2.17343505      -0.78645664       0.11519021
H       -2.50401388       1.49943017      -0.85643170
H        0.04397077       1.76410833      -0.69979615
H        2.08782082      -1.73953991       0.24142457
H       -1.43846023      -0.89536342      -1.14930236
H       -1.84242424      -0.03631310       1.44855407
H        1.20506846      -0.64781569       1.94782634
H        1.61236004       0.86553109       1.14314144
H        1.29074059      -0.66359820      -1.55285795
16
Properties=species:S:1:pos:R:3 relative_energy_eV=0.054941368913205224 branch=right pbc="F F F"
O        0.42490402      -0.56836550      -1.99611079
C       -0.51891466      -0.34314010      -1.00002436
C       -0.68552296       1.01686018      -0.40405348
O       -1.95349964       1.53550136      -0.06712536
C       -0.19812461      -0.11704880       0.46230883
O       -1.09836108      -0.65553177       1.39286603
C        1.22913708      -0.14157725       0.98550377
O        2.17437701      -0.79266317       0.11586512
H       -2.50577218       1.50405148      -0.85706239
H        0.04067303       1.76802390      -0.69957440
H        2.09130744      -1.74391788       0.25075391
H       -1.43750089      -0.89586514      -1.15010354
H       -1.84216040      -0.03936928       1.44662572
H        1.20616999      -0.64629085       1.95089685
H        1.61539914       0.86488435       1.14088869
H        1.28743973      -0.66605578      -1.55452491
16
Properties=species:S:1:pos:R:3 relative_energy_eV=0.054310548381181434 branch=right pbc="F F F"
O        0.42499912      -0.56211128      -1.99799649
C       -0.51918956      -0.34155814      -1.00135169
C       -0.68760532       1.01878016      -0.40380160
O       -1.95780469       1.53355700      -0.06523644
C       -0.19676500      -0.11588456       0.46084505
O       -1.09616191      -0.65591546       1.39114459
C        1.23105006      -0.14259781       0.98504811
O        2.17425157      -0.79760635       0.11548358
H       -2.50746585       1.50882317      -0.85758989
H        0.03873930       1.77064693      -0.69938002
H        2.09488717      -1.74820926       0.25937647
H       -1.43750788      -0.89563701      -1.15149028
H       -1.84272096      -0.04296096       1.44498213
H        1.20762975      -0.64410947       1.95331867
H        1.61807534       0.86460660       1.13734956
H        1.28513990      -0.67032782      -1.55357207
16
Properties=species:S:1:pos:R:3 relative_energy_eV=0.053840133872654405 branch=right pbc="F F F"
O        0.42609158      -0.55763964      -1.99900795
C       -0.51865395      -0.34214876      -1.00103399
C       -0.68887141       1.01909517      -0.40320246
O       -1.96166699       1.53046791      -0.06491202
C       -0.19510275      -0.11466348       0.46062894
O       -1.09473091      -0.65336134       1.39051157
C        1.23260949      -0.14365197       0.98594132
O        2.17334423      -0.80067328       0.11564446
H       -2.50888105       1.51042547      -0.85925078
H        0.03731795       1.77110749      -0.70097013
H        2.09226060      -1.75026766       0.26015017
H       -1.43679056      -0.89787248      -1.15093846
H       -1.84271135      -0.04218460       1.44358148
H        1.20982100      -0.64384274       1.95546910
H        1.62079593       0.86319537       1.13701639
H        1.28471921      -0.66848972      -1.55249795
16
Properties=species:S:1:pos:R:3 relative_energy_eV=0.05348835941731522 branch=right pbc="F F F"
O        0.42741264      -0.55354680      -1.99987952
C       -0.51812814      -0.34206530      -1.00097448
C       -0.68988121       1.01921995      -0.40218526
O       -1.96431472       1.52756928      -0.06395138
C       -0.19406019      -0.11379217       0.46037727
O       -1.09377834      -0.65260297       1.38923666
C        1.23323500      -0.14373846       0.98578458
O        2.17160557      -0.80297264       0.11524555
H       -2.50996698       1.51287579      -0.86000203
H        0.03545175       1.77164169      -0.70167499
H        2.09142964      -1.75318377       0.26345211
H       -1.43645959      -0.89834087      -1.15023173
H       -1.84275928      -0.04259526       1.44193614
H        1.21134626      -0.64252323       1.95603169
H        1.62354740       0.86217345       1.13517859
H        1.28487120      -0.66862293      -1.55121353
16
Properties=species:S:1:pos:R:3 relative_energy_eV=0.05305067095105187 branch=right pbc="F F F"
O        0.42910360      -0.54951039      -1.99993138
C       -0.51729769      -0.34261984      -1.00007127
C       -0.69080987       1.01808145      -0.40102326
O       -1.96666298       1.52378017      -0.06401497
C       -0.19313151      -0.11298797       0.46122326
O       -1.09345827      -0.65047771       1.38918468
C        1.23372174      -0.14376366       0.98646455
O        2.16951955      -0.80497520       0.11547339
H       -2.51062246       1.51365702      -0.86131421
H        0.03315232       1.77036548      -0.70346977
H        2.08641130      -1.75505823       0.26180993
H       -1.43495256      -0.90055627      -1.14878358
H       -1.84240369      -0.04008042       1.43986895
H        1.21379488      -0.64166891       1.95677519
H        1.62677437       0.86062705       1.13493885
H        1.28641227      -0.66531682      -1.55000068
16
Properties=species:S:1:pos:R:3 relative_energy_eV=0.052477226659902954 branch=right pbc="F F F"
O        0.43089606      -0.54331123      -2.00012973
C       -0.51619062      -0.34204554      -0.99948207
C       -0.69254063       1.01666651      -0.39955100
O       -1.96946226       1.51870694      -0.06310720
C       -0.19234199      -0.11227934       0.46231146
O       -1.09370305      -0.64958120       1.38888131
C        1.23425277      -0.14329523       0.98668006
O        2.16683512      -0.80869670       0.11589637
H       -2.51114226       1.51597493      -0.86219495
H        0.02911766       1.76904893      -0.70493816
H        2.08165782      -1.75904641       0.26307364
H       -1.43240630      -0.90233073      -1.14733694
H       -1.84181596      -0.03786308       1.43637267
H        1.21656364      -0.63890294       1.95768361
H        1.63161933       0.85937832       1.13297085
H        1.28821168      -0.66292752      -1.55000025
16
Properties=species:S:1:pos:R:3 relative_energy_eV=0.051841888309354545 branch=right pbc="F F F"
O        0.43247036      -0.53515766      -2.00041032
C       -0.51505248      -0.34057049      -0.99928044
C       -0.69500127       1.01520046      -0.39803534
O       -1.97261997       1.51353295      -0.06134141
C       -0.19193076      -0.11205477       0.46357518
O       -1.09450981      -0.65010881       1.38870996
C        1.23515042      -0.14259625       0.98658839
O        2.16450921      -0.81422978       0.11683501
H       -2.51123216       1.51942842      -0.86232585
H        0.02430147       1.76765784      -0.70578326
H        2.07753970      -1.76408908       0.26625250
H       -1.42896689      -0.90378940      -1.14698471
H       -1.84144658      -0.03621218       1.43203150
H        1.21954061      -0.63411142       1.95937018
H        1.63708931       0.85898192       1.12918279
H        1.28970987      -0.66238601      -1.55125448
16
Properties=species:S:1:pos:R:3 relative_energy_eV=0.051281503570862697 branch=right pbc="F F F"
O        0.43365630      -0.52684541      -2.00107028
C       -0.51402530      -0.33864428      -0.99973733
C       -0.69750166       1.01432024      -0.39671334
O       -1.97539846       1.50965505      -0.05843790
C       -0.19188168      -0.11255738       0.46423712
O       -1.09582727      -0.65253304       1.38786341
C        1.23626393      -0.14172684       0.98586598
O        2.16305556      -0.82043464       0.11798074
H       -2.51095100       1.52392003      -0.86117686
H        0.02010464       1.76730539      -0.70513523
H        2.07611891      -1.76935691       0.27263495
H       -1.42596063      -0.90393328      -1.14808013
H       -1.84148370      -0.03667769       1.42795119
H        1.22175300      -0.62771062       1.96144329
H        1.64160526       0.85986099       1.12328831
H        1.29002310      -0.66514585      -1.55378419
16
Properties=species:S:1:pos:R:3 relative_energy_eV=0.05066658478426689 branch=right pbc="F F F"
O        0.43516345      -0.51772951      -2.00195678
C       -0.51309461      -0.33661633      -1.00068742
C       -0.69991394       1.01395003      -0.39524024
O       -1.97791384       1.50695324      -0.05438408
C       -0.19214385      -0.11373573       0.46425082
O       -1.09722048      -0.65662348       1.38614448
C        1.23756442      -0.14069158       0.98437315
O        2.16211290      -0.82739114       0.11919444
H       -2.51041440       1.52972472      -0.85871129
H        0.01654649       1.76801469      -0.70299459
H        2.07671286      -1.77466259       0.28187530
H       -1.42355583      -0.90304378      -1.15085535
H       -1.84233011      -0.03950987       1.42422368
H        1.22355443      -0.61935204       1.96376400
H        1.64513529       0.86179510       1.11444645
H        1.28934822      -0.67158597      -1.55631282
16
Properties=species:S:1:pos:R:3 relative_energy_eV=0.049919378903723555 branch=right pbc="F F F"
O        0.43775953      -0.50699874      -2.00304632
C       -0.51189963      -0.33467063      -1.00200897
C       -0.70220900       1.01381908      -0.39322419
O       -1.98036914       1.50451765      -0.04883066
C       -0.19242569      -0.11554526       0.46360282
O       -1.09877096      -0.66216437       1.38305408
C        1.23906374      -0.13937588       0.98203425
O        2.16106389      -0.83564171       0.12061526
H       -2.50970581       1.53732247      -0.85471331
H        0.01305873       1.76998957      -0.69924143
H        2.07789121      -1.78052881       0.29447378
H       -1.42139067      -0.90164158      -1.15508729
H       -1.84388400      -0.04469751       1.42045262
H        1.22532592      -0.60819821       1.96646300
H        1.64810732       0.86455250       1.10149223
H        1.28793559      -0.68124282      -1.55890608
16
Properties=species:S:1:pos:R:3 relative_energy_eV=0.04895343034877442 branch=right pbc="F F F"
O        0.44249990      -0.49253438      -2.00409474
C       -0.51035740      -0.33235789      -1.00382157
C       -0.70473947       1.01400991      -0.39013097
O       -1.98338861       1.50143352      -0.04140076
C       -0.19257183      -0.11760752       0.46221875
O       -1.09965439      -0.66912374       1.37840527
C        1.24083510      -0.13774657       0.97833673
O        2.15917110      -0.84658717       0.12220131
H       -2.50913789       1.54810752      -0.84902164
H        0.00849990       1.77370030      -0.69380052
H        2.07871072      -1.78798447       0.31181590
H       -1.41877853      -0.90033637      -1.16119776
H       -1.84653545      -0.05320024       1.41618486
H        1.22760923      -0.59298403       1.96945094
H        1.65137301       0.86766711       1.08208215
H        1.28601558      -0.69496024      -1.56009811
16
Properties=species:S:1:pos:R:3 relative_energy_eV=0.04776139904970478 branch=right pbc="F F F"
O        0.44943049      -0.47695759      -2.00473385
C       -0.50781996      -0.33050273      -1.00564488
C       -0.70677783       1.01385332      -0.38613416
O       -1.98638179       1.49675580      -0.03305454
C       -0.19212429      -0.11967454       0.46059788
O       -1.10026031      -0.67591662       1.37250080
C        1.24255240      -0.13591988       0.97431884
O        2.15608471      -0.85904960       0.12481575
H       -2.50847627       1.55990736      -0.84166977
H        0.00305547       1.77859314      -0.68720629
H        2.07499181      -1.79620186       0.33035810
H       -1.41454041      -0.90100881      -1.16757622
H       -1.84933010      -0.06235195       1.41176749
H        1.23014933      -0.57482319       1.97301090
H        1.65449229       0.87040061       1.05805563
H        1.28450544      -0.70760773      -1.56227576
16
Properties=species:S:1:pos:R:3 relative_energy_eV=0.04689233442331897 branch=right pbc="F F F"
O        0.46103454      -0.44731782      -2.00529972
C       -0.50489043      -0.32438729      -1.00947743
C       -0.71199342       1.01516634      -0.37942719
O       -1.99362135       1.48793862      -0.02028926
C       -0.19122300      -0.12050828       0.45758992
O       -1.09755247      -0.68587843       1.36455928
C        1.24527168      -0.13344056       0.96637409
O        2.14978875      -0.88185788       0.12778333
H       -2.50928521       1.58224181      -0.83181847
H       -0.00873303       1.78745599      -0.67822958
H        2.07118209      -1.81251082       0.36391292
H       -1.40662165      -0.90243993      -1.17841397
H       -1.85397839      -0.08048617       1.40388393
H        1.23542477      -0.54627862       1.97700272
H        1.66245707       0.87252069       1.01776313
H        1.28229098      -0.73072189      -1.55878369
16
Properties=species:S:1:pos:R:3 relative_energy_eV=0.04506986606793362 branch=right pbc="F F F"
O        0.46944598      -0.43887420      -2.00386760
C       -0.50089914      -0.32401999      -1.01052194
C       -0.71177946       1.01421590      -0.37551149
O       -1.99448061       1.48159426      -0.01469147
C       -0.18977458      -0.12108899       0.45677106
O       -1.09661324      -0.68821462       1.36005263
C        1.24542303      -0.13201406       0.96410816
O        2.14498440      -0.89148749       0.13293191
H       -2.50852957       1.58884746      -0.82378426
H       -0.01329660       1.79184521      -0.67237606
H        2.05402574      -1.81813296       0.37268567
H       -1.39803462      -0.90959655      -1.18217690
H       -1.85494321      -0.08524740       1.40191790
H        1.23723048      -0.52989295       1.98019945
H        1.66284431       0.87235291       0.99467653
H        1.28394801      -0.73079081      -1.56328349
16
Properties=species:S:1:pos:R:3 relative_energy_eV=0.04349217134222272 branch=right pbc="F F F"
O        0.47562235      -0.42457217      -2.00392329
C       -0.49811247      -0.31978678      -1.01272448
C       -0.71500284       1.01475574      -0.37223981
O       -1.99935303       1.47402531      -0.00884267
C       -0.18860646      -0.12022321       0.45579186
O       -1.09427542      -0.69205213       1.35698774
C        1.24633724      -0.13062297       0.96081415
O        2.13989962      -0.90500645       0.13697305
H       -2.50921459       1.59936790      -0.81811275
H       -0.02099990       1.79614639      -0.66836135
H        2.04411107      -1.82882285       0.38846747
H       -1.38924064      -0.91386100      -1.18613168
H       -1.85505790      -0.09235241       1.39714681
H        1.24066026      -0.51377746       1.98285049
H        1.66804266       0.87171828       0.97316381
H        1.28474095      -0.73544046      -1.56472916
16
Properties=species:S:1:pos:R:3 relative_energy_eV=0.039418427182681626 branch=right pbc="F F F"
O        0.50381012      -0.36195601      -2.00308566
C       -0.48425060      -0.30075684      -1.02222643
C       -0.73095600       1.01694256      -0.35937228
O       -2.02209172       1.43983598       0.01534124
C       -0.18427006      -0.11536703       0.45270234
O       -1.08180252      -0.70815412       1.34797780
C        1.24954186      -0.12452559       0.94677941
O        2.11549653      -0.96698845       0.15870551
H       -2.51289103       1.64317055      -0.79231636
H       -0.05413061       1.81272994      -0.65152544
H        1.98913295      -1.87688414       0.45030983
H       -1.34425808      -0.93638125      -1.20423598
H       -1.85388623      -0.12184451       1.37725584
H        1.25696615      -0.43914569       1.99522104
H        1.69141022       0.86778336       0.87684749
H        1.29172989      -0.74896304      -1.57124779
16
Properties=species:S:1:pos:R:3 relative_energy_eV=0.0389982074884756 branch=right pbc="F F F"
O        0.49786423      -0.38293762      -2.00135667
C       -0.48456142      -0.30113689      -1.02176115
C       -0.72912790       1.01800261      -0.36477260
O       -2.01907694       1.44369282       0.00548142
C       -0.18477780      -0.11212609       0.45405302
O       -1.07821456      -0.70266893       1.35596421
C        1.24575489      -0.12483853       0.95013977
O        2.11442208      -0.95626233       0.16151921
H       -2.51376122       1.62888817      -0.79509003
H       -0.04798594       1.80842492      -0.65625239
H        1.97658209      -1.87152337       0.42962639
H       -1.34003247      -0.93984043      -1.19780082
H       -1.84636399      -0.11387474       1.38338331
H        1.25555893      -0.45086180       1.98996502
H        1.68551930       0.86305543       0.89482272
H        1.29775159      -0.72649751      -1.57079088
16
Properties=species:S:1:pos:R:3 relative_energy_eV=0.03568564829038223 branch=right pbc="F F F"
O        0.50569788      -0.36773100      -2.00248178
C       -0.48082963      -0.30119773      -1.02231388
C       -0.73213029       1.01741974      -0.36211837
O       -2.02398212       1.43700998       0.01371470
C       -0.18368189      -0.11321481       0.45264453
O       -1.07776847      -0.70778600       1.35079145
C        1.24838527      -0.12342023       0.94658901
O        2.11044386      -0.97030748       0.16444800
H       -2.51511271       1.64006564      -0.79021317
H       -0.05409714       1.81385435      -0.65154978
H        1.96906111      -1.88084743       0.44597314
H       -1.33528557      -0.94084065      -1.20155147
H       -1.84856121      -0.12131187       1.37931071
H        1.25782804      -0.43371822       1.99337515
H        1.69166753       0.86489122       0.87359460
H        1.29791620      -0.73336980      -1.57308223
16
Properties=species:S:1:pos:R:3 relative_energy_eV=0.033216567080671666 branch=right pbc="F F F"
O        0.52301310      -0.33835168      -2.00264496
C       -0.47286226      -0.29736371      -1.02626899
C       -0.73808674       1.01736369      -0.35677579
O       -2.03219172       1.42653627       0.02780074
C       -0.18276816      -0.11558120       0.44911248
O       -1.07347171      -0.72263721       1.34206820
C        1.25088583      -0.11812772       0.93706622
O        2.09885124      -1.00047219       0.17553389
H       -2.51689744       1.66216611      -0.77255274
H       -0.06492149       1.82369172      -0.63755079
H        1.94166805      -1.90167029       0.47897324
H       -1.31970536      -0.94517882      -1.21475119
H       -1.84970240      -0.14269691       1.37331969
H        1.26567631      -0.38822188       1.99887838
H        1.69865779       0.86815853       0.81927012
H        1.30140577      -0.74811903      -1.57434770
16
Properties=species:S:1:pos:R:3 relative_energy_eV=0.0295085694615409 branch=right pbc="F F F"
O        0.53073876      -0.33328751      -2.00160488
C       -0.46749035      -0.29799869      -1.02621606
C       -0.74095904       1.01756004      -0.35783948
O       -2.03653404       1.42117830       0.03152224
C       -0.18153152      -0.11478505       0.44788268
O       -1.06895340      -0.72729395       1.34008757
C        1.25259356      -0.11517610       0.93361932
O        2.09251730      -1.01325415       0.18210688
H       -2.52088999       1.66695483      -0.76829575
H       -0.06849063       1.82781801      -0.63418126
H        1.91898453      -1.91069615       0.48622164
H       -1.31221833      -0.94738323      -1.21592861
H       -1.84713193      -0.14956944       1.37398417
H        1.26841440      -0.37128789       1.99728476
H        1.70313030       0.86774213       0.80239451
H        1.30737115      -0.74102547      -1.57390686
16
Properties=species:S:1:pos:R:3 relative_energy_eV=0.018769571688608266 branch=right pbc="F F F"
O        0.55853486      -0.31839615      -1.99622457
C       -0.45102299      -0.29817097      -1.02916955
C       -0.74856012       1.01774870      -0.36024470
O       -2.04528800       1.41286581       0.04141324
C       -0.17877844      -0.11602524       0.44228107
O       -1.05243767      -0.75299375       1.33136657
C        1.25612763      -0.10174610       0.91814383
O        2.07016967      -1.05568784       0.20894232
H       -2.53415339       1.68090039      -0.74474306
H       -0.07422986       1.83790798      -0.61495832
H        1.83170923      -1.93945879       0.51091860
H       -1.28935556      -0.95042442      -1.23076702
H       -1.83550891      -0.18389878       1.38160514
H        1.28344782      -0.29769430       1.99215664
H        1.70904520       0.87084843       0.73283171
H        1.32985118      -0.72627935      -1.56642067
16
Properties=species:S:1:pos:R:3 relative_energy_eV=0.014985849291406339 branch=right pbc="F F F"
O        0.58741859      -0.28619472      -1.98936689
C       -0.43557434      -0.28944483      -1.03446236
C       -0.75953741       1.01888138      -0.35650917
O       -2.06057563       1.39197404       0.05354247
C       -0.17384612      -0.11226605       0.43900219
O       -1.03458255      -0.77243345       1.32443940
C        1.26055093      -0.09135082       0.90371445
O        2.04626946      -1.10708887       0.23607702
H       -2.54631847       1.70328368      -0.72369673
H       -0.09264289       1.84839097      -0.60008019
H        1.74494369      -1.97619428       0.54441852
H       -1.25586026      -0.96337634      -1.24540351
H       -1.82565809      -0.21527981       1.38054986
H        1.30060519      -0.22416583       1.99104230
H        1.72486820       0.86798858       0.65493641
H        1.34949027      -0.71322807      -1.56107221
16
Properties=species:S:1:pos:R:3 relative_energy_eV=0.007430018200466293 branch=right pbc="F F F"
O        0.60378772      -0.28970278      -1.97277310
C       -0.43125014      -0.28618981      -1.03526181
C       -0.76224285       1.02005448      -0.36052471
O       -2.06251146       1.39382711       0.04062572
C       -0.17061621      -0.10568375       0.44013503
O       -1.01302916      -0.77976070       1.33207188
C        1.26361644      -0.08452028       0.89474807
O        2.03383426      -1.12413759       0.25697880
H       -2.56391827       1.69247906      -0.72369003
H       -0.09125840       1.84026522      -0.60105766
H        1.66293619      -1.98215398       0.52226091
H       -1.24595791      -0.96554658      -1.25542982
H       -1.81259276      -0.23686577       1.40099856
H        1.31535020      -0.18938229       1.97392468
H        1.72964082       0.86045428       0.63191717
H        1.37376197      -0.68364105      -1.52779197
16
Properties=species:S:1:pos:R:3 relative_energy_eV=0.0006128238801466068 branch=right pbc="F F F"
O        0.60678022      -0.27786445      -1.97157547
C       -0.43372687      -0.28305127      -1.03804867
C       -0.76154452       1.01918664      -0.35547457
O       -2.06178897       1.39293186       0.04280438
C       -0.17022786      -0.10715587       0.43929538
O       -1.01392196      -0.78292444       1.32923559
C        1.26512956      -0.08593957       0.89210703
O        2.03404327      -1.12923270       0.26106804
H       -2.56344210       1.69910800      -0.72047702
H       -0.09507832       1.84317802      -0.59808913
H        1.66847124      -1.98119139       0.53137252
H       -1.24739863      -0.96295831      -1.26277058
H       -1.81623921      -0.24598083       1.40074236
H        1.31571756      -0.17865823       1.97805375
H        1.73273635       0.85839270       0.61638279
H        1.37004066      -0.69834458      -1.52749464
16
Properties=species:S:1:pos:R:3 relative_energy_eV=-0.0066941947916348 branch=right pbc="F F F"
O        0.62060499      -0.25294656      -1.96302775
C       -0.43143289      -0.27487482      -1.04213436
C       -0.76445103       1.01934272      -0.34557640
O       -2.06994792       1.38078034       0.04772623
C       -0.16535781      -0.10648202       0.43739716
O       -1.00725748      -0.79454923       1.32072530
C        1.27107812      -0.08414066       0.88318270
O        2.02655572      -1.15406047       0.27697306
H       -2.56603223       1.71079553      -0.71372934
H       -0.11126187       1.85171694      -0.59450361
H        1.63146169      -1.99245759       0.55744298
H       -1.23799959      -0.96259201      -1.27341315
H       -1.81297637      -0.26720005       1.39984936
H        1.32508297      -0.14237219       1.97699136
H        1.74805952       0.85075999       0.57092655
H        1.37342451      -0.70222437      -1.52169817
16
Properties=species:S:1:pos:R:3 relative_energy_eV=-0.014141995428872178 branch=right pbc="F F F"
O        0.61379176      -0.24716581      -1.95593909
C       -0.44007071      -0.26616822      -1.04299536
C       -0.76199064       1.02252042      -0.33649380
O       -2.07406581       1.37632297       0.04329466
C       -0.16121898      -0.10541131       0.43645749
O       -1.00703203      -0.79755656       1.31282426
C        1.27767846      -0.08989308       0.88185838
O        2.03638432      -1.15110139       0.28135407
H       -2.56114279       1.70711139      -0.72578114
H       -0.12413490       1.85938956      -0.60554744
H        1.64770948      -1.98186969       0.57567478
H       -1.25338553      -0.94638848      -1.27260223
H       -1.81318180      -0.27371934       1.40098504
H        1.32196908      -0.15334723       1.97311400
H        1.76564158       0.83653033       0.57282536
H        1.36259881      -0.70975797      -1.52189712
16
Properties=species:S:1:pos:R:3 relative_energy_eV=-0.02253554238086508 branch=right pbc="F F F"
O        0.62999520      -0.22923654      -1.94666943
C       -0.43404336      -0.25716719      -1.04527254
C       -0.76746619       1.02661001      -0.33308460
O       -2.08345169       1.36517103       0.04587359
C       -0.15722571      -0.10504912       0.43235376
O       -0.99114411      -0.82106398       1.30181176
C        1.28410420      -0.08325862       0.86991346
O        2.02633260      -1.18145110       0.30994917
H       -2.56695928       1.71154257      -0.71593967
H       -0.13666441       1.86913599      -0.59885230
H        1.58767080      -1.99548658       0.60449001
H       -1.24675218      -0.93528709      -1.28655979
H       -1.80429059      -0.30563077       1.40974203
H        1.33296824      -0.10036343       1.96865416
H        1.78434200       0.82504352       0.51743496
H        1.37213466      -0.70401315      -1.51671249
16
Properties=species:S:1:pos:R:3 relative_energy_eV=-0.030714916914803325 branch=right pbc="F F F"
O        0.63092991      -0.22787874      -1.94716607
C       -0.43123196      -0.25163782      -1.04477371
C       -0.77050439       1.03172612      -0.33729685
O       -2.08713667       1.35846039       0.04551965
C       -0.15633726      -0.10601378       0.42894986
O       -0.98393474      -0.83778757       1.29353907
C        1.28577259      -0.07907552       0.86777843
O        2.02410770      -1.19094423       0.33093308
H       -2.56772929       1.70524565      -0.71381276
H       -0.13774538       1.87446108      -0.59615372
H        1.56495286      -1.99751853       0.62139632
H       -1.25301198      -0.91601632      -1.29125281
H       -1.79403921      -0.32253989       1.41699096
H        1.33803169      -0.07693888       1.96590664
H        1.79545189       0.81504548       0.49847452
H        1.37197439      -0.69909190      -1.52190044
16
Properties=species:S:1:pos:R:3 relative_energy_eV=-0.03644416886527324 branch=right pbc="F F F"
O        0.63223124      -0.21968636      -1.95005885
C       -0.42907093      -0.24220451      -1.04642133
C       -0.77451053       1.03918667      -0.34032886
O       -2.09320274       1.34988375       0.04743869
C       -0.15603682      -0.10404384       0.42489863
O       -0.97245543      -0.85459640       1.28613450
C        1.28592982      -0.07628922       0.86555843
O        2.02094183      -1.20387795       0.35460065
H       -2.56737101       1.70437514      -0.71166644
H       -0.14215131       1.88641453      -0.59234272
H        1.55625301      -2.00178842       0.64905369
H       -1.25839586      -0.89438784      -1.29850863
H       -1.78616768      -0.34628847       1.42334733
H        1.33911197      -0.05292842       1.96056914
H        1.80861077       0.80046008       0.47236227
H        1.36583379      -0.70473320      -1.52750430
16
Properties=species:S:1:pos:R:3 relative_energy_eV=-0.040313152323506074 branch=right pbc="F F F"
O        0.63232579      -0.21366076      -1.95605964
C       -0.42711584      -0.23679482      -1.04970423
C       -0.77381175       1.04065245      -0.33889375
O       -2.09347449       1.34311546       0.04984874
C       -0.15448991      -0.10615042       0.42314461
O       -0.96657124      -0.86793420       1.27856224
C        1.28501147      -0.07388003       0.86570041
O        2.01613276      -1.21110654       0.37830509
H       -2.56581215       1.69973281      -0.70811187
H       -0.14265761       1.89292476      -0.58564822
H        1.53765775      -2.00258138       0.66586621
H       -1.26054087      -0.87998206      -1.30691883
H       -1.77464346      -0.36157322       1.42624994
H        1.34671380      -0.02644374       1.96169557
H        1.81104472       0.78932150       0.45010023
H        1.35978111      -0.70614428      -1.53700419
16
Properties=species:S:1:pos:R:3 relative_energy_eV=-0.04475892305163143 branch=right pbc="F F F"
O        0.63805273      -0.19964536      -1.96069674
C       -0.42340756      -0.22557934      -1.05537764
C       -0.77336399       1.04490648      -0.33200389
O       -2.09715064       1.33409684       0.05616251
C       -0.15137894      -0.10548412       0.42013791
O       -0.95119269      -0.88734382       1.26901162
C        1.28602853      -0.06903952       0.86147717
O        2.00684953      -1.23092144       0.41380079
H       -2.56491257       1.69930685      -0.70172788
H       -0.14946201       1.90628055      -0.57384355
H        1.50644539      -2.00995077       0.69779592
H       -1.25679962      -0.86403274      -1.32305011
H       -1.76249915      -0.39152275       1.43203801
H        1.35288628       0.01747054       1.95553532
H        1.81520543       0.77307853       0.40464242
H        1.35424930      -0.71212443      -1.54676938
16
Properties=species:S:1:pos:R:3 relative_energy_eV=-0.04826711698115105 branch=right pbc="F F F"
O        0.63228936      -0.19577896      -1.97563034
C       -0.42242860      -0.21681127      -1.06072841
C       -0.76625520       1.04701027      -0.32063324
O       -2.09279164       1.33297568       0.06377087
C       -0.14869835      -0.10836147       0.41909713
O       -0.94088850      -0.90098209       1.26030048
C        1.28532332      -0.06618655       0.86331189
O        2.00308328      -1.23461540       0.44653768
H       -2.55691597       1.69003794      -0.69987364
H       -0.14954573       1.91606261      -0.55875354
H        1.50196422      -2.00847551       0.72455612
H       -1.25909429      -0.84643983      -1.33744517
H       -1.75166157      -0.40937299       1.43542574
H        1.35206781       0.04507719       1.94989589
H        1.80352501       0.75929696       0.38146046
H        1.33957690      -0.72394109      -1.57415933
16
Properties=species:S:1:pos:R:3 relative_energy_eV=-0.051056028070888715 branch=right pbc="F F F"
O        0.64093564      -0.17968991      -1.97513183
C       -0.41755215      -0.20971478      -1.06350890
C       -0.76651157       1.04728474      -0.31278118
O       -2.09490696       1.32567126       0.06872444
C       -0.14444811      -0.10995913       0.41769184
O       -0.93126166      -0.91380533       1.25449985
C        1.28932315      -0.06268907       0.85717787
O        1.99482029      -1.25303489       0.47135939
H       -2.55712131       1.68978443      -0.69457757
H       -0.15711696       1.92094027      -0.54806607
H        1.46433410      -2.01555185       0.74585950
H       -1.25208337      -0.83938388      -1.34898353
H       -1.74434893      -0.42949625       1.43909228
H        1.35764565       0.08417416       1.94314817
H        1.80681848       0.75005938       0.34419098
H        1.34102366      -0.72509367      -1.58156247
16
Properties=species:S:1:pos:R:3 relative_energy_eV=-0.05444642428847146 branch=right pbc="F F F"
O        0.64079803      -0.17795884      -1.97268090
C       -0.41737514      -0.21278687      -1.06089178
C       -0.76738574       1.04444552      -0.31350377
O       -2.09426405       1.32693188       0.06725789
C       -0.14394124      -0.11056574       0.41879967
O       -0.93639050      -0.90481635       1.25975072
C        1.29058710      -0.06576001       0.85682902
O        1.99750230      -1.24913851       0.45895274
H       -2.55682744       1.68955074      -0.69776988
H       -0.15719462       1.91441924      -0.54957225
H        1.47196191      -2.01450503       0.73835567
H       -1.25059250      -0.84594463      -1.34186003
H       -1.75050887      -0.41840083       1.43619976
H        1.35304814       0.07206026       1.94189608
H        1.80634773       0.75532476       0.35845735
H        1.34378489      -0.72336013      -1.58308759
16
Properties=species:S:1:pos:R:3 relative_energy_eV=-0.059749870662926696 branch=right pbc="F F F"
O        0.63765731      -0.16462614      -1.97878831
C       -0.41497065      -0.20905750      -1.06154917
C       -0.76675947       1.04180646      -0.30965291
O       -2.09279051       1.32443002       0.07005038
C       -0.14038076      -0.11499652       0.41657471
O       -0.93567112      -0.90488557       1.25974326
C        1.29326906      -0.06994743       0.85452172
O        1.99933392      -1.25392905       0.46658626
H       -2.55241514       1.68405950      -0.69821170
H       -0.15883558       1.91292495      -0.53621760
H        1.47684355      -2.01527489       0.75913397
H       -1.25030240      -0.83910990      -1.33943925
H       -1.75302194      -0.41861216       1.43449463
H        1.34465390       0.08396090       1.93774311
H        1.80432270       0.75263274       0.35685777
H        1.33861714      -0.72987997      -1.61471416
16
Properties=species:S:1:pos:R:3 relative_energy_eV=-0.06288882101762283 branch=right pbc="F F F"
O        0.63406597      -0.14799968      -1.98643665
C       -0.41283599      -0.20313118      -1.06368420
C       -0.76632269       1.04151945      -0.30581994
O       -2.09456540       1.31689693       0.07180217
C       -0.13669919      -0.11808745       0.41370482
O       -0.93114159      -0.90747115       1.25753641
C        1.29493012      -0.07307534       0.85315540
O        2.00005660      -1.26267578       0.48213084
H       -2.54806145       1.67603545      -0.69992463
H       -0.16056242       1.91545413      -0.52309793
H        1.47244027      -2.01645055       0.78631672
H       -1.25004279      -0.83035768      -1.33791743
H       -1.74879774      -0.42238969       1.43157863
H        1.34292979       0.09891960       1.93226095
H        1.80501965       0.74494639       0.35040792
H        1.32913688      -0.73263802      -1.64488029
16
Properties=species:S:1:pos:R:3 relative_energy_eV=-0.0649880548407964 branch=right pbc="F F F"
O        0.63300123      -0.13964595      -1.98822495
C       -0.41299678      -0.20057079      -1.06589014
C       -0.76577166       1.04246460      -0.30543635
O       -2.09484327       1.31396686       0.07048288
C       -0.13681326      -0.11932376       0.41144105
O       -0.92855255      -0.90861530       1.25713364
C        1.29395379      -0.07474833       0.85107032
O        2.00089340      -1.26587669       0.48745822
H       -2.54706587       1.67124637      -0.70034593
H       -0.15745302       1.91726121      -0.51535526
H        1.47289504      -2.01446651       0.80011661
H       -1.25220711      -0.82700464      -1.33679939
H       -1.74736735      -0.42488361       1.43031667
H        1.34344857       0.10261283       1.92973938
H        1.80567406       0.74235083       0.34754897
H        1.32275476      -0.73527171      -1.65612291
16
Properties=species:S:1:pos:R:3 relative_energy_eV=-0.06720563946691982 branch=right pbc="F F F"
O        0.63429861      -0.12875249      -1.98719944
C       -0.41391637      -0.19695595      -1.06851948
C       -0.76588390       1.04499541      -0.30402634
O       -2.09737713       1.30912613       0.06845392
C       -0.13747167      -0.11850935       0.40959524
O       -0.92467543      -0.90898729       1.25811422
C        1.29337252      -0.07484467       0.84676395
O        1.99946112      -1.27228178       0.49306289
H       -2.54811733       1.66731499      -0.70213294
H       -0.15466952       1.92078122      -0.50753303
H        1.46944524      -2.01357942       0.81600766
H       -1.25233856      -0.82762857      -1.33619227
H       -1.74473087      -0.42878104       1.42738077
H        1.34614500       0.10418498       1.92526717
H        1.80964785       0.73885510       0.34112076
H        1.31636044      -0.73544185      -1.66303023
16
Properties=species:S:1:pos:R:3 relative_energy_eV=-0.06848512847864185 branch=right pbc="F F F"
O        0.63683840      -0.12316214      -1.98386443
C       -0.41539172      -0.19582008      -1.06950194
C       -0.76538703       1.04627667      -0.30213282
O       -2.09765671       1.30925674       0.06705318
C       -0.13847066      -0.11840636       0.40930161
O       -0.92283971      -0.90988762       1.25936269
C        1.29354180      -0.07400687       0.84321667
O        1.99718582      -1.27420039       0.49430755
H       -2.54992143       1.66504051      -0.70294595
H       -0.15130420       1.92177745      -0.50201259
H        1.46636000      -2.01145487       0.82249841
H       -1.25261992      -0.82985424      -1.33878334
H       -1.74467109      -0.43175372       1.42609878
H        1.34857318       0.10441101       1.92244949
H        1.81153452       0.73829534       0.33469544
H        1.31377872      -0.73701603      -1.66260990
16
Properties=species:S:1:pos:R:3 relative_energy_eV=-0.06973629787535174 branch=right pbc="F F F"
O        0.63924588      -0.11790476      -1.98005204
C       -0.41660785      -0.19452012      -1.06941623
C       -0.76583295       1.04741244      -0.29995863
O       -2.09921729       1.31006720       0.06589345
C       -0.13866577      -0.11745348       0.40982475
O       -0.92029555      -0.91011844       1.26211714
C        1.29497886      -0.07276023       0.83993947
O        1.99321153      -1.27695294       0.49519633
H       -2.55343212       1.66277550      -0.70543582
H       -0.14934938       1.92302726      -0.49635418
H        1.46184492      -2.01092936       0.82924648
H       -1.25055857      -0.83346778      -1.34218077
H       -1.74437402      -0.43434622       1.42401107
H        1.35060088       0.10407160       1.91917057
H        1.81547725       0.73649212       0.32820566
H        1.31252415      -0.73589739      -1.66307438
16
Properties=species:S:1:pos:R:3 relative_energy_eV=-0.07083214258818771 branch=right pbc="F F F"
O        0.64082785      -0.11064207      -1.97664697
C       -0.41758472      -0.19328622      -1.06866364
C       -0.76655660       1.04804693      -0.29704613
O       -2.10057624       1.31281650       0.06569101
C       -0.13840630      -0.11781511       0.41084482
O       -0.91823472      -0.91133824       1.26455783
C        1.29728343      -0.07171408       0.83747605
O        1.98890625      -1.27885366       0.49574332
H       -2.55642979       1.66007724      -0.70821440
H       -0.14825802       1.92321099      -0.48915893
H        1.45928084      -2.01021443       0.83808778
H       -1.24848686      -0.83469697      -1.34787723
H       -1.74476510      -0.43764806       1.42117828
H        1.35291082       0.10612068       1.91611858
H        1.81939007       0.73359055       0.32052949
H        1.31024903      -0.73815864      -1.66548697
16
Properties=species:S:1:pos:R:3 relative_energy_eV=-0.07168242256921076 branch=right pbc="F F F"
O        0.64057838      -0.10996767      -1.97417409
C       -0.41770008      -0.19377005      -1.06660698
C       -0.76802474       1.04770054      -0.29701758
O       -2.10198658       1.31731569       0.06417031
C       -0.13813244      -0.11684193       0.41242247
O       -0.91642953      -0.90962454       1.26869389
C        1.29849473      -0.07168568       0.83784521
O        1.98505590      -1.27818915       0.49225215
H       -2.56134193       1.65619897      -0.71221381
H       -0.14671094       1.92171043      -0.48502529
H        1.45759772      -2.00990651       0.83922146
H       -1.24526294      -0.83674221      -1.35135706
H       -1.74543141      -0.43715035       1.41935435
H        1.35447269       0.10411024       1.91606669
H        1.82344551       0.73074638       0.32036312
H        1.31092560      -0.73440872      -1.66686197
16
Properties=species:S:1:pos:R:3 relative_energy_eV=-0.07234662030168693 branch=right pbc="F F F"
O        0.63961760      -0.10586793      -1.97479807
C       -0.41694538      -0.19194419      -1.06622705
C       -0.76923957       1.04798830      -0.29593838
O       -2.10337081       1.31850691       0.06495883
C       -0.13747336      -0.11685221       0.41257533
O       -0.91485300      -0.91096495       1.26838064
C        1.29940469      -0.07164537       0.83802024
O        1.98337953      -1.28055832       0.49376112
H       -2.56227869       1.65411145      -0.71370328
H       -0.14815320       1.92209852      -0.48110596
H        1.45776995      -2.01095118       0.84741213
H       -1.24386654      -0.83278919      -1.35436567
H       -1.74494322      -0.44054523       1.41784041
H        1.35599152       0.10884319       1.91533150
H        1.82583970       0.72651682       0.31648344
H        1.30867074      -0.73645119      -1.67149234
16
Properties=species:S:1:pos:R:3 relative_energy_eV=-0.0728909630288399 branch=right pbc="F F F"
O        0.63869642      -0.10550256      -1.97548914
C       -0.41622733      -0.19111395      -1.06581363
C       -0.76999685       1.04815822      -0.29608994
O       -2.10385398       1.31987834       0.06507180
C       -0.13772486      -0.11627495       0.41274001
O       -0.91476596      -0.91051237       1.26759296
C        1.29887895      -0.07223247       0.83904169
O        1.98295483      -1.28080309       0.49171952
H       -2.56275448       1.65163574      -0.71483740
H       -0.14832501       1.92124636      -0.47991064
H        1.45985309      -2.01079758       0.85014639
H       -1.24354327      -0.82922952      -1.35497136
H       -1.74545401      -0.44167706       1.41696212
H        1.35812073       0.10981113       1.91597254
H        1.82641665       0.72411179       0.31702555
H        1.30727503      -0.73720259      -1.67202759
16
Properties=species:S:1:pos:R:3 relative_energy_eV=-0.07339001675063628 branch=right pbc="F F F"
O        0.63893221      -0.10474085      -1.97571932
C       -0.41546913      -0.18888750      -1.06590673
C       -0.77055624       1.04907758      -0.29535157
O       -2.10426726       1.32093136       0.06545984
C       -0.13823446      -0.11512364       0.41259598
O       -0.91421665      -0.91097421       1.26589217
C        1.29840780      -0.07256353       0.83863451
O        1.98161107      -1.28282485       0.49036002
H       -2.56346158       1.64820008      -0.71577482
H       -0.14819337       1.92167206      -0.47749295
H        1.46065335      -2.01064698       0.85600640
H       -1.24325678      -0.82495941      -1.35580006
H       -1.74610821      -0.44500664       1.41607268
H        1.36136729       0.11211613       1.91540279
H        1.82687045       0.72137053       0.31468122
H        1.30547145      -0.73814470      -1.67192725
16
Properties=species:S:1:pos:R:3 relative_energy_eV=-0.07390712299093138 branch=right pbc="F F F"
O        0.64030753      -0.10348242      -1.97492194
C       -0.41513576      -0.18609806      -1.06593181
C       -0.77062369       1.05061001      -0.29368047
O       -2.10444130       1.32232654       0.06593443
C       -0.13914377      -0.11380341       0.41281857
O       -0.91459519      -0.91109312       1.26416866
C        1.29821725      -0.07313139       0.83729129
O        1.97929160      -1.28488789       0.48708857
H       -2.56416723       1.64323646      -0.71734173
H       -0.14736509       1.92236386      -0.47458626
H        1.46201700      -2.00962900       0.86275946
H       -1.24311130      -0.82129833      -1.35615455
H       -1.74794722      -0.44813980       1.41415701
H        1.36603339       0.11259830       1.91378677
H        1.82689861       0.71927502       0.31182045
H        1.30331514      -0.73935134      -1.67007557
16
Properties=species:S:1:pos:R:3 relative_energy_eV=-0.07435968358186074 branch=right pbc="F F F"
O        0.64259263      -0.10127941      -1.97373663
C       -0.41480761      -0.18262546      -1.06602157
C       -0.77029635       1.05254349      -0.29133876
O       -2.10446527       1.32342447       0.06662285
C       -0.13976069      -0.11268548       0.41317795
O       -0.91484012      -0.91201631       1.26282111
C        1.29874942      -0.07370612       0.83503432
O        1.97588768      -1.28815070       0.48518204
H       -2.56502858       1.63752537      -0.71886750
H       -0.14681673       1.92442977      -0.47124597
H        1.46158743      -2.00901352       0.87068564
H       -1.24264047      -0.81827346      -1.35652721
H       -1.74997497      -0.45190214       1.41221449
H        1.37075989       0.11414474       1.91124014
H        1.82688896       0.71722610       0.30681342
H        1.30171474      -0.74014590      -1.66892138
16
Properties=species:S:1:pos:R:3 relative_energy_eV=-0.07471905800957757 branch=right pbc="F F F"
O        0.64462138      -0.09890248      -1.97223566
C       -0.41463598      -0.18028176      -1.06561147
C       -0.76969522       1.05415583      -0.28956382
O       -2.10440834       1.32416156       0.06694588
C       -0.14003950      -0.11204846       0.41401478
O       -0.91584450      -0.91195378       1.26289871
C        1.29962018      -0.07457973       0.83348378
O        1.97277198      -1.29042238       0.48294708
H       -2.56571879       1.63207342      -0.72067119
H       -0.14662401       1.92640520      -0.46976079
H        1.46087719      -2.00865464       0.87503128
H       -1.24191063      -0.81744059      -1.35573608
H       -1.75220040      -0.45299777       1.41012158
H        1.37462998       0.11358833       1.90910238
H        1.82675139       0.71615549       0.30395368
H        1.30135524      -0.73976281      -1.66778717
16
Properties=species:S:1:pos:R:3 relative_energy_eV=-0.07505645384844684 branch=right pbc="F F F"
O        0.64639720      -0.09579610      -1.97073266
C       -0.41401443      -0.17839765      -1.06478385
C       -0.76908451       1.05558243      -0.28828453
O       -2.10441393       1.32439357       0.06701863
C       -0.13984946      -0.11147353       0.41519238
O       -0.91659446      -0.91151314       1.26396708
C        1.30069570      -0.07558349       0.83261340
O        1.96943462      -1.29313290       0.48212808
H       -2.56677712       1.62601359      -0.72255293
H       -0.14713288       1.92883330      -0.46941678
H        1.45798137      -2.00932075       0.87732978
H       -1.24040108      -0.81746227      -1.35459244
H       -1.75414574      -0.45312590       1.40842229
H        1.37812308       0.11379323       1.90768066
H        1.82692665       0.71456722       0.30111424
H        1.30240495      -0.73788220      -1.66797035
16
Properties=species:S:1:pos:R:3 relative_energy_eV=-0.07548098414190463 branch=right pbc="F F F"
O        0.64792522      -0.09181739      -1.96843016
C       -0.41292168      -0.17730602      -1.06291762
C       -0.76840266       1.05706696      -0.28765422
O       -2.10444263       1.32464294       0.06656083
C       -0.13944955      -0.11043423       0.41724764
O       -0.91806406      -0.90919556       1.26645756
C        1.30181362      -0.07703361       0.83285187
O        1.96571041      -1.29578099       0.48027906
H       -2.56850251       1.61743406      -0.72547885
H       -0.14803553       1.93141599      -0.47116223
H        1.45353709      -2.01082275       0.87605149
H       -1.23786324      -0.81884846      -1.35210258
H       -1.75673278      -0.45073173       1.40627436
H        1.38255175       0.11213861       1.90713817
H        1.82719215       0.71259924       0.30000823
H        1.30523438      -0.73383167      -1.66799054
16
Properties=species:S:1:pos:R:3 relative_energy_eV=-0.07598053980836994 branch=right pbc="F F F"
O        0.64903732      -0.08732296      -1.96573526
C       -0.41110772      -0.17696137      -1.06014075
C       -0.76777406       1.05855683      -0.28772898
O       -2.10438148       1.32494442       0.06569763
C       -0.13891891      -0.10854144       0.42009299
O       -0.91956166      -0.90522239       1.26989647
C        1.30256702      -0.07855850       0.83436751
O        1.96185772      -1.29867664       0.47885468
H       -2.57114956       1.60632224      -0.72893772
H       -0.14919403       1.93393620      -0.47475066
H        1.44670579      -2.01355996       0.87101821
H       -1.23426265      -0.82087060      -1.34917214
H       -1.75943125      -0.44681900       1.40456750
H        1.38752830       0.11032099       1.90819995
H        1.82764297       0.70969823       0.29949278
H        1.30999217      -0.72775066      -1.66858916
16
Properties=species:S:1:pos:R:3 relative_energy_eV=-0.07636765816641855 branch=right pbc="F F F"
O        0.64905323      -0.08463620      -1.96341889
C       -0.40961404      -0.17781039      -1.05744711
C       -0.76740207       1.05959212      -0.28862972
O       -2.10407220       1.32599641       0.06465679
C       -0.13870827      -0.10630853       0.42259703
O       -0.92105063      -0.90048842       1.27280162
C        1.30249060      -0.07955695       0.83650258
O        1.96003889      -1.29987696       0.47672302
H       -2.57374344       1.59650662      -0.73194877
H       -0.14956635       1.93511580      -0.47889384
H        1.44192811      -2.01602945       0.86400385
H       -1.23156799      -0.82278881      -1.34656219
H       -1.76154563      -0.44222760       1.40360540
H        1.39124581       0.10678463       1.91029883
H        1.82777414       0.70776208       0.30128851
H        1.31428977      -0.72253898      -1.66844404
16
Properties=species:S:1:pos:R:3 relative_energy_eV=-0.0765838119386899 branch=right pbc="F F F"
O        0.64849642      -0.08404126      -1.96264590
C       -0.40888697      -0.17852107      -1.05605895
C       -0.76719971       1.06018725      -0.28932821
O       -2.10355621       1.32744526       0.06416413
C       -0.13885772      -0.10459595       0.42391386
O       -0.92166980      -0.89741469       1.27394301
C        1.30188083      -0.07982336       0.83798693
O        1.96007331      -1.29991377       0.47590730
H       -2.57549961       1.59044423      -0.73344092
H       -0.14909366       1.93510953      -0.48101863
H        1.44048920      -2.01746476       0.85948869
H       -1.23068281      -0.82312673      -1.34578019
H       -1.76242538      -0.43979536       1.40373116
H        1.39252932       0.10449752       1.91235608
H        1.82779576       0.70692342       0.30269368
H        1.31615697      -0.72041487      -1.66877896
16
Properties=species:S:1:pos:R:3 relative_energy_eV=-0.07677463509935478 branch=right pbc="F F F"
O        0.64774799      -0.08427498      -1.96247257
C       -0.40883520      -0.17881228      -1.05546262
C       -0.76696611       1.06083227      -0.28975314
O       -2.10286443       1.32967624       0.06398397
C       -0.13911520      -0.10331423       0.42444242
O       -0.92213771      -0.89531638       1.27414412
C        1.30138627      -0.07988812       0.83860686
O        1.96105409      -1.29946294       0.47484407
H       -2.57699316       1.58546014      -0.73464901
H       -0.14803567       1.93499171      -0.48159804
H        1.44175819      -2.01815529       0.85779936
H       -1.23114374      -0.82243405      -1.34551096
H       -1.76300344      -0.43831316       1.40375043
H        1.39291606       0.10169862       1.91356182
H        1.82775697       0.70712229       0.30435567
H        1.31602500      -0.72031447      -1.66890932
16
Properties=species:S:1:pos:R:3 relative_energy_eV=-0.07701599532265391 branch=right pbc="F F F"
O        0.64682848      -0.08475884      -1.96298691
C       -0.40906523      -0.17841660      -1.05519908
C       -0.76633332       1.06191093      -0.28982098
O       -2.10164734       1.33312660       0.06416685
C       -0.13937248      -0.10203435       0.42485980
O       -0.92278674      -0.89326733       1.27396695
C        1.30103026      -0.08007684       0.83907162
O        1.96250174      -1.29895954       0.47429276
H       -2.57895075       1.57794932      -0.73617416
H       -0.14636580       1.93495269      -0.48144692
H        1.44438975      -2.01891834       0.85698403
H       -1.23253279      -0.82055012      -1.34549746
H       -1.76363162      -0.43670347       1.40372805
H        1.39289176       0.09854331       1.91491635
H        1.82784976       0.70788069       0.30602510
H        1.31474424      -0.72118274      -1.66975298
16
Properties=species:S:1:pos:R:3 relative_energy_eV=-0.07732226339976478 branch=right pbc="F F F"
O        0.64576653      -0.08526969      -1.96393876
C       -0.40965378      -0.17719713      -1.05523431
C       -0.76520452       1.06360124      -0.28966601
O       -2.09985339       1.33820872       0.06457408
C       -0.13935818      -0.10091455       0.42504582
O       -0.92383140      -0.89115417       1.27370053
C        1.30124479      -0.08054083       0.83924467
O        1.96440641      -1.29861264       0.47368544
H       -2.58170267       1.56639882      -0.73847091
H       -0.14409667       1.93554104      -0.48086970
H        1.44798229      -2.01995759       0.85693953
H       -1.23499091      -0.81746943      -1.34504006
H       -1.76443766      -0.43416246       1.40322926
H        1.39278315       0.09418804       1.91594143
H        1.82819153       0.70951465       0.30850744
H        1.31230438      -0.72267863      -1.67051545
16
Properties=species:S:1:pos:R:3 relative_energy_eV=-0.07763791945762932 branch=right pbc="F F F"
O        0.64484604      -0.08585790      -1.96552786
C       -0.41032686      -0.17535319      -1.05564860
C       -0.76371107       1.06529337      -0.28925505
O       -2.09789938       1.34306667       0.06519670
C       -0.13896333      -0.10053961       0.42498574
O       -0.92502230      -0.88961431       1.27353810
C        1.30196130      -0.08119297       0.83958557
O        1.96608287      -1.29841545       0.47414754
H       -2.58424370       1.55344390      -0.74050162
H       -0.14188516       1.93630351      -0.48042084
H        1.45057495      -2.02111719       0.85605174
H       -1.23771418      -0.81400814      -1.34430778
H       -1.76488782      -0.43081309       1.40263833
H        1.39205642       0.09092977       1.91693023
H        1.82889353       0.71143709       0.31100150
H        1.30978856      -0.72406707      -1.67128071
16
Properties=species:S:1:pos:R:3 relative_energy_eV=-0.07792641635569453 branch=right pbc="F F F"
O        0.64440000      -0.08602804      -1.96678815
C       -0.41081431      -0.17344256      -1.05621293
C       -0.76243612       1.06657252      -0.28885100
O       -2.09650560       1.34623084       0.06568857
C       -0.13820497      -0.10083037       0.42456006
O       -0.92580266      -0.88885964       1.27361677
C        1.30304723      -0.08175027       0.83982423
O        1.96672901      -1.29872497       0.47481975
H       -2.58609720       1.54228046      -0.74184428
H       -0.14036389       1.93740106      -0.48003781
H        1.45067750      -2.02211743       0.85484065
H       -1.23957056      -0.81131264      -1.34329516
H       -1.76482400      -0.42749196       1.40174237
H        1.39123865       0.08955982       1.91722665
H        1.83001948       0.71263024       0.31291389
H        1.30805728      -0.72462164      -1.67107066
16
Properties=species:S:1:pos:R:3 relative_energy_eV=-0.07820154626278963 branch=right pbc="F F F"
O        0.64433938      -0.08570231      -1.96755516
C       -0.41088700      -0.17153938      -1.05651152
C       -0.76123517       1.06767928      -0.28838096
O       -2.09539842       1.34796082       0.06621373
C       -0.13730406      -0.10108472       0.42421982
O       -0.92636851      -0.88786329       1.27396629
C        1.30406564      -0.08221988       0.84042635
O        1.96602911      -1.29944680       0.47542253
H       -2.58764795       1.53104420      -0.74278233
H       -0.13919397       1.93860984      -0.47973308
H        1.44819789      -2.02308918       0.85218973
H       -1.24018556      -0.80939331      -1.34219763
H       -1.76448779      -0.42371655       1.40044514
H        1.39050306       0.08983562       1.91762341
H        1.83163128       0.71247990       0.31411071
H        1.30749189      -0.72405880      -1.67032407
16
Properties=species:S:1:pos:R:3 relative_energy_eV=-0.07852586612898449 branch=right pbc="F F F"
O        0.64450617      -0.08511388      -1.96764501
C       -0.41066733      -0.16960037      -1.05650668
C       -0.75990071       1.06907542      -0.28794960
O       -2.09419425       1.34919324       0.06688495
C       -0.13623237      -0.10079442       0.42376576
O       -0.92671479      -0.88612079       1.27415024
C        1.30490707      -0.08252259       0.84110952
O        1.96441935      -1.30062360       0.47539982
H       -2.58942804       1.51739981      -0.74350463
H       -0.13787234       1.94044721      -0.47910241
H        1.44364176      -2.02412631       0.84842507
H       -1.24011456      -0.80770609      -1.34090684
H       -1.76385974      -0.41912130       1.39858562
H        1.38953405       0.09080866       1.91802504
H        1.83386434       0.71115976       0.31504252
H        1.30766118      -0.72285927      -1.66864047
16
Properties=species:S:1:pos:R:3 relative_energy_eV=-0.07885678194907086 branch=right pbc="F F F"
O        0.64457241      -0.08493169      -1.96734014
C       -0.41029793      -0.16788882      -1.05620839
C       -0.75824851       1.07086259      -0.28757461
O       -2.09256419       1.35026505       0.06787176
C       -0.13520885      -0.09968689       0.42325848
O       -0.92704512      -0.88346907       1.27357751
C        1.30518718      -0.08261561       0.84188087
O        1.96250457      -1.30172925       0.47478296
H       -2.59130318       1.50145117      -0.74366534
H       -0.13606582       1.94265657      -0.47791727
H        1.43840580      -2.02494398       0.84358649
H       -1.23990125      -0.80605942      -1.33972397
H       -1.76288932      -0.41370113       1.39640862
H        1.38775363       0.09191822       1.91882616
H        1.83641604       0.70910228       0.31600887
H        1.30823426      -0.72173456      -1.66663910
16
Properties=species:S:1:pos:R:3 relative_energy_eV=-0.07909895598641015 branch=right pbc="F F F"
O        0.64443071      -0.08515189      -1.96678242
C       -0.41002270      -0.16692899      -1.05577450
C       -0.75686704       1.07260496      -0.28739155
O       -2.09106326       1.35130529       0.06875095
C       -0.13457572      -0.09803403       0.42283951
O       -0.92722562      -0.88107472       1.27215620
C        1.30493407      -0.08256741       0.84204701
O        1.96127082      -1.30254498       0.47373731
H       -2.59285352       1.48874322      -0.74329584
H       -0.13442416       1.94476922      -0.47622209
H        1.43514080      -2.02520829       0.84086232
H       -1.24000293      -0.80472732      -1.33914828
H       -1.76201749      -0.40972332       1.39463756
H        1.38600275       0.09215293       1.91932239
H        1.83833598       0.70740082       0.31672282
H        1.30848702      -0.72152000      -1.66532853
16
Properties=species:S:1:pos:R:3 relative_energy_eV=-0.07919730008325132 branch=right pbc="F F F"
O        0.64415108      -0.08552475      -1.96657062
C       -0.40989563      -0.16670505      -1.05546834
C       -0.75615317       1.07364907      -0.28737030
O       -2.09022150       1.35201208       0.06920355
C       -0.13439485      -0.09677740       0.42275081
O       -0.92746842      -0.87990430       1.27070803
C        1.30459364      -0.08261663       0.84181514
O        1.96095601      -1.30288663       0.47307608
H       -2.59369886       1.48294562      -0.74268253
H       -0.13365249       1.94596138      -0.47492586
H        1.43466164      -2.02505101       0.84079238
H       -1.24030231      -0.80402584      -1.33917929
H       -1.76163561      -0.40802792       1.39375893
H        1.38519408       0.09157800       1.91947114
H        1.83909751       0.70684514       0.31714112
H        1.30831856      -0.72197625      -1.66538737
16
Properties=species:S:1:pos:R:3 relative_energy_eV=-0.07924999922215648 branch=right pbc="F F F"
O        0.64399320      -0.08528374      -1.96648769
C       -0.40968019      -0.16634454      -1.05514739
C       -0.75570608       1.07454889      -0.28732928
O       -2.08967348       1.35301337       0.06940598
C       -0.13422461      -0.09574166       0.42299149
O       -0.92788133      -0.87900883       1.26981750
C        1.30464110      -0.08294478       0.84155507
O        1.96057941      -1.30351042       0.47263924
H       -2.59492890       1.47818597      -0.74265166
H       -0.13334350       1.94699435      -0.47402139
H        1.43456421      -2.02514624       0.84176944
H       -1.24034515      -0.80340187      -1.33920348
H       -1.76180185      -0.40682239       1.39294976
H        1.38566721       0.09048164       1.91939937
H        1.83964061       0.70659859       0.31743622
H        1.30804901      -0.72212282      -1.66599031
16
Properties=species:S:1:pos:R:3 relative_energy_eV=-0.07927669674973004 branch=right pbc="F F F"
O        0.64383377      -0.08584895      -1.96707176
C       -0.40948392      -0.16658548      -1.05537288
C       -0.75571360       1.07470797      -0.28766565
O       -2.08977006       1.35236499       0.06948476
C       -0.13400704      -0.09524715       0.42273053
O       -0.92811290      -0.87939267       1.26806635
C        1.30465228      -0.08311721       0.84100338
O        1.96083084      -1.30383385       0.47320025
H       -2.59511600       1.47917633      -0.74072728
H       -0.13408981       1.94767925      -0.47338156
H        1.43502075      -2.02471954       0.84380708
H       -1.24043219      -0.80348586      -1.33962674
H       -1.76132355      -0.40651831       1.39281927
H        1.38543234       0.09008232       1.91896114
H        1.84002461       0.70707968       0.31773416
H        1.30780411      -0.72284599      -1.66682821
16
Properties=species:S:1:pos:R:3 relative_energy_eV=-0.0793444958035252 branch=right pbc="F F F"
O        0.64398590      -0.08490762      -1.96711860
C       -0.40906270      -0.16578137      -1.05511447
C       -0.75539264       1.07545709      -0.28756103
O       -2.08939398       1.35346552       0.06964279
C       -0.13369113      -0.09460085       0.42314908
O       -0.92874386      -0.87824511       1.26817907
C        1.30517177      -0.08364202       0.84121654
O        1.95992617      -1.30476155       0.47305566
H       -2.59689078       1.47336773      -0.74137316
H       -0.13404478       1.94852872      -0.47318631
H        1.43385623      -2.02527706       0.84389121
H       -1.23985881      -0.80289133      -1.33936847
H       -1.76190364      -0.40475173       1.39188463
H        1.38687571       0.08907814       1.91908767
H        1.84081887       0.70658637       0.31806274
H        1.30789727      -0.72212941      -1.66731451
16
Properties=species:S:1:pos:R:3 relative_energy_eV=-0.07939507933406276 branch=right pbc="F F F"
O        0.64442833      -0.08411051      -1.96734822
C       -0.40855481      -0.16509472      -1.05522383
C       -0.75533789       1.07579760      -0.28764124
O       -2.08938002       1.35364691       0.06986038
C       -0.13327566      -0.09432872       0.42317117
O       -0.92916321      -0.87742513       1.26827469
C        1.30574627      -0.08398753       0.84147836
O        1.95905469      -1.30566784       0.47346853
H       -2.59833715       1.46946964      -0.74120212
H       -0.13451206       1.94921182      -0.47332052
H        1.43189694      -2.02570665       0.84364627
H       -1.23899043      -0.80265835      -1.33925235
H       -1.76214353      -0.40309048       1.39128017
H        1.38794961       0.08878828       1.91913458
H        1.84183982       0.70599905       0.31824623
H        1.30832871      -0.72134785      -1.66743929
16
Properties=species:S:1:pos:R:3 relative_energy_eV=-0.07945040934100689 branch=right pbc="F F F"
O        0.64537170      -0.08316770      -1.96781799
C       -0.40765549      -0.16428313      -1.05570363
C       -0.75542885       1.07608353      -0.28798365
O       -2.08951935       1.35322527       0.07044093
C       -0.13265983      -0.09394718       0.42289103
O       -0.92976774      -0.87622331       1.26803782
C        1.30647585      -0.08434695       0.84182527
O        1.95781500      -1.30694137       0.47442550
H       -2.60041341       1.46492104      -0.73988953
H       -0.13562215       1.95018631      -0.47356237
H        1.42859233      -2.02602990       0.84333326
H       -1.23741886      -0.80262916      -1.33945983
H       -1.76225342      -0.40052023       1.39061783
H        1.38923118       0.08856960       1.91920960
H        1.84351993       0.70500150       0.31841986
H        1.30928266      -0.72040280      -1.66765127
16
Properties=species:S:1:pos:R:3 relative_energy_eV=-0.07949666111744591 branch=right pbc="F F F"
O        0.64633449      -0.08271185      -1.96805929
C       -0.40698645      -0.16390461      -1.05628031
C       -0.75556442       1.07619719      -0.28836432
O       -2.08961487       1.35263582       0.07117777
C       -0.13230558      -0.09362781       0.42241544
O       -0.93008155      -0.87531961       1.26761724
C        1.30676385      -0.08440677       0.84193391
O        1.95711672      -1.30770371       0.47521050
H       -2.60180986       1.46237468      -0.73825869
H       -0.13651295       1.95086771      -0.47366690
H        1.42611829      -2.02596312       0.84317360
H       -1.23626866      -0.80275399      -1.34002383
H       -1.76213298      -0.39876859       1.39041834
H        1.38965430       0.08851761       1.91923558
H        1.84470324       0.70418065       0.31833776
H        1.31013595      -0.72011807      -1.66773400
16
Properties=species:S:1:pos:R:3 relative_energy_eV=-0.07952819396268751 branch=right pbc="F F F"
O        0.64743370      -0.08257815      -1.96810782
C       -0.40645810      -0.16381355      -1.05698119
C       -0.75568448       1.07621799      -0.28878342
O       -2.08957436       1.35203487       0.07221226
C       -0.13217013      -0.09335794       0.42181309
O       -0.93031118      -0.87449464       1.26711580
C        1.30671621      -0.08427751       0.84190957
O        1.95678776      -1.30805771       0.47582133
H       -2.60289428       1.46082087      -0.73631629
H       -0.13719612       1.95132940      -0.47375675
H        1.42426262      -2.02557835       0.84301263
H       -1.23538157      -0.80295442      -1.34098386
H       -1.76189911      -0.39733525       1.39053632
H        1.38947011       0.08843771       1.91929846
H        1.84547446       0.70348359       0.31814287
H        1.31097398      -0.72038138      -1.66780020
16
Properties=species:S:1:pos:R:3 relative_energy_eV=-0.0795548776495707 branch=right pbc="F F F"
O        0.64829752      -0.08260569      -1.96790231
C       -0.40625680      -0.16399115      -1.05751185
C       -0.75579458       1.07609936      -0.28905148
O       -2.08950435       1.35157658       0.07311112
C       -0.13226798      -0.09331511       0.42137079
O       -0.93033816      -0.87418914       1.26684388
C        1.30645125      -0.08408461       0.84174486
O        1.95687107      -1.30800299       0.47606744
H       -2.60331554       1.46112143      -0.73491004
H       -0.13751968       1.95139326      -0.47392295
H        1.42368582      -2.02512590       0.84315231
H       -1.23500889      -0.80317461      -1.34199872
H       -1.76166602      -0.39684976       1.39089338
H        1.38893392       0.08844184       1.91927106
H        1.84553195       0.70318707       0.31784202
H        1.31144994      -0.72098504      -1.66786671
16
Properties=species:S:1:pos:R:3 relative_energy_eV=-0.07957756087307644 branch=right pbc="F F F"
O        0.64910696      -0.08265201      -1.96753041
C       -0.40622338      -0.16436778      -1.05798059
C       -0.75594203       1.07581232      -0.28926667
O       -2.08945394       1.35099592       0.07403963
C       -0.13249352      -0.09349012       0.42102329
O       -0.93031847      -0.87424543       1.26670200
C        1.30608304      -0.08391319       0.84152448
O        1.95718001      -1.30771658       0.47610379
H       -2.60341857       1.46296745      -0.73363126
H       -0.13775981       1.95115501      -0.47437250
H        1.42398213      -2.02465408       0.84356838
H       -1.23483974      -0.80348889      -1.34319516
H       -1.76139961      -0.39677299       1.39138065
H        1.38820425       0.08848061       1.91919459
H        1.84510994       0.70319458       0.31757821
H        1.31173219      -0.72180931      -1.66800563
16
Properties=species:S:1:pos:R:3 relative_energy_eV=-0.07961119746323675 branch=right pbc="F F F"
O        0.64994144      -0.08252145      -1.96702320
C       -0.40625536      -0.16484380      -1.05841424
C       -0.75615535       1.07536954      -0.28947223
O       -2.08947994       1.35009100       0.07504592
C       -0.13271381      -0.09384978       0.42071836
O       -0.93028549      -0.87458712       1.26658425
C        1.30574077      -0.08385304       0.84128079
O        1.95755570      -1.30743486       0.47607109
H       -2.60348559       1.46601206      -0.73226854
H       -0.13812528       1.95074585      -0.47524229
H        1.42480801      -2.02430558       0.84436489
H       -1.23467134      -0.80388916      -1.34462712
H       -1.76102079      -0.39674301       1.39187259
H        1.38738155       0.08859793       1.91904403
H        1.84446250       0.70342032       0.31742825
H        1.31185246      -0.72271339      -1.66822975
16
Properties=species:S:1:pos:R:3 relative_energy_eV=-0.07963722332715406 branch=right pbc="F F F"
O        0.65066559      -0.08215591      -1.96653580
C       -0.40626387      -0.16524500      -1.05875703
C       -0.75637411       1.07489211      -0.28968991
O       -2.08954984       1.34891857       0.07600587
C       -0.13277607      -0.09427634       0.42045031
O       -0.93036089      -0.87498063       1.26635863
C        1.30557612      -0.08399135       0.84114100
O        1.95780918      -1.30734752       0.47604439
H       -2.60378324       1.46905696      -0.73082898
H       -0.13866240       1.95034850      -0.47650837
H        1.42582111      -2.02426731       0.84530676
H       -1.23439679      -0.80424679      -1.34605351
H       -1.76052348      -0.39624317       1.39213434
H        1.38663434       0.08868964       1.91891624
H        1.84393517       0.70377897       0.31764557
H        1.31179867      -0.72343524      -1.66849672
16
Properties=species:S:1:pos:R:3 relative_energy_eV=-0.07965906172648829 branch=right pbc="F F F"
O        0.65103191      -0.08160702      -1.96626933
C       -0.40618453      -0.16529246      -1.05888861
C       -0.75647573       1.07467153      -0.28984717
O       -2.08960094       1.34802892       0.07653096
C       -0.13258649      -0.09449114       0.42026639
O       -0.93052353      -0.87507780       1.26602915
C        1.30569727      -0.08428163       0.84117395
O        1.95773312      -1.30762781       0.47611183
H       -2.60438552       1.46999746      -0.72980755
H       -0.13917362       1.95026505      -0.47758537
H        1.42628943      -2.02462315       0.84595990
H       -1.23405414      -0.80430441      -1.34688493
H       -1.76008411      -0.39522239       1.39199311
H        1.38628975       0.08869469       1.91887879
H        1.84396768       0.70397359       0.31812714
H        1.31160892      -0.72360792      -1.66865545
16
Properties=species:S:1:pos:R:3 relative_energy_eV=-0.07966793872219569 branch=right pbc="F F F"
O        0.65108166      -0.08113501      -1.96619130
C       -0.40608219      -0.16509542      -1.05886093
C       -0.75646662       1.07470775      -0.28991596
O       -2.08959135       1.34774329       0.07659174
C       -0.13235395      -0.09447153       0.42018442
O       -0.93068398      -0.87487928       1.26577834
C        1.30590095      -0.08451806       0.84129914
O        1.95748384      -1.30799292       0.47619090
H       -2.60493582       1.46910793      -0.72940801
H       -0.13943011       1.95038591      -0.47810482
H        1.42626675      -2.02506417       0.84615578
H       -1.23379813      -0.80412489      -1.34707485
H       -1.75987767      -0.39428979       1.39171104
H        1.38631023       0.08859869       1.91893475
H        1.84430758       0.70392575       0.31851838
H        1.31141829      -0.72340272      -1.66867581
16
Properties=species:S:1:pos:R:3 relative_energy_eV=-0.07966437200957444 branch=right pbc="F F F"
O        0.65109166      -0.08075742      -1.96610810
C       -0.40601688      -0.16487546      -1.05880885
C       -0.75642741       1.07482598      -0.28992684
O       -2.08954530       1.34783667       0.07650530
C       -0.13223171      -0.09437246       0.42015523
O       -0.93077156      -0.87462713       1.26566493
C        1.30601501      -0.08463732       0.84137634
O        1.95727006      -1.30825485       0.47623346
H       -2.60527292       1.46784697      -0.72933017
H       -0.13948305       1.95051086      -0.47825496
H        1.42614441      -2.02537336       0.84623595
H       -1.23365956      -0.80389590      -1.34709099
H       -1.75984015      -0.39378065       1.39155113
H        1.38643103       0.08849270       1.91898238
H        1.84457065       0.70374841       0.31861035
H        1.31127520      -0.72319152      -1.66866235
16
Properties=species:S:1:pos:R:3 relative_energy_eV=-0.07967544908933633 branch=right pbc="F F F"
O        0.65116856      -0.08028891      -1.96592445
C       -0.40597125      -0.16460700      -1.05876243
C       -0.75635032       1.07501109      -0.28991683
O       -2.08942079       1.34819071       0.07642815
C       -0.13218009      -0.09422890       0.42014503
O       -0.93089401      -0.87429602       1.26558485
C        1.30606168      -0.08473689       0.84142544
O        1.95706270      -1.30848921       0.47622322
H       -2.60559764       1.46609402      -0.72929774
H       -0.13940933       1.95063546      -0.47833071
H        1.42610735      -2.02566856       0.84636302
H       -1.23356496      -0.80357147      -1.34717193
H       -1.75987663      -0.39331100       1.39146902
H        1.38656659       0.08830796       1.91903136
H        1.84474088       0.70347581       0.31855044
H        1.31110673      -0.72302158      -1.66868363
