16
Properties=species:S:1:pos:R:3 relative_energy_eV=3.2686487601367844 branch=ts pbc="F F F"
O       -0.07024688      -1.19195385      -1.93602469
C       -0.53992340      -0.50746344      -0.82967889
C       -0.53110738       0.95714100      -0.68582194
O       -1.68115020       1.66311637      -0.23346393
C        0.08761190       0.03365006       0.29305990
O       -1.35903565      -0.67850617       1.40146528
C        1.31313283      -0.15326271       1.07842006
O        2.37428332      -0.63554511       0.24672335
H       -2.17399240       1.95006598      -1.01214451
H        0.09192211       1.54701183      -1.35985263
H        0.49436855      -1.90291611      -1.60017860
H       -1.43988232      -0.89202972       0.12837306
H       -1.93097639       0.09143842       1.51708091
H        1.12755224      -0.91406959       1.83215407
H        1.58540152       0.76884555       1.60107575
H        2.49783048       0.01877252      -0.45213319
