16
Properties=species:S:1:pos:R:3 relative_energy_eV=1.7830805808007426 branch=ts pbc="F F F"
O        2.59971193       0.39822842      -0.97261410
C        1.85864854      -0.55755446      -0.57223493
C        0.99812474      -0.21382736       0.49794958
O        1.37392118       1.08310895       0.89512346
C       -0.56530330       0.18019480      -0.37670077
O       -0.65753510       1.47095152      -0.26405930
C       -1.63692042      -0.63848903       0.34502395
O       -2.91321936      -0.35775054      -0.20549657
H        1.86850827      -1.52161647      -1.08585789
H        0.84590303      -0.90741342       1.31731924
H        2.20791258       1.13686354      -0.11424987
H       -0.42657456      -0.20216118      -1.39609587
H        0.52406319       1.62239893       0.49832653
H       -1.59420275      -0.39051570       1.40842915
H       -1.46035826      -1.70629951       0.20869938
H       -3.02268365       0.60388323      -0.18357975
