16
Properties=species:S:1:pos:R:3 relative_energy_eV=0.9520619030136004 branch=ts pbc="F F F"
O        0.02907099       1.42134902      -0.92470307
C       -0.45597227       0.20285210      -1.16859683
C        0.52541553      -0.85427880      -1.61736408
O        1.78641783      -0.76339312      -0.94466439
O       -2.44413813       0.64948945       2.02896866
C       -1.26913612       0.43685410       2.29503098
C       -0.23616868       0.36898676       1.27751687
O        0.91976089      -0.23582156       1.54049493
H       -1.43915378       0.15021174      -1.63709632
H        0.14165980      -1.85404042      -1.42979264
H        0.66314946      -0.73708740      -2.70289319
H        2.10672665       0.13721778      -1.10084386
H       -0.91635106       0.26011001       3.33133735
H       -0.74535850      -0.12542326       0.18418501
H       -0.01520934       1.43917511       0.18429159
H        1.34929070      -0.49621888       0.68411376
