16
Properties=species:S:1:pos:R:3 pbc="F F F"
O        1.51373050       3.56323087       1.35586452
C        0.93966455       2.61555837       0.86038933
C        0.47906377       2.63280463      -0.56448324
O        0.79378689       3.84268659      -1.19481370
O       -0.65022543      -1.03272028       0.11919986
C       -1.11695609      -2.11992442       0.37063290
C       -0.43036873      -3.45387752       0.11137243
O       -1.23754819      -3.34317529      -0.94038721
H        0.73247179       1.69821467       1.44008897
H        0.93636996       1.77320709      -1.07905778
H       -0.60449413       2.43764838      -0.57440218
H        1.24547903       4.36767510      -0.51005364
H       -2.06306057      -2.25344964       0.90859873
H        0.59534319      -3.21667269      -0.04923137
H       -0.57468776      -4.30397491       0.79919726
H       -0.55856844      -3.20722791      -1.05291129
