12
Properties=species:S:1:pos:R:3 pbc="F F F"
O        0.54848786      -1.13888426       0.67529468
C        0.90376194      -0.09324321       0.20432401
C        0.14101945       0.30554824      -0.94100810
O        1.04620992       0.10012895       2.77872077
C       -1.05095022      -0.19069987      -1.30864707
O       -1.84009854       0.25545067      -2.29615649
H        1.88053569       0.35645898       0.12790396
H        0.44681868       1.10503229      -1.59670596
H        0.17123156       0.30688373       2.71130734
H        1.92061856       0.23947957       2.80310210
H       -1.49215941      -1.02723804      -0.77461394
H       -2.67547548      -0.21891704      -2.38352132
