12
Properties=species:S:1:pos:R:3 pbc="F F F"
O        0.38691744      -0.94329713       0.90998126
C        0.65455193       0.11905563       0.26107489
C       -0.02447625       0.47036696      -0.93410160
O       -0.21991887      -0.56152273       2.51105611
C       -1.08634336      -0.24689662      -1.36921509
O       -1.73905736       0.09407101      -2.48801843
H        1.41503194       0.79023536       0.66410046
H        0.31025761       1.34279193      -1.48001195
H        0.57495824      -0.86927452       2.98353468
H        3.64372334       1.41999800       2.39009458
H       -1.43714278      -1.10962600      -0.81084258
H       -2.47848980      -0.50590632      -2.63765235
