16
Properties=species:S:1:pos:R:3 pbc="F F F"
O       -0.12961302       2.57155039       1.12115776
C       -0.36895925       2.65677516      -0.05881116
C        0.58243848       2.19272129      -1.13189704
O       -0.16242119       1.40906966      -2.05969085
C        0.79191973      -2.01522532       1.26256496
O        1.44119548      -2.86500750       1.83534042
C       -0.47216182      -2.30954439       0.45915524
O       -1.52066013      -2.91051552       1.20079962
H       -1.31432812       3.10089700      -0.44051506
H        1.39681415       1.64521819      -0.65182636
H        0.42985844       1.11125984      -2.75689791
H        1.12374656      -0.95108546       1.28701393
H        0.98927163       3.09836689      -1.60641466
H       -0.77134290      -1.38661479      -0.04974301
H       -0.21491069      -3.04252238      -0.30701420
H       -1.80092496      -2.30470707       1.89668425
