16
Properties=species:S:1:pos:R:3 pbc="F F F"
O       -0.77801843      -1.90553598      -1.25276390
C       -0.30982551      -0.68194213      -0.92378689
C       -0.28675190      -0.39588630       0.55044968
O        0.22234554       0.88771116       0.80501002
C        0.05118425       0.00964262      -3.28967389
O       -0.29351192      -0.99323125      -3.89143001
C        0.09175507       0.20447861      -1.85301069
O        0.49423217       1.10637208       3.75397468
H       -1.31621477      -0.51275567       0.92587991
H        0.31536120      -1.18290755       1.03216392
H        0.28239550       0.99438151       1.76977417
H        0.37738043       0.90190140      -3.86820588
H       -1.02196911      -2.38501390      -0.44959472
H        0.44272508       1.99867430       4.11529852
H        0.46357136       1.15173023      -1.49347940
H        1.32719270       0.75062957       4.09286990
