16
Properties=species:S:1:pos:R:3 pbc="F F F"
O       -0.73009417      -1.93139170      -1.14587197
C       -0.09739121      -0.77858718      -0.83823241
C        0.27379672      -0.63355523       0.61036209
O        0.98652129       0.55205925       0.84773590
C       -0.17931968       0.09845352      -3.16962217
O       -0.78289105      -0.79237917      -3.74322539
C        0.17235373       0.16018737      -1.76380498
O        0.08457942       1.54418280       3.49019974
H       -0.65793889      -0.68130378       1.19407488
H        0.86745204      -1.51734785       0.89029808
H       -0.12900622       2.48358320       3.46484164
H        0.15771947       0.98460629      -3.75033015
H       -0.81127841      -2.47768606      -0.35264716
H        0.74834409       0.86781784       1.73532281
H        0.70228262       1.03715093      -1.42469231
H       -0.66699062       1.13593488       3.93211933
