16
Properties=species:S:1:pos:R:3 pbc="F F F"
O       -0.56887091      -1.95117968      -1.18203315
C       -0.15369088      -0.73009368      -0.79611445
C        0.04110387      -0.57543633       0.69965026
O        0.48691280       0.63203640       1.13937496
C       -0.11652368       0.18505926      -3.11268255
O       -0.49563748      -0.77087197      -3.76939895
C        0.06346097       0.26044870      -1.67942303
O        0.42182927       1.65428577       3.17946739
H       -0.94941812      -0.87461119       1.12480991
H        0.71657935      -1.42220922       0.97426416
H       -0.07393457       1.67235226       2.23893700
H        0.13123007       1.13491359      -3.63830061
H       -0.65215650      -2.51466987      -0.40146202
H        0.93400761       0.86556571       2.68661920
H        0.40183707       1.19684694      -1.26619616
H       -0.18673461       1.23755959       3.80249222
