16
Properties=species:S:1:pos:R:3 pbc="F F F"
O        1.67695057       3.13412762       1.54362794
C        0.91344827       2.66410598       0.51871442
C        0.24848395       2.61086088      -0.80528961
O        0.80108339       3.83147855      -1.10995155
O       -0.58320772      -0.85338300       0.79437288
C       -1.13986596      -1.85175249       0.40357129
C       -0.41382745      -3.10860952       0.01545533
O       -1.26644083      -3.88231064      -0.80939156
H        0.74672185       1.81693891       1.19452804
H        1.24533759       1.99380834      -0.54000726
H       -0.77050273       2.36274081      -0.58232616
H        1.24751271       4.36157642      -0.42687036
H       -2.24319299      -1.91689478       0.32439056
H        0.52602893      -2.82837113      -0.46880459
H       -0.16322395      -3.61971218       0.95580062
H       -0.82530469      -4.71460234      -1.00782068
