16
Properties=species:S:1:pos:R:3 pbc="F F F"
O        2.14464214       3.10833351       0.95248658
C        0.92016975       2.76343198       0.87082609
C        0.18483491       3.19848745      -0.28443611
O        0.89108186       3.84790724      -1.18917638
O       -0.82959271      -0.89953477       0.04963483
C       -1.25830772      -2.03013513       0.04009745
C       -0.38612623      -3.23844567      -0.13392299
O       -1.20351406      -4.34924234      -0.46624125
H        0.33510930       2.46698457       1.76291220
H        0.75477751       1.94278744       0.01779793
H       -0.87728997       3.09973009      -0.43817884
H        1.78952798       3.86628741      -0.73671659
H       -2.33432788      -2.25644293       0.17652937
H        0.36684932      -3.01122924      -0.89508471
H        0.14454166      -3.38062530       0.81712455
H       -0.64237144      -5.12828949      -0.54364846
