16
Properties=species:S:1:pos:R:3 pbc="F F F"
O       -1.42930178      -0.80949119      -1.28015152
C       -0.71228683      -0.38639067      -2.16603431
C        0.47632071       0.46134425      -1.83458238
O        0.73448306       0.55049485      -0.46737852
O        0.76142679       1.83814125       2.07717152
C        0.72512653       0.61888221       2.05619192
C       -0.15673052      -0.28974458       1.27639125
O       -0.69291185      -1.31234172       2.09086673
H       -0.92154090      -0.62111937      -3.22231879
H        1.34900351      -0.02589771      -2.29649968
H        0.36087445       1.39080731      -2.41388669
H       -0.11880508       0.41389629       0.27436158
H        0.87389025       0.25555072       3.08574812
H       -0.83670006       0.39146556       0.76524765
H        0.67049539      -0.57475052       0.61739436
H       -1.08334367      -1.90084667       1.43747876
