16
Properties=species:S:1:pos:R:3 pbc="F F F"
O       -1.13353823       0.69870521      -1.36041221
C       -0.11721442       1.07138590      -1.89646443
C        1.07486282       1.63658805      -1.17344804
O        1.03517037       1.57861583       0.22426262
O       -0.88871401       0.43152215       2.05344521
C       -0.25315663      -0.57403735       1.82735006
C       -0.60535141      -1.54646884       0.74206105
O       -0.31763932      -2.88004900       1.16118403
H        0.00371147       1.01798455      -3.00207212
H        1.95679134       1.08272495      -1.51268600
H        1.20437272       2.66465868      -1.54313960
H        0.12172773       1.69578215       0.52377661
H        0.65543150      -0.83376269       2.41980490
H       -1.63132238      -1.36047227       0.43281116
H        0.03760531      -1.31507692      -0.11871616
H       -1.14285276      -3.36820193       1.22216700
