16
Properties=species:S:1:pos:R:3 pbc="F F F"
O       -1.26433699      -0.22027222       0.57002427
C       -0.86755917      -0.73072015      -0.64223158
C       -0.87913546       0.03842395      -1.72960406
O       -0.55673378      -0.46270386      -2.96202016
C       -0.22757824      -0.12386123       1.57624301
O        0.39667260      -1.33665079       1.84900252
C        0.81092043       0.91853033       1.17144670
O        1.78135508       0.34448634       0.30823664
H       -0.63004060      -1.78722639      -0.69266818
H        1.34635354       0.17734093      -0.54328404
H       -0.81494449       0.16701054      -3.64238368
H       -0.78697950       0.18561341       2.45910537
H       -1.14829967       1.08784560      -1.66915440
H        0.31587227       1.77786970       0.71196391
H        1.34669425       1.26296566       2.05431810
H        1.20348189      -1.33606387       1.30125938
