12
Properties=species:S:1:pos:R:3 relative_energy_eV=0.3658212276041013 branch=ts pbc="F F F"
O       -1.46797325       0.88887964       0.81906554
C       -0.84671122       1.47387636      -0.06230425
C        0.43510091       1.06143453      -0.60442054
O       -1.08924659      -1.98668365       0.61956605
C        1.12511335       0.05962210      -0.04230057
O        2.30841168      -0.41690831      -0.51977016
H       -1.27732094       2.38779268      -0.51323285
H        0.83788880       1.58347271      -1.46474779
H       -1.41702668      -1.08338594       0.78481570
H       -1.61861641      -2.54317897       1.19914331
H        0.79816577      -0.41050243       0.87939416
H        2.12976513      -1.05169461      -1.22175894
