12
Properties=species:S:1:pos:R:3 pbc="F F F"
C       -0.83520391       0.84814012      -0.32977967
O        2.11467261      -1.30404169       0.43898521
O        0.13454035       0.70273809       1.86365910
C       -0.64128487      -0.16881579      -1.39349632
C       -0.76009917       1.01021204       1.39348490
O       -1.74815766       0.52347313       0.86725624
H        0.08019871       0.36720199      -1.98164701
H       -1.23254807       1.88155255      -0.25785023
H        1.83991758      -0.76068487       1.18785076
H       -0.23850013      -1.00700817      -0.86027515
H        2.86290338      -1.81172696       0.76898317
H       -1.60387553      -0.28301753      -1.85417748
