12
Properties=species:S:1:pos:R:3 pbc="F F F"
C       -0.89681102       0.88948435      -0.18066851
O        2.10645690      -0.86744898       0.73493213
O       -0.53381348       0.16535782       2.30971679
C       -0.73584303      -0.12349152      -1.31654839
C       -0.52558697       0.41061635       1.18997297
O       -2.12121665       1.17915659       0.30093379
H       -0.98891764       0.38058267      -2.24807696
H       -0.24579081       1.76127762      -0.39571683
H        2.34641363      -0.85082927       1.66988971
H        0.27369262      -0.51913870      -1.38714710
H        2.73826250      -1.48528417       0.35565566
H       -1.44428415      -0.94225954      -1.18994811
