16
Properties=species:S:1:pos:R:3 pbc="F F F"
C        1.46404605      -0.84866988      -0.69354169
C        0.19557853      -0.03642349      -0.42646364
O        0.40489383       1.36585555      -0.93991649
N       -1.03094598      -0.65162958      -1.16536259
C       -1.05471161       0.42272284       1.56922199
N        0.14019434      -0.09426789       0.89934218
H        2.13965026      -0.40820936       0.03371582
H        1.25486876      -1.87681309      -0.43459320
H        1.84054919      -0.74401406      -1.70816058
H       -0.74725947      -0.81019071      -2.13082203
H       -1.71873209       0.09528989      -1.18179935
H       -1.76472091      -0.38017027       1.77422556
H       -0.72758472       0.83627254       2.52017665
H       -1.60051746       1.21427577       1.02954249
H        0.61933278       0.26487151       0.63937186
H        0.63866630       1.76311159      -0.08270168
