35
Properties=species:S:1:pos:R:3 pbc="F F F"
O        4.52086989      -2.44747325      -3.54087991
P        4.46314474      -2.50794589      -2.04364098
O        5.62435694      -2.04136330      -1.18936272
O        3.32290385      -3.20735431      -1.32994041
O        3.21825589      -0.19697639      -1.54105281
C        1.83819600      -0.34719731      -1.88130853
C        1.24811051       0.94840291      -1.40398402
O        1.25212207       1.96500644      -2.08091087
C        0.74631419       1.06553301       0.04015208
O        1.22027374       2.30850214       0.55186368
C       -0.79112978       0.98788925       0.05270047
O       -1.09703987      -0.24524419      -0.56396681
C       -1.40643492       1.11885102       1.45438372
O       -1.04188600       2.33878171       2.09754970
C       -2.92051570       1.12695387       1.38799218
O       -3.37691285      -0.07830204       0.79768523
P       -5.04691550      -0.36811544       0.78374569
O       -5.75752267       0.94488830       0.70942995
O       -5.22289370      -1.52967120      -0.14811525
O       -5.22204357      -0.94118271       2.34903938
O        3.73215377      -1.48500175       0.85906133
H        3.33090383      -2.23848312       0.37642548
H        1.76939836      -0.42765085      -2.96200440
H        1.37135874      -1.21157482      -1.41318941
H        1.16045642       0.25770312       0.64526241
H        1.26316411       2.88699042      -0.22915902
H       -1.16974444       1.83498123      -0.53992117
H       -2.03102444      -0.43825304      -0.35115543
H       -1.08223369       0.24860622       2.04065400
H       -0.14364447       2.55505098       1.79736283
H       -3.25221296       1.98686324       0.80411938
H       -3.32338867       1.23591535       2.39555764
H       -5.14870480      -1.89957407       2.26874306
H        4.62548444      -1.52596642       0.45956189
H        3.32030284      -0.51077044      -0.60732966
