16
Properties=species:S:1:pos:R:3 pbc="F F F"
O        0.81198681      -0.52858786      -1.49097145
C       -0.54562751      -0.71018351      -1.42067416
C       -1.38745177       0.10994088      -2.27167503
O       -1.31919447       0.35523389      -0.84788558
C        0.11006805       0.54625104       2.12425449
O        0.04452564       1.58299517       1.21329778
C        1.10511319      -0.33289013       2.05664380
O        2.08877524      -0.23221697       1.10832930
H       -0.92131928       0.87327363      -2.88187042
H       -2.34626552      -0.25984891      -2.61635707
H       -0.43433245       1.28582307       0.41966399
H       -0.64315195       0.51985063       2.90473208
H        1.21513556      -0.86877352      -0.67691484
H       -0.86306536      -1.70194673      -1.10179661
H        1.22470922      -1.17894686       2.71653336
H        1.96845395       0.64998917       0.71685289
