12
Properties=species:S:1:pos:R:3 pbc="F F F"
O       -0.70672119      -1.28786820       0.03691366
C        0.09735265      -0.68812222      -0.47846186
C        0.09353419       0.58972536      -1.23526209
O       -0.86654650       1.45814122      -0.69729855
C        0.17538795      -0.49998792       2.13328148
O       -0.77117686      -0.22080217       1.49341943
H        0.77421430      -1.32080872      -1.06173373
H       -0.04915645       0.55384990      -2.32255510
H        1.08664629       1.04560312      -1.16307561
H       -0.85931721       2.33486305      -1.09490625
H       -0.17531627      -1.45896015       2.51660772
H        1.20109909      -0.50563328       1.87307090
