9
Properties=species:S:1:pos:R:3 pbc="F F F"
O       -0.61960584       0.72190300      -2.17038171
O        1.02325572      -0.78975851       1.94658934
C       -0.01033540      -0.51236145      -0.20130491
C       -0.17944563       0.72930450      -1.04846535
C        0.22065579      -0.21497415       1.25358338
H        0.80346314      -1.13170119      -0.58279049
H       -0.92888336      -1.10390221      -0.30292223
H        0.12984599       1.68541080      -0.57146450
H       -0.41234972       0.59857234       1.67372259
