12
Properties=species:S:1:pos:R:3 relative_energy_eV=4.264453144482104 branch=ts pbc="F F F"
C        0.48482597       0.72425579      -1.11584070
O        0.27783898      -0.06634211      -2.01519225
O        0.10975913       1.55302136       1.15277108
C        0.28792136       0.43904649       0.45415258
C       -0.49595984      -0.87297642       0.65146669
O       -1.75194538      -0.83117407       0.02628439
H        1.49937103       0.33573567      -0.20496265
H        0.56377491       1.80884482      -1.25907917
H        1.18556822       0.53185853       1.20215953
H        0.11548286      -1.70904592       0.30559947
H       -0.66450421      -0.97146290       1.72648391
H       -1.61213603      -0.94176083      -0.92384183
