12
Properties=species:S:1:pos:R:3 pbc="F F F"
C       -1.60983918      -4.00446285       1.89020920
O       -1.57483135      -2.91797221       2.33041420
O       -0.20987001       0.97493364       1.71711232
C        1.53639036       1.29683853      -2.00968137
C        0.17384477       1.66293936      -2.04147619
O       -0.31566665       2.42700788      -2.90022781
H       -0.18806527       1.65180247       2.40556713
H       -0.69679512      -4.66007203       1.82415662
H       -0.63695354       0.22333512       2.13844861
H        1.89484624       0.63070976      -1.24540079
H       -0.48556020       1.23401626      -1.26868555
H        2.21315182       1.68149775      -2.75513700
