16
Properties=species:S:1:pos:R:3 pbc="F F F"
O       -2.92188251       0.53078484       0.15966589
C       -2.41435541      -0.05921216      -0.15905821
C       -0.76410432       0.24294259      -0.47675062
O       -0.38086252       1.54590523      -0.55994970
C        0.44020872      -0.47482939       0.60071007
O        0.31723016       0.34774700       1.69510437
C        1.55247185      -0.77998051      -0.08566724
O        2.14166939       0.38766689      -0.63630939
H       -2.52113423      -0.92969692      -0.03383640
H       -0.55495350      -0.17186368      -1.47373952
H       -1.67712702       2.09194893      -0.15567379
H       -0.23064855      -1.39444901       0.85387776
H        0.41240617       1.25890026       1.37958541
H        1.39524471      -1.54531999      -0.85713305
H        2.18424872      -1.20812773       0.69922258
H        3.02158592       0.15757763      -0.95004939
