16
Properties=species:S:1:pos:R:3 pbc="F F F"
O       -2.05869074       0.39938182      -0.34533213
C       -1.08390875       0.76255230      -1.02074531
C       -1.80201534      -1.38965367       0.83817752
O       -2.83892271      -1.65227884       1.41353334
C       -0.65167294      -0.75249045       1.49303499
O       -0.24574492      -0.08356417      -1.79958114
C        0.56383208      -0.77566568       0.95764720
O        5.20526676       1.95927122      -0.98350218
H       -0.63122969       1.74533645      -0.94627874
H       -1.56868736      -1.82426520      -0.14286622
H       -2.15690193       0.39948005      -0.78763780
H       -0.85534838      -0.26682676       2.43338704
H        0.47992801       0.46334410      -2.14729836
H        0.73603079      -1.21901359      -0.01037507
H        1.40699886      -0.32387358       1.44932298
H        5.41400730       2.75530605      -0.46911993
