16
Properties=species:S:1:pos:R:3 pbc="F F F"
C        0.57100145       1.28983941      -1.98240004
C        1.08639267       0.13476035      -1.55880496
C        0.30320021      -0.92094869      -0.96320415
C        0.79043448      -2.06977905      -0.49398688
C       -1.21461323       1.25205567       1.81161945
C       -1.07003512       0.04897687       2.34475514
H       -0.49041982       1.49067695      -1.90190081
H        1.18350876       2.06540134      -2.41824949
H        2.15662717      -0.03475989      -1.65531571
H       -0.76219129      -0.73379985      -0.88398975
H        1.84792410      -2.30178650      -0.53449334
H        0.14907039      -2.81628427      -0.04682502
H       -2.17689798       1.74181143       1.72698020
H       -0.36167202       1.79474612       1.42804131
H       -0.09943512      -0.42547925       2.38982127
H       -1.90496727      -0.51693566       2.73818725
