16
Properties=species:S:1:pos:R:3 pbc="F F F"
C       -0.24843287       1.31520632      -0.95084626
C        0.57515661       0.18647559      -0.94827674
C       -0.01003163      -1.03970860      -0.82847586
C        0.41275641      -1.66113485       0.34038739
C       -0.23643155       1.12949862       0.88193005
C       -0.37284846      -0.20344500       1.29409983
H       -0.96610625       1.15045589      -1.72205395
H        0.20312015       2.08771995      -1.52047954
H        1.54581216       0.44436001      -0.53803204
H       -1.02684808      -1.25857671      -1.13623256
H        1.44548784      -1.87059803       0.28528044
H        0.25532808      -2.68631797       0.09306332
H       -0.11073304       1.81144208       1.71735938
H        0.46865980       1.53634692       0.19572757
H       -0.98428859      -0.13694783       2.18093166
H       -0.95060058      -0.80477640       0.65561730
