16
Properties=species:S:1:pos:R:3 pbc="F F F"
O        1.43683797       3.61260286       1.08476052
C        0.92106407       2.50994934       0.87727826
C        0.47134386       2.54948485      -0.54945338
O        0.74820632       3.75537487      -1.20371895
O       -0.57269961      -0.85525292       0.79469521
C       -1.13705625      -1.85150688       0.40962155
C       -0.41539986      -3.10762574       0.01122650
O       -1.27261478      -3.88239122      -0.80780838
H        0.71171235       1.56838747       1.40900200
H        0.99185365       1.78175105      -1.14433821
H       -0.62273539       2.43692102      -0.61721394
H        1.44444175       4.56173626      -0.06150137
H       -2.24112838      -1.91361611       0.33935539
H        0.52110441      -2.82826259      -0.47993032
H       -0.15262695      -3.62281968       0.94592682
H       -0.83230223      -4.71473115      -1.00790239
