16
Properties=species:S:1:pos:R:3 pbc="F F F"
C       -1.57209392      -0.77804725      -0.94215177
C       -2.85810264      -1.08129214      -1.95877567
O       -2.67788976      -0.16311073      -2.84860496
N       -3.70149580      -2.01553858      -1.72414350
C        2.56369741       1.51719509       1.11197983
N        1.89709617       0.33433670       1.78916328
H       -1.70191497       0.24219407      -0.56982070
H       -1.49755348      -1.46342339      -0.08447611
H       -0.65377422      -0.82594539      -1.53552777
H        2.43595882      -0.52398903       1.68551990
H       -3.19538635      -1.23231305      -2.09852136
H        2.39257881       2.40631250       1.69909965
H        3.62090571       1.31348493       1.03656427
H        2.13371415       1.63452989       0.12895044
H        1.76720222       0.49108104       2.78900742
H        0.98144820       0.14025045       1.39117693
