12
Properties=species:S:1:pos:R:3 pbc="F F F"
C        0.04814532      -0.29063044      -0.64847942
O       -1.16604780       0.25481528      -0.59834687
O       -1.06163779       1.27498444       1.94564376
C        0.31233951      -0.96449973      -1.95770019
C        0.04825776       0.96104967       2.33986919
O        0.84770804      -0.24398001       0.27338054
H        1.31947828      -1.36331104      -1.97880772
H        0.91636073       1.62839914       2.21912935
H       -1.25517462       0.66846316       0.29235308
H       -0.40661038      -1.76839023      -2.10369926
H        0.22409382       0.02206154       2.88841836
H        0.17318528      -0.25456858      -2.77006350
