12
Properties=species:S:1:pos:R:3 pbc="F F F"
C        0.20503517      -0.43568936      -0.74644728
O       -0.97745858       0.14971144      -0.57551183
O       -1.06181241       1.31138690       1.93318416
C        0.08158084      -0.94785272      -2.06851231
C        0.04956126       1.00804970       2.33125867
O        0.81225923      -0.23510962       0.33852716
H        1.20480526      -1.18938561      -1.62501171
H        0.91899986       1.66739785       2.18073153
H       -1.23686075       0.61515995       0.24038872
H       -0.42160592      -1.88177042      -2.07807441
H        0.22573098       0.08903561       2.91229320
H        0.20401250      -0.20169756      -2.81223041
