12
Properties=species:S:1:pos:R:3 pbc="F F F"
C       -0.16203381      -0.30746755      -0.90777600
O       -1.10680135       0.53003205      -0.63088488
O       -0.93416165       1.35702257       1.87236362
C        0.14007319      -0.92212387      -2.14242329
C        0.05935512       0.96928898       2.45054375
O        0.82153629      -0.54478254      -0.06552204
H        1.30740740      -0.92256790      -1.20780635
H        0.99713523       1.54159768       2.41046899
H       -1.01814102       0.82909422       0.31860174
H        0.26955159      -1.99871654      -2.07008205
H        0.05457723       0.02789577       3.01870000
H       -0.42425022      -0.61003497      -3.01557584
