16
Properties=species:S:1:pos:R:3 pbc="F F F"
O        2.16928705      -1.36201136      -0.43784266
C        1.72530395      -0.08364582      -0.35989988
C        1.31428592       0.48425571       0.78598324
O        0.86114680       1.76781062       0.90384704
C       -0.84973084      -1.07803252       0.34357309
O       -0.45993313      -1.91242936      -0.45373490
C       -1.63397485       0.16676034      -0.02521442
O       -1.00476346       0.87875492      -1.08851403
H        1.67843982       0.46057098      -1.30002650
H        1.43719313      -0.02234099       1.73691909
H        0.44257553       1.99743637       0.05796217
H       -0.84872403      -1.28186514       1.43288474
H        1.36836189      -1.91125237      -0.57541790
H       -1.74970679       0.79391605       0.86353885
H       -2.62857329      -0.19705290      -0.31663547
H       -1.68825301       1.33210716      -1.59227353
