12
Properties=species:S:1:pos:R:3 pbc="F F F"
O        0.25485234      -0.68485910      -1.60912250
C        0.82146852       0.41293516      -1.55001269
C        0.07407086       0.68266089       1.12129356
O        1.20588482       0.94787531       1.50445541
C       -0.49444916      -0.62888386       1.04582333
O       -1.43314201      -0.85689823       0.09610381
H        1.85018313       0.50894895      -1.18705066
H       -0.69410819       1.46714050       0.91505318
H        0.33425276       1.31530431      -1.94283861
H       -1.18916967      -0.76014155       1.25411798
H        0.17248250      -1.45676155       1.15563197
H       -0.90690846      -0.94912924      -0.82003596
