12
Properties=species:S:1:pos:R:3 pbc="F F F"
O        1.18134292       1.36013458      -1.67633378
C        1.45227463       0.75890222      -0.66391664
C        0.53711896      -0.26143437      -0.01849716
O        0.86845504      -0.35018490       1.35602400
C       -0.96938994       0.07313357      -0.39692814
O       -1.64590740      -0.92318552       0.51422851
H        2.41919303       0.89885166      -0.13886108
H        0.73805575      -1.22131285      -0.52261298
H       -1.13172654       0.96849170       0.02989278
H        0.06526134      -0.78405198       1.60178943
H       -1.05907089       0.12302550      -0.78879636
H       -2.56225525      -0.64397204       0.59923691
