12
Properties=species:S:1:pos:R:3 pbc="F F F"
O       -0.56369480      -0.81998435      -1.37299425
C       -0.10530925      -0.28051825      -0.26210513
C       -0.95527105      -0.63920307       0.80081686
O       -0.93834854       0.01948356       2.03717309
C        0.98699415       0.69595939      -0.34079338
O        1.99790750       0.31838619      -1.25099217
H       -1.04388057      -1.71271440       0.98886693
H       -1.57874758      -0.92968096      -0.52431265
H       -1.36872049       0.87946602       1.96277224
H        0.55379670       1.66608741      -0.62722559
H        1.45198755       0.82360915       0.63396086
H        1.56349650      -0.02087180      -2.04530424
