12
Properties=species:S:1:pos:R:3 pbc="F F F"
C        0.36550035       1.83247950      -0.64362115
O       -1.78353049      -4.55595039       0.06356155
O        0.00875535       1.03339819       1.63111909
C       -0.22828477       0.89987554       0.26122163
C        0.84198308      -0.21023038      -0.21124391
O        0.65044593      -1.05487730      -1.04093673
H        0.10162067       1.85363920      -1.69017027
H        1.25685205       2.34950025      -0.33361770
H       -0.73437637       1.47090394       2.06305491
H       -1.21252314       0.53026713      -0.01622761
H        1.77114956      -0.06464696       0.36129582
H       -0.98514517      -4.15060497      -0.31391824
