16
Properties=species:S:1:pos:R:3 pbc="F F F"
O        0.78138662      -1.39212647      -2.29825821
C        0.21465998      -1.80156547      -1.18596867
C       -0.67679740      -0.71920202      -0.68345595
O       -0.40243186       0.39870097      -1.30462245
C       -0.69291723       0.51047007       1.27546977
O       -1.44866028       0.84711832       0.47730129
C        0.69902856       0.86175524       1.62449622
O        1.28458806       1.38512556       0.46301045
H       -1.68097830      -1.17481488      -0.66229690
H       -0.40126326      -0.56071740       0.36670184
H       -0.44142558       0.57247672      -1.88857656
H       -1.19800639       0.19863028       2.20226259
H        1.36488030      -2.09601907      -2.62010430
H        1.24313564      -0.03287495       1.95464146
H        0.80194686       1.57819038       2.45618691
H        0.55285429       1.42485270      -0.17678749
