12
Properties=species:S:1:pos:R:3 pbc="F F F"
C       -0.20311110      -0.11261119      -1.78698901
C        0.36823107      -1.31371814      -1.59000226
O        0.07365642       0.60654871       0.01490799
O        0.02668865       1.69807501       1.24096018
C       -0.10976339       1.03724409       2.28787257
O       -0.19731243      -0.23646238       2.27267391
H        0.35823826       0.69591496      -2.23136679
H       -1.27630025      -0.00457600      -1.74039388
H       -0.21380156      -2.14647609      -1.22191732
H        1.43723113      -1.44312339      -1.67404750
H       -0.10899294      -0.35427078       1.18486600
H       -0.15476360       1.57345624       3.24344275
