16
Properties=species:S:1:pos:R:3 pbc="F F F"
O       -0.85692821       0.80034451      -1.51268948
C       -0.32355315      -0.42398791      -1.42318855
C        1.08938969      -0.38178410      -1.67401454
O        1.97441733       0.65437858      -1.53099511
O       -0.15666184      -0.75946186       0.15502555
C       -0.69694245       0.15039530       0.85338835
C       -0.71734057      -0.27836422       2.28702785
O       -0.86497498       0.91250840       2.97590151
H       -0.88685132      -1.29328600      -1.76799144
H        1.59111895      -1.27879529      -1.55202407
H        1.06927067      -0.46179854      -2.77118244
H        1.36903064       1.40131653      -1.58921324
H       -1.06076339       1.01035663      -0.48684279
H       -1.64896752      -0.76795987       2.50765419
H        0.16420988      -0.79435564       2.62300632
H       -0.04550429       1.56758653       2.61535485
