12
Properties=species:S:1:pos:R:3 pbc="F F F"
O        2.62745367       1.09113499      -0.58946351
C        2.06468649       0.47364450       0.31339843
C        0.72961573      -0.06564769       0.29727215
O       -1.87740082      -0.24652880       1.18738275
C       -0.07048457       0.08451035      -0.77498698
O       -1.08654638      -0.58266080      -1.13777251
H        2.61078658       0.29221508       1.25718570
H        0.36042213      -0.58821928       1.16979388
H       -1.76442283      -1.14344866       0.82446659
H       -1.93714429       0.31564284       0.41767623
H        0.23601346       0.57974066      -1.69263372
H       -1.89297918      -0.21038320      -1.27231901
