16
Properties=species:S:1:pos:R:3 pbc="F F F"
O        0.59866307       0.05704372      -2.26646304
C        0.58117730       0.95383199      -1.30302911
C        1.11422955       0.52766104       0.10424377
O        1.84771792       0.99299614       0.98712809
C       -0.33810545       0.97831013      -0.21117633
O        1.70872104      -1.23477273       2.28340328
C       -1.31076131      -0.14024512      -0.07440118
O       -1.79902090      -0.20869537      -1.40755665
H        1.83424652      -0.34215026       1.92317826
H        1.03535804      -0.54278091      -0.12453984
H       -0.30644821      -0.03779677      -2.63756551
H       -0.69608312       1.92061698       0.24093841
H        1.14378723      -1.13577677       3.04150205
H       -2.01386970       0.26981312       0.63859500
H       -0.98145850      -1.13365887       0.29775101
H       -2.41814733      -0.92438627      -1.49203556
