16
Properties=species:S:1:pos:R:3 pbc="F F F"
O       -1.32424690       0.84832217      -1.22914055
C       -0.84065890       0.31260708      -0.24066035
C       -1.66549633      -0.67545523       0.54395565
O       -2.94962438      -0.83344829       0.01299021
C        0.57508913       0.64929905       0.16917975
O        1.08104761       1.71348263      -0.60353010
C        1.49501213      -0.57460042       0.02044786
O        2.81064193      -0.27788216       0.42943694
H       -1.13429185      -1.63613808       0.56977891
H       -1.71736597      -0.33894515       1.58852542
H       -2.98527229      -0.25701702      -0.77046706
H        0.58992595       0.93946120       1.22741979
H        0.40519326       1.90409691      -1.27808454
H        1.47042214      -0.91608491      -1.02098244
H        1.14401753      -1.38550452       0.65819067
H        3.09907693       0.49101759      -0.07930557
