16
Properties=species:S:1:pos:R:3 pbc="F F F"
C        0.23935846       0.65684496      -2.28316140
C        0.39843641      -0.53519637      -1.70669717
C       -0.56762512      -1.14445378      -0.82480048
C       -0.38759293      -2.29964156      -0.18270453
C       -0.49944856       1.46513394       2.25870165
C        0.76423329       1.30036842       1.90227587
H       -0.64563853       1.25497957      -2.10353234
H        0.98547588       1.07701052      -2.94171231
H        1.30839281      -1.09840612      -1.89547992
H       -1.49477040      -0.59905543      -0.67955724
H        0.52870958      -2.86981091      -0.28615424
H       -1.14362368      -2.71128222       0.46939014
H       -0.78518982       2.10316416       3.08521062
H       -1.30724058       0.96705931       1.73714536
H        1.57633793       1.79588928       2.42062262
H        1.03892828       0.66265209       1.07445337
