16
Properties=species:S:1:pos:R:3 pbc="F F F"
C        0.33235581       0.63183357      -2.35176656
C        0.36825752      -0.48743056      -1.62660146
C       -0.74340618      -1.00808038      -0.86869617
C       -0.70229740      -2.10899298      -0.11692857
C       -0.19214185       1.09809296       2.46687799
C        0.80943523       1.36184435       1.64431308
H       -0.56832532       1.23066714      -2.41890961
H        1.19450272       0.98681172      -2.89780263
H        1.29665223      -1.05053085      -1.57481125
H       -1.66811178      -0.43972481      -0.91703662
H        0.19754668      -2.70756133      -0.03819069
H       -1.56043047      -2.44713406       0.44635396
H       -0.08754804       0.40770013       3.29493126
H       -1.16249130       1.56274687       2.34390408
H        0.69274116       2.03460980       0.80711898
H        1.78452955       0.90984240       1.76326297
