16
Properties=species:S:1:pos:R:3 pbc="F F F"
C        0.35608922       0.69985556      -2.32687797
C        0.37294188      -0.40409339      -1.57121109
C       -0.65352836      -0.72980753      -0.61163974
C       -0.43894459      -1.48294943       0.47751221
C       -0.41287370       0.38342287       1.86394653
C        0.74669537       0.95303259       1.36805087
H       -0.45771809       1.41029062      -2.26189004
H        1.15017296       0.91592278      -3.02712064
H        1.23970091      -1.05833685      -1.61952053
H       -1.56801464      -0.14823853      -0.65928602
H        0.54167528      -1.91514163       0.63301306
H       -1.17034672      -1.76906486       1.22315397
H       -0.68046757       0.18804458       2.90259742
H       -1.40645483       0.51172650       1.44746634
H        0.86518579       2.01894554       1.36645935
H        1.51589421       0.42637060       0.79535164
