16
Properties=species:S:1:pos:R:3 pbc="F F F"
O       -0.94236145       1.15357210      -1.75947932
C       -0.72244465       0.57986712      -0.58434739
C       -2.38285384      -1.70303665       1.72373163
O       -3.38179160      -2.29498600       2.04819671
C        0.65187157       0.97511904      -0.16466590
O        1.22881047       2.11401182      -0.75157344
C        1.47956105      -0.32639197      -0.41093219
O        2.82330744      -0.23123764       0.01334415
H       -1.49910819      -2.22752504       1.30615639
H       -2.28066975      -0.60815543       1.82452908
H       -1.82706083       0.89833071      -2.04935224
H        0.66997746       1.13728332       0.92151546
H        0.86944975       2.19829934      -1.64337217
H        1.51984530      -0.51598482      -1.48278693
H        0.95667340      -1.16240478       0.06206322
H        2.83690631       0.01326469       0.94708985
