12
Properties=species:S:1:pos:R:3 pbc="F F F"
C       -0.63656038       0.35758141       0.04292189
O        0.07191413      -0.43378392       1.56786978
O        1.36568795      -0.39163384      -0.80532939
C       -0.07396335       1.59127705      -0.27779031
C        0.25670476      -0.75190504      -0.26074551
O       -0.17348297      -2.01198747      -0.39485649
H       -1.70008038       0.18136151       0.12195748
H        0.57448344      -2.54204061      -0.71440255
H        1.08026991       0.74837313      -0.86886153
H        0.63891056       1.97445393       0.45025467
H       -0.63350747      -1.06894320       1.74364904
H       -0.77036025       2.34722182      -0.60467845
