12
Properties=species:S:1:pos:R:3 pbc="F F F"
C        0.86029002       0.52892983      -0.82850546
O       -1.84433248      -3.30200300       4.81784932
O       -0.95523780      -0.08735234       0.73877214
C        0.11848926       0.55465382      -2.15548115
C        0.02362517      -0.35038067       0.17182141
O        0.90624673       1.81090726      -0.27952798
H        0.04556680      -0.44130337      -2.58326278
H        1.85087622       0.09587805      -0.95935113
H        1.54440973       1.83448768       0.45009212
H       -0.87540565       0.97454960      -2.02756807
H       -2.34536788      -2.80754741       5.49594072
H        0.67087959       1.18918727      -2.84082319
