16
Properties=species:S:1:pos:R:3 pbc="F F F"
C       -1.67807743      -0.59539649      -0.50938902
C       -0.37760407      -0.06539698      -0.08144509
O       -0.48165999       1.25227670      -1.48581867
N       -0.30398782      -0.31162248       2.12866508
C        1.98142751      -0.09084663      -0.63580343
N        0.67730378      -0.66415527      -0.36722811
H       -2.25601619      -0.66085453      -1.43010851
H       -1.64592263      -1.58850497      -0.07732816
H       -2.26410028       0.04764155       0.14530255
H       -0.69111009       0.70744624       0.70709388
H        0.48531092       0.29006707       2.30431639
H        2.76188773      -0.76969677      -0.30047884
H        2.15671177       0.09677015      -1.70143586
H        2.12796272       0.85793262      -0.10716413
H       -0.94007690      -0.00821758       2.85242951
H        0.44795097       1.50255738      -1.44160759
