16
Properties=species:S:1:pos:R:3 pbc="F F F"
O        1.89477390      -1.13449502      -1.19628868
C        1.75160506      -0.00468015      -0.78468525
C        1.11480533       0.00535575       0.58259554
O        0.76566254       1.30565878       1.02798095
C       -0.76419192      -1.07013137       0.58228307
O       -0.53038055      -2.20115943       0.04416938
C       -1.45647622       0.10713428      -0.08836480
O       -0.84020020       0.73116308      -1.22482104
H        2.09621734       1.02695084      -0.96194892
H        1.52889093      -0.38514068       1.51252366
H        0.28425379       1.86139182       0.39764687
H       -0.80690891      -0.76573786       1.62321468
H        0.50254426      -1.04237063       0.19102870
H       -1.89772430       0.89697800       0.52793389
H       -2.27960635      -0.52478259      -0.42511170
H       -1.49620231       1.16086922      -1.78328940
