12
Properties=species:S:1:pos:R:3 pbc="F F F"
O        0.00163227      -0.06173490      -1.53354913
C        1.23537993       0.45051794      -1.34254539
C        1.74669807       0.69123453      -0.05688154
O        1.03970196       0.23473381       0.97891397
C       -2.82717991      -0.81093656       0.93825445
O       -3.73652848      -1.23374131       1.61118666
H        1.37134842      -0.68369862      -1.61682911
H        1.71408599       1.04782551      -2.13189842
H        2.70949953       1.15081628       0.13459222
H        1.50781282       0.42079475       1.80060186
H       -1.94979985      -0.30332697       1.38253594
H       -2.81264553      -0.90248242      -0.16437096
