12
Properties=species:S:1:pos:R:3 relative_energy_eV=1.7378226212149457 branch=ts pbc="F F F"
C        0.52726513      -0.11322294      -1.40234048
C        0.02997395      -1.28530812      -1.87196656
O        0.10342645      -0.42161432       0.42945947
O        0.08454960      -0.23104376       2.10664244
C       -0.34843831       0.91743469       2.30821476
O       -0.67203235       1.68613179       1.33730942
H       -0.04727133       0.79085970      -1.55070402
H        1.59257679      -0.01003238      -1.25998530
H        0.63682318      -2.18048546      -1.89775451
H       -1.02266511      -1.38301576      -2.09751372
H       -0.42878175       0.95093564       0.55845692
H       -0.45542629       1.27934604       3.34017254
