16
Properties=species:S:1:pos:R:3 pbc="F F F"
C        1.36732417       0.65356676      -1.37203451
C        0.53547598      -0.32601640      -0.59946783
C       -0.85109156       0.03260067      -0.16228988
C       -1.71486138      -0.97635488       0.53366123
C       -1.19623654       0.20262319       1.28749186
C        1.74286660       0.30388910       0.02934764
H        0.95567454       1.63904342      -1.54218293
H        1.97286044       0.28332394      -2.18781080
H        0.65771241      -1.36148649      -0.89667805
H       -1.37844625       0.69205514      -0.84239916
H       -1.27956331      -1.93963940       0.76215303
H       -2.76465351      -1.01799417       0.27799461
H       -1.87895908       0.99302881       1.56827109
H       -0.41549205       0.01410800       2.01041641
H        2.61552024      -0.31029516       0.20550646
H        1.57412145       1.06012605       0.78255917
