16
Properties=species:S:1:pos:R:3 pbc="F F F"
C        1.28926843       0.62762480      -1.25798794
C        0.29299991      -0.45663113      -1.11483371
C       -1.03609227      -0.22589030      -0.66935221
C       -1.58321741      -0.90826858       0.52459866
C       -0.77079722       0.10492453       1.29611795
C        1.41096954       0.48847480       0.24313335
H        0.90078079       1.58713201      -1.57739643
H        2.17826492       0.35761936      -1.82370715
H        0.70622339      -1.44821466      -0.99675560
H       -1.53529338       0.68904072      -0.95672477
H       -1.26174027      -1.93200672       0.67363457
H       -2.66101444      -0.81883723       0.64076965
H       -1.22608486       1.07901479       1.38384684
H       -0.22932605      -0.19936415       2.19130214
H        2.03735986      -0.32335040       0.57768957
H        1.48773801       1.37868621       0.86565584
