12
Properties=species:S:1:pos:R:3 pbc="F F F"
O        0.82030986      -0.01638328      -2.42420892
C        1.19877349      -0.39722228      -1.33758374
C       -0.80703844       1.03867142       1.63767307
O       -1.11720827      -0.06743776       1.30985572
C        0.20611144      -0.67283206      -0.24914932
O       -0.91475950      -0.68464954      -0.93279754
H       -0.59710614       1.82444972       0.88892239
H       -0.86351161       1.29450476       2.71551669
H        2.27611048      -0.55929033      -1.13026510
H        0.38088653      -1.69950500       0.10678256
H        0.51881608      -0.05943898       0.61101130
H       -1.10138392      -0.00086668      -1.19575710
