16
Properties=species:S:1:pos:R:3 pbc="F F F"
C       -0.91923083       0.04911544      -1.69227788
C       -1.64762111      -0.96691371      -0.86550195
O       -2.82271776      -1.31881353      -1.46344799
N       -1.32132810      -1.49210544       0.24052938
C        2.17746093       1.14229023       1.07151881
N        1.12254495       0.26107268       1.56246577
H       -1.49516793       0.97273413      -1.72903137
H        0.06019782       0.25264535      -1.27077619
H       -0.81282952      -0.30925195      -2.71448782
H       -0.43386179      -1.13068004       0.58888844
H       -3.22570378      -1.97265324      -0.87155945
H        2.68993947       1.72858155       1.84406623
H        2.92594278       0.55238380       0.54493975
H        1.75999986       1.83977593       0.34742101
H        1.48153980      -0.39623757       2.24274447
H        0.39542129       0.78361783       2.03356036
