16
Properties=species:S:1:pos:R:3 pbc="F F F"
C       -0.84150672       0.23437992      -1.76875426
C       -1.47612039      -0.87062310      -1.00483580
O       -2.40763092      -1.63829853      -1.49726976
N       -1.22954531      -1.24481065       0.23727531
C        1.85738761       0.86966001       0.89798370
N        0.84211955       0.26623647       1.76005220
H       -1.02741779       1.18942315      -1.27437328
H        0.24123747       0.10381382      -1.81178878
H       -1.24048489       0.27276776      -2.77786138
H       -0.51754998      -0.75572656       0.81799805
H       -2.21144174      -2.07112325      -0.24887507
H        2.67763982       1.36195847       1.42944454
H        2.28055283       0.09972660       0.25547744
H        1.38761675       1.60494335       0.24803305
H        1.26671769      -0.39146607       2.40089908
H        0.39843210       0.96911779       2.33661944
