16
Properties=species:S:1:pos:R:3 pbc="F F F"
O       -2.36703719       1.42539825      -1.14668986
C       -1.52230830       1.74729725      -1.95923017
C       -0.21110725       1.03801869      -2.09710735
O        0.06690336      -0.25499620      -1.56120277
O       -1.07153488      -0.01285004       1.91793828
C        0.10813032      -0.21162552       2.13521985
C        0.77386901      -1.44193792       1.58506221
O        2.07887625      -1.60835467       2.11015596
H       -1.60616182       2.58311324      -2.67247868
H       -0.09444705       0.56765107      -3.08717782
H        0.65699997       1.68128431      -1.88050878
H       -1.11320959      -0.00676771       0.14645587
H        0.86618926       0.49398429       2.53132719
H        0.13233319      -2.30435315       1.78858348
H        0.79706750      -1.32931286       0.49174891
H        2.50543723      -2.36654903       1.69790368
