5
Properties=species:S:1:pos:R:3:masses:R:1:forces:R:3 energy=-7095.235541366623 pbc="F F F"
N        0.13903810      -0.02163460       0.59883704      14.00307400       0.01342117      -0.00149076       0.01430056
C       -0.99122125       0.05046824       0.12027013      12.00000000      -0.01056282       0.00170578      -0.00875780
C        2.36359457      -0.13557957      -0.52765396      12.00000000       0.01699920      -0.00244181      -0.00816755
O       -2.11936549       0.11953623      -0.14684951      15.99491462       0.01219271      -0.00163891       0.00319343
N        1.27917874      -0.07894635      -0.07099289      14.00307400      -0.00935022       0.00271279       0.00209819
