12
Properties=species:S:1:pos:R:3 pbc="F F F"
O        1.22341336      -2.48129332      -2.60860421
C        1.88886474      -1.76108557      -1.95419605
C        0.18056296       1.83868828       0.80022459
O       -0.99379335       2.21773178       1.30568268
C       -1.21246375      -0.91008624       0.68155669
O       -1.92957180      -0.22712919      -0.02684750
H        2.99471020      -1.65245228      -2.18490874
H        0.33310960       1.84405106      -0.26662687
H        0.95634677       1.63255531       1.51681323
H       -1.70171750       1.98116940       0.67426201
H       -1.53838975      -1.24026172       1.68568755
H       -0.20135981      -1.24333302       0.37526107
