12
Properties=species:S:1:pos:R:3 pbc="F F F"
C        0.25436663      -0.17414370      -2.76068695
O       -0.89503004       0.23004612      -2.71158838
O        0.28855304      -0.25223941      -0.23063739
C        0.01309065       0.32070350       0.99771785
C       -0.27073679      -0.45391417       2.04758084
O       -0.60077016      -0.12744194       3.32231004
H        0.49574429      -0.14227007      -3.84337750
H        1.15936402      -0.47334859      -2.23870527
H        0.75490588       0.44566410      -0.97349481
H        0.02104436       1.39452728       1.14346571
H       -0.22121575      -1.52922453       1.92345306
H       -0.99931614       0.76164141       3.32396281
