12
Properties=species:S:1:pos:R:3 pbc="F F F"
O       -0.48708865      -0.82345736       1.19440944
C        0.60366984      -0.35767031       0.46647503
C       -0.04069925       0.26887172      -0.75705777
O        0.69513233       1.28416985      -1.27877169
C       -1.11240180      -0.18540945      -1.40425885
O        1.09986800       0.64795632       1.34206143
H       -1.35050212      -0.43207427       1.33012279
H        1.10610810       1.24305830      -0.11263388
H        1.19349099      -1.26459945       0.35024198
H       -1.68003920      -1.02457646      -1.04066191
H       -1.40456489       0.29877521      -2.32238967
H        1.36703690       0.22385213       2.16653259
