12
Properties=species:S:1:pos:R:3 pbc="F F F"
O        0.02009258      -0.39559048      -1.13849129
C        1.00505739      -0.11930808      -1.45672033
C        1.60306201       0.59750901      -0.27695259
O        0.32439090       0.26691533       0.72550577
C       -2.60409814      -0.78579967       0.97067250
O       -3.65319486      -1.06368396       1.49800380
H        1.54568325      -0.23147839      -2.72308179
H        2.14965588       1.78464024      -0.91812021
H        2.67752163       0.11204293       0.37254558
H        1.10694820       1.13057980       1.51769758
H       -1.79517385      -0.26170454       1.50984340
H       -2.37994742      -1.03412000      -0.08089988
