12
Properties=species:S:1:pos:R:3 pbc="F F F"
C        0.32147706      -0.17375268      -0.30252060
O        1.40605872      -1.00522914      -0.17713066
O        0.29838206       0.36356322       2.23456023
C       -0.33109930      -0.38295669      -1.60847626
C        0.02719600       0.29003640       0.92327200
O       -1.09107999       1.07792260       0.80929365
H        0.37150096      -0.05097668      -2.37605728
H       -1.81745622       0.87620176       1.39362629
H        0.80109611       1.10439963       1.90390875
H       -0.60453019      -1.41417551      -1.84317626
H        1.78664308      -0.98438529       0.70896907
H       -1.21862097       0.24258524      -1.63819102
