12
Properties=species:S:1:pos:R:3 pbc="F F F"
C        0.28088788      -0.32775559      -0.18554839
O        1.42889156      -1.03332932      -0.03415608
O        0.46889235       0.32718902       2.09590133
C       -0.25842618      -0.32383585      -1.56526984
C       -0.18857631       0.36728460       0.90657782
O       -1.45763333       0.86954491       0.86495196
H        0.47806771       0.09454568      -2.25504201
H       -1.71497774       1.12893164       1.76513119
H        0.84737041       0.94736769       1.05623186
H       -0.44515960      -1.34555471      -1.89789360
H        1.68840088      -1.01231301       0.90289132
H       -1.17816027       0.25115883      -1.62569683
