16
Properties=species:S:1:pos:R:3 pbc="F F F"
O       -0.89428065      -1.91165036      -0.99776794
C       -0.22924901      -0.69192487      -0.91636313
C        0.29934381      -0.50720105      -2.25118045
O        1.18533813      -0.73263829      -1.14546590
C       -0.03936603       0.67384006       2.31302848
O       -0.12156788      -0.41704908       1.56462502
C        0.12185761       1.67426850       1.46437497
O       -0.01449148       1.62872106       0.10016530
H        0.36563833      -1.25412475      -3.01995001
H        0.47788748       0.42169114      -2.76178624
H        0.45108086      -1.19213455       1.10911450
H        0.03547433       0.62202757       3.38542227
H       -0.97698458      -1.94233390      -0.03057617
H       -0.63204136       0.22293133      -0.56576455
H        0.35218568       2.65497171       1.85211162
H       -0.38082523       0.75060548      -0.09998776
