16
Properties=species:S:1:pos:R:3 pbc="F F F"
C        1.15666765       0.75799937      -1.10305216
C       -0.13991243       0.23691926      -1.19959433
C       -0.36919226      -0.94711642      -0.47502422
C       -1.65667195      -1.20403758       0.01214608
C       -0.28538173       0.33726900       1.23421802
C        1.06495602       0.68591763       1.23666819
H        2.01119399       0.09856001      -1.00556637
H        1.32994164       1.48532232      -1.88670793
H       -0.96888940       0.81510318      -1.59568626
H        0.40856275      -1.54698242      -0.01339438
H       -2.50456159      -0.86721792      -0.57495784
H       -1.89203702      -2.21445777       0.32166572
H       -0.70413554       0.31099264       0.23759997
H       -0.82915557       0.68062889       2.10807492
H        1.84272207       0.50703598       0.50562887
H        1.53589337       0.86406385       2.19798174
