16
Properties=species:S:1:pos:R:3 pbc="F F F"
C        1.06313351       0.57807001      -2.04394270
C       -0.15821992       0.18523987      -1.67686206
C       -0.41282032      -0.99670261      -0.89100123
C       -1.55924219      -1.27332379      -0.26294259
C       -0.15514068       0.58041277       1.72951014
C        1.02192239       0.73437818       2.35162711
H        1.94323529       0.02277268      -1.71755269
H        1.22445859       1.45683324      -2.65559627
H       -1.00841243       0.79806349      -1.96916918
H        0.43130239      -1.66909190      -0.76806993
H       -2.43838441      -0.64303464      -0.36464736
H       -1.68790240      -2.16755785       0.33254798
H       -0.51191071       0.94033678       0.75968507
H       -1.01368643      -0.07133529       1.87876467
H        1.88262974       0.08127373       2.19936874
H        1.37920309       1.44364769       3.09828105
