16
Properties=species:S:1:pos:R:3 pbc="F F F"
O        1.36458280       0.72321015      -1.17029230
C        0.24035454       0.38712149      -0.51886373
C       -0.70233072       1.55867983      -0.59350084
O       -1.93965709       1.31316184       0.02784812
C        0.80689481      -1.97249227      -0.43485524
O        1.98703413      -1.94344518      -0.74625987
C       -0.08654421      -0.89953492      -0.08187885
O       -0.11146050      -0.70469047       2.30719008
H       -0.19840695       2.40657437      -0.10835995
H       -0.96039909       1.93213539      -1.58857496
H       -1.78543828       1.09477292       0.95513310
H        0.33673365      -2.93641554      -0.15379951
H        1.51170708       1.65627373      -1.37649605
H       -0.09645233      -1.22648541       1.13694815
H       -1.14675101      -1.03566796      -0.05766809
H        0.78013317      -0.35319799       2.40342994
