16
Properties=species:S:1:pos:R:3 pbc="F F F"
O        0.25486138       1.93249020      -1.13027876
C       -0.15510222       0.66088446      -0.88568760
C       -1.18850416       0.06328798      -2.13360937
O       -2.42073694       0.48414075      -1.80695458
C        1.06764135       0.59968646       1.24688196
O        1.42014637       0.24596062       2.16869151
C        0.33405404       0.01736080       0.45608568
O        1.01651772      -2.69986061       2.79848824
H       -0.72836962       0.10245131      -2.77012721
H       -1.02396367      -0.83878143      -1.96077756
H       -2.45969162       1.44578578      -1.87534530
H        1.42062053       1.62788657       1.05872274
H       -0.00240527       2.18754382      -2.02535896
H        1.39446477      -3.13890863       3.76054184
H       -0.16066384      -0.98189233       0.39823551
H        1.19299332      -1.74338223       2.68768347
