16
Properties=species:S:1:pos:R:3 pbc="F F F"
O       -1.65600750      -0.74673163      -2.18240269
C       -0.37208268      -0.79142764      -1.70432365
C        0.22373117       0.34408822      -0.94981188
O       -0.89222860       0.82282627      -0.25478873
O       -0.04012489      -1.74691594       0.11446516
C       -0.06292621      -0.73082811       0.75720394
C        0.75068076       0.25701323       1.53487155
O       -0.06027635       1.03208019       2.39694699
H        0.28544192      -1.08670888      -2.53588038
H        0.88642895      -0.31578562      -0.37041690
H        0.80847802       1.07472931      -1.52767352
H       -1.68037664       0.42810889      -0.66921750
H       -1.43141528      -0.38209503      -0.07248967
H        1.39637712      -0.51119320       1.96613568
H        1.23752893       0.76123761       0.69020090
H        0.60677130       1.59160233       2.80718069
