12
Properties=species:S:1:pos:R:3 pbc="F F F"
C        0.11853748       0.45584139      -1.11382951
O       -0.76410485       1.36452166      -1.34861952
O        0.20686288       0.50176397       1.27206980
C        0.13351109      -0.81698845      -1.87062806
C       -0.04070029       0.21572337       2.54919882
O       -1.04437737       0.11652206       3.22550595
H       -0.06658501      -1.49406730      -1.03777499
H        1.03747159       0.88078590      -0.69170697
H       -0.95848565       0.88350818       0.79145603
H       -0.61096428      -0.98382167      -2.64328875
H        0.86894193      -0.03612603       3.11572231
H        1.11989248      -1.08766309      -2.24810512
