16
Properties=species:S:1:pos:R:3 pbc="F F F"
C       -0.51103179       1.34474531      -0.82627019
C        0.37579876       0.35600207      -1.34627584
O        0.07642407      -0.85347016      -1.50623461
N        1.71680526       0.72316867      -1.54708779
C       -0.39708785      -1.69295142       1.39393042
N       -0.61283188      -0.24582771       1.57203086
H       -0.62033449       0.43218411       0.78959637
H       -0.15013392       2.36733656      -0.76419992
H       -1.52772677       1.29416808      -1.20469624
H        1.88541703       1.69271549      -1.76173307
H        2.22266121       0.08740182      -2.14620449
H       -1.25322200      -2.25136680       1.75540619
H       -0.25976240      -1.84324579       0.32522779
H        0.49214252      -2.00431796       1.92899831
H       -0.61914748       0.43261933       0.78990383
H       -0.77140860       0.08297800       2.50799635
