12
Properties=species:S:1:pos:R:3 pbc="F F F"
O        0.07198729      -0.72008536      -1.63428227
C        1.01063015      -0.05858565      -1.23996321
C        1.69295626       0.75427477      -0.21153011
O        0.71525233       0.65564617       0.77656822
C       -2.60425653      -0.78535268       0.97060948
O       -3.65333214      -1.06325702       1.49797220
H        1.60486199      -0.16333114      -2.16822880
H        1.93008444       1.70060949      -0.69008571
H        2.29919038      -0.15218076      -0.24803512
H        1.10807693       1.12718741       1.51818772
H       -1.79473130      -0.26262658       1.51020952
H       -2.38072225      -1.03229647      -0.08141936
