16
Properties=species:S:1:pos:R:3 pbc="F F F"
C       -0.41547420      -0.76993425      -1.35556911
C       -1.92906452      -0.81630399      -1.98456483
O       -2.69222351      -0.81617430      -1.04597987
N       -2.69140538      -0.99581978      -3.37268371
C        2.25183717       1.47517808       3.07486763
N        1.75518516       0.92371559       1.79820156
H       -0.45579177      -0.02771979      -0.54144044
H       -0.28009433      -1.71846329      -0.79412571
H        0.53588672      -0.56427730      -1.86511440
H       -2.85405039      -0.75865267      -4.42727949
H       -3.43924248      -1.64242690      -3.12560385
H        1.44856204       2.04662151       3.56107559
H        2.61326588       0.75423503       3.82477399
H        3.06715271       2.18498219       2.90767849
H        2.28337978       0.13409316       1.41652170
H        0.80150485       0.59157037       1.93112764
