16
Properties=species:S:1:pos:R:3 pbc="F F F"
C       -0.46648807       1.04309223      -2.01974598
C        0.24619337       0.42314236      -0.97396490
C        0.13665231      -1.01141759      -0.77332993
C        0.58546244      -1.40699126       0.55319974
C       -0.16598940       0.99185342       0.86622149
C       -0.10095944      -0.34204508       1.53919336
H       -1.42498602       0.64180710      -2.32951616
H       -0.21822819       2.03051516      -2.37389194
H        1.27781847       0.76637004      -0.86503251
H       -0.65971592      -1.55508166      -1.27943182
H        1.66079080      -1.27094041       0.68476523
H        0.34826278      -2.42919578       0.83583635
H       -1.15002211       1.42864986       0.76920533
H        0.59036926       1.71560431       1.13794079
H       -1.11037572      -0.69515816       1.74508268
H        0.45122694      -0.33019727       2.48341369
