16
Properties=species:S:1:pos:R:3 pbc="F F F"
O        0.25486138       1.93249020      -1.13027876
C       -0.15510222       0.66088446      -0.88568760
C       -1.06437257       0.05954361      -1.92247593
O       -2.42073694       0.48414075      -1.80695458
C        1.06764135       0.59968646       1.24688196
O        1.41846463       0.02430547       2.27293241
C        0.20992246       0.02110517       0.24495224
O        1.01651772      -2.69986061       2.79848824
H       -0.67162842       0.28312706      -2.92548714
H       -1.08070487      -1.01945718      -1.80541763
H       -2.45969162       1.44578578      -1.87534530
H        1.42062053       1.62788657       1.05872274
H       -0.00240527       2.18754382      -2.02535896
H        1.39614650      -2.91725348       3.65630094
H       -0.16066384      -0.98189233       0.39823551
H        1.19299332      -1.74338223       2.68768347
