9
Properties=species:S:1:pos:R:3 pbc="F F F"
O        0.16372752       1.23364386      -1.83167253
O       -0.18290870      -0.43116636       2.16457520
C        0.02039889      -0.56793177      -0.23476602
C       -0.44929988       0.67927329      -0.95417328
C        0.43949892      -0.17105087       1.16551538
H        0.86828445      -0.98277353      -0.78162071
H       -0.79262017      -1.29145040      -0.15960588
H       -1.41247405       1.08668430      -0.58522280
H        1.37199371       0.42726461       1.21353678
