9
Properties=species:S:1:pos:R:3 pbc="F F F"
O       -1.22256844       0.73040232      -1.86333437
O        0.66766860       0.88442430       1.64727134
C       -0.03664117      -0.50199613      -0.19173856
C       -0.35620306       0.71406644      -1.02311837
C        0.37632790      -0.20940972       1.22650879
H        0.82653782      -1.00219452      -0.65854246
H       -0.85631306      -1.22010913      -0.23343809
H        0.26678044       1.60433428      -0.81527814
H        0.41467426      -1.09966288       1.89052437
