9
Properties=species:S:1:pos:R:3 pbc="F F F"
O       -0.01374748       1.02495701      -2.06576991
O        1.43119747      -0.49585690       1.73894797
C        0.06075703      -0.52163840      -0.23158152
C       -0.42442924       0.69052797      -0.98333311
C        0.40300929      -0.18034338       1.19539793
H        0.90238811      -0.98579333      -0.73674582
H       -0.78085534      -1.23118915      -0.19557370
H       -1.20368414       1.28743018      -0.45819540
H       -0.37076534       0.41081088       1.73494521
