34
Properties=species:S:1:pos:R:3 pbc="F F F"
O        2.05482261       1.56559970      -0.62736433
P        2.87003410       0.60105556       0.15176092
O        4.43188200       0.99998842       0.25527385
O        2.46430971       0.32017526       1.65241190
O        2.90547935      -0.90801344      -0.43000235
C        3.15274439      -1.07367954      -1.82725145
C        2.75135209      -2.45984716      -2.26549911
O        3.25135282      -2.97034755      -3.25154347
C        1.68394717      -3.18568888      -1.49532365
O        1.34301701      -4.40347700      -2.09544984
C       -1.12299060       0.05834234      -0.07445159
O       -1.11651837      -0.08585714      -1.26991304
C       -0.81762285       1.37918179       0.62022294
O       -0.07561927       1.15578111       1.81947959
C       -2.09759443       2.12175529       0.91756411
O       -2.82300061       1.33742087       1.89162818
P       -4.41649968       1.14914012       1.78918930
O       -4.97796720       0.33770773       2.88345591
O       -4.61370893       0.58618963       0.28958047
O       -4.95363176       2.66360071       1.65098829
H        4.57815289       1.84107034      -0.19487440
H        1.54511446       0.64392780       1.81569564
H        4.20353559      -0.92383652      -2.06160741
H        2.56275785      -0.36291986      -2.41206828
H        2.03488162      -3.33353158      -0.46649275
H        1.93194046      -4.48508159      -2.86481144
H       -1.36065983      -0.78260080       0.60950601
H        0.81453320      -2.51958282      -1.41258242
H       -0.18155630       1.97095341      -0.03243127
H       -0.66942395       0.74576185       2.46438939
H       -2.68652073       2.25409433       0.01373176
H       -1.89010710       3.09452452       1.35529925
H       -5.07567219      -0.26166819       0.29678557
H       -5.58009226       2.86545773       2.35750089
