34
Properties=species:S:1:pos:R:3 pbc="F F F"
O        2.60267771       1.68028403      -0.50642891
P        3.35783493       0.80747771       0.42595652
O        4.85864476       1.27712892       0.76016383
O        2.78312756       0.57551082       1.88190829
O        3.54915483      -0.71094106      -0.12941838
C        3.17895923      -0.98633623      -1.48446304
C        1.68297239      -0.92587346      -1.71666093
O        1.22001582      -0.40914488      -2.71774834
C        0.78370385      -1.65844686      -0.72080168
O        0.64408574      -2.99566442      -1.21036443
C       -0.58373841      -0.99357129      -0.55977400
O       -1.27447660      -0.95320227      -1.80185544
C       -0.47535977       0.40625673       0.07014176
O        0.17052679       0.33553714       1.34544922
C       -1.81785931       1.07033919       0.22281353
O       -2.52912942       0.33880791       1.25086559
P       -4.05282239       0.66678134       1.62161110
O       -4.58253884      -0.15852753       2.72323721
O       -4.81735479       0.54807654       0.20612896
O       -4.04580862       2.26310264       1.87062980
H        5.10306911       2.02697538       0.20468007
H        1.79913089       0.52852183       1.83396127
H        3.51780106      -2.00357134      -1.68671516
H        3.65632833      -0.30266870      -2.18395522
H        1.27787735      -1.73896133       0.24290055
H       -0.00933173      -2.95194734      -1.92521775
H       -1.17532424      -1.62879604       0.10564946
H       -0.64114094      -0.58078453      -2.44453131
H        0.16134580       1.03604247      -0.54816263
H       -0.48573037       0.02716782       1.98498501
H       -2.37587641       1.03669749      -0.70546259
H       -1.68827987       2.10144155       0.54097808
H       -5.50643958      -0.12665945       0.25330076
H       -4.40673578       2.46346008       2.74344961
