34
Properties=species:S:1:pos:R:3 pbc="F F F"
O        2.51788761       1.90500286      -0.22285712
P        3.30796316       0.79220014       0.36231827
O        4.87575435       1.09411970       0.55161861
O        2.94527031       0.27962992       1.82412738
O        3.29334087      -0.57626072      -0.49362445
C        2.70755178      -0.63094098      -1.79318036
C        1.59728555      -1.68489015      -1.84927367
O        1.28069108      -2.20139982      -2.94507955
C        0.92670301      -2.08517491      -0.66758018
O        0.10203705      -3.15715235      -0.80814070
C       -0.87774285      -0.63233750      -0.40317692
O       -0.89389012      -0.49034465      -1.66436913
C       -0.40714183       0.52196538       0.43137395
O        0.20203637       0.06613962       1.64151049
C       -1.55611113       1.47387664       0.67085042
O       -2.45931842       0.84857216       1.60390103
P       -4.04571467       0.80732226       1.33908640
O       -4.81021315       0.20849551       2.44829880
O       -4.15050663       0.07007298      -0.09486206
O       -4.40421258       2.33661427       0.96185495
H        5.10568793       1.94182435       0.15348613
H        1.97519122       0.24464806       1.94896243
H        3.48237517      -0.91956470      -2.49954773
H        2.32122799       0.34734310      -2.09303402
H        1.36154573      -1.93283967       0.30815699
H        0.15185626      -3.34744719      -1.77544713
H       -1.45625409      -1.41419813       0.06293490
H        0.17268905      -0.93038084      -1.49590729
H        0.36480539       1.04932946      -0.12782799
H       -0.48975278      -0.10743717       2.29381624
H       -2.04900522       1.69188533      -0.27237601
H       -1.19746216       2.40278671       1.10912913
H       -4.80364685      -0.63980376      -0.05878615
H       -5.09092591       2.66839151       1.55362108
