12
Properties=species:S:1:pos:R:3 pbc="F F F"
O       -0.37099783      -0.80673942      -1.46169288
C       -0.06282249      -0.38811238      -0.37393714
C       -1.04265465      -0.68052968       0.74245979
O       -0.97696920       0.17199740       1.86958929
C        1.03042868       0.63061825      -0.27383998
O        1.85196221       0.72606265      -1.39982379
H       -0.67948376      -1.64498828       1.10111998
H       -2.01057250      -0.88008391       0.28056747
H       -1.30167993       0.86941542       0.96720521
H        0.52787932       1.57386437      -0.02184080
H        1.55898071       0.30825001       0.63117656
H        1.47613005       0.12025243      -2.06109408
