16
Properties=species:S:1:pos:R:3 pbc="F F F"
O       -0.12217644      -1.34125830      -2.50244142
C       -0.35552556      -0.57510326      -3.46108739
C       -1.52769509       0.20403736      -3.36230439
O       -2.19460329       0.01056168      -2.24775989
O        0.81983725      -1.75842953       2.09107433
C        0.63242548      -0.70920962       2.87089362
C        0.66598336       0.70276905       2.15452505
O        1.98966618       1.02865382       1.80080357
H        0.29759416      -0.49753596      -4.33098213
H        1.36591203      -0.60753453       3.69724991
H       -1.90963664       0.90033725      -4.09003202
H       -1.58707234      -0.67638127      -1.82367586
H       -0.37466920      -0.70043400       3.33782950
H        0.00812099       0.62975378       1.28552326
H        0.25380010       1.40603070       2.88200609
H        2.03756390       1.98397843       1.69844391
