12
Properties=species:S:1:pos:R:3 pbc="F F F"
O        0.76026361      -0.19246232       0.33155696
C       -0.17993692      -0.32927563      -0.25332138
C       -0.38007648      -0.30080688       2.36481974
O       -1.03851359      -0.90555110       1.62347601
C       -0.08748038       0.26427642      -1.62420214
O        0.87848109       1.25065459      -1.76726546
H        0.08632598       0.66067024       2.28039446
H        0.47406659      -0.89673122       2.72451805
H       -0.89694114      -1.13659740      -0.33549251
H        0.08676066      -0.40068206      -2.47272131
H       -1.01362216       0.71712160      -1.97250869
H        1.31067275       1.26938375      -0.89925372
