12
Properties=species:S:1:pos:R:3 pbc="F F F"
O       -0.29824991      -1.08693315      -1.57512485
C       -0.46246390      -0.14900569      -0.68382349
C       -1.05984842      -0.80585194       0.53811797
O       -1.37478735       0.14504232       1.53432149
C        1.76473700       1.14774684       0.02294038
O        2.47425682       1.09064448      -0.95936947
H       -0.28948504      -1.44533876       0.98392395
H       -1.90153396      -1.45784709       0.26980241
H       -1.93459236       0.82881902       1.14143956
H        1.07516477       1.98992471       0.21659042
H        1.87292164       0.43953728       0.86830969
H        0.13409898      -0.69675654      -2.35713662
