16
Properties=species:S:1:pos:R:3 pbc="F F F"
C        0.98203504       0.11741423      -1.57238693
C       -0.18395457      -0.45790330      -0.93455822
C       -1.29444153       0.34433423      -0.56657911
C       -2.39995031      -0.07698943       0.06212864
C        1.35705637      -0.35501429       0.93450097
C        1.06797058       0.34642655       2.00582024
H        0.84304040       1.12901969      -1.94145323
H        1.51972396      -0.53247696      -2.25833075
H       -0.29260362      -1.53818267      -0.91329718
H       -1.21017818       1.39955214      -0.81953030
H       -2.51598118      -1.11201654       0.35872763
H       -3.20618507       0.59721383       0.30405540
H        1.68771673       0.20912723      -0.56985640
H        1.78493766      -1.35471818       0.96561167
H        0.58331165       1.31063530       1.94504945
H        1.27750200      -0.02641291       3.00010157
