12
Properties=species:S:1:pos:R:3 pbc="F F F"
O       -0.49847284      -1.67378922       0.58927838
C       -1.06939469      -0.97679892      -0.21920044
C       -0.45811437       0.03581874      -1.14644821
O        0.89333442      -0.20166720      -1.03301291
C        0.83975037       0.76475019       1.33578959
O        1.36586923       0.00758530       2.08557765
H       -2.17710496      -1.02866301      -0.32406361
H       -0.78653079       1.02448473      -0.77690729
H       -0.87024053      -0.10526354      -2.15073347
H        1.58655504       0.36330908      -0.21410608
H        1.23911923       0.41571876       0.37231616
H       -0.06477010       1.37451509       1.48151022
