16
Properties=species:S:1:pos:R:3 pbc="F F F"
O       -3.31904329       0.35258657      -0.13452698
C       -2.18338230       0.56544840      -0.53939665
C       -1.05866174      -0.04749966       0.14696171
O       -1.34996387      -0.86624214       1.17921596
C        0.23792481       0.11808095      -0.24234039
O        0.54455700       0.92551990      -1.25047407
C        1.39233242      -0.60023186       0.39529184
O        2.60938934      -0.02229120      -0.06108445
H       -1.97130226       1.19423908      -1.41328035
H       -0.48899201      -3.02516029      -2.75742077
H       -2.32619001      -0.86957895       1.23067121
H        0.79552028       2.95676830       2.63261464
H        1.52052349       0.91125018      -1.32010412
H        1.38256367      -1.63861896       0.06591355
H        1.31088084      -0.57792616       1.47664452
H        2.90383286       0.62366851       0.59130405
