12
Properties=species:S:1:pos:R:3 pbc="F F F"
C        0.06202857      -1.57514678       0.05293493
O       -0.37849957      -1.63948306       1.18164262
O        0.13442935       1.10806830       1.33130963
C        0.60496939      -0.33187682      -0.58393100
C        0.00741104       0.96371194      -0.05281922
O       -1.34383774       0.97795409      -0.48299427
H       -1.77252198       1.70944060      -0.01857474
H        0.10251469      -2.48976680      -0.57107502
H       -0.15315067       0.26094909       1.71821796
H        1.68547878      -0.32787862      -0.41246294
H        0.53935133       1.81639288      -0.48632151
H        0.46151392      -0.39230000      -1.66322966
