12
Properties=species:S:1:pos:R:3 pbc="F F F"
C       -1.60053618      -2.39252870       0.83522518
O       -0.82272533      -2.14467336       1.62184626
O        0.33621895       0.90804807       1.22783471
C        0.97956298      -0.03667247      -0.91837356
C        0.11860316       0.94918148      -0.16660971
O       -1.23434709       0.66316610      -0.48926753
H       -1.77681944       1.25374602       0.05002536
H        0.72514392      -1.05349906      -0.62065252
H        0.18142614      -0.00190744       1.51721051
H        2.03070288       0.13910242      -0.69880653
H        0.35714636       1.97932728      -0.45125237
H        0.81961687       0.05239325      -1.99164335
