16
Properties=species:S:1:pos:R:3 pbc="F F F"
O       -0.74474073       0.87237419      -2.51649604
C       -0.19151486      -0.20498646      -2.59612015
C        1.27884725      -0.35067219      -2.35167500
O        1.88629331       0.87943648      -2.06973245
O       -0.25602293      -1.35553824       0.96172604
C       -0.72607428      -0.35203147       1.44579015
C       -0.86614599      -0.11967496       2.92611110
O       -0.87254568       1.25437170       3.27208353
H       -0.75940694      -1.12280320      -2.84867770
H        1.40554301      -1.06264403      -1.52401612
H        1.73314342      -0.82860138      -3.23366233
H        1.16769899       1.53358202      -2.11371182
H       -1.11464974       0.47700615       0.81764411
H       -1.84725406      -0.51034378       3.21503814
H       -0.11310008      -0.70493361       3.46007416
H        0.02081295       1.59988291       3.16293750
