16
Properties=species:S:1:pos:R:3 pbc="F F F"
C        0.35738096       0.70979874      -2.32379601
C        0.37520783      -0.39732259      -1.57272477
C       -0.65193353      -0.72799334      -0.61529196
C       -0.43746498      -1.48530976       0.47089825
C       -0.41535089       0.37563900       1.86536210
C        0.74401132       0.94864406       1.37264070
H       -0.45756072       1.41868832      -2.25655629
H        1.15193988       0.93014829      -3.02217873
H        1.24271847      -1.05036256      -1.62296181
H       -1.56693290      -0.14693565      -0.66131824
H        0.54350235      -1.91709291       0.62553518
H       -1.16935157      -1.77575351       1.21456162
H       -0.68316886       0.17512856       2.90314644
H       -1.40926811       0.50318284       1.44914689
H        0.86219187       2.01454599       1.37543920
H        1.51402398       0.42497909       0.79812920
