12
Properties=species:S:1:pos:R:3 pbc="F F F"
O        0.07727139      -0.64452013       1.75320550
C        0.91334492      -0.17693555       0.77641543
C        0.21212135       0.28840166      -0.44051698
O        0.81118684       1.02946813      -1.34020039
C       -1.19171783      -0.07402141      -0.64723913
O       -1.61954373      -1.11561284       0.04550025
H        1.61809268      -0.95497869       0.39928796
H        1.72263531       1.21258617      -1.05769009
H        1.56575111       0.64018397       1.13359081
H       -1.41099594      -0.05195570      -1.73510922
H       -1.63902777       0.91425069      -0.30669228
H       -0.76288193      -1.01007147       1.22754391
