12
Properties=species:S:1:pos:R:3 pbc="F F F"
O        0.83033866       1.12460716      -0.28017228
C        0.42221169       0.38396155      -1.16440460
C       -0.93305361      -0.25299252      -1.03598412
O       -1.90118386      -0.13272031      -0.02790816
C        0.83677759       0.09752774       2.29867824
O        0.20206383      -0.85535362       2.52408162
H        1.06839577       0.05944482      -2.00267342
H       -0.75013518      -1.30952633      -1.28813970
H       -1.47499978       0.11302255      -1.91770249
H       -0.85609305      -0.25710810       0.70364575
H        0.99645676       0.79979067       0.92727540
H        1.58554402       0.17127124       1.12995173
