12
Properties=species:S:1:pos:R:3 pbc="F F F"
O        1.14957458       0.84522130      -0.55169768
C        0.21407786       0.37542379      -1.39737758
C       -0.98042152      -0.23453703      -1.04199348
O       -1.66491876      -0.67541114       0.01997368
C        0.82666982      -0.03268715       1.79624839
O       -0.22001229      -0.51134883       2.20107732
H        0.43348053       0.54941564      -2.44333760
H       -0.47704496      -0.04008039      -0.80623845
H       -1.62652057      -0.45336960      -1.89560515
H       -0.63434941      -0.35544739       0.84991507
H        1.27881941       0.57739739       0.45980589
H        1.64333709       0.04542556       2.55649823
