16
Properties=species:S:1:pos:R:3 pbc="F F F"
C        1.47189971      -0.72549463      -0.84293541
C        0.34474998       0.22443535      -0.56115849
O        0.74006814       1.45436448      -0.98531469
N       -0.94104034      -0.50192318      -1.09382073
C       -1.08530166       0.59870211       1.45770961
N        0.13380817       0.08037530       0.86831898
H        2.35825538      -0.39255712      -0.30653965
H        1.35590903      -1.78368547      -0.60664420
H        1.68906908      -0.68236639      -1.90460927
H       -1.11882485      -1.45833147      -0.92364090
H       -1.67931713       0.15401859      -1.13063481
H       -1.98607003      -0.00106139       1.26932191
H       -1.03782096       0.73388221       2.53685698
H       -1.28536315       1.58503210       1.04599692
H        0.28472927      -0.82117439       1.29566742
H        0.75429947       1.56701481      -0.24105128
