12
Properties=species:S:1:pos:R:3 pbc="F F F"
O        1.31869721      -1.51811372       0.07825544
C        1.20151044      -0.15381077       0.24235792
C        0.09363279       0.51886082      -0.07581339
O       -0.01584917       1.88071702       0.08792751
C       -1.14577767      -0.08926527      -0.63119025
O       -2.22630882      -0.11317783       0.30796138
H        2.23604669      -1.76023494       0.22982674
H        2.06673525       0.36265788       0.64782644
H        0.78347268       2.21956899       0.50503097
H       -0.93331573      -1.09012613      -1.01121238
H       -1.49737976       0.52633565      -1.45822535
H       -1.94553931      -0.66415256       1.04859081
