12
Properties=species:S:1:pos:R:3 pbc="F F F"
O        1.31885802      -1.35159931       0.13607689
C        1.20629320       0.01112686       0.28502966
C        0.05072353       0.54105367      -0.09940432
O       -0.09521527       1.90338174       0.01711101
C       -1.16794743      -0.11224167      -0.64627234
O       -2.23690310      -0.07914672       0.30499543
H        2.16458973      -1.76868555       0.28134902
H        2.14643613       0.35508481       0.68550273
H        0.98608979       1.73077542       0.45512448
H       -0.93617151      -1.12139370      -0.99013247
H       -1.47639608       0.51034563      -1.48477299
H       -1.96035856      -0.61870302       1.05539213
