12
Properties=species:S:1:pos:R:3 pbc="F F F"
C       -0.43115722       0.37281602      -0.91203180
O       -1.02127561      -0.74235188      -1.54599514
O        0.38825579       1.47803424       1.34229628
C       -0.04656301       0.04432274       0.52483990
C        0.84647837      -1.10191689       0.69212276
O        1.35806351      -1.78456855      -0.14725724
H       -1.15124388       1.18558262      -1.02465756
H        0.46042666       0.69877170      -1.45678721
H       -0.43044972       1.95710495       1.22968941
H       -0.99133799      -0.22901701       1.00999422
H        1.33111120      -0.35942282       1.70403281
H       -0.36463473      -1.45299207      -1.54678613
