16
Properties=species:S:1:pos:R:3 pbc="F F F"
C        1.44769676      -0.70867396      -0.84278700
C        0.26516962       0.19408588      -0.60455656
O        0.76832747       1.42788403      -0.96180897
N       -0.88940112      -0.50308009      -1.04077484
C       -1.08294533       0.59731072       1.45472228
N        0.12061560       0.07672861       0.84286186
H        2.34359444      -0.39552902      -0.31371065
H        1.35443565      -1.76834019      -0.60943748
H        1.68642839      -0.68159081      -1.89809195
H       -1.12546971      -1.43927065      -0.93221860
H       -1.64423505       0.11870167      -1.11247934
H       -1.98531029      -0.00058780       1.26921253
H       -1.03778944       0.73336006       2.53375627
H       -1.28504232       1.58430955       1.04617628
H        0.28123285      -0.81260632       1.28591919
H        0.78174256       1.60852919      -0.23926062
