4
Properties=species:S:1:pos:R:3:forces:R:3 energy=-4584.273642170161 pbc="F F F"
N        0.96609142       0.15920077      -0.00000022      -0.00597012      -0.00249884       0.00000220
C       -0.18940333      -0.14604695       0.00000020      -0.00773464      -0.00050610      -0.00000389
O       -1.44901298      -0.22336008      -0.00000023       0.00507692       0.00281026       0.00000216
H       -0.59397510       0.96540626       0.00000024      -0.00226814      -0.00040286      -0.00000045
