12
Properties=species:S:1:pos:R:3 pbc="F F F"
O       -0.84014849       1.07857898       1.02968054
C       -0.55253534       1.41146532      -0.14246009
C       -0.63320473       0.57318367      -1.28357428
O       -0.93049320      -0.70072466      -1.24094846
C        0.68638100      -1.28029372       0.70372942
O        1.31953662      -0.14679255       0.90261579
H       -0.14816498       2.42222530      -0.35029763
H       -0.36249081       0.96092602      -2.26239208
H       -0.42695028      -1.10457436      -0.33256650
H        1.25930846      -2.03184490       0.16836194
H        0.02536497      -1.58059204       1.50964308
H        0.68586799       0.43571071       1.42475022
