12
Properties=species:S:1:pos:R:3 pbc="F F F"
C       -0.14681975      -1.37512901      -0.06879914
O       -0.21193399      -1.50473845       1.13391175
O       -0.41362082       1.34102968       1.86538881
C        0.77162199      -0.42176733      -0.78494026
C       -0.06213795       0.72830740      -1.33253300
O       -0.38168239       0.82729981      -2.49165806
H       -0.66797320       1.77542793       2.68447102
H       -0.82272594      -1.95171763      -0.72832443
H       -0.43175246       0.39344123       2.06148386
H        1.50963724      -0.04378545      -0.07762291
H       -0.38683183       1.45530147      -0.56808940
H        1.24417493      -0.92770711      -1.62656721
