16
Properties=species:S:1:pos:R:3 pbc="F F F"
O       -3.04978130       0.39399692       0.80371063
C       -2.06700452       0.83894310       0.24805971
C       -1.16793349      -0.12708228      -0.47237871
O       -1.46573465      -1.46580431      -0.24003330
C        0.45539113       0.42388211       0.36212238
O        1.14562693       1.44310109       0.59131638
C        1.34739210      -0.58582679      -0.28137214
O        2.60215639      -0.31742901       0.33913156
H       -1.90268013       1.92539086       0.21392507
H       -0.93295037       0.26702184      -1.45489987
H       -2.31792735      -1.35213148       0.21025295
H        0.25452008      -0.07106867       1.28407824
H        1.07076682       1.37721213       0.11089872
H        1.19572574      -1.66204936      -0.22680988
H        1.46931369      -0.42353232      -1.35178821
H        3.36311841      -0.66462414      -0.13621457
