16
Properties=species:S:1:pos:R:3 pbc="F F F"
O       -2.40621958       0.67883148       1.22878844
C       -1.69332904       1.00046999       0.29614502
C       -1.07667236      -0.04656758      -0.54152351
O       -1.67107194      -1.26515279      -0.42315793
C        0.38045021       0.02342967       0.32025084
O        0.86790513       1.19375588       0.57051069
C        1.51004440      -0.84225555      -0.46109884
O        2.68938690      -0.34470731       0.07119260
H       -1.41479793       2.04747556       0.09403459
H       -0.80090838       0.24489548      -1.55548728
H       -2.24075989      -1.20230774       0.36600192
H        0.11196155      -0.60462202       1.16945991
H        0.60645844       1.12595442       0.21694069
H        1.38112362      -1.91208327      -0.27584344
H        1.41272188      -0.62532505      -1.53186933
H        2.34375049       0.52817251       0.45564060
