16
Properties=species:S:1:pos:R:3 pbc="F F F"
O        1.28793556       0.47029971      -1.05122299
C       -0.07580225      -0.75117096      -0.40622258
C       -1.02304347      -0.11918672      -1.25274820
O       -1.98203144       0.65877668      -0.57465249
C        0.60164764       0.93007055       1.29084107
O        1.59260164       1.03516859       1.97710375
C       -0.00881614      -0.45638430       1.06160950
O        0.71561436      -1.42101018       1.76918617
H        0.08459157       0.59557860      -1.61676937
H       -1.38909033      -0.69266017      -2.09384100
H       -2.58416150       1.02010253      -1.23180437
H        0.08958674       1.79356887       0.85383612
H        1.80687002      -0.02041964      -1.69374706
H        0.36679674      -1.68533243      -0.73215497
H       -1.04395358      -0.37619319       1.42490198
H        1.47607329      -0.93761362       2.14388901
