16
Properties=species:S:1:pos:R:3 pbc="F F F"
C        1.54775796      -0.71649001      -0.77795676
C        0.32591839       0.03732529      -0.36877592
O        0.26268463       1.39377797      -0.95097591
N       -0.88694104      -0.67897723      -0.85838441
C       -1.02371916       0.53817883       1.61280461
N        0.27042188       0.14647016       1.09783895
H        2.44543790      -0.25637103      -0.38334700
H        1.45805922      -1.71380447      -0.36096629
H        1.63526671      -0.78486279      -1.85897382
H       -0.67960236      -1.43696728      -1.48626864
H       -1.49211245      -0.03006789      -1.33625536
H       -1.83296888      -0.03444987       1.17246160
H       -1.05486656       0.35502605       2.68793804
H       -1.25369074       1.60508971       1.49939972
H       -0.17511284      -0.24224952       0.20152546
H        0.50677295       1.93038200      -0.18782835
