14
Properties=species:S:1:pos:R:3 relative_energy_eV=2.8539446364657124 branch=ts pbc="F F F"
C       -1.00461608      -1.15654686      -1.34234945
C       -0.53755526       0.06176827      -1.70124974
C       -0.68711042      -1.34426493       0.85220405
N       -0.19367997      -0.27436890       1.15936370
N        0.03706461       0.90354403       0.82202859
C        1.32542212       1.44459951       1.23695710
H       -2.06977279      -1.32411120      -1.27059655
H       -0.41625856      -2.04124488      -1.54589984
H        0.49433164       0.20410004      -1.98528097
H       -1.16956308       0.93579066      -1.69190348
H       -0.74955441      -2.22106920       1.47839196
H        2.15825985       0.80763007       0.92850897
H        1.39219932       1.59696092       2.31687902
H        1.42084029       2.40722701       0.74294703
