12
Properties=species:S:1:pos:R:3 relative_energy_eV=1.3519711955850653 branch=ts pbc="F F F"
C        1.11939838      -1.71905440      -0.48352869
O        1.98345373      -0.75308710      -0.60378886
O        0.41013638      -0.29271089       1.14285466
C       -0.21119332       0.73374831       0.64895570
C       -1.45369961       0.72157103       0.07746318
O       -2.11372695       1.81114609      -0.40071801
H        1.17815318      -2.43629405       0.32466320
H        0.58425042      -1.98421089      -1.38673654
H        1.81589044      -0.21095505       0.24831251
H        0.29551359       1.71714923       0.69084640
H       -2.03387883      -0.18444006      -0.01915818
H       -1.57432133       2.59713328      -0.23917290
