12
Properties=species:S:1:pos:R:3 relative_energy_eV=1.338493005869168 branch=ts pbc="F F F"
C        0.36017007      -0.09871860      -1.41494539
O        1.32186006       0.73591721      -1.27273127
O       -1.26343178      -1.26740644       1.09107574
C       -0.15570591      -0.51279033       0.76253405
C       -0.29913411       0.86199639       0.96175841
O        0.59353505       1.74874262       0.73002479
H       -0.63907844       0.25448677      -1.66277638
H        0.60505531      -1.10252705      -1.75130460
H       -1.16202071      -2.16004939       0.74176162
H        0.80950981      -1.00081101       0.87194131
H       -1.30397200       1.18199584       1.25491099
H        1.13321194       1.35916166      -0.31225000
