12
Properties=species:S:1:pos:R:3 relative_energy_eV=0.0 branch=left pbc="F F F"
C       -3.73198388      -0.78530286      -0.10890870
O       -2.66205461      -0.24874462      -0.23244150
O        0.34620497       1.09444186      -0.48693008
C        1.36561399       0.32518790       0.02467101
C        2.63082879       0.73321162      -0.01465959
O        3.72977704       0.05744556       0.46181145
H       -4.55476051      -0.32855122       0.47164980
H       -3.95364282      -1.76601639      -0.56930180
H       -0.48720480       0.62267081      -0.36460677
H        1.09156557      -0.63096437       0.46314881
H        2.90894063       1.68013104      -0.44843442
H        3.45264601      -0.78393461       0.84354001
12
Properties=species:S:1:pos:R:3 relative_energy_eV=2.380560545134358e-06 branch=left pbc="F F F"
C       -3.73183518      -0.78544320      -0.10881673
O       -2.66182839      -0.24902578      -0.23222205
O        0.34651733       1.09434486      -0.48788751
C        1.36554489       0.32513712       0.02461157
C        2.63075832       0.73320099      -0.01449637
O        3.72943153       0.05765014       0.46241355
H       -4.55447060      -0.32863715       0.47153996
H       -3.95355714      -1.76592503      -0.56923030
H       -0.48713762       0.62330609      -0.36464845
H        1.09105824      -0.63068417       0.46397302
H        2.90869691       1.68016972      -0.44825700
H        3.45275207      -0.78451885       0.84255851
12
Properties=species:S:1:pos:R:3 relative_energy_eV=3.886493141180836e-05 branch=left pbc="F F F"
C       -3.73075405      -0.78582160      -0.10843999
O       -2.66011372      -0.25042541      -0.23079115
O        0.34710673       1.09397932      -0.49172755
C        1.36505319       0.32571788       0.02462199
C        2.63045924       0.73325222      -0.01399208
O        3.72834261       0.05753210       0.46374320
H       -4.55359605      -0.32908810       0.47108534
H       -3.95353168      -1.76564170      -0.56895387
H       -0.48734983       0.62499734      -0.36571984
H        1.08970845      -0.62888721       0.46677497
H        2.90845953       1.68051119      -0.44694931
H        3.45214596      -0.78655128       0.83988650
12
Properties=species:S:1:pos:R:3 relative_energy_eV=0.00012027098819089588 branch=left pbc="F F F"
C       -3.72886561      -0.78621792      -0.10793500
O       -2.65720103      -0.25248185      -0.22857156
O        0.34731066       1.09378595      -0.49644218
C        1.36418824       0.32702923       0.02463348
C        2.63003219       0.73327762      -0.01357107
O        3.72709181       0.05665727       0.46478191
H       -4.55256687      -0.32975960       0.47051077
H       -3.95366666      -1.76541084      -0.56859106
H       -0.48811089       0.62691124      -0.36740927
H        1.08831412      -0.62621819       0.46945913
H        2.90890216       1.68090367      -0.44499743
H        3.45050228      -0.78890181       0.83767046
12
Properties=species:S:1:pos:R:3 relative_energy_eV=0.0002813727842294611 branch=left pbc="F F F"
C       -3.72609712      -0.78668791      -0.10738410
O       -2.65302345      -0.25521965      -0.22589262
O        0.34657411       1.09463869      -0.50025983
C        1.36284528       0.32892744       0.02404271
C        2.62942694       0.73301739      -0.01367873
O        3.72573391       0.05494789       0.46565602
H       -4.55113747      -0.33025659       0.47001482
H       -3.95372684      -1.76551975      -0.56832370
H       -0.48975801       0.62954789      -0.36824354
H        1.08691388      -0.62352510       0.46948917
H        2.91058231       1.68068064      -0.44340209
H        3.44759687      -0.79097615       0.83752006
12
Properties=species:S:1:pos:R:3 relative_energy_eV=0.0005728965679736575 branch=left pbc="F F F"
C       -3.72031918      -0.78849277      -0.10610823
O       -2.64414231      -0.26208178      -0.22039115
O        0.34473538       1.09993269      -0.50269042
C        1.35983491       0.33184090       0.02082002
C        2.62784626       0.73167344      -0.01478359
O        3.72212724       0.05087131       0.46760408
H       -4.54621240      -0.32941721       0.46944344
H       -3.95218692      -1.76638329      -0.56862161
H       -0.49299987       0.63782300      -0.36654380
H        1.08262511      -0.62103844       0.46238262
H        2.91433124       1.67825761      -0.44325284
H        3.44029103      -0.79341060       0.84167964
12
Properties=species:S:1:pos:R:3 relative_energy_eV=0.0009257491528842365 branch=left pbc="F F F"
C       -3.71171306      -0.79213041      -0.10357945
O       -2.63077201      -0.27412541      -0.21056454
O        0.34332207       1.10995410      -0.50443587
C        1.35533885       0.33551448       0.01549099
C        2.62521788       0.72958123      -0.01604624
O        3.71536381       0.04419542       0.47045389
H       -4.53704544      -0.32689290       0.46855951
H       -3.94825650      -1.76763754      -0.56972938
H       -0.49631090       0.65186183      -0.36574757
H        1.07410596      -0.61833075       0.45072810
H        2.91876794       1.67423516      -0.44396150
H        3.42791198      -0.79665023       0.84837014
12
Properties=species:S:1:pos:R:3 relative_energy_eV=0.0012517758968897397 branch=left pbc="F F F"
C       -3.70343097      -0.79615509      -0.10070197
O       -2.61781670      -0.28681004      -0.19987489
O        0.34300129       1.12026903      -0.50618002
C        1.35106224       0.33878626       0.01038636
C        2.62257083       0.72772820      -0.01677906
O        3.70794633       0.03753894       0.47332900
H       -4.52731132      -0.32395411       0.46757820
H       -3.94365205      -1.76868256      -0.57109102
H       -0.49843899       0.66604989      -0.36704557
H        1.06466153      -0.61569379       0.44059796
H        2.92217399       1.67057285      -0.44459631
H        3.41516452      -0.80007452       0.85391533
12
Properties=species:S:1:pos:R:3 relative_energy_eV=0.0014682431119581452 branch=left pbc="F F F"
C       -3.69842572      -0.79887124      -0.09873450
O       -2.60990540      -0.29504827      -0.19279137
O        0.34341272       1.12663171      -0.50775065
C        1.34851860       0.34060559       0.00729992
C        2.62091903       0.72674186      -0.01692960
O        3.70290209       0.03355485       0.47542684
H       -4.52094488      -0.32196932       0.46688999
H       -3.94048371      -1.76920026      -0.57202879
H       -0.49919196       0.67509263      -0.36882170
H        1.05829179      -0.61396425       0.43552794
H        2.92373134       1.66856936      -0.44487243
H        3.40710684      -0.80256753       0.85632235
12
Properties=species:S:1:pos:R:3 relative_energy_eV=0.001576038255734602 branch=left pbc="F F F"
C       -3.69618029      -0.80025356      -0.09772470
O       -2.60628992      -0.29907001      -0.18926356
O        0.34398302       1.12945034      -0.50900767
C        1.34740683       0.34132815       0.00592444
C        2.62015070       0.72640018      -0.01679450
O        3.70027898       0.03186354       0.47670647
H       -4.51781315      -0.32099446       0.46651083
H       -3.93886697      -1.76934773      -0.57249177
H       -0.49922814       0.67946346      -0.37016156
H        1.05504275      -0.61304123       0.43411333
H        2.92409683       1.66783881      -0.44488371
H        3.40335014      -0.80406231       0.85661036
12
Properties=species:S:1:pos:R:3 relative_energy_eV=0.0016280704348901054 branch=left pbc="F F F"
C       -3.69528863      -0.80089549      -0.09724511
O       -2.60480823      -0.30086008      -0.18763480
O        0.34446910       1.13049792      -0.50996469
C        1.34698886       0.34157577       0.00541987
C        2.61983241       0.72635064      -0.01658120
O        3.69901098       0.03124569       0.47740980
H       -4.51642042      -0.32058537       0.46630562
H       -3.93812614      -1.76933804      -0.57268656
H       -0.49904308       0.68136262      -0.37109786
H        1.05352668      -0.61253782       0.43422876
H        2.92399885       1.66769630      -0.44476508
H        3.40179042      -0.80493696       0.85614920
12
Properties=species:S:1:pos:R:3 relative_energy_eV=0.0016490009675180772 branch=left pbc="F F F"
C       -3.69488481      -0.80122745      -0.09698240
O       -2.60411086      -0.30176640      -0.18675240
O        0.34485892       1.13092118      -0.51070081
C        1.34682141       0.34169597       0.00527254
C        2.61968535       0.72640694      -0.01634556
O        3.69831834       0.03091617       0.47769219
H       -4.51573363      -0.32041919       0.46617064
H       -3.93775660      -1.76927705      -0.57276627
H       -0.49882014       0.68226147      -0.37186041
H        1.05275063      -0.61222075       0.43474000
H        2.92375653       1.66776989      -0.44458467
H        3.40104568      -0.80548559       0.85565512
12
Properties=species:S:1:pos:R:3 relative_energy_eV=0.0016736540619604057 branch=left pbc="F F F"
C       -3.69444501      -0.80153517      -0.09670695
O       -2.60336527      -0.30266950      -0.18579594
O        0.34527983       1.13145156      -0.51135851
C        1.34665729       0.34193547       0.00529157
C        2.61954162       0.72653038      -0.01597933
O        3.69764417       0.03016434       0.47730001
H       -4.51508959      -0.32033215       0.46599995
H       -3.93742869      -1.76916698      -0.57280849
H       -0.49853736       0.68306576      -0.37296204
H        1.05211372      -0.61195951       0.43520156
H        2.92332772       1.66798779      -0.44425136
H        3.40023239      -0.80589678       0.85560748
12
Properties=species:S:1:pos:R:3 relative_energy_eV=0.001713318059046287 branch=left pbc="F F F"
C       -3.69368371      -0.80186042      -0.09637660
O       -2.60217124      -0.30381811      -0.18456075
O        0.34556106       1.13266614      -0.51129228
C        1.34637869       0.34254227       0.00548158
C        2.61935777       0.72664361      -0.01554173
O        3.69692845       0.02805974       0.47515465
H       -4.51430059      -0.32032421       0.46575757
H       -3.93710346      -1.76902614      -0.57280381
H       -0.49837365       0.68410633      -0.37442058
H        1.05177937      -0.61205529       0.43437197
H        2.92275602       1.66827204      -0.44376980
H        3.39880210      -0.80563076       0.85753773
12
Properties=species:S:1:pos:R:3 relative_energy_eV=0.0017672091562417336 branch=left pbc="F F F"
C       -3.69279266      -0.80206522      -0.09612675
O       -2.60085502      -0.30480120      -0.18351161
O        0.34542343       1.13428667      -0.51015005
C        1.34604287       0.34341478       0.00581561
C        2.61919055       0.72666349      -0.01525616
O        3.69652443       0.02526091       0.47209503
H       -4.51367504      -0.32038620       0.46555830
H       -3.93693194      -1.76896837      -0.57276579
H       -0.49855556       0.68500944      -0.37551867
H        1.05206038      -0.61258290       0.43176380
H        2.92244422       1.66829772      -0.44362223
H        3.39705515      -0.80455391       0.86125648
12
Properties=species:S:1:pos:R:3 relative_energy_eV=0.0018330785223952262 branch=left pbc="F F F"
C       -3.69216375      -0.80213139      -0.09600108
O       -2.59995176      -0.30533925      -0.18289974
O        0.34509440       1.13549446      -0.50887508
C        1.34577059       0.34412075       0.00616984
C        2.61906763       0.72661314      -0.01513358
O        3.69653146       0.02345548       0.47021452
H       -4.51341426      -0.32043080       0.46548339
H       -3.93690342      -1.76902014      -0.57275776
H       -0.49886647       0.68541976      -0.37612622
H        1.05246818      -0.61304257       0.42914797
H        2.92249580       1.66800795      -0.44392318
H        3.39580241      -0.80357218       0.86423886
12
Properties=species:S:1:pos:R:3 relative_energy_eV=0.0018815738694684114 branch=left pbc="F F F"
C       -3.69162167      -0.80220677      -0.09584238
O       -2.59913665      -0.30586153      -0.18217963
O        0.34485601       1.13647585      -0.50794934
C        1.34546716       0.34470193       0.00661753
C        2.61889607       0.72651705      -0.01498177
O        3.69674081       0.02250668       0.46948998
H       -4.51326902      -0.32041208       0.46545831
H       -3.93685414      -1.76913163      -0.57282115
H       -0.49907954       0.68559844      -0.37712864
H        1.05244900      -0.61314907       0.42716560
H        2.92268304       1.66752440      -0.44437653
H        3.39479974      -0.80298804       0.86608593
12
Properties=species:S:1:pos:R:3 relative_energy_eV=0.001959212071596994 branch=left pbc="F F F"
C       -3.69056552      -0.80260322      -0.09524232
O       -2.59738382      -0.30744511      -0.17982822
O        0.34512465       1.13804601      -0.50784631
C        1.34475846       0.34551400       0.00758132
C        2.61840117       0.72628762      -0.01444259
O        3.69697316       0.02186744       0.46966419
H       -4.51277631      -0.32023102       0.46534202
H       -3.93644596      -1.76927728      -0.57309313
H       -0.49884019       0.68595207      -0.38118416
H        1.05074479      -0.61222742       0.42638180
H        2.92276278       1.66683405      -0.44445626
H        3.39317760      -0.80314193       0.86666156
12
Properties=species:S:1:pos:R:3 relative_energy_eV=0.002128795646058279 branch=left pbc="F F F"
C       -3.68867994      -0.80361471      -0.09384064
O       -2.59410773      -0.31095664      -0.17459642
O        0.34646159       1.14035571      -0.50982989
C        1.34348613       0.34664597       0.00913039
C        2.61746981       0.72600340      -0.01324553
O        3.69659541       0.02130209       0.47069532
H       -4.51149140      -0.31983089       0.46495950
H       -3.93532904      -1.76930052      -0.57365671
H       -0.49760108       0.68671025      -0.39067639
H        1.04624007      -0.60929623       0.42913226
H        2.92238730       1.66647940      -0.44298317
H        3.39049966      -0.80492262       0.86444913
12
Properties=species:S:1:pos:R:3 relative_energy_eV=0.0023115425447031157 branch=left pbc="F F F"
C       -3.68689275      -0.80475524      -0.09232669
O       -2.59091703      -0.31468818      -0.16906632
O        0.34830320       1.14213667      -0.51317700
C        1.34234558       0.34758961       0.01047234
C        2.61662324       0.72591819      -0.01192242
O        3.69551484       0.02093010       0.47199272
H       -4.51000180      -0.31944418       0.46446586
H       -3.93405916      -1.76914355      -0.57420256
H       -0.49597698       0.68755910      -0.40087368
H        1.04134407      -0.60577258       0.43440420
H        2.92164832       1.66682454      -0.44056166
H        3.38799923      -0.80757926       0.86033307
12
Properties=species:S:1:pos:R:3 relative_energy_eV=0.0024455664279230405 branch=left pbc="F F F"
C       -3.68584917      -0.80552157      -0.09133858
O       -2.58899606      -0.31708884      -0.16551853
O        0.34972480       1.14292751      -0.51603678
C        1.34175381       0.34808051       0.01117449
C        2.61617586       0.72603263      -0.01098917
O        3.69435221       0.02076221       0.47297988
H       -4.50897669      -0.31923041       0.46409472
H       -3.93320597      -1.76893903      -0.57451693
H       -0.49479725       0.68814692      -0.40751889
H        1.03824081      -0.60328012       0.43913992
H        2.92093696       1.66746895      -0.43857258
H        3.38657142      -0.80978353       0.85664029
12
Properties=species:S:1:pos:R:3 relative_energy_eV=0.0025193826877512038 branch=left pbc="F F F"
C       -3.68539559      -0.80589749      -0.09085561
O       -2.58813202      -0.31822382      -0.16381261
O        0.35050865       1.14319164      -0.51762785
C        1.34153747       0.34827483       0.01139886
C        2.61601933       0.72615828      -0.01051812
O        3.69350170       0.02061863       0.47339322
H       -4.50845745      -0.31915352       0.46388697
H       -3.93277160      -1.76877944      -0.57464520
H       -0.49420381       0.68844695      -0.41086923
H        1.03681895      -0.60197748       0.44213979
H        2.92044580       1.66804541      -0.43732169
H        3.38605933      -0.81112877       0.85436931
12
Properties=species:S:1:pos:R:3 relative_energy_eV=0.002574342601292301 branch=left pbc="F F F"
C       -3.68510533      -0.80612109      -0.09052436
O       -2.58758176      -0.31890782      -0.16265579
O        0.35089862       1.14364102      -0.51820572
C        1.34141905       0.34833557       0.01133305
C        2.61597316       0.72617640      -0.01033263
O        3.69272838       0.02020308       0.47322264
H       -4.50812389      -0.31913420       0.46372944
H       -3.93244383      -1.76861648      -0.57471190
H       -0.49392939       0.68860668      -0.41354646
H        1.03605149      -0.60109489       0.44448218
H        2.92001609       1.66863660      -0.43610839
H        3.38602819      -0.81214964       0.85285577
12
Properties=species:S:1:pos:R:3 relative_energy_eV=0.002668103797986987 branch=left pbc="F F F"
C       -3.68470735      -0.80626020      -0.09015925
O       -2.58692411      -0.31947177      -0.16134960
O        0.35060313       1.14490724      -0.51667870
C        1.34114077       0.34847863       0.01081684
C        2.61597693       0.72578316      -0.01082471
O        3.69196401       0.01869383       0.47135489
H       -4.50785961      -0.31915117       0.46357000
H       -3.93203252      -1.76841398      -0.57477925
H       -0.49416552       0.68859817      -0.41741924
H        1.03573332      -0.60024976       0.44622923
H        2.91987056       1.66946261      -0.43403068
H        3.38633115      -0.81280150       0.85280833
12
Properties=species:S:1:pos:R:3 relative_energy_eV=0.0028166375959699508 branch=left pbc="F F F"
C       -3.68416246      -0.80628400      -0.08976790
O       -2.58611246      -0.31987751      -0.15988954
O        0.34905120       1.14777126      -0.51211233
C        1.34065923       0.34885574       0.00994836
C        2.61601035       0.72484292      -0.01211014
O        3.69170884       0.01635994       0.46853508
H       -4.50775217      -0.31918923       0.46344852
H       -3.93156878      -1.76823825      -0.57487409
H       -0.49506974       0.68796222      -0.42232297
H        1.03603526      -0.59977735       0.44568137
H        2.92055049       1.66969554      -0.43203249
H        3.38658103      -0.81254599       0.85503399
12
Properties=species:S:1:pos:R:3 relative_energy_eV=0.002944914489489747 branch=left pbc="F F F"
C       -3.68365996      -0.80632431      -0.08946770
O       -2.58537316      -0.32031972      -0.15869763
O        0.34758618       1.14905103      -0.50915761
C        1.34021863       0.34970796       0.00933844
C        2.61601963       0.72440115      -0.01317321
O        3.69168074       0.01443949       0.46657147
H       -4.50769923      -0.31918934       0.46338998
H       -3.93128918      -1.76820995      -0.57498210
H       -0.49576939       0.68700886      -0.42548790
H        1.03659723      -0.59875223       0.44462444
H        2.92197227       1.66994660      -0.43062791
H        3.38564704      -0.81218423       0.85720761
12
Properties=species:S:1:pos:R:3 relative_energy_eV=0.003064984193770215 branch=left pbc="F F F"
C       -3.68315764      -0.80640102      -0.08911604
O       -2.58460069      -0.32084802      -0.15735145
O        0.34579774       1.15130565      -0.50598701
C        1.33985905       0.35096999       0.00895131
C        2.61607106       0.72421512      -0.01400113
O        3.69165794       0.01310541       0.46610324
H       -4.50765262      -0.31918348       0.46332444
H       -3.93098473      -1.76817951      -0.57511195
H       -0.49618984       0.68493114      -0.42837028
H        1.03717838      -0.59798775       0.44236339
H        2.92409770       1.66938808      -0.43054761
H        3.38385442      -0.81174031       0.85928097
12
Properties=species:S:1:pos:R:3 relative_energy_eV=0.003192163523635827 branch=left pbc="F F F"
C       -3.68256163      -0.80667261      -0.08866382
O       -2.58360681      -0.32189215      -0.15563559
O        0.34440165       1.15158721      -0.50587227
C        1.33969119       0.35298778       0.00865231
C        2.61621599       0.72504678      -0.01441165
O        3.69092483       0.01172804       0.46622553
H       -4.50741342      -0.31914828       0.46320418
H       -3.93071733      -1.76818414      -0.57527115
H       -0.49595390       0.68213520      -0.43031491
H        1.03790161      -0.59586979       0.44151904
H        2.92723756       1.66963839      -0.43012165
H        3.37981098      -0.81178112       0.86022782
12
Properties=species:S:1:pos:R:3 relative_energy_eV=0.0034361113812337862 branch=left pbc="F F F"
C       -3.68163048      -0.80730346      -0.08778279
O       -2.58192302      -0.32397286      -0.15245651
O        0.34277512       1.15199010      -0.50799550
C        1.33982101       0.35658427       0.00840102
C        2.61664625       0.72735463      -0.01427882
O        3.68845676       0.01012728       0.46794284
H       -4.50680490      -0.31911067       0.46289176
H       -3.93019445      -1.76805944      -0.57552062
H       -0.49468964       0.67666219      -0.43326145
H        1.03887175      -0.59224700       0.44199925
H        2.93265380       1.67027118      -0.42985641
H        3.37194846      -0.81272095       0.85945507
12
Properties=species:S:1:pos:R:3 relative_energy_eV=0.0036004511111968895 branch=left pbc="F F F"
C       -3.68115196      -0.80772423      -0.08727827
O       -2.58099988      -0.32525086      -0.15067518
O        0.34241283       1.15130790      -0.51077800
C        1.34006027       0.35852710       0.00833325
C        2.61694598       0.72905498      -0.01388694
O        3.68650590       0.00936777       0.46904492
H       -4.50637840      -0.31909565       0.46268170
H       -3.92992294      -1.76796095      -0.57564334
H       -0.49372390       0.67385840      -0.43460039
H        1.03936108      -0.58997608       0.44381737
H        2.93550355       1.67119206      -0.42933555
H        3.36731809      -0.81372520       0.85785827
12
Properties=species:S:1:pos:R:3 relative_energy_eV=0.0038795350137661444 branch=left pbc="F F F"
C       -3.68058221      -0.80833771      -0.08654302
O       -2.57979551      -0.32702367      -0.14813434
O        0.34291906       1.14977662      -0.51645280
C        1.34036282       0.36086589       0.00879416
C        2.61721303       0.73164951      -0.01236566
O        3.68295611       0.00925241       0.47196982
H       -4.50577227      -0.31908095       0.46235736
H       -3.92950272      -1.76775774      -0.57581128
H       -0.49220589       0.67082907      -0.43727657
H        1.03930795      -0.58661285       0.44930388
H        2.93826282       1.67273720      -0.42844860
H        3.36276743      -0.81672255       0.85214486
12
Properties=species:S:1:pos:R:3 relative_energy_eV=0.004038938428493566 branch=left pbc="F F F"
C       -3.68036748      -0.80857146      -0.08624581
O       -2.57933082      -0.32770788      -0.14709171
O        0.34346450       1.14882539      -0.51941766
C        1.34032915       0.36167838       0.00925216
C        2.61715518       0.73264212      -0.01131479
O        3.68145410       0.00954965       0.47372337
H       -4.50556432      -0.31906342       0.46223830
H       -3.92932463      -1.76768439      -0.57589239
H       -0.49157805       0.66998980      -0.43874269
H        1.03877110      -0.58487114       0.45255356
H        2.93882580       1.67334748      -0.42793014
H        3.36209607      -0.81855929       0.84840564
12
Properties=species:S:1:pos:R:3 relative_energy_eV=0.004191839243503637 branch=left pbc="F F F"
C       -3.68012967      -0.80857863      -0.08593395
O       -2.57889731      -0.32797662      -0.14586707
O        0.34238845       1.15040966      -0.51803021
C        1.34001386       0.36288158       0.00918088
C        2.61685385       0.73369868      -0.00935716
O        3.68086889       0.00979509       0.47446298
H       -4.50564422      -0.31897196       0.46225144
H       -3.92886539      -1.76763555      -0.57606864
H       -0.49104467       0.66825232      -0.44248314
H        1.03879774      -0.58304195       0.45368812
H        2.93849723       1.67345428      -0.42878750
H        3.36309186      -0.82271164       0.84648208
12
Properties=species:S:1:pos:R:3 relative_energy_eV=0.004358422927907668 branch=left pbc="F F F"
C       -3.67970006      -0.80876057      -0.08540785
O       -2.57810773      -0.32882406      -0.14378435
O        0.34285747       1.15001251      -0.52128387
C        1.33885243       0.36453695       0.01073210
C        2.61591206       0.73435954      -0.00608031
O        3.67994442       0.01175291       0.48028348
H       -4.50565093      -0.31884368       0.46219947
H       -3.92837199      -1.76761932      -0.57634302
H       -0.49018812       0.66693933      -0.44760186
H        1.03597710      -0.57835242       0.45863978
H        2.93748955       1.67261995      -0.42911358
H        3.36691641      -0.82824587       0.83729789
12
Properties=species:S:1:pos:R:3 relative_energy_eV=0.004544002524198731 branch=left pbc="F F F"
C       -3.67946162      -0.80879141      -0.08515555
O       -2.57770875      -0.32916127      -0.14270913
O        0.34234059       1.15072519      -0.52089973
C        1.33822279       0.36554004       0.01131043
C        2.61545974       0.73440478      -0.00471942
O        3.68018528       0.01300191       0.48373673
H       -4.50573488      -0.31876371       0.46221325
H       -3.92809000      -1.76764272      -0.57650351
H       -0.48998361       0.66612223      -0.45054445
H        1.03522554      -0.57627674       0.45913249
H        2.93690242       1.67153097      -0.43038440
H        3.36857311      -0.83111399       0.83406119
12
Properties=species:S:1:pos:R:3 relative_energy_eV=0.004960521288012387 branch=left pbc="F F F"
C       -3.67903787      -0.80899960      -0.08470428
O       -2.57695623      -0.33006634      -0.14083508
O        0.34192891       1.15127497      -0.52097584
C        1.33742455       0.36728155       0.01264563
C        2.61505771       0.73399970      -0.00375531
O        3.68036126       0.01594648       0.49210946
H       -4.50569806      -0.31867438       0.46214814
H       -3.92776819      -1.76767084      -0.57673159
H       -0.48979556       0.66531845      -0.45443364
H        1.03479171      -0.57355257       0.45898901
H        2.93653841       1.66894884      -0.43339170
H        3.36908395      -0.83423102       0.82847308
12
Properties=species:S:1:pos:R:3 relative_energy_eV=0.005912717733735917 branch=left pbc="F F F"
C       -3.67839427      -0.80957292      -0.08397706
O       -2.57571742      -0.33192827      -0.13801069
O        0.34204738       1.15102510      -0.52245193
C        1.33727697       0.36947919       0.01458021
C        2.61529979       0.73373119      -0.00411261
O        3.67891918       0.02101935       0.50639240
H       -4.50532174      -0.31862851       0.46188793
H       -3.92751085      -1.76764701      -0.57698390
H       -0.48979389       0.66532172      -0.45876857
H        1.03693531      -0.57177703       0.45909259
H        2.93723866       1.66556337      -0.43873759
H        3.36495141      -0.83701098       0.82062706
12
Properties=species:S:1:pos:R:3 relative_energy_eV=0.007174102101998869 branch=left pbc="F F F"
C       -3.67765654      -0.81043515      -0.08307534
O       -2.57419477      -0.33442900      -0.13473644
O        0.34364768       1.14873863      -0.52854629
C        1.33771120       0.37116332       0.01698695
C        2.61577481       0.73455818      -0.00428242
O        3.67507697       0.02674559       0.52261816
H       -4.50466654      -0.31863440       0.46146075
H       -3.92736619      -1.76755456      -0.57721731
H       -0.48976615       0.66651421      -0.46313987
H        1.03969717      -0.57042977       0.46400831
H        2.93863533       1.66352986      -0.44338556
H        3.35903750      -0.84019176       0.80884686
12
Properties=species:S:1:pos:R:3 relative_energy_eV=0.008355881451279856 branch=left pbc="F F F"
C       -3.67702394      -0.81124776      -0.08226458
O       -2.57283780      -0.33668123      -0.13191742
O        0.34616635       1.14501737      -0.53777199
C        1.33801106       0.37203706       0.01946209
C        2.61584719       0.73631602      -0.00321015
O        3.67047570       0.03124748       0.53536765
H       -4.50405157      -0.31865215       0.46105055
H       -3.92729646      -1.76745408      -0.57740834
H       -0.48971119       0.66825219      -0.46708370
H        1.04080032      -0.56880477       0.47307753
H        2.94000807       1.66345328      -0.44532153
H        3.35554268      -0.84390831       0.79555766
12
Properties=species:S:1:pos:R:3 relative_energy_eV=0.009368567978526698 branch=left pbc="F F F"
C       -3.67653102      -0.81185327      -0.08163668
O       -2.57177293      -0.33835113      -0.12978580
O        0.34869066       1.14094440      -0.54762530
C        1.33786241       0.37225571       0.02171436
C        2.61534646       0.73858465      -0.00084002
O        3.66647512       0.03423364       0.54360306
H       -4.50363894      -0.31866263       0.46074454
H       -3.92726069      -1.76738827      -0.57756581
H       -0.48994708       0.67004795      -0.47072670
H        1.04010381      -0.56685189       0.48377638
H        2.94123750       1.66460986      -0.44506714
H        3.35536509      -0.84799393       0.78294689
12
Properties=species:S:1:pos:R:3 relative_energy_eV=0.010431296677779756 branch=left pbc="F F F"
C       -3.67604719      -0.81231521      -0.08109076
O       -2.57078045      -0.33972457      -0.12788244
O        0.35128444       1.13602415      -0.55909267
C        1.33700872       0.37206083       0.02402800
C        2.61406854       0.74143897       0.00357218
O        3.66339192       0.03635491       0.54929482
H       -4.50341004      -0.31865635       0.46051962
H       -3.92722903      -1.76737740      -0.57773596
H       -0.49073154       0.67179675      -0.47485021
H        1.03701246      -0.56334590       0.49666415
H        2.94248930       1.66639866      -0.44297949
H        3.35887329      -0.85307971       0.76909055
12
Properties=species:S:1:pos:R:3 relative_energy_eV=0.011686935431498569 branch=left pbc="F F F"
C       -3.67549551      -0.81268972      -0.08058952
O       -2.56972993      -0.34104808      -0.12594697
O        0.35408263       1.12959944      -0.57297152
C        1.33543194       0.37173908       0.02626645
C        2.61208423       0.74459946       0.01037967
O        3.66194679       0.03792166       0.55382755
H       -4.50330276      -0.31863102       0.46035808
H       -3.92720467      -1.76744070      -0.57793161
H       -0.49203232       0.67308504      -0.47922362
H        1.03084442      -0.55669032       0.51140093
H        2.94360236       1.66818507      -0.43913245
H        3.36570328      -0.85905478       0.75310084
12
Properties=species:S:1:pos:R:3 relative_energy_eV=0.01292657076010073 branch=left pbc="F F F"
C       -3.67499347      -0.81299414      -0.08022661
O       -2.56880357      -0.34226828      -0.12431510
O        0.35655459       1.12288264      -0.58611498
C        1.33403465       0.37166040       0.02753269
C        2.61042488       0.74694054       0.01710377
O        3.66241299       0.03882254       0.55741046
H       -4.50319241      -0.31860190       0.46025088
H       -3.92722491      -1.76755105      -0.57808867
H       -0.49308408       0.67340481      -0.48190361
H        1.02381110      -0.54819525       0.52357792
H        2.94403344       1.66929196      -0.43487925
H        3.37195726      -0.86381708       0.73919036
12
Properties=species:S:1:pos:R:3 relative_energy_eV=0.014362890438860632 branch=left pbc="F F F"
C       -3.67450222      -0.81339244      -0.07994377
O       -2.56785341      -0.34377527      -0.12277292
O        0.35923015       1.11468139      -0.60029146
C        1.33341079       0.37206540       0.02761460
C        2.60963463       0.74849375       0.02318832
O        3.66410960       0.03920442       0.56123601
H       -4.50288825      -0.31856756       0.46013550
H       -3.92734600      -1.76771370      -0.57820238
H       -0.49329718       0.67282028      -0.48199008
H        1.01648928      -0.53730499       0.53401083
H        2.94358608       1.67010875      -0.43003833
H        3.37535700      -0.86704488       0.72659154
12
Properties=species:S:1:pos:R:3 relative_energy_eV=0.015462228542673984 branch=left pbc="F F F"
C       -3.67422077      -0.81378299      -0.07980917
O       -2.56722283      -0.34502942      -0.12188916
O        0.36125765       1.10822707      -0.61021472
C        1.33396552       0.37273104       0.02680380
C        2.61009995       0.74895710       0.02566641
O        3.66512762       0.03900206       0.56388003
H       -4.50247563      -0.31852966       0.46003707
H       -3.92752597      -1.76786069      -0.57824134
H       -0.49234286       0.67206247      -0.47967332
H        1.01278543      -0.52948215       0.53956619
H        2.94263264       1.67095640      -0.42661639
H        3.37384973      -0.86767610       0.72002844
12
Properties=species:S:1:pos:R:3 relative_energy_eV=0.016913264871618594 branch=left pbc="F F F"
C       -3.67400200      -0.81443883      -0.07969087
O       -2.56653257      -0.34677065      -0.12109198
O        0.36420664       1.09948736      -0.62276787
C        1.33582385       0.37417784       0.02541883
C        2.61187637       0.74878623       0.02552539
O        3.66463514       0.03816403       0.56667088
H       -4.50170394      -0.31842064       0.45989878
H       -3.92783802      -1.76809226      -0.57826986
H       -0.48897396       0.67114851      -0.47404828
H        1.01090139      -0.52078088       0.54537085
H        2.94050142       1.67311481      -0.42199506
H        3.36703608      -0.86680045       0.71451702
12
Properties=species:S:1:pos:R:3 relative_energy_eV=0.01787123481335584 branch=left pbc="F F F"
C       -3.67394445      -0.81482977      -0.07961664
O       -2.56623588      -0.34766659      -0.12074981
O        0.36596622       1.09422471      -0.63023460
C        1.33659613       0.37556289       0.02550851
C        2.61272747       0.74859530       0.02423775
O        3.66308214       0.03758861       0.56743149
H       -4.50124956      -0.31830033       0.45984004
H       -3.92797848      -1.76824262      -0.57831797
H       -0.48598942       0.67101643      -0.47086276
H        1.01042905      -0.51666947       0.54945529
H        2.93908046       1.67503909      -0.41863197
H        3.36344672      -0.86674323       0.71147850
12
Properties=species:S:1:pos:R:3 relative_energy_eV=0.019111211089693825 branch=left pbc="F F F"
C       -3.67407165      -0.81504972      -0.07933756
O       -2.56626875      -0.34788604      -0.12008163
O        0.36973172       1.09580271      -0.63617498
C        1.33573486       0.37704537       0.02815764
C        2.61219432       0.74557885       0.02309815
O        3.66003618       0.03919228       0.57081413
H       -4.50107767      -0.31808302       0.45982328
H       -3.92759592      -1.76820168      -0.57850372
H       -0.48122275       0.66890900      -0.47083915
H        1.00651516      -0.51384585       0.55518763
H        2.93457543       1.67440315      -0.41538549
H        3.36737949      -0.86829000       0.70277954
12
Properties=species:S:1:pos:R:3 relative_energy_eV=0.020399185756105 branch=left pbc="F F F"
C       -3.67420665      -0.81514785      -0.07916786
O       -2.56636829      -0.34782839      -0.11974395
O        0.37114364       1.09397010      -0.64177193
C        1.33373293       0.37935440       0.03171246
C        2.61064586       0.74464313       0.02299045
O        3.65725660       0.04033042       0.56988169
H       -4.50103955      -0.31789061       0.45985194
H       -3.92729956      -1.76819568      -0.57866203
H       -0.47786058       0.66922402      -0.47246082
H        1.00384314      -0.51203379       0.56175082
H        2.93282379       1.67460979      -0.41086040
H        3.37325915      -0.87146043       0.69601750
12
Properties=species:S:1:pos:R:3 relative_energy_eV=0.02310934095112316 branch=left pbc="F F F"
C       -3.67428910      -0.81485714      -0.07888079
O       -2.56673107      -0.34696112      -0.11911088
O        0.37411030       1.09806840      -0.64445689
C        1.33013388       0.37956894       0.03515163
C        2.60730772       0.74239454       0.02398458
O        3.65556373       0.04387459       0.57242829
H       -4.50150781      -0.31772179       0.45994416
H       -3.92660851      -1.76801715      -0.57890206
H       -0.47475002       0.66851260      -0.47866584
H        0.99760398      -0.50923035       0.57129277
H        2.92663968       1.67506513      -0.40720419
H        3.38845778      -0.88112141       0.68395717
12
Properties=species:S:1:pos:R:3 relative_energy_eV=0.02442004299882683 branch=left pbc="F F F"
C       -3.67370021      -0.81567510      -0.07905744
O       -2.56590142      -0.34905089      -0.11967019
O        0.37562633       1.09038456      -0.65249287
C        1.33373236       0.37879836       0.03052461
C        2.60988492       0.74506628       0.01432996
O        3.65311064       0.03516687       0.57336198
H       -4.50070382      -0.31739348       0.46003296
H       -3.92780099      -1.76898641      -0.57900935
H       -0.47167759       0.66789939      -0.46536364
H        1.00664387      -0.50956689       0.56840525
H        2.93028798       1.68592984      -0.40862489
H        3.36642835      -0.87299746       0.69710145
12
Properties=species:S:1:pos:R:3 relative_energy_eV=0.029107228026987286 branch=left pbc="F F F"
C       -3.67312539      -0.81616309      -0.07923956
O       -2.56513052      -0.35056268      -0.11998278
O        0.37795183       1.08212977      -0.66037846
C        1.33817032       0.37502967       0.02225886
C        2.61227659       0.74841866       0.00780896
O        3.65245143       0.03077882       0.57550587
H       -4.50021205      -0.31729076       0.46006203
H       -3.92878745      -1.76965436      -0.57900827
H       -0.46970840       0.66957678      -0.45737776
H        1.01420579      -0.50478710       0.57474230
H        2.92638066       1.69979092      -0.40773914
H        3.35145754      -0.87769164       0.70288574
12
Properties=species:S:1:pos:R:3 relative_energy_eV=0.03832692478681565 branch=left pbc="F F F"
C       -3.67249788      -0.81716150      -0.07976941
O       -2.56382316      -0.35346567      -0.12099458
O        0.37820869       1.06858529      -0.66580118
C        1.34955657       0.37042607       0.00836490
C        2.62086416       0.75411579      -0.00081941
O        3.65290848       0.02278531       0.57587555
H       -4.49890970      -0.31744548       0.45989372
H       -3.93068803      -1.77048819      -0.57864661
H       -0.47134850       0.67174935      -0.44014742
H        1.03031674      -0.50263298       0.57004332
H        2.92779804       1.71357607      -0.41132656
H        3.31354474      -0.87046930       0.72286530
12
Properties=species:S:1:pos:R:3 relative_energy_eV=0.0508185644466721 branch=left pbc="F F F"
C       -3.67219541      -0.81834595      -0.08039799
O       -2.56252594      -0.35659209      -0.12225676
O        0.37695371       1.05258833      -0.67051886
C        1.36309649       0.36798087      -0.00501034
C        2.63178058       0.76047635      -0.00714688
O        3.65306331       0.01584082       0.57171988
H       -4.49724496      -0.31775400       0.45957773
H       -3.93267206      -1.77112205      -0.57809017
H       -0.47545853       0.67479877      -0.42158456
H        1.04876199      -0.50283979       0.56190921
H        2.93277011       1.72237288      -0.41438252
H        3.26960060      -0.85782963       0.74571867
12
Properties=species:S:1:pos:R:3 relative_energy_eV=0.06342687972210115 branch=left pbc="F F F"
C       -3.67218859      -0.81955705      -0.08094404
O       -2.56150898      -0.35942421      -0.12357338
O        0.37490167       1.03772864      -0.67665690
C        1.37418609       0.36856028      -0.01399055
C        2.64078740       0.76626239      -0.01039104
O        3.65167184       0.01013598       0.56245438
H       -4.49558596      -0.31795800       0.45927892
H       -3.93437694      -1.77165412      -0.57760189
H       -0.47991980       0.67780747      -0.40444438
H        1.06726663      -0.50624357       0.55346491
H        2.94196835       1.72468789      -0.41503807
H        3.22872794      -0.84077145       0.76697928
12
Properties=species:S:1:pos:R:3 relative_energy_eV=0.07602753068567836 branch=left pbc="F F F"
C       -3.67228566      -0.82079686      -0.08138503
O       -2.56069190      -0.36202484      -0.12496727
O        0.37246045       1.02187163      -0.68787401
C        1.38052631       0.37173263      -0.01868665
C        2.64520949       0.77220009      -0.01098884
O        3.64781349       0.00461802       0.54698863
H       -4.49406858      -0.31787756       0.45912592
H       -3.93589029      -1.77235332      -0.57733522
H       -0.48273221       0.68193290      -0.38904891
H        1.08737507      -0.51143531       0.54957670
H        2.95524475       1.72378474      -0.41099282
H        3.19296854      -0.82207807       0.78512458
12
Properties=species:S:1:pos:R:3 relative_energy_eV=0.09245880255002703 branch=left pbc="F F F"
C       -3.67222567      -0.82217691      -0.08179528
O       -2.55993421      -0.36483973      -0.12664911
O        0.36870309       1.00152941      -0.70645292
C        1.38110276       0.37711741      -0.01862172
C        2.64398257       0.77981877      -0.01096858
O        3.64082022      -0.00362096       0.52427107
H       -4.49260062      -0.31738281       0.45920374
H       -3.93752693      -1.77354618      -0.57735991
H       -0.48282605       0.68789246      -0.37302568
H        1.11166907      -0.51787948       0.54920503
H        2.97553295       1.72241937      -0.40185614
H        3.15923209      -0.79975751       0.80358643
12
Properties=species:S:1:pos:R:3 relative_energy_eV=0.11002502632618416 branch=left pbc="F F F"
C       -3.67197093      -0.82313127      -0.08204552
O       -2.55943392      -0.36678798      -0.12793509
O        0.36519122       0.98456035      -0.72668143
C        1.37572617       0.38116257      -0.01597202
C        2.63726398       0.78651187      -0.00997099
O        3.63491449      -0.01162802       0.50420365
H       -4.49178045      -0.31672809       0.45946505
H       -3.93872173      -1.77475931      -0.57762675
H       -0.48080801       0.69346271      -0.36269415
H        1.13101276      -0.52076809       0.55512495
H        2.99299736       1.72383068      -0.39085836
H        3.14153821      -0.78615166       0.81452749
12
Properties=species:S:1:pos:R:3 relative_energy_eV=0.12369306929940649 branch=left pbc="F F F"
C       -3.67155142      -0.82346862      -0.08215044
O       -2.55933536      -0.36765147      -0.12855397
O        0.36260391       0.97545116      -0.74281029
C        1.36877190       0.38240123      -0.01358987
C        2.62961654       0.79100487      -0.00845223
O        3.63267517      -0.01787589       0.49286998
H       -4.49159318      -0.31625190       0.45971843
H       -3.93930294      -1.77554315      -0.57790131
H       -0.47920138       0.69675088      -0.35880708
H        1.14083029      -0.51936906       0.56396536
H        3.00225310       1.72767257      -0.38211716
H        3.14016248      -0.78354686       0.81736541
12
Properties=species:S:1:pos:R:3 relative_energy_eV=0.13529000435482885 branch=left pbc="F F F"
C       -3.67117546      -0.82350255      -0.08220454
O       -2.55937924      -0.36794332      -0.12878943
O        0.36122356       0.96879651      -0.75450180
C        1.36186321       0.38545652      -0.01288309
C        2.62220408       0.79470255      -0.00802459
O        3.63319430      -0.02435755       0.48779999
H       -4.49163840      -0.31597551       0.45989187
H       -3.93955706      -1.77598154      -0.57809277
H       -0.47875743       0.69858800      -0.35825907
H        1.14308445      -0.51676846       0.57319372
H        3.00685800       1.73321500      -0.37533861
H        3.14800913      -0.78665588       0.81674517
12
Properties=species:S:1:pos:R:3 relative_energy_eV=0.15105848786515708 branch=left pbc="F F F"
C       -3.67041065      -0.82360010      -0.08245695
O       -2.55975323      -0.36901670      -0.12918114
O        0.36421780       0.94377143      -0.74607478
C        1.35881389       0.39244592       0.00385030
C        2.62493739       0.79272763      -0.01627147
O        3.62272374      -0.02166971       0.47768501
H       -4.49122475      -0.31553363       0.46012010
H       -3.93996721      -1.77664508      -0.57828828
H       -0.47298989       0.70441270      -0.35797718
H        1.14214245      -0.51802789       0.55981271
H        3.02232767       1.74103711      -0.37530358
H        3.13511188      -0.78032798       0.82362207
12
Properties=species:S:1:pos:R:3 relative_energy_eV=0.19718995038238063 branch=left pbc="F F F"
C       -3.67142289      -0.82450981      -0.08292703
O       -2.55845042      -0.36968580      -0.12981589
O        0.35769540       0.90693392      -0.76685269
C        1.35944193       0.41882365       0.02674641
C        2.63311471       0.80395705      -0.02820527
O        3.63000182      -0.03000280       0.45864612
H       -4.48990741      -0.31563683       0.45985302
H       -3.94070725      -1.77679479      -0.57798299
H       -0.48823956       0.70404508      -0.35018270
H        1.11422336      -0.51354305       0.55114855
H        3.04265636       1.75548912      -0.36292468
H        3.14752301      -0.78950210       0.84203394
12
Properties=species:S:1:pos:R:3 relative_energy_eV=0.23337055565571063 branch=left pbc="F F F"
C       -3.67212912      -0.82553089      -0.08322562
O       -2.55731250      -0.37119322      -0.13064744
O        0.35275446       0.90977638      -0.74211811
C        1.36847992       0.42666765       0.03177532
C        2.64654712       0.80448903      -0.04544614
O        3.63179375      -0.04171847       0.47204439
H       -4.48870117      -0.31584954       0.45961451
H       -3.94164481      -1.77702294      -0.57762027
H       -0.49154252       0.69433298      -0.33185049
H        1.10920876      -0.53078717       0.49676878
H        3.06222494       1.74445844      -0.38589589
H        3.11624985      -0.74804898       0.87613744
12
Properties=species:S:1:pos:R:3 relative_energy_eV=0.29933574817550834 branch=left pbc="F F F"
C       -3.67197554      -0.82639938      -0.08358174
O       -2.55670451      -0.37329385      -0.13172076
O        0.33785656       0.93497312      -0.72402477
C        1.38500203       0.42842916       0.03141862
C        2.67083306       0.79444953      -0.05254035
O        3.65198739      -0.04845051       0.48291054
H       -4.48727803      -0.31644515       0.45913999
H       -3.94297367      -1.77704678      -0.57696993
H       -0.50542674       0.67357558      -0.30149568
H        1.10285827      -0.55035253       0.42769631
H        3.08296717       1.72628748      -0.41802650
H        3.06878220      -0.69615393       0.92673038
12
Properties=species:S:1:pos:R:3 relative_energy_eV=0.38420678055445023 branch=left pbc="F F F"
C       -3.67148701      -0.82711165      -0.08376093
O       -2.55628983      -0.37550021      -0.13273989
O        0.32355608       0.97806342      -0.68528046
C        1.39829940       0.42049226       0.01635079
C        2.68542387       0.78687322      -0.06425325
O        3.66523346      -0.06414859       0.51505119
H       -4.48634415      -0.31686347       0.45887919
H       -3.94423663      -1.77732653      -0.57653124
H       -0.50544162       0.65194197      -0.27274002
H        1.11237622      -0.57840269       0.35145806
H        3.09967146       1.69829639      -0.46166279
H        3.01516637      -0.62674199       0.97476501
12
Properties=species:S:1:pos:R:3 relative_energy_eV=0.5097353907694924 branch=left pbc="F F F"
C       -3.66910364      -0.82699715      -0.08389645
O       -2.55735120      -0.37812015      -0.13361237
O        0.30524767       1.03148845      -0.64089579
C        1.40629385       0.40747331      -0.01040813
C        2.69310903       0.77806394      -0.07221077
O        3.68234056      -0.07781510       0.54831080
H       -4.48598601      -0.31705420       0.45887466
H       -3.94548855      -1.77795663      -0.57635410
H       -0.49569135       0.63073455      -0.24760244
H        1.13031219      -0.60895783       0.28107012
H        3.11360896       1.66925875      -0.50772329
H        2.95863557      -0.56054640       1.02398301
12
Properties=species:S:1:pos:R:3 relative_energy_eV=0.7168874759863684 branch=left pbc="F F F"
C       -3.66900701      -0.82780504      -0.08383213
O       -2.55601024      -0.37975664      -0.13451875
O        0.28732589       1.09229113      -0.58385039
C        1.40792477       0.39956302      -0.05258656
C        2.68865321       0.77546035      -0.08656781
O        3.69657093      -0.09863473       0.59479309
H       -4.48599820      -0.31699852       0.45909021
H       -3.94666279      -1.77886705      -0.57640417
H       -0.47395065       0.61142610      -0.22556962
H        1.15682010      -0.65182758       0.21352337
H        3.12556591       1.63728798      -0.55821776
H        2.90469459      -0.49256810       1.07367527
12
Properties=species:S:1:pos:R:3 relative_energy_eV=0.904429373500534 branch=left pbc="F F F"
C       -3.66218570      -0.82571586      -0.08405021
O       -2.56162576      -0.38393967      -0.13480916
O        0.29879529       1.13540124      -0.51060279
C        1.41171636       0.38872656      -0.07731080
C        2.68534968       0.76792064      -0.10817518
O        3.68256885      -0.10581581       0.63925532
H       -4.48632580      -0.31647286       0.45964720
H       -3.94740837      -1.78009322      -0.57679887
H       -0.45219490       0.59977640      -0.20913685
H        1.19012799      -0.69449249       0.14347572
H        3.13773999       1.60919973      -0.60964700
H        2.83936832      -0.42492430       1.10768698
12
Properties=species:S:1:pos:R:3 relative_energy_eV=1.0285581910084147 branch=left pbc="F F F"
C       -3.67320426      -0.83059818      -0.08346882
O       -2.55136714      -0.38143637      -0.13559920
O        0.32281498       1.15577842      -0.43202163
C        1.42214767       0.37275986      -0.08072001
C        2.68778594       0.75376940      -0.13068745
O        3.65006684      -0.09758648       0.67265465
H       -4.48561383      -0.31620879       0.45972740
H       -3.94728790      -1.78022104      -0.57679909
H       -0.43001492       0.59870594      -0.19948713
H        1.22366147      -0.72864781       0.07430322
H        3.15043657       1.58667808      -0.65735942
H        2.76650010      -0.36342315       1.12899149
12
Properties=species:S:1:pos:R:3 relative_energy_eV=1.1497962255780294 branch=left pbc="F F F"
C       -3.66820885      -0.82893514      -0.08366928
O       -2.55667448      -0.38484387      -0.13551601
O        0.35451909       1.15920820      -0.35451845
C        1.43660214       0.35187849      -0.06617072
C        2.69952252       0.73798677      -0.15435198
O        3.60432020      -0.07873833       0.69721177
H       -4.48547194      -0.31556780       0.46018612
H       -3.94717708      -1.78090246      -0.57714025
H       -0.41057134       0.60433272      -0.19405270
H        1.25481163      -0.75416178       0.00732978
H        3.16237980       1.56706799      -0.69960128
H        2.69187346      -0.30775530       1.13982670
12
Properties=species:S:1:pos:R:3 relative_energy_eV=1.211342740103646 branch=left pbc="F F F"
C       -3.67065045      -0.83001273      -0.08355062
O       -2.55478847      -0.38453895      -0.13563757
O        0.37228331       1.15647937      -0.32279557
C        1.44506347       0.34257060      -0.05418312
C        2.70647477       0.73134030      -0.16524031
O        3.58056724      -0.06834202       0.70584449
H       -4.48511628      -0.31543000       0.46021276
H       -3.94695877      -1.78086478      -0.57713905
H       -0.40496467       0.60725181      -0.19238538
H        1.26665117      -0.76297462      -0.02036937
H        3.16699902       1.55935552      -0.71568202
H        2.66036468      -0.28526516       1.14045936
12
Properties=species:S:1:pos:R:3 relative_energy_eV=1.3068271994197858 branch=left pbc="F F F"
C       -3.67057547      -0.83007048      -0.08358096
O       -2.55537769      -0.38515209      -0.13559775
O        0.39620504       1.14116507      -0.28708317
C        1.46003133       0.33218044      -0.02776066
C        2.72539397       0.72421463      -0.17834259
O        3.54429036      -0.05047803       0.70938232
H       -4.48470304      -0.31526755       0.46024392
H       -3.94666618      -1.78078329      -0.57712658
H       -0.39934614       0.61471321      -0.19208508
H        1.27661393      -0.77121893      -0.05197766
H        3.16982174       1.54908210      -0.72983425
H        2.62023703      -0.25881589       1.13329594
12
Properties=species:S:1:pos:R:3 relative_energy_eV=1.3513396570579062 branch=left pbc="F F F"
C       -3.67100097      -0.83025001      -0.08356878
O       -2.55507564      -0.38511577      -0.13560079
O        0.40439115       1.13617632      -0.27861043
C        1.46602660       0.33002817      -0.01813688
C        2.73271692       0.72419571      -0.18283434
O        3.53245581      -0.04524886       0.70923016
H       -4.48456152      -0.31525254       0.46022552
H       -3.94657652      -1.78071857      -0.57710120
H       -0.39958010       0.61624332      -0.19207305
H        1.27810021      -0.77365336      -0.05992719
H        3.16924426       1.54489220      -0.73171924
H        2.60978467      -0.25172744       1.12964970
12
Properties=species:S:1:pos:R:3 relative_energy_eV=1.458883233341112 branch=left pbc="F F F"
C       -3.66872968      -0.82933600      -0.08366615
O       -2.55726684      -0.38606191      -0.13549127
O        0.40232511       1.13510128      -0.27663948
C        1.49138369       0.34019614      -0.02121584
C        2.70813981       0.71921527      -0.18528702
O        3.51826062      -0.05000105       0.72027732
H       -4.48463078      -0.31520178       0.46027825
H       -3.94660055      -1.78082194      -0.57715455
H       -0.39875665       0.61752239      -0.19224695
H        1.27731896      -0.77692576      -0.06168340
H        3.17037861       1.54559806      -0.73355679
H        2.62410255      -0.24971556       1.12591935
12
Properties=species:S:1:pos:R:3 relative_energy_eV=1.781360873075755 branch=left pbc="F F F"
C       -3.67114341      -0.83033690      -0.08360654
O       -2.55498385      -0.38489251      -0.13563108
O        0.41479119       1.12618594      -0.26827708
C        1.47761609       0.30716745       0.02466619
C        2.76990664       0.70546522      -0.16707209
O        3.55588745      -0.01109836       0.66478201
H       -4.48434307      -0.31518555       0.46022590
H       -3.94640191      -1.78060701      -0.57706303
H       -0.40233128       0.62007214      -0.19259488
H        1.27949083      -0.77409645      -0.07501131
H        3.17236667       1.54294254      -0.73443042
H        2.52506949      -0.23604736       1.12354578
12
Properties=species:S:1:pos:R:3 relative_energy_eV=1.9942793066365994 branch=left pbc="F F F"
C       -3.67180469      -0.83061036      -0.08359227
O       -2.55436868      -0.38455038      -0.13567511
O        0.41906411       1.12292818      -0.26523979
C        1.47462371       0.29598454       0.04171220
C        2.78955878       0.70087835      -0.16132589
O        3.57031308       0.00195605       0.64606899
H       -4.48425014      -0.31517641       0.46021202
H       -3.94633507      -1.78054202      -0.57703628
H       -0.40344517       0.62109318      -0.19273384
H        1.28020427      -0.77367962      -0.07998808
H        3.17322178       1.54206488      -0.73487480
H        2.48914284      -0.23077725       1.12200630
12
Properties=species:S:1:pos:R:3 relative_energy_eV=2.2324885781035846 branch=ts pbc="F F F"
C       -3.67193538      -0.83066032      -0.08358792
O       -2.55424655      -0.38450853      -0.13567621
O        0.42010410       1.12207599      -0.26442587
C        1.47520236       0.29256588       0.04746455
C        2.79586757       0.69838500      -0.15830465
O        3.57333127       0.00509647       0.64147154
H       -4.48386462      -0.31515734       0.46010843
H       -3.94606651      -1.78028734      -0.57696146
H       -0.40802972       0.62556789      -0.19272139
H        1.28208267      -0.77410262      -0.09890931
H        3.17112856       1.53959127      -0.73739481
H        2.34642682      -0.19857124       1.09893851
12
Properties=species:S:1:pos:R:3 relative_energy_eV=1.9947099107175745 branch=right pbc="F F F"
C       -3.67206607      -0.83071027      -0.08358357
O       -2.55412442      -0.38446667      -0.13567731
O        0.42114410       1.12122380      -0.26361195
C        1.47578101       0.28914722       0.05321689
C        2.80217636       0.69589165      -0.15528341
O        3.57634946       0.00823688       0.63687410
H       -4.48347909      -0.31513826       0.46000484
H       -3.94579795      -1.78003266      -0.57688663
H       -0.41261427       0.63004260      -0.19270893
H        1.28396107      -0.77452562      -0.11783055
H        3.16903535       1.53711766      -0.73991482
H        2.20371079      -0.16636524       1.07587072
12
Properties=species:S:1:pos:R:3 relative_energy_eV=1.7492293343821075 branch=right pbc="F F F"
C       -3.67200316      -0.83066625      -0.08358289
O       -2.55393517      -0.38445866      -0.13565922
O        0.42228015       1.11997956      -0.26106445
C        1.48178686       0.27499290       0.07282982
C        2.82383905       0.68650817      -0.14357570
O        3.58271700       0.02229693       0.61584166
H       -4.48347148      -0.31513663       0.45999656
H       -3.94579644      -1.78003359      -0.57689424
H       -0.41212912       0.63147338      -0.19260900
H        1.28444976      -0.77485522      -0.12335647
H        3.16817763       1.53718788      -0.74119084
H        2.16816125      -0.15686738       1.06973416
12
Properties=species:S:1:pos:R:3 relative_energy_eV=1.4488461059900146 branch=right pbc="F F F"
C       -3.67182902      -0.83054657      -0.08358154
O       -2.55343332      -0.38443928      -0.13561060
O        0.42537750       1.11662896      -0.25422232
C        1.49788792       0.23716151       0.12536167
C        2.88163236       0.66154898      -0.11242362
O        3.60003717       0.05980872       0.55966776
H       -4.48345210      -0.31513220       0.45997472
H       -3.94579318      -1.78003654      -0.57691469
H       -0.41082546       0.63530193      -0.19233900
H        1.28575211      -0.77579625      -0.13818735
H        3.16587521       1.53735895      -0.74460460
H        2.07284692      -0.13143703       1.05334894
12
Properties=species:S:1:pos:R:3 relative_energy_eV=1.419999329124039 branch=right pbc="F F F"
C       -3.67146269      -0.83036660      -0.08358253
O       -2.55375265      -0.38452933      -0.13559130
O        0.42203519       1.11806581      -0.25494069
C        1.48714751       0.23551489       0.11186091
C        2.87211464       0.66840701      -0.11903153
O        3.60099722       0.04785546       0.57396683
H       -4.48350917      -0.31509986       0.46001063
H       -3.94581116      -1.78012338      -0.57696144
H       -0.41093942       0.63502427      -0.19228962
H        1.28593211      -0.77120091      -0.13651414
H        3.16624376       1.53993475      -0.74542308
H        2.09508088      -0.13306094       1.05896534
12
Properties=species:S:1:pos:R:3 relative_energy_eV=1.4063502346634777 branch=right pbc="F F F"
C       -3.67148729      -0.83036982      -0.08358404
O       -2.55355317      -0.38446911      -0.13557671
O        0.42138191       1.11745640      -0.25347750
C        1.48686290       0.23395468       0.11410874
C        2.87615954       0.66458677      -0.11524876
O        3.60497841       0.04884277       0.57052241
H       -4.48354414      -0.31508401       0.46002394
H       -3.94582662      -1.78015158      -0.57697961
H       -0.41196238       0.63541344      -0.19216746
H        1.28489428      -0.77324206      -0.14083321
H        3.16609392       1.54178545      -0.74636735
H        2.09007889      -0.12830175       1.06004893
12
Properties=species:S:1:pos:R:3 relative_energy_eV=1.3689408378850203 branch=right pbc="F F F"
C       -3.67112689      -0.83019999      -0.08361034
O       -2.55322380      -0.38439942      -0.13548028
O        0.41753452       1.11643340      -0.24740778
C        1.48528377       0.22509120       0.11960444
C        2.89000030       0.65408305      -0.10526329
O        3.61964498       0.04719456       0.56147550
H       -4.48366047      -0.31501942       0.46006304
H       -3.94586530      -1.78023390      -0.57704783
H       -0.41813869       0.63621726      -0.19142934
H        1.27999697      -0.77955608      -0.15993106
H        3.16464053       1.54801062      -0.74775127
H        2.07899051      -0.10720000       1.06724764
12
Properties=species:S:1:pos:R:3 relative_energy_eV=1.3258035756134632 branch=right pbc="F F F"
C       -3.67135770      -0.83026042      -0.08360427
O       -2.55235341      -0.38411187      -0.13537067
O        0.41175770       1.11452171      -0.23900998
C        1.48504226       0.21620275       0.12213946
C        2.90122005       0.64356053      -0.09786616
O        3.63582563       0.03979065       0.55383567
H       -4.48369329      -0.31498325       0.46004092
H       -3.94585752      -1.78021058      -0.57708398
H       -0.42676885       0.63694242      -0.19025622
H        1.27321140      -0.78609192      -0.18556860
H        3.16265186       1.55464081      -0.74640966
H        2.07439861      -0.07957941       1.07962296
12
Properties=species:S:1:pos:R:3 relative_energy_eV=1.242571152131859 branch=right pbc="F F F"
C       -3.66950502      -0.82946677      -0.08368491
O       -2.55306867      -0.38449867      -0.13501818
O        0.40197490       1.10947633      -0.21955567
C        1.48546439       0.19755599       0.12400013
C        2.91899650       0.62595879      -0.09047549
O        3.66593827       0.01833688       0.53779327
H       -4.48377039      -0.31488716       0.45998530
H       -3.94583928      -1.78015348      -0.57717733
H       -0.44547051       0.63714705      -0.18698078
H        1.25993776      -0.79391521      -0.23995658
H        3.15817929       1.56487605      -0.73738044
H        2.07124032      -0.02000799       1.10892023
12
Properties=species:S:1:pos:R:3 relative_energy_eV=1.1628347177229443 branch=right pbc="F F F"
C       -3.67271236      -0.83072533      -0.08351363
O       -2.54981496      -0.38322643      -0.13491903
O        0.39661758       1.10279784      -0.20142338
C        1.48815084       0.18745204       0.12221158
C        2.92391119       0.61601260      -0.09333352
O        3.68449185      -0.00543505       0.52228233
H       -4.48349041      -0.31497707       0.45971090
H       -3.94569897      -1.77971597      -0.57708085
H       -0.45737794       0.63656851      -0.18313761
H        1.25185703      -0.79390626      -0.28138195
H        3.15463689       1.56786745      -0.72213698
H        2.07350756       0.02770986       1.13319177
12
Properties=species:S:1:pos:R:3 relative_energy_eV=1.0362086229142733 branch=right pbc="F F F"
C       -3.66662477      -0.82830611      -0.08373366
O       -2.55612158      -0.38565046      -0.13441577
O        0.39831280       1.09393768      -0.17817092
C        1.49394099       0.18223077       0.12049871
C        2.91990975       0.61190382      -0.10905860
O        3.69367093      -0.03750164       0.49608413
H       -4.48365252      -0.31485722       0.45963617
H       -3.94578703      -1.77969328      -0.57721756
H       -0.46298865       0.63378808      -0.17658999
H        1.25106015      -0.78230126      -0.31658755
H        3.15060684       1.56179729      -0.69365684
H        2.07175234       0.07507510       1.15368159
12
Properties=species:S:1:pos:R:3 relative_energy_eV=0.8680084978041123 branch=right pbc="F F F"
C       -3.67728162      -0.83257768      -0.08314021
O       -2.54801727      -0.38213790      -0.13463626
O        0.41164567       1.08400939      -0.14651411
C        1.50257312       0.18713220       0.12222307
C        2.90340380       0.61358804      -0.14257657
O        3.68881674      -0.08213435       0.44893835
H       -4.48309786      -0.31518883       0.45900725
H       -3.94569150      -1.77878673      -0.57694295
H       -0.45349378       0.62730162      -0.16485034
H        1.26505266      -0.75386557      -0.33851452
H        3.14613992       1.54482907      -0.64719622
H        2.05403056       0.11825435       1.16467233
12
Properties=species:S:1:pos:R:3 relative_energy_eV=0.7022361440267559 branch=right pbc="F F F"
C       -3.66945953      -0.82942967      -0.08342645
O       -2.55665507      -0.38533044      -0.13422007
O        0.42578499       1.08136266      -0.11937876
C        1.50649995       0.19876443       0.12934333
C        2.88853602       0.60395487      -0.16463996
O        3.68451560      -0.11887271       0.39857003
H       -4.48397863      -0.31488595       0.45923031
H       -3.94622689      -1.77940448      -0.57735077
H       -0.43332037       0.62076772      -0.15266252
H        1.28465425      -0.73188962      -0.34640103
H        3.14499421       1.54117605      -0.61486861
H        2.01873686       0.14421148       1.16627442
12
Properties=species:S:1:pos:R:3 relative_energy_eV=0.4819882536503428 branch=right pbc="F F F"
C       -3.66855464      -0.82896764      -0.08343195
O       -2.55861653      -0.38584060      -0.13411071
O        0.44457182       1.08750204      -0.07911855
C        1.50561886       0.21270346       0.14171412
C        2.87684019       0.58090345      -0.18482258
O        3.68835167      -0.17420072       0.31535888
H       -4.48496993      -0.31469554       0.45934475
H       -3.94690910      -1.77989629      -0.57770119
H       -0.40063540       0.61002908      -0.13303187
H        1.31406532      -0.70892100      -0.35741991
H        3.14495134       1.55053231      -0.57751020
H        1.94936913       0.18127693       1.17119934
12
Properties=species:S:1:pos:R:3 relative_energy_eV=0.2749895520755672 branch=right pbc="F F F"
C       -3.66870412      -0.82885484      -0.08349188
O       -2.55853988      -0.38567967      -0.13422938
O        0.45598666       1.10933595      -0.04881965
C        1.50191875       0.22856690       0.15281401
C        2.87993208       0.56505538      -0.19513628
O        3.69374610      -0.22220630       0.22780110
H       -4.48612981      -0.31451904       0.45958819
H       -3.94766355      -1.78052813      -0.57802933
H       -0.36163398       0.60054798      -0.11365639
H        1.34352440      -0.70114179      -0.35140671
H        3.14552544       1.56561776      -0.55302380
H        1.86612178       0.19423227       1.17806040
12
Properties=species:S:1:pos:R:3 relative_energy_eV=0.10072736003530736 branch=right pbc="F F F"
C       -3.66990897      -0.82911913      -0.08357066
O       -2.55684564      -0.38503792      -0.13445452
O        0.46359466       1.13970768      -0.02687428
C        1.50226666       0.24396257       0.15561800
C        2.88952354       0.55854762      -0.19916365
O        3.70136971      -0.26667264       0.13855636
H       -4.48696160      -0.31450439       0.45969013
H       -3.94825960      -1.78082991      -0.57815549
H       -0.32865148       0.59269142      -0.09634063
H        1.36780654      -0.70274832      -0.33739753
H        3.14682578       1.58146065      -0.53588303
H        1.78332524       0.19296976       1.19844576
12
Properties=species:S:1:pos:R:3 relative_energy_eV=-0.05271049190196209 branch=right pbc="F F F"
C       -3.67096044      -0.82928657      -0.08376871
O       -2.55432087      -0.38437540      -0.13479031
O        0.46762160       1.17914002      -0.02541471
C        1.50833464       0.26276666       0.16026472
C        2.90411349       0.56699424      -0.19482007
O        3.70402621      -0.29801660       0.04728444
H       -4.48734499      -0.31472473       0.45962373
H       -3.94868361      -1.78071625      -0.57798383
H       -0.29396189       0.59144135      -0.08205146
H        1.38782294      -0.71422672      -0.29565502
H        3.15247566       1.59939333      -0.53339510
H        1.69496265       0.15203875       1.22117691
12
Properties=species:S:1:pos:R:3 relative_energy_eV=-0.1290493524102203 branch=right pbc="F F F"
C       -3.67118305      -0.82925629      -0.08397724
O       -2.55204750      -0.38403542      -0.13489069
O        0.47280573       1.20026120      -0.03905399
C        1.51415685       0.27050668       0.17092498
C        2.91584717       0.58184561      -0.18331768
O        3.70914866      -0.30943051      -0.01412578
H       -4.48686055      -0.31507586       0.45926558
H       -3.94864569      -1.78000981      -0.57756198
H       -0.28227598       0.59912115      -0.07620453
H        1.38981791      -0.72572397      -0.26342442
H        3.15965442       1.61113943      -0.53927422
H        1.64366764       0.11108621       1.24211063
12
Properties=species:S:1:pos:R:3 relative_energy_eV=-0.19255471763062815 branch=right pbc="F F F"
C       -3.67041961      -0.82894264      -0.08416141
O       -2.55000996      -0.38396468      -0.13470967
O        0.48024905       1.20374030      -0.05625207
C        1.51978734       0.26529251       0.19065266
C        2.92690332       0.59328497      -0.17159495
O        3.72187455      -0.31165446      -0.06807213
H       -4.48570120      -0.31537006       0.45868862
H       -3.94821651      -1.77890792      -0.57707407
H       -0.28652634       0.61584719      -0.07414953
H        1.37979661      -0.73249988      -0.24809573
H        3.16675470       1.61868388      -0.54276109
H        1.60959389       0.08491951       1.26800011
12
Properties=species:S:1:pos:R:3 relative_energy_eV=-0.26561991703238164 branch=right pbc="F F F"
C       -3.66828978      -0.82825202      -0.08433462
O       -2.54736015      -0.38406546      -0.13417619
O        0.49757802       1.19106019      -0.08490684
C        1.52499841       0.25009756       0.22309541
C        2.93613435       0.60159949      -0.16028309
O        3.74296963      -0.29730149      -0.12712743
H       -4.48343695      -0.31542126       0.45784514
H       -3.94709293      -1.77725647      -0.57654737
H       -0.30763639       0.64750317      -0.07657394
H        1.35638691      -0.73660018      -0.23656790
H        3.17552160       1.62296012      -0.54517820
H        1.58431329       0.05610532       1.30522585
12
Properties=species:S:1:pos:R:3 relative_energy_eV=-0.30232789484034583 branch=right pbc="F F F"
C       -3.66627472      -0.82768018      -0.08432209
O       -2.54578178      -0.38412260      -0.13359069
O        0.51269812       1.17299374      -0.09489694
C        1.52561368       0.23826681       0.24349121
C        2.93317426       0.59754268      -0.16333562
O        3.75961653      -0.29128311      -0.17021068
H       -4.48173882      -0.31488164       0.45743803
H       -3.94597553      -1.77641651      -0.57658969
H       -0.31985471       0.67267333      -0.07753317
H        1.34353608      -0.73168863      -0.23739442
H        3.17693297       1.62208906      -0.53381760
H        1.57214029       0.05293630       1.33123254
12
Properties=species:S:1:pos:R:3 relative_energy_eV=-0.3192357463267399 branch=right pbc="F F F"
C       -3.66388241      -0.82703489      -0.08421492
O       -2.54513946      -0.38424126      -0.13301052
O        0.52413458       1.15823602      -0.10655150
C        1.52200388       0.22717025       0.25436520
C        2.92552802       0.58896821      -0.17368949
O        3.76553968      -0.26783360      -0.17459434
H       -4.48026639      -0.31386995       0.45743147
H       -3.94465300      -1.77619229      -0.57702252
H       -0.32796165       0.69379572      -0.08261039
H        1.33554790      -0.72906969      -0.23021296
H        3.17268811       1.61646311      -0.52703680
H        1.58054701       0.04403758       1.33761766
12
Properties=species:S:1:pos:R:3 relative_energy_eV=-0.3335259371870052 branch=right pbc="F F F"
C       -3.66258780      -0.82668273      -0.08409458
O       -2.54432896      -0.38405998      -0.13252772
O        0.53344309       1.15823674      -0.10028190
C        1.52042823       0.22419471       0.25909234
C        2.91693726       0.57996709      -0.18434160
O        3.77347642      -0.27676238      -0.20827270
H       -4.47934857      -0.31291385       0.45749500
H       -3.94363967      -1.77615480      -0.57752311
H       -0.32104535       0.70461199      -0.07924168
H        1.34015494      -0.72716018      -0.22823887
H        3.16468164       1.61628544      -0.50847402
H        1.56591551       0.05086751       1.34687979
12
Properties=species:S:1:pos:R:3 relative_energy_eV=-0.34604255767408176 branch=right pbc="F F F"
C       -3.66185109      -0.82647661      -0.08399143
O       -2.54360830      -0.38379482      -0.13215326
O        0.53724737       1.16591576      -0.09832871
C        1.51965164       0.22223122       0.25819476
C        2.91381847       0.57509744      -0.19030952
O        3.77537040      -0.27717804      -0.21728691
H       -4.47852763      -0.31211476       0.45760409
H       -3.94261606      -1.77611927      -0.57792506
H       -0.31486732       0.71018676      -0.07851199
H        1.34367945      -0.73441424      -0.22259385
H        3.15404091       1.61612761      -0.49991789
H        1.56174901       0.05096860       1.34569072
12
Properties=species:S:1:pos:R:3 relative_energy_eV=-0.3740525216799142 branch=right pbc="F F F"
C       -3.65855544      -0.82549859      -0.08364221
O       -2.53994196      -0.38273308      -0.13048843
O        0.55634300       1.18598612      -0.09985620
C        1.51752474       0.20834071       0.25686273
C        2.90521758       0.56055941      -0.20511419
O        3.78724921      -0.26771258      -0.24639100
H       -4.47442502      -0.30916057       0.45768982
H       -3.93802574      -1.77520310      -0.57918107
H       -0.30320312       0.74047229      -0.08017445
H        1.34461246      -0.76705386      -0.20140661
H        3.11183668       1.61590196      -0.47354074
H        1.55545475       0.04653118       1.34571334
12
Properties=species:S:1:pos:R:3 relative_energy_eV=-0.38680037860285665 branch=right pbc="F F F"
C       -3.65623111      -0.82471347      -0.08347430
O       -2.53721615      -0.38204278      -0.12935456
O        0.56685451       1.18903461      -0.10413444
C        1.51711505       0.19504137       0.25497792
C        2.90240328       0.55540936      -0.20755757
O        3.79662935      -0.25698162      -0.25605943
H       -4.47145795      -0.30757154       0.45751184
H       -3.93486516      -1.77409258      -0.57968893
H       -0.30053470       0.76384185      -0.08409463
H        1.33701652      -0.78835962      -0.19066313
H        3.08476804       1.61654886      -0.46258930
H        1.55960552       0.04431550       1.34559752
12
Properties=species:S:1:pos:R:3 relative_energy_eV=-0.4009557206827594 branch=right pbc="F F F"
C       -3.65225338      -0.82322942      -0.08328437
O       -2.53261045      -0.38094317      -0.12758852
O        0.58571936       1.18435808      -0.11264243
C        1.51675758       0.17229952       0.25154991
C        2.89958843       0.55114824      -0.20497880
O        3.81190105      -0.23874451      -0.26550802
H       -4.46678325      -0.30553088       0.45701083
H       -3.92992649      -1.77187987      -0.58014216
H       -0.30245470       0.80005610      -0.09172551
H        1.31832429      -0.81820579      -0.17659193
H        3.04481365       1.61953411      -0.45099135
H        1.57101114       0.04156748       1.34536335
12
Properties=species:S:1:pos:R:3 relative_energy_eV=-0.405282676594652 branch=right pbc="F F F"
C       -3.65055392      -0.82245175      -0.08326426
O       -2.53070389      -0.38043835      -0.12700428
O        0.59000609       1.17609487      -0.11565008
C        1.51729281       0.16468875       0.24874480
C        2.89976018       0.55224447      -0.20021465
O        3.81546720      -0.23238931      -0.26112766
H       -4.46526718      -0.30518713       0.45669964
H       -3.92820340      -1.77076581      -0.58004427
H       -0.30224247       0.81043710      -0.09498966
H        1.30822299      -0.82543906      -0.17316669
H        3.03212618       1.62241737      -0.45154173
H        1.57818255       0.04121866       1.34202983
12
Properties=species:S:1:pos:R:3 relative_energy_eV=-0.4068780324214458 branch=right pbc="F F F"
C       -3.64926785      -0.82181536      -0.08326500
O       -2.52944479      -0.38004546      -0.12671236
O        0.59428791       1.17097471      -0.11712362
C        1.51775689       0.16214887       0.24911044
C        2.89973856       0.55288358      -0.19781527
O        3.81656899      -0.23146225      -0.26278231
H       -4.46458441      -0.30515731       0.45647523
H       -3.92731055      -1.77003271      -0.57990226
H       -0.30193826       0.81254533      -0.09535715
H        1.30273851      -0.82528339      -0.17137672
H        3.02788280       1.62536454      -0.45213715
H        1.57765934       0.04030926       1.34135718
12
Properties=species:S:1:pos:R:3 relative_energy_eV=-0.4076918301761907 branch=right pbc="F F F"
C       -3.64847399      -0.82135212      -0.08326266
O       -2.52867586      -0.37966693      -0.12660882
O        0.59445586       1.16910128      -0.11700299
C        1.51847227       0.16322335       0.24902597
C        2.90020697       0.55364124      -0.19669315
O        3.81470780      -0.23317207      -0.26159555
H       -4.46441082      -0.30529855       0.45633265
H       -3.92687699      -1.76956426      -0.57975234
H       -0.29948606       0.80818544      -0.09432343
H        1.30064047      -0.82242680      -0.17176281
H        3.02790721       1.62743764      -0.45384500
H        1.57562025       0.04032158       1.33995915
12
Properties=species:S:1:pos:R:3 relative_energy_eV=-0.40845648855793115 branch=right pbc="F F F"
C       -3.64707514      -0.82063388      -0.08321199
O       -2.52729322      -0.37900056      -0.12629662
O        0.59612633       1.16898747      -0.11756283
C        1.51913191       0.16356326       0.24968467
C        2.89986836       0.55337173      -0.19685214
O        3.81343259      -0.23445313      -0.26357067
H       -4.46371267      -0.30517729       0.45613715
H       -3.92578785      -1.76882080      -0.57968375
H       -0.29632622       0.80374835      -0.09274884
H        1.29790106      -0.82054202      -0.17169219
H        3.02578387       1.62922312      -0.45365204
H        1.57203814       0.04016358       1.33992027
12
Properties=species:S:1:pos:R:3 relative_energy_eV=-0.40925551149848616 branch=right pbc="F F F"
C       -3.64491185      -0.81957467      -0.08310181
O       -2.52513253      -0.37792390      -0.12570582
O        0.59768101       1.16964594      -0.11907015
C        1.51939800       0.16332262       0.25029322
C        2.89872170       0.55271023      -0.19770111
O        3.81228091      -0.23442050      -0.26570548
H       -4.46228878      -0.30472999       0.45586560
H       -3.92377640      -1.76767295      -0.57970006
H       -0.29204541       0.79847048      -0.09089852
H        1.29382629      -0.81951154      -0.17182620
H        3.02150577       1.63007680      -0.45248587
H        1.56882843       0.04003736       1.34050723
12
Properties=species:S:1:pos:R:3 relative_energy_eV=-0.40989422847087553 branch=right pbc="F F F"
C       -3.64238992      -0.81839663      -0.08295689
O       -2.52263116      -0.37667716      -0.12490448
O        0.59901938       1.17002404      -0.12147106
C        1.51876672       0.16185260       0.25081244
C        2.89687826       0.55184344      -0.19861178
O        3.81246310      -0.23233285      -0.26795355
H       -4.46027087      -0.30393839       0.45558603
H       -3.92111951      -1.76635199      -0.57984214
H       -0.28879154       0.79505457      -0.08963419
H        1.28894250      -0.82005667      -0.17191996
H        3.01575300       1.62959080      -0.45055421
H        1.56746719       0.03981812       1.34192084
12
Properties=species:S:1:pos:R:3 relative_energy_eV=-0.41033041754599253 branch=right pbc="F F F"
C       -3.64014301      -0.81737518      -0.08282161
O       -2.52040846      -0.37554455      -0.12409663
O        0.59914140       1.16959003      -0.12368300
C        1.51741638       0.16007340       0.25089569
C        2.89511685       0.55124172      -0.19893317
O        3.81350808      -0.22931151      -0.26884451
H       -4.45818835      -0.30300624       0.45538050
H       -3.91846814      -1.76518989      -0.58007150
H       -0.28768871       0.79337609      -0.08921066
H        1.28480552      -0.82133728      -0.17216628
H        3.01085745       1.62825540      -0.44913652
H        1.56813815       0.03965791       1.34315873
12
Properties=species:S:1:pos:R:3 relative_energy_eV=-0.41066405909805326 branch=right pbc="F F F"
C       -3.63816815      -0.81648454      -0.08270529
O       -2.51845988      -0.37452510      -0.12332168
O        0.59813359       1.16851727      -0.12511437
C        1.51582088       0.15860143       0.25066343
C        2.89374786       0.55088680      -0.19871814
O        3.81477244      -0.22654828      -0.26879446
H       -4.45618182      -0.30201408       0.45524956
H       -3.91593158      -1.76419928      -0.58035547
H       -0.28844103       0.79237377      -0.08926818
H        1.28192725      -0.82259971      -0.17239286
H        3.00744561       1.62691881      -0.44853986
H        1.56942198       0.03950282       1.34376837
12
Properties=species:S:1:pos:R:3 relative_energy_eV=-0.4111438610507321 branch=right pbc="F F F"
C       -3.63512490      -0.81509697      -0.08253452
O       -2.51545296      -0.37293411      -0.12211007
O        0.59555931       1.16650459      -0.12622027
C        1.51350268       0.15703155       0.25011370
C        2.89208970       0.55052172      -0.19817697
O        3.81623582      -0.22334119      -0.26827136
H       -4.45307700      -0.30041320       0.45509096
H       -3.91195173      -1.76271043      -0.58083309
H       -0.29081699       0.79029167      -0.08941480
H        1.27885259      -0.82406425      -0.17255839
H        3.00360087       1.62545541      -0.44843167
H        1.57066973       0.03918510       1.34381753
12
Properties=species:S:1:pos:R:3 relative_energy_eV=-0.41202608662933926 branch=right pbc="F F F"
C       -3.62884887      -0.81220313      -0.08219180
O       -2.50924506      -0.36966777      -0.11966234
O        0.58974598       1.16248749      -0.12702635
C        1.50949925       0.15484490       0.24903188
C        2.88922061       0.54995313      -0.19742610
O        3.81789176      -0.21877886      -0.26756310
H       -4.44687677      -0.29720162       0.45477662
H       -3.90388895      -1.75967015      -0.58178539
H       -0.29605481       0.78488061      -0.08939914
H        1.27434476      -0.82626970      -0.17244028
H        2.99723884       1.62372255      -0.44881043
H        1.57106032       0.03833246       1.34296748
12
Properties=species:S:1:pos:R:3 relative_energy_eV=-0.4135579421672446 branch=right pbc="F F F"
C       -3.61664951      -0.80653785      -0.08153141
O       -2.49717767      -0.36339751      -0.11503110
O        0.57860944       1.15521581      -0.12696873
C        1.50301674       0.15168952       0.24721767
C        2.88408720       0.54914487      -0.19698587
O        3.81887746      -0.21258007      -0.26723855
H       -4.43525260      -0.29125016       0.45412382
H       -3.88862019      -1.75375849      -0.58350638
H       -0.30574122       0.77324173      -0.08883732
H        1.26781777      -0.82981056      -0.17152579
H        2.98641600       1.62215241      -0.44982768
H        1.56870354       0.03632026       1.34058241
12
Properties=species:S:1:pos:R:3 relative_energy_eV=-0.415692161566767 branch=right pbc="F F F"
C       -3.59795994      -0.79782328      -0.08051950
O       -2.47872410      -0.35397291      -0.10813632
O        0.56242865       1.14480583      -0.12533256
C        1.49467364       0.14765024       0.24495192
C        2.87632018       0.54844371      -0.19790805
O        3.81737997      -0.20595070      -0.26824300
H       -4.41807644      -0.28264936       0.45300228
H       -3.86591608      -1.74463858      -0.58589422
H       -0.31949121       0.75498804      -0.08746221
H        1.26045487      -0.83500763      -0.16929695
H        2.97128527       1.62191866      -0.45137385
H        1.56171208       0.03266605       1.33668353
12
Properties=species:S:1:pos:R:3 relative_energy_eV=-0.41799526040631463 branch=right pbc="F F F"
C       -3.57908658      -0.78900114      -0.07948913
O       -2.46015879      -0.34475047      -0.10141349
O        0.54755655       1.13492405      -0.12237447
C        1.48781086       0.14380727       0.24333729
C        2.86802708       0.54858504      -0.20077258
O        3.81228964      -0.20193410      -0.27086547
H       -4.40145516      -0.27466555       0.45165308
H       -3.84387884      -1.73526428      -0.58794464
H       -0.33202818       0.73736543      -0.08579445
H        1.25605294      -0.84088808      -0.16616802
H        2.95729550       1.62410493      -0.45278718
H        1.55166177       0.02814710       1.33309015
12
Properties=species:S:1:pos:R:3 relative_energy_eV=-0.4204477798230073 branch=right pbc="F F F"
C       -3.56478838      -0.78230238      -0.07868694
O       -2.44613409      -0.33817521      -0.09659486
O        0.53842039       1.12787346      -0.11919049
C        1.48405899       0.14048358       0.24306076
C        2.86054632       0.55002218      -0.20515610
O        3.80395581      -0.20144699      -0.27437899
H       -4.38968493      -0.26955370       0.45028392
H       -3.82829638      -1.72783992      -0.58899198
H       -0.33981474       0.72605397      -0.08449345
H        1.25630999      -0.84687600      -0.16310228
H        2.94795781       1.62859801      -0.45378426
H        1.54155595       0.02359333       1.33150577
12
Properties=species:S:1:pos:R:3 relative_energy_eV=-0.4225428331974399 branch=right pbc="F F F"
C       -3.55638615      -0.77835758      -0.07817857
O       -2.43780566      -0.33471102      -0.09399054
O        0.53535417       1.12378728      -0.11777468
C        1.48231778       0.13728639       0.24404073
C        2.85416471       0.55252823      -0.20922127
O        3.79487511      -0.20231296      -0.27667249
H       -4.38348731      -0.26751405       0.44906725
H       -3.82022678      -1.72306564      -0.58907533
H       -0.34261025       0.72191023      -0.08398819
H        1.25922161      -0.85239323      -0.16182680
H        2.94331547       1.63336219      -0.45474521
H        1.53535402       0.01991059       1.33283620
12
Properties=species:S:1:pos:R:3 relative_energy_eV=-0.42396657311110175 branch=right pbc="F F F"
C       -3.54922373      -0.77502210      -0.07773015
O       -2.43059304      -0.33176422      -0.09168410
O        0.53284490       1.11977608      -0.11869581
C        1.47925243       0.13340947       0.24514190
C        2.84767124       0.55501940      -0.21132499
O        3.78784073      -0.20085831      -0.27650210
H       -4.37804842      -0.26574514       0.44797347
H       -3.81331586      -1.71894330      -0.58915746
H       -0.34505276       0.71913156      -0.08404577
H        1.26058711      -0.85774270      -0.16264829
H        2.93860266       1.63619535      -0.45639838
H        1.53352143       0.01697438       1.33554277
12
Properties=species:S:1:pos:R:3 relative_energy_eV=-0.4247692182598257 branch=right pbc="F F F"
C       -3.54386064      -0.77257313      -0.07739879
O       -2.42518245      -0.32952837      -0.08977606
O        0.53045740       1.11626446      -0.12084309
C        1.47554933       0.12997996       0.24592975
C        2.84245216       0.55667930      -0.21117620
O        3.78407128      -0.19790220      -0.27459371
H       -4.37360912      -0.26407677       0.44722249
H       -3.80781840      -1.71593807      -0.58940131
H       -0.34753164       0.71752516      -0.08450682
H        1.26081983      -0.86187578      -0.16459874
H        2.93400835       1.63688600      -0.45851812
H        1.53473052       0.01498993       1.33813168
12
Properties=species:S:1:pos:R:3 relative_energy_eV=-0.42507530129296356 branch=right pbc="F F F"
C       -3.54214277      -0.77183399      -0.07729741
O       -2.42342851      -0.32883130      -0.08897479
O        0.52940047       1.11484053      -0.12231274
C        1.47359810       0.12875905       0.24629287
C        2.84062665       0.55702746      -0.20981740
O        3.78352947      -0.19612020      -0.27294342
H       -4.37187052      -0.26322886       0.44703168
H       -3.80579202      -1.71503517      -0.58964602
H       -0.34877925       0.71734908      -0.08485445
H        1.26119915      -0.86302381      -0.16613004
H        2.93161551       1.63620638      -0.46007992
H        1.53613029       0.01432129       1.33920274
12
Properties=species:S:1:pos:R:3 relative_energy_eV=-0.42532718931943236 branch=right pbc="F F F"
C       -3.54102335      -0.77139314      -0.07723497
O       -2.42226435      -0.32843802      -0.08825732
O        0.52868838       1.11389044      -0.12344658
C        1.47227624       0.12822144       0.24678303
C        2.83957821       0.55694852      -0.20809522
O        3.78334477      -0.19504232      -0.27185557
H       -4.37047780      -0.26237063       0.44695571
H       -3.80425179      -1.71451213      -0.58997443
H       -0.34972766       0.71737782      -0.08499437
H        1.26241353      -0.86321009      -0.16757239
H        2.92907924       1.63523619      -0.46171199
H        1.53645110       0.01372235       1.33987517
12
Properties=species:S:1:pos:R:3 relative_energy_eV=-0.42562277129036374 branch=right pbc="F F F"
C       -3.53955499      -0.77083191      -0.07714774
O       -2.42071650      -0.32803257      -0.08721423
O        0.52817034       1.11294154      -0.12450480
C        1.47128712       0.12793546       0.24772610
C        2.83849834       0.55660577      -0.20600121
O        3.78261147      -0.19453532      -0.27150514
H       -4.36862003      -0.26113616       0.44685894
H       -3.80222433      -1.71384860      -0.59047560
H       -0.35059514       0.71746933      -0.08484077
H        1.26510968      -0.86288636      -0.16924550
H        2.92509588       1.63405636      -0.46380354
H        1.53502467       0.01269289       1.34062457
12
Properties=species:S:1:pos:R:3 relative_energy_eV=-0.4258248517744505 branch=right pbc="F F F"
C       -3.53811225      -0.77027223      -0.07704882
O       -2.41917729      -0.32774456      -0.08620399
O        0.52816943       1.11237548      -0.12497520
C        1.47120774       0.12789959       0.24877104
C        2.83768806       0.55619926      -0.20478420
O        3.78133238      -0.19490392      -0.27240338
H       -4.36696659      -0.26002270       0.44672530
H       -3.80040151      -1.71316966      -0.59092793
H       -0.35092897       0.71759242      -0.08435765
H        1.26813493      -0.86235012      -0.17028734
H        2.92107857       1.63331077      -0.46527511
H        1.53206198       0.01151610       1.34123835
12
Properties=species:S:1:pos:R:3 relative_energy_eV=-0.4258854666004481 branch=right pbc="F F F"
C       -3.53744714      -0.77000619      -0.07698723
O       -2.41843978      -0.32772432      -0.08575225
O        0.52849766       1.11235421      -0.12486557
C        1.47172059       0.12795295       0.24924602
C        2.83745521       0.55601270      -0.20490707
O        3.78047188      -0.19549524      -0.27353359
H       -4.36637734      -0.25962504       0.44661430
H       -3.79973567      -1.71281372      -0.59108632
H       -0.35076150       0.71774992      -0.08392207
H        1.26945649      -0.86208768      -0.17032793
H        2.91926891       1.63324749      -0.46546553
H        1.52997720       0.01086537       1.34145832
12
Properties=species:S:1:pos:R:3 relative_energy_eV=-0.4258978341767943 branch=right pbc="F F F"
C       -3.53732468      -0.76995712      -0.07696055
O       -2.41826785      -0.32783530      -0.08564485
O        0.52869119       1.11246739      -0.12472832
C        1.47203043       0.12795651       0.24927563
C        2.83747488       0.55598742      -0.20528248
O        3.78028001      -0.19570739      -0.27396037
H       -4.36638152      -0.25961918       0.44654661
H       -3.79974135      -1.71270606      -0.59108995
H       -0.35062216       0.71790131      -0.08371590
H        1.26949599      -0.86207601      -0.17015615
H        2.91898633       1.63334554      -0.46527337
H        1.52946524       0.01067336       1.34146079
12
Properties=species:S:1:pos:R:3 relative_energy_eV=-0.42590345202188473 branch=right pbc="F F F"
C       -3.53726342      -0.76994042      -0.07693260
O       -2.41813668      -0.32801147      -0.08552268
O        0.52878226       1.11256373      -0.12465378
C        1.47218345       0.12794149       0.24921870
C        2.83750072       0.55598021      -0.20555749
O        3.78025884      -0.19576558      -0.27405548
H       -4.36643450      -0.25962986       0.44646778
H       -3.79982811      -1.71261382      -0.59109501
H       -0.35058024       0.71807599      -0.08352126
H        1.26934932      -0.86207736      -0.17010742
H        2.91887849       1.63338545      -0.46519089
H        1.52937638       0.01052211       1.34142121
12
Properties=species:S:1:pos:R:3 relative_energy_eV=-0.4259239117745892 branch=right pbc="F F F"
C       -3.53709806      -0.76991293      -0.07685232
O       -2.41775136      -0.32856071      -0.08508989
O        0.52888220       1.11277265      -0.12453135
C        1.47237410       0.12791232       0.24903673
C        2.83752763       0.55595553      -0.20603670
O        3.78030911      -0.19579868      -0.27393111
H       -4.36651656      -0.25958627       0.44623526
H       -3.80004906      -1.71235451      -0.59115388
H       -0.35060701       0.71854371      -0.08295549
H        1.26900543      -0.86200596      -0.17024786
H        2.91858971       1.63337381      -0.46527972
H        1.52942040       0.01009152       1.34127741
12
Properties=species:S:1:pos:R:3 relative_energy_eV=-0.42595180504031305 branch=right pbc="F F F"
C       -3.53674872      -0.76988117      -0.07668342
O       -2.41691364      -0.32977830      -0.08403415
O        0.52889920       1.11314543      -0.12432069
C        1.47249134       0.12789956       0.24864952
C        2.83752349       0.55590226      -0.20666063
O        3.78047059      -0.19577554      -0.27322987
H       -4.36655910      -0.25936339       0.44573475
H       -3.80045559      -1.71181595      -0.59135558
H       -0.35081538       0.71943516      -0.08170097
H        1.26847259      -0.86172554      -0.17091398
H        2.91800885       1.63321819      -0.46592500
H        1.52971291       0.00916979       1.34091111
12
Properties=species:S:1:pos:R:3 relative_energy_eV=-0.42601406478934223 branch=right pbc="F F F"
C       -3.53606287      -0.76987391      -0.07634417
O       -2.41520267      -0.33235706      -0.08165516
O        0.52872765       1.11385253      -0.12386765
C        1.47239750       0.12794614       0.24786726
C        2.83743734       0.55579841      -0.20746301
O        3.78082388      -0.19565442      -0.27133464
H       -4.36644854      -0.25870036       0.44470425
H       -3.80122067      -1.71075881      -0.59189644
H       -0.35137017       0.72111559      -0.07900372
H        1.26764747      -0.86098129      -0.17274609
H        2.91694875       1.63277299      -0.46784968
H        1.53040890       0.00727069       1.34006013
12
Properties=species:S:1:pos:R:3 relative_energy_eV=-0.42612187023587467 branch=right pbc="F F F"
C       -3.53494238      -0.76995323      -0.07578613
O       -2.41234597      -0.33682171      -0.07730362
O        0.52822730       1.11500680      -0.12295346
C        1.47187174       0.12809620       0.24655945
C        2.83718868       0.55565136      -0.20830780
O        3.78137345      -0.19536922      -0.26771682
H       -4.36594278      -0.25725013       0.44296539
H       -3.80240158      -1.70906169      -0.59301489
H       -0.35238613       0.72373187      -0.07421692
H        1.26653630      -0.85955892      -0.17638935
H        2.91542326       1.63190827      -0.47183753
H        1.53148471       0.00405094       1.33847277
12
Properties=species:S:1:pos:R:3 relative_energy_eV=-0.42628300994510937 branch=right pbc="F F F"
C       -3.53326231      -0.77020197      -0.07495398
O       -2.40804142      -0.34378461      -0.07015409
O        0.52732890       1.11675522      -0.12123980
C        1.47071582       0.12832751       0.24459765
C        2.83665330       0.55547777      -0.20914813
O        3.78208976      -0.19478619      -0.26201397
H       -4.36466482      -0.25452454       0.44031798
H       -3.80400996      -1.70660534      -0.59503980
H       -0.35389666       0.72750086      -0.06652658
H        1.26503345      -0.85730044      -0.18251571
H        2.91346157       1.63048769      -0.47872364
H        1.53267902      -0.00091536       1.33587113
12
Properties=species:S:1:pos:R:3 relative_energy_eV=-0.4265195125135506 branch=right pbc="F F F"
C       -3.53083046      -0.77069553      -0.07379203
O       -2.40199295      -0.35383609      -0.05929142
O        0.52603938       1.11923582      -0.11827088
C        1.46879449       0.12851394       0.24186257
C        2.83565681       0.55531481      -0.21009911
O        3.78287506      -0.19366275      -0.25416180
H       -4.36207751      -0.24991047       0.43657458
H       -3.80591988      -1.70327000      -0.59836465
H       -0.35583745       0.73263633      -0.05506010
H        1.26286798      -0.85418524      -0.19168477
H        2.91107696       1.62837014      -0.48922871
H        1.53343432      -0.00808025       1.33198740
12
Properties=species:S:1:pos:R:3 relative_energy_eV=-0.4268730380808847 branch=right pbc="F F F"
C       -3.52734760      -0.77146734      -0.07222983
O       -2.39389626      -0.36754236      -0.04374381
O        0.52447003       1.12256021      -0.11351320
C        1.46607109       0.12838472       0.23824084
C        2.83395579       0.55520497      -0.21151790
O        3.78359437      -0.19160634      -0.24446999
H       -4.35749074      -0.24270465       0.43154832
H       -3.80782892      -1.69888414      -0.60341795
H       -0.35803688       0.73940466      -0.03892691
H        1.25952931      -0.85036564      -0.20425707
H        2.90813895       1.62539219      -0.50383477
H        1.53292772      -0.01794541       1.32659337
12
Properties=species:S:1:pos:R:3 relative_energy_eV=-0.4273163987836597 branch=right pbc="F F F"
C       -3.52292979      -0.77233363      -0.07041919
O       -2.38472818      -0.38322169      -0.02508502
O        0.52301801       1.12624554      -0.10719990
C        1.46303477       0.12758162       0.23415854
C        2.83152653       0.55520275      -0.21377800
O        3.78398441      -0.18842332      -0.23500529
H       -4.35087469      -0.23337831       0.42584468
H       -3.80893272      -1.69385437      -0.60977059
H       -0.35992834       0.74697729      -0.01991850
H        1.25480941      -0.84674753      -0.21833386
H        2.90473013       1.62184144      -0.52037372
H        1.53037746      -0.02945875       1.32035194
12
Properties=species:S:1:pos:R:3 relative_energy_eV=-0.4276930630348943 branch=right pbc="F F F"
C       -3.51858147      -0.77279797      -0.06884102
O       -2.37706151      -0.39605104      -0.00903959
O        0.52223879       1.12905869      -0.10128526
C        1.46083498       0.12607968       0.23074701
C        2.82895807       0.55527223      -0.21678932
O        3.78392463      -0.18482798      -0.22908316
H       -4.34410691      -0.22482013       0.42112354
H       -3.80846945      -1.68936167      -0.61537531
H       -0.36090333       0.75313075      -0.00397430
H        1.24957438      -0.84478878      -0.22910455
H        2.90114922       1.61880864      -0.53314005
H        1.52652971      -0.03927120       1.31523312
12
Properties=species:S:1:pos:R:3 relative_energy_eV=-0.42784789859979355 branch=right pbc="F F F"
C       -3.51518122      -0.77273495      -0.06767690
O       -2.37139873      -0.40468134       0.00171076
O        0.52192256       1.13081860      -0.09742367
C        1.45974253       0.12465153       0.22829944
C        2.82702254       0.55524577      -0.21972657
O        3.78391317      -0.18210076      -0.22565951
H       -4.33948828      -0.21919480       0.41780084
H       -3.80756639      -1.68574125      -0.61893729
H       -0.36159147       0.75751558       0.00648248
H        1.24521698      -0.84402182      -0.23559523
H        2.89744855       1.61687115      -0.54075481
H        1.52404696      -0.04619635       1.31195159
12
Properties=species:S:1:pos:R:3 relative_energy_eV=-0.42788607411239354 branch=right pbc="F F F"
C       -3.51380356      -0.77251047      -0.06720694
O       -2.36946422      -0.40777039       0.00536160
O        0.52178926       1.13132241      -0.09611057
C        1.45950873       0.12401625       0.22743665
C        2.82630731       0.55523377      -0.22106899
O        3.78387339      -0.18096370      -0.22446705
H       -4.33791336      -0.21731187       0.41659707
H       -3.80686727      -1.68414464      -0.62003552
H       -0.36177235       0.75896203       0.00974094
H        1.24341518      -0.84385849      -0.23757816
H        2.89562217       1.61620290      -0.54308372
H        1.52339197      -0.04874639       1.31088583
12
Properties=species:S:1:pos:R:3 relative_energy_eV=-0.42790824004259775 branch=right pbc="F F F"
C       -3.51215719      -0.77229514      -0.06660152
O       -2.36649580      -0.41208725       0.01038019
O        0.52132951       1.13208366      -0.09456835
C        1.45888360       0.12352969       0.22631716
C        2.82543823       0.55518342      -0.22227243
O        3.78398890      -0.17980544      -0.22195603
H       -4.33616050      -0.21491346       0.41491180
H       -3.80641156      -1.68206511      -0.62151166
H       -0.36247631       0.76090588       0.01427280
H        1.24162225      -0.84311109      -0.24088584
H        2.89338293       1.61529633      -0.54699213
H        1.52314322      -0.05229003       1.30937715
12
Properties=species:S:1:pos:R:3 relative_energy_eV=-0.4279308404038602 branch=right pbc="F F F"
C       -3.51138517      -0.77200719      -0.06628181
O       -2.36542702      -0.41400046       0.01251030
O        0.52092435       1.13223294      -0.09380619
C        1.45855063       0.12332937       0.22598308
C        2.82499570       0.55520436      -0.22271774
O        3.78397066      -0.17909757      -0.22061940
H       -4.33542334      -0.21383127       0.41420633
H       -3.80568308      -1.68089190      -0.62207394
H       -0.36277608       0.76123065       0.01548984
H        1.24091222      -0.84263356      -0.24226192
H        2.89211821       1.61484066      -0.54876287
H        1.52331021      -0.05394456       1.30880546
12
Properties=species:S:1:pos:R:3 relative_energy_eV=-0.4279622279082105 branch=right pbc="F F F"
C       -3.51021640      -0.77174872      -0.06569556
O       -2.36328575      -0.41799784       0.01709393
O        0.52020654       1.13283790      -0.09204042
C        1.45777384       0.12315581       0.22527828
C        2.82425687       0.55526605      -0.22322784
O        3.78406093      -0.17796695      -0.21775236
H       -4.33409182      -0.21155491       0.41278501
H       -3.80495389      -1.67897189      -0.62343630
H       -0.36341487       0.76212412       0.01839993
H        1.23986096      -0.84143881      -0.24554444
H        2.89034500       1.61390527      -0.55290042
H        1.52354590      -0.05717854       1.30751135
12
Properties=species:S:1:pos:R:3 relative_energy_eV=-0.4280033537088457 branch=right pbc="F F F"
C       -3.50876852      -0.77146214      -0.06486209
O       -2.36050941      -0.42355359       0.02380932
O        0.51923656       1.13379063      -0.08904546
C        1.45667109       0.12299295       0.22441214
C        2.82325180       0.55545000      -0.22375002
O        3.78419596      -0.17634159      -0.21380865
H       -4.33228063      -0.20819006       0.41082091
H       -3.80402391      -1.67645173      -0.62552919
H       -0.36421857       0.76295955       0.02195467
H        1.23854515      -0.83964949      -0.25025339
H        2.88821554       1.61258844      -0.55897786
H        1.52377228      -0.06170144       1.30570075
12
Properties=species:S:1:pos:R:3 relative_energy_eV=-0.4280606027423346 branch=right pbc="F F F"
C       -3.50745050      -0.77123175      -0.06396349
O       -2.35788768      -0.42923477       0.03110572
O        0.51843246       1.13494114      -0.08531486
C        1.45570322       0.12282301       0.22364838
C        2.82228022       0.55573073      -0.22432326
O        3.78440206      -0.17455926      -0.20999555
H       -4.33057046      -0.20463557       0.40874955
H       -3.80328496      -1.67395907      -0.62784809
H       -0.36485752       0.76350541       0.02485308
H        1.23716603      -0.83778539      -0.25503941
H        2.88619585       1.61127133      -0.56530677
H        1.52395867      -0.06643424       1.30390585
12
Properties=species:S:1:pos:R:3 relative_energy_eV=-0.42815820304167573 branch=right pbc="F F F"
C       -3.50559470      -0.77085063      -0.06246908
O       -2.35419974      -0.43782801       0.04303464
O        0.51746061       1.13689267      -0.07844171
C        1.45453416       0.12250795       0.22278680
C        2.82085365       0.55631820      -0.22533902
O        3.78486902      -0.17148180      -0.20448248
H       -4.32825349      -0.19911069       0.40539787
H       -3.80235563      -1.67005586      -0.63161179
H       -0.36558150       0.76358806       0.02745792
H        1.23494169      -0.83486665      -0.26215188
H        2.88298251       1.60932641      -0.57508469
H        1.52443087      -0.07400803       1.30137461
12
Properties=species:S:1:pos:R:3 relative_energy_eV=-0.4283097076968261 branch=right pbc="F F F"
C       -3.50384263      -0.77032069      -0.06057770
O       -2.35075239      -0.44717321       0.05761366
O        0.51679621       1.13930885      -0.06877662
C        1.45379575       0.12206343       0.22247241
C        2.81939146       0.55722923      -0.22665851
O        3.78574044      -0.16735479      -0.19879133
H       -4.32631097      -0.19294871       0.40130097
H       -3.80164569      -1.66541508      -0.63608384
H       -0.36597701       0.76229308       0.02667286
H        1.23234610      -0.83143166      -0.26963086
H        2.87896133       1.60727138      -0.58610800
H        1.52558491      -0.08309016       1.29903814
12
Properties=species:S:1:pos:R:3 relative_energy_eV=-0.4284690214553848 branch=right pbc="F F F"
C       -3.50310420      -0.76979542      -0.05900281
O       -2.34939198      -0.45285011       0.06908544
O        0.51691839       1.14111653      -0.05953956
C        1.45417941       0.12156917       0.22323771
C        2.81861788       0.55817245      -0.22784179
O        3.78691699      -0.16355457      -0.19570634
H       -4.32599204      -0.18905873       0.39798548
H       -3.80177675      -1.66183121      -0.63934922
H       -0.36563906       0.75958535       0.02054032
H        1.23048340      -0.82899079      -0.27378367
H        2.87541752       1.60611589      -0.59343271
H        1.52745798      -0.09004690       1.29827834
12
Properties=species:S:1:pos:R:3 relative_energy_eV=-0.4285771389204456 branch=right pbc="F F F"
C       -3.50269706      -0.76952306      -0.05819704
O       -2.34878240      -0.45479187       0.07496627
O        0.51729178       1.14184517      -0.05455498
C        1.45496732       0.12101146       0.22389082
C        2.81839793       0.55862368      -0.22889615
O        3.78789445      -0.16135764      -0.19490478
H       -4.32627360      -0.18792170       0.39596253
H       -3.80278039      -1.65987361      -0.64073334
H       -0.36510875       0.75845452       0.01560197
H        1.22934409      -0.82827773      -0.27491969
H        2.87287305       1.60586039      -0.59616649
H        1.52896113      -0.09361796       1.29842210
12
Properties=species:S:1:pos:R:3 relative_energy_eV=-0.42859400200177333 branch=right pbc="F F F"
C       -3.50474983      -0.76954298      -0.05916282
O       -2.35300874      -0.44650408       0.06655526
O        0.51837838       1.14008651      -0.05757187
C        1.45656046       0.12117797       0.22592801
C        2.81974014       0.55856702      -0.22777781
O        3.78807160      -0.16273150      -0.20004340
H       -4.32925419      -0.19287797       0.39825415
H       -3.80392917      -1.66261915      -0.63777905
H       -0.36394462       0.75568345       0.00677219
H        1.23161390      -0.83042897      -0.26808523
H        2.87465438       1.60771889      -0.58820940
H        1.52995517      -0.08809764       1.30159119
12
Properties=species:S:1:pos:R:3 relative_energy_eV=-0.4286158119830361 branch=right pbc="F F F"
C       -3.50356151      -0.76954136      -0.05881706
O       -2.35069016      -0.44945794       0.07005648
O        0.51789462       1.14066279      -0.05688478
C        1.45600116       0.12090060       0.22498516
C        2.81921740       0.55848463      -0.22850156
O        3.78820696      -0.16208801      -0.19800667
H       -4.32799125      -0.19140449       0.39694338
H       -3.80423800      -1.66127617      -0.63877689
H       -0.36442906       0.75747229       0.01086439
H        1.23055591      -0.82992915      -0.27069545
H        2.87330632       1.60708765      -0.59115467
H        1.52981512      -0.09047923       1.30045888
12
Properties=species:S:1:pos:R:3 relative_energy_eV=-0.4286179470454954 branch=right pbc="F F F"
C       -3.50372169      -0.76957089      -0.05887088
O       -2.35088567      -0.44943051       0.06968010
O        0.51787319       1.14068579      -0.05716358
C        1.45589241       0.12102233       0.22497744
C        2.81925765       0.55847950      -0.22828411
O        3.78815928      -0.16221730      -0.19793603
H       -4.32803644      -0.19139292       0.39711364
H       -3.80412871      -1.66143603      -0.63872829
H       -0.36450874       0.75730106       0.01120752
H        1.23078177      -0.82982939      -0.27076831
H        2.87365910       1.60703242      -0.59117641
H        1.52974535      -0.09021245       1.30042012
12
Properties=species:S:1:pos:R:3 relative_energy_eV=-0.4286172930133034 branch=right pbc="F F F"
C       -3.50387166      -0.76958374      -0.05893542
O       -2.35111157      -0.44912054       0.06925740
O        0.51788228       1.14059523      -0.05741875
C        1.45592096       0.12105701       0.22502394
C        2.81932736       0.55847501      -0.22816279
O        3.78819506      -0.16227030      -0.19807976
H       -4.32817284      -0.19157915       0.39721644
H       -3.80421488      -1.66156634      -0.63860556
H       -0.36448840       0.75715956       0.01119871
H        1.23100867      -0.82990047      -0.27057870
H        2.87383709       1.60706729      -0.59094241
H        1.52977545      -0.08990196       1.30049813
