12
Properties=species:S:1:pos:R:3 pbc="F F F"
C        0.17561788      -0.49161005       0.21854863
O        1.49861354      -0.95258629       0.34604645
O        0.98543771       1.45799208       1.35103459
C       -0.23347247      -0.40799234      -1.24901516
C        0.03505538       0.85787231       0.91419495
O       -1.21066682       1.36631695       1.02981269
H        0.38441607       0.31712735      -1.77477977
H       -1.85322604       0.76837535       0.62028642
H       -0.49904532      -1.19599489       0.72803930
H       -0.09398722      -1.37783508      -1.71857944
H        1.99874716      -0.25018149       0.79433800
H       -1.28008263      -0.12594518      -1.36914000
