12
Properties=species:S:1:pos:R:3 pbc="F F F"
C        0.24896170      -0.22219528      -0.00974026
O        1.40029867      -0.98798854       0.28390987
O        0.31772062       0.53752174       2.22689939
C       -0.32583648      -0.38085326      -1.36601441
C       -0.24506469       0.50298042       0.99915192
O       -1.34504297       1.30068870       0.98423321
H        0.34746168      -0.00307743      -2.14289316
H       -1.74926946       1.28715104       0.11062857
H        1.06136900      -0.08541617       2.20078469
H       -0.51754348      -1.43351643      -1.58754722
H        2.15264725      -0.58668631      -0.17013866
H       -1.27415336       0.14692158      -1.48206415
