16
Properties=species:S:1:pos:R:3 pbc="F F F"
C        1.28096921       0.63092426      -1.26306739
C        0.28706740      -0.45513734      -1.11785218
C       -1.03986854      -0.22652037      -0.66418758
C       -1.57756183      -0.91053451       0.53295773
C       -0.76494459       0.10621274       1.29917207
C        1.41171083       0.48654572       0.23668176
H        0.88954307       1.59112241      -1.57683002
H        2.16719241       0.36416152      -1.83444837
H        0.70245130      -1.44663171      -1.00641901
H       -1.54298141       0.68709447      -0.94914214
H       -1.25029995      -1.93267726       0.68051286
H       -2.65511022      -0.82664736       0.65574882
H       -1.22267189       1.07900323       1.38774581
H       -0.21926241      -0.19496326       2.19280780
H        2.04021203      -0.32638015       0.56446335
H        1.49355879       1.37442426       0.86184016
