16
Properties=species:S:1:pos:R:3 pbc="F F F"
O        1.59187262      -0.31483243      -0.04900149
C        0.29301086      -0.16930610      -0.41325475
C       -0.45610122      -1.43830929      -0.69393819
O       -0.19662034      -1.97070777      -1.99283089
C        0.43612307       2.30650159      -0.29464350
O       -0.11512200       3.39460443      -0.34861139
C       -0.25418804       1.05667496      -0.53309355
O       -0.77592140      -0.24983166       2.50669677
H       -0.22220846      -2.17293232       0.08946478
H       -1.52341823      -1.24200421      -0.65343195
H        0.75734796      -2.06945929      -2.10145276
H        1.51268529       2.23323289      -0.04512530
H        1.75831340      -1.23739451       0.18195441
H       -0.78156791       0.50259443       1.90523961
H       -1.29144272       1.12667188      -0.83307530
H       -0.73834999       0.14728978       3.38239930
