16
Properties=species:S:1:pos:R:3 pbc="F F F"
O       -3.13170666       0.48013157      -0.21341645
C       -2.51017521      -0.09811572      -1.20597844
C       -0.63095252      -0.47353580       0.25872664
O       -1.73548921      -0.90109939       1.63357695
C        0.47784912       0.33818439       0.39833821
O        0.25362007       1.14510211      -0.86691056
C        1.95010133      -0.48813158       0.38506615
O        2.82168725       0.39758671       0.21636500
H       -2.14086433       0.74765597      -1.84909071
H       -1.25422864      -0.76925795      -0.66553471
H       -3.29097247      -0.15322800       0.51405310
H        0.42475842       1.00802192       1.26444946
H        1.37696542       1.28772131      -1.00935684
H        1.67841706      -1.26325490      -0.34288623
H        1.83526499      -1.01442243       1.41117552
H        3.81275565      -0.17940129       0.04912144
