16
Properties=species:S:1:pos:R:3 pbc="F F F"
C       -0.18650958      -1.31683148      -0.88023062
C        0.47875963      -0.10720303      -0.54296491
C        0.11191141       1.12087327      -0.98169129
C        0.15013678       1.77645729       0.27867045
C       -0.41541131       0.25138016       0.92062168
C       -0.13067802      -1.13557978       0.86360176
H       -0.41748122      -1.13424357      -1.92576184
H        0.17036158      -2.27483992      -1.18417859
H        0.83597651      -0.52909013       0.38814031
H       -0.44605973       1.39343960      -1.87028363
H        0.97022545       1.93225224       0.94494893
H        0.21121882       2.78366123      -0.11302690
H       -1.19741503       0.35111481       1.65095606
H       -0.71056759       0.21549253      -0.10533735
H       -0.07388261      -1.49049370       1.89275411
H        0.64941489      -1.83638952       0.66378182
