12
Properties=species:S:1:pos:R:3 pbc="F F F"
O       -0.54630355      -1.21088818      -0.56722889
C        0.51876381      -0.41311749      -0.91473042
C        1.12051548       0.63582379      -0.26634743
O        0.91353618       0.98463329       1.08789541
C       -1.50556994      -0.64039773       0.31774378
O       -2.53156217      -1.33305032       0.61842766
H        0.96783229      -0.79008514      -1.81261524
H        1.96614868       1.17226531      -0.69386986
H        0.74158183       0.49680870      -0.32470051
H        1.58330128       1.60547998       1.40379442
H       -1.58103386      -0.89336809       1.06216317
H       -1.64721382       0.38589895       0.08947170
