16
Properties=species:S:1:pos:R:3 pbc="F F F"
O       -1.03664905      -1.65189313      -0.01437032
C       -1.25401609      -1.64924816      -2.39411320
C        0.02249570      -1.73845123      -3.03510437
O       -0.73808769      -0.48143775      -2.79039332
C        0.66246527       2.75484791       2.03692904
O        0.76145058       2.35512921       0.83555350
C        0.87654439       1.80927163       3.03100113
O        1.17504234       0.59695052       2.56172326
H        0.92448076      -1.84024711      -2.44334149
H        0.09786649      -2.01976310      -4.07950980
H       -0.93523708      -2.00088446       0.88357810
H        0.42619569       3.79148113       2.28964583
H       -0.70904695      -0.74045532       0.05336940
H       -2.24812224      -1.98867012      -2.61733593
H        0.83206410       1.95032777       4.09771998
H        1.14254018       0.85341126       1.58485483
