16
Properties=species:S:1:pos:R:3 pbc="F F F"
O       -1.74060436       1.07965867      -0.31136260
C       -1.71240359       0.20846922      -1.17347958
C       -0.50396228      -0.48096998      -1.70552725
O        0.70062076       0.01779350      -1.36284184
O        1.30727905       2.39538386       1.15882214
C        0.53940213       1.60546650       0.85328625
C        1.18213952      -0.52356657       1.10688807
O        0.03355570      -0.75124589       1.91486120
H       -2.67060070      -0.11495310      -1.60129132
H       -0.69673499      -1.53378278      -1.37493058
H       -0.67913717      -0.54436751      -2.80177680
H        0.94515245      -0.21126758      -0.17236846
H       -0.62117671       1.27823474       0.26898950
H        1.59887322      -1.48350698       0.79994768
H        1.95509076       0.04874511       1.61122924
H        0.36251040      -0.99008459       2.78956754
