16
Properties=species:S:1:pos:R:3 pbc="F F F"
C       -0.90293709       1.09268692      -1.23786940
C       -0.65143259      -0.22846167      -1.55119857
O       -1.76099655      -1.06616706      -1.59574653
N        0.49914820      -0.90083904      -1.61361244
C        1.12963594       0.44296357       1.86153345
N        0.10858910      -0.43302451       1.24378664
H        0.06796625      -0.24314067       0.18306340
H       -0.08798952       1.80296265      -1.25794661
H       -1.90629081       1.48576815      -1.20100296
H        1.28556622      -0.31174712      -1.85793330
H       -1.40071839      -1.92199986      -1.87012227
H        1.24101163       0.21972279       2.91651133
H        2.06793015       0.28880647       1.33925687
H        0.81885544       1.47350547       1.72792913
H        0.32212680      -1.42490904       1.31471025
H       -0.83047715      -0.27608330       1.59865484
