12
Properties=species:S:1:pos:R:3 pbc="F F F"
C        0.05067606       0.48175159      -0.42384602
O        0.29021520       0.23738568       2.78079187
O        0.04876002      -1.67761535      -1.51928506
C       -0.24923814       1.21221707      -1.49335576
C       -0.04106800      -0.99119203      -0.35644913
O       -0.19144035      -1.60612495       0.67888656
H        0.08640278      -0.55525304       2.25067590
H        0.33387177       0.95752523       0.50727212
H        0.27457380      -1.07476641      -2.24098323
H       -0.62180903       0.78084432      -2.41703499
H        0.21911616      -0.04947735       3.69559155
H       -0.17448815       2.29148662      -1.47345731
