16
Properties=species:S:1:pos:R:3 pbc="F F F"
C        0.33604193      -1.33695143      -1.65937124
C        0.29342816      -0.05063749      -0.91126834
O        1.54838862       0.30833457      -0.49707816
N       -0.34682782      -1.07616287       2.33607114
C       -0.84825984       1.84576543      -0.03992688
N       -0.79732792       0.55541649      -0.68546100
H        0.87422772      -2.08635571      -1.08048689
H       -0.67369304      -1.67604355      -1.86890731
H        0.87691122      -1.20852710      -2.59747204
H        0.16493833      -0.37860045       2.85840227
H       -0.49471712      -0.71162435       1.40370311
H       -1.49692031       2.50623939      -0.61413209
H       -1.29117581       1.74874392       0.95109513
H        0.11465859       2.36522012       0.06799740
H        0.27139195      -1.87238528       2.24223840
H        1.46892982       1.06760018       0.09460266
