16
Properties=species:S:1:pos:R:3 pbc="F F F"
O       -0.74471770       0.87239518      -2.51651386
C       -0.19155012      -0.20497710      -2.59607372
C        1.27883728      -0.35066323      -2.35166981
O        1.88629952       0.87944777      -2.06973946
O       -0.25601983      -1.35553497       0.96174414
C       -0.72606538      -0.35206674       1.44577157
C       -0.86615366      -0.11968306       2.92611022
O       -0.87258326       1.25435970       3.27206854
H       -0.75942437      -1.12281632      -2.84867345
H        1.40552015      -1.06262114      -1.52400740
H        1.73315243      -0.82861760      -3.23367070
H        1.16773187       1.53356879      -2.11374565
H       -1.11461435       0.47702927       0.81765558
H       -1.84724272      -0.51035235       3.21503136
H       -0.11308477      -0.70493651       3.46009185
H        0.02079853       1.59989245       3.16293390
