12
Properties=species:S:1:pos:R:3 pbc="F F F"
O       -1.88707009       1.12513300       0.28520048
C       -0.72894817       1.22247640      -0.17081108
C       -0.22666665      -0.11567187      -0.60021244
O       -1.23879807      -1.03453720      -0.91089332
C        0.78914715      -0.65424751       0.39885302
O        1.81756865       0.30932120       0.41685441
H       -0.18571027       2.03752595       0.27056829
H        0.32742908       0.21505132      -1.49179639
H       -2.08264149      -0.58330240      -0.73154949
H        1.13850057      -1.59942717      -0.02582364
H        0.25069982      -0.90490000       1.31789608
H        2.02649033      -0.01742125       1.24171526
