12
Properties=species:S:1:pos:R:3 pbc="F F F"
O        0.12323591      -0.77533487      -1.72323439
C        1.27576962      -0.36231709      -1.68366066
C        1.70953757       0.51963607      -0.62816038
O        2.12066383       1.43566876       1.52159482
C       -3.02879885      -0.88124283       0.95058913
O       -4.06192932      -1.21695097       1.47207599
H        2.01813115      -0.64470180      -2.45693975
H        1.47765829       0.20593529       0.37653503
H        2.19434830       1.42467982      -0.94353260
H        1.21522905       1.71770570       1.72113737
H       -2.23557939      -0.35031661       1.51069054
H       -2.80818776      -1.07274648      -0.11704455
