12
Properties=species:S:1:pos:R:3 pbc="F F F"
C        0.21379022      -0.10910573      -1.42729305
O       -0.50900482      -1.05257796      -1.23204319
O        1.55997221       0.34896160       1.34702815
C        0.24741009      -0.04252176       1.16260844
C       -0.57791646       0.37626534       0.16359474
O       -1.86935906       0.39118807       0.08477543
H       -0.14185956       0.85384319      -1.81520269
H        1.23314466      -0.24981138      -1.80656002
H        2.06766539      -0.40805353       1.65581310
H       -0.12934937      -0.70835890       1.93168439
H       -0.05293524       0.93904881      -0.59463168
H       -2.04155807      -0.33887776       0.53022638
