16
Properties=species:S:1:pos:R:3 pbc="F F F"
C        0.25536926       0.32584153      -1.99686679
C       -0.36176643      -1.05315027      -1.89001969
O       -0.57686258      -1.74453557      -2.87773552
N       -0.60991073      -1.47907595      -0.62538816
C        0.81259384       0.82099237       1.96614260
N       -0.58183066       0.42419726       1.77957500
H       -0.16374476       1.02176310      -1.27039696
H        1.32904585       0.26115539      -1.81792866
H        0.10517555       0.70481640      -3.00230129
H       -0.62200367      -0.83788528       0.16615363
H       -1.09994221      -2.35153908      -0.53512700
H        1.00150794       1.45293676       2.84117971
H        1.43085277      -0.07113426       2.05274014
H        1.15217296       1.35526748       1.08190543
H       -0.92246638      -0.06236514       2.59821123
H       -1.17373197       1.23738537       1.67437810
