16
Properties=species:S:1:pos:R:3 pbc="F F F"
C        0.11974571       0.19790189      -1.97831120
C       -0.35412540      -1.23065473      -1.78720646
O       -0.50236575      -1.71475268      -2.93850637
N       -0.38392928      -1.31588627      -0.47780986
C        0.82609262       0.74399246       2.00187888
N       -0.58402314       0.49312684       1.70879013
H       -0.12538205       0.93517692      -1.22470576
H        1.19166541       0.34404384      -2.03376672
H       -0.16134709       0.73366545      -2.87270401
H       -0.67889530      -0.77540027       0.29895232
H       -0.87152376      -2.26499561      -0.87700873
H        1.01201917       1.42201827       2.84256433
H        1.32129821      -0.20198974       2.21484220
H        1.30731358       1.15882815       1.11893793
H       -1.05572260       0.11890709       2.52146446
H       -1.06082405       1.35601584       1.48259355
