12
Properties=species:S:1:pos:R:3 pbc="F F F"
O        1.30622125      -1.51943473       0.11226153
C        1.17323551      -0.15277358       0.23834566
C        0.13485343       0.59844352      -0.12348842
O        0.29574967       1.92442706      -0.16912920
C       -1.10792949      -0.06608220      -0.59349790
O       -2.18533628      -0.05313399       0.35055305
H        2.20884948      -1.79651107       0.28823028
H        2.05706830       0.32682050       0.64808402
H        0.47991602       1.96060004       0.60060625
H       -0.94328961      -1.07580659      -0.97252067
H       -1.46483567       0.49270635      -1.45658690
H       -1.95450415      -0.63925717       1.07714151
