12
Properties=species:S:1:pos:R:3 relative_energy_eV=0.0 branch=left pbc="F F F"
O        0.19387313      -0.71037097       1.75902678
C        0.91079405      -0.14067363       0.82229650
C        0.20059688       0.37803071      -0.35743662
O        0.74268290       1.24101965      -1.17892116
C       -1.17178512      -0.06567228      -0.64267714
O       -1.51789304      -1.26522667      -0.05042771
H        1.62436005      -0.83118433       0.25904071
H        1.63997832       1.45180486      -0.87022871
H        1.62774693       0.65833760       1.15111785
H       -1.33671821      -0.07469994      -1.72632861
H       -1.78871709       0.77731012      -0.25967576
H       -1.00671374      -1.27271767       0.82735666
12
Properties=species:S:1:pos:R:3 relative_energy_eV=-2.6055568014271557e-07 branch=left pbc="F F F"
O        0.19420272      -0.71047585       1.75900559
C        0.91087867      -0.14061907       0.82223267
C        0.20067086       0.37783900      -0.35748370
O        0.74270623       1.24090908      -1.17888811
C       -1.17180136      -0.06561885      -0.64273595
O       -1.51797100      -1.26514727      -0.05043386
H        1.62474277      -0.83095401       0.25913392
H        1.63994657       1.45179049      -0.87016512
H        1.62772453       0.65851788       1.15096523
H       -1.33701194      -0.07476785      -1.72636933
H       -1.78875217       0.77728403      -0.25964621
H       -1.00713082      -1.27280017       0.82752769
12
Properties=species:S:1:pos:R:3 relative_energy_eV=1.2089441952412017e-05 branch=left pbc="F F F"
O        0.19488136      -0.71054351       1.75930309
C        0.91105283      -0.14063770       0.82224549
C        0.20078423       0.37760931      -0.35752106
O        0.74281528       1.24072285      -1.17893251
C       -1.17183038      -0.06552508      -0.64278601
O       -1.51822118      -1.26513208      -0.05057316
H        1.62532774      -0.83057323       0.25921743
H        1.63992363       1.45177759      -0.86998137
H        1.62779210       0.65877627       1.15069675
H       -1.33721483      -0.07472496      -1.72645719
H       -1.78895757       0.77725878      -0.25964334
H       -1.00814814      -1.27305085       0.82757471
12
Properties=species:S:1:pos:R:3 relative_energy_eV=1.6059844710980542e-05 branch=left pbc="F F F"
O        0.19547612      -0.71066558       1.75967734
C        0.91121276      -0.14075824       0.82235828
C        0.20087301       0.37743184      -0.35754964
O        0.74301124       1.24046773      -1.17905018
C       -1.17187654      -0.06541608      -0.64280121
O       -1.51860161      -1.26519043      -0.05087695
H        1.62602531      -0.83012535       0.25938575
H        1.64002221       1.45163389      -0.86982590
H        1.62772605       0.65907301       1.15060541
H       -1.33727297      -0.07445601      -1.72651742
H       -1.78913069       0.77730617      -0.25958617
H       -1.00925981      -1.27334352       0.82732351
12
Properties=species:S:1:pos:R:3 relative_energy_eV=2.383179889875464e-05 branch=left pbc="F F F"
O        0.19584998      -0.71077317       1.76000633
C        0.91129931      -0.14087879       0.82251413
C        0.20090864       0.37734988      -0.35756033
O        0.74320497       1.24024807      -1.17919069
C       -1.17190679      -0.06538880      -0.64278612
O       -1.51896948      -1.26530974      -0.05117544
H        1.62653692      -0.82975221       0.25949083
H        1.64013746       1.45153526      -0.86972466
H        1.62766810       0.65926970       1.15063500
H       -1.33724784      -0.07418792      -1.72651196
H       -1.78915424       0.77736647      -0.25952840
H       -1.01012194      -1.27352128       0.82697411
12
Properties=species:S:1:pos:R:3 relative_energy_eV=2.9144295695004985e-05 branch=left pbc="F F F"
O        0.19605063      -0.71089254       1.76019755
C        0.91133567      -0.14097440       0.82265124
C        0.20090945       0.37728597      -0.35757821
O        0.74335932       1.24004341      -1.17932130
C       -1.17192929      -0.06544130      -0.64275531
O       -1.51934582      -1.26544826      -0.05144110
H        1.62701930      -0.82941267       0.25959303
H        1.64023424       1.45146665      -0.86966525
H        1.62757441       0.65944084       1.15072703
H       -1.33729673      -0.07398887      -1.72641642
H       -1.78895618       0.77744511      -0.25943912
H       -1.01074990      -1.27356645       0.82659063
12
Properties=species:S:1:pos:R:3 relative_energy_eV=3.9232661947607994e-05 branch=left pbc="F F F"
O        0.19619876      -0.71096336       1.76027287
C        0.91134960      -0.14099089       0.82271402
C        0.20089738       0.37717539      -0.35761517
O        0.74341000       1.23986838      -1.17944000
C       -1.17191901      -0.06562244      -0.64271727
O       -1.51974761      -1.26558445      -0.05159184
H        1.62744272      -0.82914379       0.25963289
H        1.64016839       1.45157810      -0.86957061
H        1.62754823       0.65959423       1.15071315
H       -1.33750452      -0.07401969      -1.72621458
H       -1.78844363       0.77752335      -0.25933090
H       -1.01119523      -1.27345732       0.82629021
12
Properties=species:S:1:pos:R:3 relative_energy_eV=5.6697026593610644e-05 branch=left pbc="F F F"
O        0.19644168      -0.71092105       1.76022206
C        0.91140730      -0.14090643       0.82261599
C        0.20090305       0.37689633      -0.35770136
O        0.74326076       1.23970053      -1.17952738
C       -1.17187321      -0.06592076      -0.64267507
O       -1.52023660      -1.26564210      -0.05155235
H        1.62788792      -0.82901565       0.25963682
H        1.63979271       1.45191655      -0.86934630
H        1.62757838       0.65986245       1.15040196
H       -1.33792218      -0.07438087      -1.72590882
H       -1.78754563       0.77764033      -0.25916235
H       -1.01148910      -1.27327185       0.82613961
12
Properties=species:S:1:pos:R:3 relative_energy_eV=7.190350152086467e-05 branch=left pbc="F F F"
O        0.19697528      -0.71071138       1.76014735
C        0.91158440      -0.14071110       0.82232726
C        0.20097968       0.37630640      -0.35786770
O        0.74285377       1.23944970      -1.17963741
C       -1.17176618      -0.06628597      -0.64263410
O       -1.52090209      -1.26551715      -0.05125047
H        1.62827410      -0.82916340       0.25962517
H        1.63890994       1.45260712      -0.86887018
H        1.62763036       0.66041424       1.14958540
H       -1.33841367      -0.07508318      -1.72557902
H       -1.78622707       0.77787845      -0.25885719
H       -1.01169345      -1.27322635       0.82615376
12
Properties=species:S:1:pos:R:3 relative_energy_eV=0.00010562221905274782 branch=left pbc="F F F"
O        0.19790311      -0.71035817       1.76022745
C        0.91193326      -0.14050750       0.82195796
C        0.20113793       0.37539183      -0.35811267
O        0.74227074       1.23899918      -1.17980664
C       -1.17163841      -0.06653404      -0.64258423
O       -1.52179465      -1.26514913      -0.05075465
H        1.62854414      -0.82962250       0.25966298
H        1.63764185       1.45346549      -0.86817321
H        1.62754171       0.66143124       1.14832783
H       -1.33859269      -0.07579320      -1.72541610
H       -1.78482794       0.77833859      -0.25835861
H       -1.01191398      -1.27370456       0.82617283
12
Properties=species:S:1:pos:R:3 relative_energy_eV=0.00015137243826757185 branch=left pbc="F F F"
O        0.19881162      -0.71019279       1.76051165
C        0.91228867      -0.14046018       0.82181167
C        0.20131757       0.37451664      -0.35836767
O        0.74192563       1.23835671      -1.18009523
C       -1.17156236      -0.06650685      -0.64253491
O       -1.52267473      -1.26471767      -0.05037950
H        1.62867437      -0.83004066       0.25983216
H        1.63667281       1.45405086      -0.86764411
H        1.62711744       0.66262871       1.14735580
H       -1.33823644      -0.07590669      -1.72555521
H       -1.78395110       0.77892779      -0.25776378
H       -1.01217840      -1.27469870       0.82597210
12
Properties=species:S:1:pos:R:3 relative_energy_eV=0.0002003894369408954 branch=left pbc="F F F"
O        0.19940567      -0.71030562       1.76083631
C        0.91253479      -0.14060100       0.82191718
C        0.20142779       0.37392680      -0.35860580
O        0.74192408       1.23770297      -1.18042283
C       -1.17159529      -0.06631923      -0.64246556
O       -1.52337413      -1.26442367      -0.05019284
H        1.62886455      -0.83013536       0.26008079
H        1.63634205       1.45418802      -0.86749901
H        1.62644019       0.66369363       1.14697288
H       -1.33765669      -0.07543821      -1.72584083
H       -1.78369805       0.77946798      -0.25724024
H       -1.01240987      -1.27579912       0.82560291
12
Properties=species:S:1:pos:R:3 relative_energy_eV=0.00023376100944005884 branch=left pbc="F F F"
O        0.19967085      -0.71066767       1.76101612
C        0.91266105      -0.14084223       0.82210409
C        0.20147028       0.37353214      -0.35890178
O        0.74214289       1.23712129      -1.18079258
C       -1.17170595      -0.06619715      -0.64235850
O       -1.52392669      -1.26430250      -0.04999998
H        1.62931342      -0.82982567       0.26036766
H        1.63644773       1.45411710      -0.86768722
H        1.62559356       0.66456000       1.14697485
H       -1.33732882      -0.07473770      -1.72605598
H       -1.78363837       0.77989690      -0.25681844
H       -1.01249486      -1.27669731       0.82529472
12
Properties=species:S:1:pos:R:3 relative_energy_eV=0.0002942696501122555 branch=left pbc="F F F"
O        0.19987051      -0.71151438       1.76078368
C        0.91280696      -0.14133638       0.82209351
C        0.20146926       0.37270282      -0.35977609
O        0.74247754       1.23627536      -1.18149970
C       -1.17201017      -0.06643989      -0.64202970
O       -1.52490957      -1.26426599      -0.04906782
H        1.63118516      -0.82855507       0.26094853
H        1.63677821       1.45397822      -0.86833215
H        1.62374657       0.66606473       1.14686858
H       -1.33798575      -0.07368421      -1.72597337
H       -1.78305014       0.78052712      -0.25621757
H       -1.01217352      -1.27779521       0.82534511
12
Properties=species:S:1:pos:R:3 relative_energy_eV=0.00041750992750166915 branch=left pbc="F F F"
O        0.19991232      -0.71307623       1.75942263
C        0.91294543      -0.14200691       0.82130323
C        0.20158964       0.37085238      -0.36163002
O        0.74268537       1.23513695      -1.18267056
C       -1.17241525      -0.06739491      -0.64148379
O       -1.52648252      -1.26412635      -0.04698366
H        1.63571173      -0.82588710       0.26231377
H        1.63687889       1.45382732      -0.86921845
H        1.62026389       0.66848158       1.14624310
H       -1.34105632      -0.07259109      -1.72512491
H       -1.78074340       0.78146362      -0.25527386
H       -1.01108477      -1.27872244       0.82624572
12
Properties=species:S:1:pos:R:3 relative_energy_eV=0.0006489717961812858 branch=left pbc="F F F"
O        0.19977777      -0.71492068       1.75686236
C        0.91305290      -0.14256065       0.81951056
C        0.20195149       0.36809960      -0.36404238
O        0.74243353       1.23403119      -1.18391834
C       -1.17268921      -0.06881075      -0.64095261
O       -1.52828979      -1.26365246      -0.04435528
H        1.64239057      -0.82254279       0.26455976
H        1.63632101       1.45346450      -0.86972308
H        1.61579600       0.67126611       1.14499624
H       -1.34637624      -0.07191237      -1.72353231
H       -1.77673373       0.78251042      -0.25412431
H       -1.00942939      -1.27901571       0.82786286
12
Properties=species:S:1:pos:R:3 relative_energy_eV=0.0008112335544865346 branch=left pbc="F F F"
O        0.19969549      -0.71546366       1.75543236
C        0.91301455      -0.14257899       0.81825913
C        0.20225606       0.36662993      -0.36514629
O        0.74196642       1.23378588      -1.18435730
C       -1.17260608      -0.06960473      -0.64080885
O       -1.52899106      -1.26326529      -0.04307328
H        1.64562792      -0.82118029       0.26565012
H        1.63551432       1.45331352      -0.86945673
H        1.61397903       0.67222692       1.14403331
H       -1.34932618      -0.07199472      -1.72259880
H       -1.77435816       0.78287018      -0.25372546
H       -1.00856745      -1.27878256       0.82893543
12
Properties=species:S:1:pos:R:3 relative_energy_eV=0.00104672096313152 branch=left pbc="F F F"
O        0.19815285      -0.71785167       1.75269969
C        0.91215944      -0.14269629       0.81735520
C        0.20336681       0.36461853      -0.36628587
O        0.74268817       1.23219435      -1.18520434
C       -1.17210250      -0.06916820      -0.64133664
O       -1.52989769      -1.26203085      -0.04444862
H        1.65095642      -0.81873523       0.26934245
H        1.63562345       1.45048535      -0.86866688
H        1.60920617       0.67378327       1.14570512
H       -1.35281898      -0.06976263      -1.72190357
H       -1.77068063       0.78406077      -0.25180817
H       -1.00844861      -1.27894090       0.82769504
12
Properties=species:S:1:pos:R:3 relative_energy_eV=0.0012860340393672232 branch=left pbc="F F F"
O        0.19563865      -0.72272415       1.74904696
C        0.91154447      -0.14382028       0.81749173
C        0.20485200       0.36257033      -0.36737766
O        0.74498127       1.22876786      -1.18664534
C       -1.17197595      -0.06701602      -0.64201558
O       -1.53116071      -1.26028545      -0.04829776
H        1.65805528      -0.81557888       0.27607310
H        1.63747987       1.44598646      -0.86889768
H        1.60127629       0.67662609       1.15005075
H       -1.35579553      -0.06519128      -1.72162564
H       -1.76773385       0.78613239      -0.24821859
H       -1.00895679      -1.27950975       0.82355861
12
Properties=species:S:1:pos:R:3 relative_energy_eV=0.0015825927694095299 branch=left pbc="F F F"
O        0.18985569      -0.73416769       1.74202373
C        0.91072456      -0.14621358       0.81905165
C        0.20716205       0.35871754      -0.36975234
O        0.75091834       1.22059546      -1.19040284
C       -1.17275092      -0.06270999      -0.64313342
O       -1.53475707      -1.25774997      -0.05587998
H        1.67356865      -0.80770546       0.28770361
H        1.64354230       1.43644617      -0.87168231
H        1.58465377       0.68467998       1.16157347
H       -1.36121434      -0.05537828      -1.72207272
H       -1.76322363       0.79063969      -0.23940638
H       -1.01027421      -1.28119494       0.81511940
12
Properties=species:S:1:pos:R:3 relative_energy_eV=0.001847862218710361 branch=left pbc="F F F"
O        0.19047832      -0.73538830       1.73979729
C        0.91308723      -0.14799351       0.81795780
C        0.20749146       0.35746545      -0.37121792
O        0.75059497       1.21944492      -1.19127933
C       -1.17402859      -0.06222514      -0.64229508
O       -1.53495364      -1.25707758      -0.05455712
H        1.67738785      -0.80828175       0.29046497
H        1.64263578       1.43846363      -0.87251771
H        1.58240089       0.68661638       1.16033775
H       -1.36337370      -0.05715910      -1.72109936
H       -1.76450713       0.79083331      -0.23769986
H       -1.00900830      -1.27873978       0.81525070
12
Properties=species:S:1:pos:R:3 relative_energy_eV=0.0020370036181702744 branch=left pbc="F F F"
O        0.19031260      -0.73677501       1.73827720
C        0.91432062      -0.14888054       0.81750459
C        0.20762714       0.35643638      -0.37253154
O        0.75083138       1.21840629      -1.19231704
C       -1.17497106      -0.06239863      -0.64188797
O       -1.53548713      -1.25704303      -0.05339862
H        1.68051604      -0.80774095       0.29123302
H        1.64258870       1.43960160      -0.87349667
H        1.58066482       0.68857346       1.16068711
H       -1.36523126      -0.05807069      -1.72083807
H       -1.76467321       0.79111623      -0.23595054
H       -1.00829357      -1.27726686       0.81586085
12
Properties=species:S:1:pos:R:3 relative_energy_eV=0.002362993447604822 branch=left pbc="F F F"
O        0.19377352      -0.73192476       1.73894602
C        0.91766677      -0.14926949       0.81470019
C        0.20655759       0.35632206      -0.37419944
O        0.74703917       1.22165508      -1.19211674
C       -1.17654397      -0.06573679      -0.64044460
O       -1.53421882      -1.25841623      -0.04577096
H        1.67801737      -0.81200351       0.28589519
H        1.63777614       1.44830857      -0.87295929
H        1.58761908       0.68725665       1.15364251
H       -1.36628911      -0.06668686      -1.71996797
H       -1.76737176       0.78878970      -0.23767939
H       -1.00582113      -1.27233788       0.82309790
12
Properties=species:S:1:pos:R:3 relative_energy_eV=0.003013436074979836 branch=left pbc="F F F"
O        0.20013340      -0.72059131       1.74148580
C        0.92241680      -0.14856691       0.80896343
C        0.20453160       0.35679720      -0.37645194
O        0.73940212       1.22899087      -1.19124176
C       -1.17828997      -0.07257760      -0.63855948
O       -1.53116058      -1.26104257      -0.03199803
H        1.67037016      -0.82081458       0.27404654
H        1.62751408       1.46408816      -0.86961817
H        1.60316268       0.68196159       1.14037188
H       -1.36677328      -0.08253114      -1.71912929
H       -1.77121691       0.78387691      -0.24216160
H       -1.00188565      -1.26363705       0.83743794
12
Properties=species:S:1:pos:R:3 relative_energy_eV=0.003834428151094471 branch=left pbc="F F F"
O        0.20786664      -0.70514845       1.74564222
C        0.92701498      -0.14693345       0.80188724
C        0.20228821       0.35824050      -0.37778064
O        0.72967936       1.23872724      -1.18920583
C       -1.17908994      -0.08012527      -0.63676533
O       -1.52682374      -1.26356380      -0.01702041
H        1.65872293      -0.83258488       0.25983358
H        1.61441099       1.48174187      -0.86380055
H        1.62332178       0.67317526       1.12379728
H       -1.36555699      -0.10087506      -1.71818446
H       -1.77577929       0.77757631      -0.24904499
H       -0.99785093      -1.25427995       0.85378925
12
Properties=species:S:1:pos:R:3 relative_energy_eV=0.004435660877788905 branch=left pbc="F F F"
O        0.21343872      -0.69331817       1.74927622
C        0.92976685      -0.14542802       0.79679979
C        0.20088036       0.35976151      -0.37787663
O        0.72241686       1.24618903      -1.18728694
C       -1.17881069      -0.08496699      -0.63565446
O       -1.52330852      -1.26482022      -0.00721063
H        1.64901649      -0.84188620       0.24992520
H        1.60454573       1.49393072      -0.85884387
H        1.63848984       0.66563358       1.11132776
H       -1.36373010      -0.11372504      -1.71734305
H       -1.77923470       0.77272377      -0.25485882
H       -0.99526710      -1.24814580       0.86489415
12
Properties=species:S:1:pos:R:3 relative_energy_eV=0.004902812457658001 branch=left pbc="F F F"
O        0.21712829      -0.68448619       1.75225437
C        0.93136695      -0.14430081       0.79325158
C        0.20019577       0.36113466      -0.37734900
O        0.71690479       1.25190221      -1.18549946
C       -1.17785867      -0.08779816      -0.63496480
O       -1.52063785      -1.26512605      -0.00109267
H        1.64160597      -0.84937892       0.24335731
H        1.59720968       1.50224348      -0.85496578
H        1.64972680       0.65952694       1.10207606
H       -1.36168094      -0.12246182      -1.71647290
H       -1.78191339       0.76897889      -0.25961589
H       -0.99384384      -1.24428743       0.87217078
12
Properties=species:S:1:pos:R:3 relative_energy_eV=0.0055753083761374 branch=left pbc="F F F"
O        0.22059121      -0.67579711       1.75603700
C        0.93286129      -0.14355277       0.79022137
C        0.19988539       0.36287362      -0.37602483
O        0.71085673       1.25828938      -1.18345650
C       -1.17602226      -0.09006339      -0.63403706
O       -1.51739391      -1.26473930       0.00469624
H        1.63323449      -0.85880381       0.23730946
H        1.58927213       1.51179300      -0.85153444
H        1.66202882       0.65310677       1.09127088
H       -1.35888992      -0.13108312      -1.71483007
H       -1.78555811       0.76453084      -0.26577429
H       -0.99266245      -1.24060872       0.87927271
12
Properties=species:S:1:pos:R:3 relative_energy_eV=0.006775084873879678 branch=left pbc="F F F"
O        0.21931629      -0.67527810       1.75745562
C        0.93296521      -0.14371507       0.79023937
C        0.20078398       0.36254318      -0.37550409
O        0.70828072       1.26061717      -1.18291837
C       -1.17394070      -0.09113998      -0.63318489
O       -1.51549459      -1.26456213       0.00688953
H        1.63276442      -0.86344098       0.23394238
H        1.58624313       1.51607216      -0.85220120
H        1.66652202       0.65421949       1.08743177
H       -1.36022220      -0.13352103      -1.71310404
H       -1.78598238       0.76344096      -0.26907781
H       -0.99303258      -1.23929087       0.88318260
12
Properties=species:S:1:pos:R:3 relative_energy_eV=0.008010149982510484 branch=left pbc="F F F"
O        0.23273755      -0.65182033       1.76769113
C        0.94077481      -0.14512359       0.78557006
C        0.19865797       0.36813936      -0.37194253
O        0.69158130       1.27858019      -1.17259148
C       -1.17245271      -0.09747298      -0.62942584
O       -1.50600555      -1.26746348       0.02181295
H        1.60383421      -0.88691135       0.22189047
H        1.56840056       1.54226562      -0.84727762
H        1.69861087       0.63700205       1.05666503
H       -1.35169152      -0.15648239      -1.70871624
H       -1.79697936       0.75534398      -0.28885731
H       -0.98926522      -1.23011596       0.89833454
12
Properties=species:S:1:pos:R:3 relative_energy_eV=0.009745873443534947 branch=left pbc="F F F"
O        0.24091818      -0.64441748       1.77200963
C        0.94535952      -0.14378145       0.78362914
C        0.19557322       0.36983538      -0.37044085
O        0.68539992       1.28452977      -1.16786743
C       -1.17466340      -0.10211195      -0.62518066
O       -1.50161770      -1.27132320       0.03274149
H        1.59485747      -0.89178264       0.21058862
H        1.56462664       1.54984790      -0.84827096
H        1.71089161       0.63877539       1.04121870
H       -1.35429387      -0.17019618      -1.70480932
H       -1.80401081       0.75371864      -0.29807439
H       -0.98483822      -1.22715579       0.90761088
12
Properties=species:S:1:pos:R:3 relative_energy_eV=0.011813316403276986 branch=left pbc="F F F"
O        0.25492319      -0.62918998       1.77783228
C        0.95161236      -0.14159649       0.77884755
C        0.19065946       0.37371942      -0.36827263
O        0.67666825       1.29365519      -1.16069492
C       -1.17840498      -0.10771494      -0.62097378
O       -1.49634593      -1.27566679       0.04646758
H        1.57850673      -0.89880098       0.19769377
H        1.55811987       1.55936766      -0.84516161
H        1.72871615       0.63421131       1.01987356
H       -1.35334156      -0.18935406      -1.70137363
H       -1.81429841       0.75001974      -0.30943234
H       -0.97861297      -1.22271496       0.91835110
12
Properties=species:S:1:pos:R:3 relative_energy_eV=0.01420936996328237 branch=left pbc="F F F"
O        0.27159786      -0.61455366       1.78313994
C        0.95684127      -0.13649841       0.77196499
C        0.18367338       0.37800197      -0.36589873
O        0.67062603       1.30014564      -1.15512547
C       -1.18450812      -0.11269051      -0.61636424
O       -1.49287653      -1.27904754       0.06153205
H        1.56670435      -0.90013351       0.18243528
H        1.55536788       1.56170992      -0.84082105
H        1.74265266       0.63363923       0.99916090
H       -1.35438271      -0.20988213      -1.69774207
H       -1.82742333       0.74550814      -0.31750304
H       -0.97007104      -1.22026757       0.92838063
12
Properties=species:S:1:pos:R:3 relative_energy_eV=0.016374585284211207 branch=left pbc="F F F"
O        0.28800118      -0.59731775       1.78904961
C        0.96131973      -0.13202430       0.76418689
C        0.17742996       0.38307052      -0.36308709
O        0.66370086       1.30812674      -1.14952105
C       -1.18925205      -0.11616981      -0.61304569
O       -1.48990489      -1.28014212       0.07469859
H        1.55367965      -0.90465248       0.16984784
H        1.55053384       1.56508062      -0.83431323
H        1.75784944       0.62809356       0.97839998
H       -1.35158388      -0.22934009      -1.69486291
H       -1.84095338       0.73888090      -0.32518360
H       -0.96261912      -1.21767730       0.93699179
12
Properties=species:S:1:pos:R:3 relative_energy_eV=0.017969815689866664 branch=left pbc="F F F"
O        0.29980919      -0.58369809       1.79419657
C        0.96395693      -0.12882564       0.75811419
C        0.17338628       0.38707825      -0.36084310
O        0.65824167       1.31487238      -1.14583989
C       -1.19182441      -0.11781622      -0.61105740
O       -1.48815171      -1.27934464       0.08382199
H        1.54383751      -0.90961373       0.16136042
H        1.54598441       1.56836584      -0.82887961
H        1.76969246       0.62190320       0.96278466
H       -1.34774975      -0.24353459      -1.69275724
H       -1.85154817       0.73239577      -0.33048476
H       -0.95743332      -1.21585615       0.94274663
12
Properties=species:S:1:pos:R:3 relative_energy_eV=0.019066907105298014 branch=left pbc="F F F"
O        0.30772075      -0.57242181       1.79874690
C        0.96581471      -0.12768698       0.75388626
C        0.17137556       0.39011367      -0.35913723
O        0.65292314       1.32155283      -1.14248192
C       -1.19248951      -0.11828129      -0.61020991
O       -1.48696788      -1.27765453       0.08940893
H        1.53553366      -0.91629492       0.15699401
H        1.54095710       1.57274801      -0.82462623
H        1.77993670       0.61446697       0.95084358
H       -1.34261338      -0.25309221      -1.69147435
H       -1.85930102       0.72653954      -0.33500635
H       -0.95468887      -1.21406421       0.94621962
12
Properties=species:S:1:pos:R:3 relative_energy_eV=0.019889031744241947 branch=left pbc="F F F"
O        0.31261403      -0.56466668       1.80280568
C        0.96677957      -0.12750149       0.75157461
C        0.17074279       0.39200537      -0.35825752
O        0.64879723       1.32712349      -1.14032425
C       -1.19221023      -0.11826989      -0.60970753
O       -1.48653458      -1.27569732       0.09320728
H        1.52940235      -0.92222086       0.15451880
H        1.53684998       1.57745063      -0.82238792
H        1.78773453       0.60827301       0.94219757
H       -1.33804331      -0.25950287      -1.69047047
H       -1.86491594       0.72154038      -0.33817480
H       -0.95301555      -1.21260957       0.94818242
12
Properties=species:S:1:pos:R:3 relative_energy_eV=0.020608848966730875 branch=left pbc="F F F"
O        0.31602758      -0.55799119       1.80667684
C        0.96793196      -0.12887977       0.75051492
C        0.17088156       0.39340787      -0.35776833
O        0.64437591       1.33298145      -1.13768028
C       -1.19150626      -0.11799826      -0.60943548
O       -1.48654917      -1.27382831       0.09581741
H        1.52404170      -0.92912449       0.15418290
H        1.53277379       1.58306809      -0.82152358
H        1.79518494       0.60195110       0.93465866
H       -1.33276570      -0.26372110      -1.68983557
H       -1.86976584       0.71704978      -0.34145576
H       -0.95242967      -1.21099155       0.94901250
12
Properties=species:S:1:pos:R:3 relative_energy_eV=0.021241300646579475 branch=left pbc="F F F"
O        0.31770022      -0.55483014       1.80961787
C        0.96851761      -0.13014263       0.75086770
C        0.17140134       0.39417898      -0.35794098
O        0.64197129       1.33655965      -1.13688897
C       -1.19101635      -0.11804041      -0.60871792
O       -1.48713576      -1.27264767       0.09831362
H        1.52039581      -0.93350176       0.15384313
H        1.53032799       1.58887667      -0.82260818
H        1.80021456       0.59809533       0.92960138
H       -1.32901677      -0.26647099      -1.68907453
H       -1.87341975       0.71374910      -0.34333577
H       -0.95173942      -1.20990304       0.94948720
12
Properties=species:S:1:pos:R:3 relative_energy_eV=0.021911994916081312 branch=left pbc="F F F"
O        0.31894817      -0.55176365       1.81161112
C        0.96980984      -0.13218720       0.75146853
C        0.17175546       0.39551936      -0.35775682
O        0.63978519       1.33929444      -1.13612045
C       -1.19091644      -0.11821840      -0.60763483
O       -1.48767583      -1.27225149       0.10067552
H        1.51634122      -0.93853943       0.15458164
H        1.52755818       1.59621769      -0.82408189
H        1.80582706       0.59388387       0.92453314
H       -1.32422399      -0.26826389      -1.68835156
H       -1.87749501       0.71099059      -0.34582664
H       -0.95151312      -1.20875925       0.95006709
12
Properties=species:S:1:pos:R:3 relative_energy_eV=0.022808279150922317 branch=left pbc="F F F"
O        0.31958531      -0.55004950       1.81247972
C        0.97072566      -0.13268722       0.75199895
C        0.17186128       0.39777520      -0.35726537
O        0.64009736       1.33883842      -1.13852433
C       -1.19113665      -0.11921851      -0.60545630
O       -1.48762140      -1.27288369       0.10456459
H        1.51015633      -0.94188997       0.15319336
H        1.52430620       1.60679159      -0.82535196
H        1.81177583       0.58975911       0.91969922
H       -1.31961479      -0.27119620      -1.68683966
H       -1.88171751       0.70847519      -0.34789942
H       -0.95021701      -1.20779254       0.95256652
12
Properties=species:S:1:pos:R:3 relative_energy_eV=0.02409126745260437 branch=left pbc="F F F"
O        0.32087387      -0.54455582       1.81240072
C        0.97274855      -0.13280112       0.75061937
C        0.17123766       0.40183811      -0.35511638
O        0.63994197       1.33802128      -1.14070282
C       -1.19114562      -0.12043288      -0.60323092
O       -1.48553544      -1.27426193       0.10836393
H        1.49926762      -0.94823483       0.15156168
H        1.51742663       1.62010979      -0.82281045
H        1.82158340       0.58152243       0.91270277
H       -1.31229054      -0.27511168      -1.68541528
H       -1.88661173       0.70573687      -0.35228645
H       -0.94929582      -1.20590912       0.95707963
12
Properties=species:S:1:pos:R:3 relative_energy_eV=0.025527549487378565 branch=left pbc="F F F"
O        0.32192504      -0.53850739       1.81209556
C        0.97400805      -0.13101225       0.74818234
C        0.17054838       0.40566274      -0.35282472
O        0.64015409       1.33666966      -1.14395895
C       -1.19043236      -0.12173585      -0.60151884
O       -1.48192225      -1.27558223       0.11160275
H        1.48684383      -0.95372123       0.14809250
H        1.50972275       1.63210787      -0.81736697
H        1.83127683       0.57255298       0.90660140
H       -1.30616995      -0.28006024      -1.68401800
H       -1.88960996       0.70339756      -0.35637604
H       -0.94814393      -1.20385123       0.96265518
12
Properties=species:S:1:pos:R:3 relative_energy_eV=0.026749853779620025 branch=left pbc="F F F"
O        0.32322680      -0.53101544       1.81234563
C        0.97548985      -0.13006640       0.74525654
C        0.16979386       0.40842983      -0.35054392
O        0.63817224       1.33753309      -1.14443933
C       -1.18923900      -0.12211202      -0.60121371
O       -1.47789700      -1.27612018       0.11243969
H        1.47644175      -0.96040773       0.14623704
H        1.50220152       1.63942802      -0.81042351
H        1.84013988       0.56361137       0.90133894
H       -1.30050390      -0.28339630      -1.68361641
H       -1.89138507       0.70158940      -0.36089179
H       -0.94824041      -1.20155344       0.96667717
12
Properties=species:S:1:pos:R:3 relative_energy_eV=0.02777018457163649 branch=left pbc="F F F"
O        0.32429897      -0.52465570       1.81367774
C        0.97614145      -0.12919010       0.74309497
C        0.16941546       0.40967437      -0.34917739
O        0.63563265       1.33894851      -1.14475338
C       -1.18762240      -0.12223798      -0.60154723
O       -1.47385162      -1.27609467       0.11257198
H        1.46781669      -0.96597012       0.14396219
H        1.49585082       1.64442515      -0.80409185
H        1.84706099       0.55606568       0.89779490
H       -1.29657150      -0.28605994      -1.68350045
H       -1.89167533       0.70019497      -0.36457402
H       -0.94829564      -1.19918006       0.96970893
12
Properties=species:S:1:pos:R:3 relative_energy_eV=0.028923645500981365 branch=left pbc="F F F"
O        0.32614326      -0.51630046       1.81706769
C        0.97716045      -0.13012677       0.74145058
C        0.16919048       0.40995137      -0.34807923
O        0.63049404       1.34254159      -1.14292162
C       -1.18533770      -0.12205412      -0.60282625
O       -1.46884105      -1.27567532       0.11173118
H        1.45831742      -0.97423236       0.14237526
H        1.48809443       1.64955413      -0.79754826
H        1.85500494       0.54664940       0.89398689
H       -1.29164758      -0.28774306      -1.68421829
H       -1.89148190       0.69875685      -0.36978579
H       -0.94889619      -1.19540103       0.97193416
12
Properties=species:S:1:pos:R:3 relative_energy_eV=0.030422465404626564 branch=left pbc="F F F"
O        0.32852007      -0.50818380       1.82287473
C        0.97762511      -0.13241249       0.74155444
C        0.16972861       0.40910766      -0.34810699
O        0.62429153       1.34709919      -1.14087672
C       -1.18233829      -0.12261822      -0.60458617
O       -1.46323204      -1.27545068       0.11155410
H        1.44683684      -0.98314538       0.13990156
H        1.47967388       1.65789452      -0.79319325
H        1.86284532       0.53597458       0.89085846
H       -1.28709203      -0.28967408      -1.68545826
H       -1.88975882       0.69752195      -0.37539448
H       -0.94889957      -1.19019307       0.97403892
12
Properties=species:S:1:pos:R:3 relative_energy_eV=0.03208089382133039 branch=left pbc="F F F"
O        0.33114188      -0.50140491       1.82934170
C        0.97812796      -0.13614197       0.74309879
C        0.17093693       0.40817991      -0.34871121
O        0.61820388       1.35232856      -1.13793670
C       -1.17939806      -0.12403437      -0.60651716
O       -1.45870067      -1.27580512       0.11204509
H        1.43527947      -0.99180973       0.13836421
H        1.47199835       1.66874535      -0.79265079
H        1.86947875       0.52538973       0.88841995
H       -1.28313524      -0.29160554      -1.68728734
H       -1.88698608       0.69684401      -0.38061003
H       -0.94874654      -1.18476587       0.97560993
12
Properties=species:S:1:pos:R:3 relative_energy_eV=0.03360005830836599 branch=left pbc="F F F"
O        0.33299521      -0.49781477       1.83434796
C        0.97818706      -0.13922351       0.74530292
C        0.17275878       0.40775945      -0.34952805
O        0.61429628       1.35655280      -1.13584041
C       -1.17695725      -0.12630686      -0.60797276
O       -1.45634363      -1.27671808       0.11355891
H        1.42540023      -0.99739432       0.13726586
H        1.46672969       1.68042421      -0.79576322
H        1.87363258       0.51696185       0.88738274
H       -1.28111319      -0.29432685      -1.68896258
H       -1.88312817       0.69678348      -0.38367202
H       -0.94825699      -1.18077768       0.97704730
12
Properties=species:S:1:pos:R:3 relative_energy_eV=0.0349110027509596 branch=left pbc="F F F"
O        0.33402691      -0.49584287       1.83718871
C        0.97834133      -0.14132309       0.74700003
C        0.17478303       0.40827355      -0.34981612
O        0.61176149       1.36045004      -1.13372812
C       -1.17495893      -0.12881950      -0.60916879
O       -1.45590484      -1.27776004       0.11515769
H        1.41741449      -1.00109183       0.13745691
H        1.46323891       1.69103244      -0.80026619
H        1.87657869       0.51001494       0.88681534
H       -1.28009171      -0.29756489      -1.69053160
H       -1.87881977       0.69695380      -0.38519577
H       -0.94816904      -1.17840320       0.97825475
12
Properties=species:S:1:pos:R:3 relative_energy_eV=0.036140106656603166 branch=left pbc="F F F"
O        0.33408030      -0.49466641       1.83807821
C        0.97840419      -0.14186847       0.74788448
C        0.17701043       0.40961378      -0.34961553
O        0.60987689       1.36452951      -1.13179286
C       -1.17291375      -0.13150976      -0.61032557
O       -1.45676739      -1.27860638       0.11666026
H        1.41020150      -1.00346778       0.13846413
H        1.46082535       1.70049878      -0.80459059
H        1.87955768       0.50357651       0.88628477
H       -1.27982400      -0.30181559      -1.69193713
H       -1.87368462       0.69694896      -0.38546656
H       -0.94856606      -1.17731409       0.97952343
12
Properties=species:S:1:pos:R:3 relative_energy_eV=0.03745756490570784 branch=left pbc="F F F"
O        0.33330703      -0.49287045       1.83744803
C        0.97869577      -0.14115882       0.74761939
C        0.17907055       0.41174895      -0.34887702
O        0.60738691       1.36989898      -1.12915454
C       -1.17052284      -0.13400622      -0.61188521
O       -1.45821974      -1.27885693       0.11738127
H        1.40312845      -1.00618259       0.14086232
H        1.45864216       1.70792946      -0.80681573
H        1.88408369       0.49669958       0.88477773
H       -1.27944617      -0.30668823      -1.69343484
H       -1.86804435       0.69630592      -0.38538441
H       -0.94988096      -1.17690070       0.98063014
12
Properties=species:S:1:pos:R:3 relative_energy_eV=0.0389410467196285 branch=left pbc="F F F"
O        0.33180957      -0.49045337       1.83606096
C        0.97899298      -0.13935127       0.74647853
C        0.18044380       0.41403892      -0.34812840
O        0.60417078       1.37615697      -1.12632185
C       -1.16787113      -0.13593364      -0.61380254
O       -1.45945082      -1.27830047       0.11720033
H        1.39653276      -1.00936513       0.14398497
H        1.45663679       1.71225622      -0.80573785
H        1.89029206       0.49009582       0.88216349
H       -1.27887122      -0.31140941      -1.69483787
H       -1.86267229       0.69484321      -0.38528389
H       -0.95181273      -1.17665882       0.98139117
12
Properties=species:S:1:pos:R:3 relative_energy_eV=0.04038699791453837 branch=left pbc="F F F"
O        0.33019945      -0.48765904       1.83490707
C        0.97934406      -0.13760991       0.74512211
C        0.18065891       0.41564450      -0.34793468
O        0.60071159       1.38211960      -1.12367807
C       -1.16563536      -0.13682958      -0.61560695
O       -1.45980452      -1.27722766       0.11618311
H        1.39171668      -1.01288170       0.14705733
H        1.45496997       1.71289271      -0.80178549
H        1.89689449       0.48512357       0.87896293
H       -1.27784594      -0.31448990      -1.69585982
H       -1.85913600       0.69304801      -0.38566416
H       -0.95387273      -1.17621126       0.98146345
12
Properties=species:S:1:pos:R:3 relative_energy_eV=0.04184812109815539 branch=left pbc="F F F"
O        0.32846685      -0.48462109       1.83422858
C        0.97973859      -0.13637824       0.74404531
C        0.18009894       0.41626599      -0.34885989
O        0.59717698       1.38780978      -1.12148757
C       -1.16390883      -0.13692380      -0.61685921
O       -1.45937110      -1.27614024       0.11472261
H        1.38845003      -1.01649008       0.14956916
H        1.45368653       1.71140191      -0.79645411
H        1.90339712       0.48151206       0.87586650
H       -1.27627441      -0.31631342      -1.69612174
H       -1.85724604       0.69155156      -0.38646668
H       -0.95601398      -1.17575465       0.98098362
12
Properties=species:S:1:pos:R:3 relative_energy_eV=0.043900803313590586 branch=left pbc="F F F"
O        0.32607811      -0.47984207       1.83354688
C        0.98078020      -0.13630872       0.74315259
C        0.17947700       0.41583528      -0.35166182
O        0.59245206       1.39525424      -1.11888372
C       -1.16257701      -0.13612775      -0.61694982
O       -1.45848454      -1.27563259       0.11246356
H        1.38630544      -1.02137881       0.15204832
H        1.45247742       1.70944922      -0.79090961
H        1.91063682       0.47748890       0.87326968
H       -1.27286913      -0.31796100      -1.69478866
H       -1.85661067       0.69137595      -0.38804757
H       -0.95946494      -1.17623233       0.97992641
12
Properties=species:S:1:pos:R:3 relative_energy_eV=0.048188235427005566 branch=left pbc="F F F"
O        0.32188849      -0.47072053       1.83150580
C        0.98343470      -0.13836751       0.74193101
C        0.18093808       0.41407868      -0.35719191
O        0.58500314       1.40679492      -1.11472377
C       -1.16182060      -0.13401961      -0.61412236
O       -1.45841103      -1.27715426       0.10901523
H        1.38594046      -1.02862387       0.15442101
H        1.45100362       1.71041341      -0.78907292
H        1.91877215       0.47030975       0.87330938
H       -1.26525867      -0.32147132      -1.68970288
H       -1.85674562       0.69513143      -0.39064295
H       -0.96654388      -1.18045022       0.97844024
12
Properties=species:S:1:pos:R:3 relative_energy_eV=0.05431481170853658 branch=left pbc="F F F"
O        0.31787045      -0.46015019       1.82824950
C        0.98718327      -0.14209708       0.73991092
C        0.18513736       0.41254467      -0.36112434
O        0.57770586       1.41733628      -1.10934645
C       -1.16209819      -0.13151980      -0.60954771
O       -1.46042639      -1.28034197       0.10584854
H        1.38824081      -1.03566391       0.15627497
H        1.44914866       1.71545646      -0.79464083
H        1.92365013       0.46179586       0.87682105
H       -1.25590365      -0.32561860      -1.68321382
H       -1.85726231       0.70188276      -0.39329240
H       -0.97504510      -1.18770341       0.97722632
12
Properties=species:S:1:pos:R:3 relative_energy_eV=0.06199799140813411 branch=left pbc="F F F"
O        0.31464918      -0.45035142       1.82473722
C        0.99166535      -0.14651702       0.73666006
C        0.19124167       0.41239870      -0.36049713
O        0.57111015       1.42427497      -1.10321414
C       -1.16289395      -0.12909064      -0.60445273
O       -1.46480652      -1.28370296       0.10350959
H        1.39319067      -1.04196566       0.15797568
H        1.44663522       1.72440580      -0.80810645
H        1.92494656       0.45297147       0.88328218
H       -1.24647346      -0.32932829      -1.67754034
H       -1.85744600       0.70957553      -0.39561039
H       -0.98361801      -1.19674966       0.97642235
12
Properties=species:S:1:pos:R:3 relative_energy_eV=0.06877867684670491 branch=left pbc="F F F"
O        0.31453439      -0.44220066       1.82349434
C        0.99739841      -0.15228660       0.73272231
C        0.19433076       0.41446526      -0.35420892
O        0.56388270       1.42824672      -1.09469221
C       -1.16366262      -0.12632105      -0.60242468
O       -1.46878634      -1.28450653       0.10017015
H        1.39903266      -1.05097025       0.16393265
H        1.44301507       1.73019745      -0.82013666
H        1.92610393       0.44570906       0.88637567
H       -1.23781270      -0.32782613      -1.67696149
H       -1.85940052       0.71342453      -0.39973893
H       -0.99043487      -1.20201093       0.97463367
12
Properties=species:S:1:pos:R:3 relative_energy_eV=0.076573384594667 branch=left pbc="F F F"
O        0.31687907      -0.43199767       1.82465204
C        1.00623427      -0.16065131       0.72841465
C        0.19344330       0.41810826      -0.34134514
O        0.55263404       1.43180744      -1.08071054
C       -1.16424951      -0.12254322      -0.60389776
O       -1.47305862      -1.28223183       0.09424087
H        1.40688663      -1.06570785       0.17563296
H        1.43676223       1.73065854      -0.82927638
H        1.93111083       0.43790523       0.88468198
H       -1.22688470      -0.31910111      -1.68207421
H       -1.86418898       0.71288607      -0.40759203
H       -0.99736758      -1.20321108       0.97043909
12
Properties=species:S:1:pos:R:3 relative_energy_eV=0.08579441349866102 branch=left pbc="F F F"
O        0.31993548      -0.42131437       1.82784710
C        1.01584786      -0.16907169       0.72611277
C        0.18857999       0.42109561      -0.32680603
O        0.53945931       1.43534086      -1.06494436
C       -1.16437000      -0.11883693      -0.60818692
O       -1.47675976      -1.27777619       0.08728890
H        1.41476726      -1.08226762       0.18892908
H        1.42942643       1.72486322      -0.83186325
H        1.94074877       0.43110649       0.87842543
H       -1.21571255      -0.30541641      -1.69087267
H       -1.87062096       0.70825415      -0.41723807
H       -1.00310067      -1.20005459       0.96447286
12
Properties=species:S:1:pos:R:3 relative_energy_eV=0.096479329837166 branch=left pbc="F F F"
O        0.32313153      -0.41158382       1.83240770
C        1.02460780      -0.17662459       0.72666592
C        0.18089518       0.42235796      -0.31546030
O        0.52586875       1.43990457      -1.04998351
C       -1.16424803      -0.11558192      -0.61384037
O       -1.47872868      -1.27285955       0.08023586
H        1.42086690      -1.09872690       0.20217191
H        1.42289452       1.71417722      -0.82678008
H        1.95377123       0.42608837       0.86846329
H       -1.20537758      -0.28946751      -1.70084492
H       -1.87830096       0.70137861      -0.42740241
H       -1.00717926      -1.19313843       0.95753083
12
Properties=species:S:1:pos:R:3 relative_energy_eV=0.10455298913257138 branch=left pbc="F F F"
O        0.32469171      -0.40523552       1.83540101
C        1.02945662      -0.18023088       0.72890363
C        0.17538495       0.42154410      -0.31197577
O        0.51736596       1.44373693      -1.04104704
C       -1.16427421      -0.11419761      -0.61749039
O       -1.47913111      -1.27049557       0.07608778
H        1.42322748      -1.10771972       0.20924012
H        1.41941573       1.70374443      -0.81779794
H        1.96404999       0.42379370       0.86016013
H       -1.19928158      -0.27878493      -1.70711191
H       -1.88384229       0.69652855      -0.43377200
H       -1.00886160      -1.18675830       0.95256556
12
Properties=species:S:1:pos:R:3 relative_energy_eV=0.11373020146493218 branch=left pbc="F F F"
O        0.32549156      -0.39970532       1.83751710
C        1.03352755      -0.18161778       0.73287660
C        0.17178428       0.41732962      -0.31349021
O        0.50899265       1.44821272      -1.03381725
C       -1.16511077      -0.11428457      -0.61984749
O       -1.47994717      -1.27094857       0.07298696
H        1.42356261      -1.11239073       0.21443525
H        1.41707360       1.69137345      -0.80506291
H        1.97543030       0.42183932       0.85148374
H       -1.19329043      -0.26810091      -1.71197266
H       -1.89001176       0.69293628      -0.43941072
H       -1.00930058      -1.17871718       0.94746402
12
Properties=species:S:1:pos:R:3 relative_energy_eV=0.12490200663887663 branch=left pbc="F F F"
O        0.32729080      -0.39400200       1.83758155
C        1.03644405      -0.18080975       0.73497918
C        0.17175271       0.41140396      -0.31925192
O        0.50458694       1.45365827      -1.02651856
C       -1.16790855      -0.11562240      -0.62160491
O       -1.48030458      -1.27471415       0.07043000
H        1.42107804      -1.11283100       0.21911225
H        1.41454384       1.67558935      -0.78692670
H        1.98439586       0.42040169       0.84183212
H       -1.18794879      -0.25878944      -1.71521652
H       -1.89692899       0.69149617      -0.44425396
H       -1.00879931      -1.16985315       0.94299912
12
Properties=species:S:1:pos:R:3 relative_energy_eV=0.13953947898153274 branch=left pbc="F F F"
O        0.33453443      -0.39812748       1.83886504
C        1.03838480      -0.17997412       0.73175069
C        0.17666153       0.40460304      -0.32438701
O        0.49760830       1.45725518      -1.02104788
C       -1.17410249      -0.11621889      -0.62241489
O       -1.48058512      -1.28121044       0.06674604
H        1.41713508      -1.11508948       0.23460945
H        1.41501747       1.67181083      -0.78106149
H        1.98735700       0.41798041       0.83579236
H       -1.18072929      -0.24788827      -1.71576042
H       -1.90572118       0.69338968      -0.45027575
H       -1.00735838      -1.16060227       0.94034511
12
Properties=species:S:1:pos:R:3 relative_energy_eV=0.15741873127808503 branch=left pbc="F F F"
O        0.34534441      -0.39854058       1.83876972
C        1.03808215      -0.18041825       0.72277657
C        0.17887301       0.40266264      -0.32974224
O        0.50471995       1.46511065      -1.01228993
C       -1.18054899      -0.11483909      -0.62545083
O       -1.47469521      -1.28603413       0.06124793
H        1.41027666      -1.12102399       0.25077944
H        1.41133027       1.65994369      -0.76422294
H        1.98315697       0.41914236       0.82484529
H       -1.17778977      -0.24240364      -1.71709358
H       -1.91426647       0.69494622      -0.45576112
H       -1.00628062      -1.15261641       0.93930213
12
Properties=species:S:1:pos:R:3 relative_energy_eV=0.20792630814685253 branch=left pbc="F F F"
O        0.37442216      -0.41978912       1.84431017
C        1.03198693      -0.19176677       0.70368107
C        0.17797386       0.40972587      -0.32948196
O        0.50731006       1.47550958      -1.00693015
C       -1.18880726      -0.10402794      -0.63063136
O       -1.45505202      -1.28762767       0.04987798
H        1.39957823      -1.15231640       0.29906446
H        1.41669171       1.67450645      -0.76821580
H        1.96306659       0.42308828       0.81476776
H       -1.17511616      -0.23610572      -1.71746023
H       -1.92839379       0.69863191      -0.46693501
H       -1.00545773      -1.14389788       0.94111278
12
Properties=species:S:1:pos:R:3 relative_energy_eV=0.28995052177197067 branch=left pbc="F F F"
O        0.40270441      -0.43359882       1.85040444
C        1.02493053      -0.20928048       0.69081269
C        0.16628548       0.42745392      -0.33010133
O        0.51822443       1.49370710      -1.00294290
C       -1.19113696      -0.08874097      -0.63932858
O       -1.42356288      -1.28133472       0.03769248
H        1.38759861      -1.19724550       0.34133357
H        1.42275508       1.68120424      -0.75704544
H        1.93816029       0.43232694       0.79712523
H       -1.18053330      -0.23862081      -1.72108150
H       -1.94094084       0.69837685      -0.47706901
H       -1.00628185      -1.13831489       0.94335861
12
Properties=species:S:1:pos:R:3 relative_energy_eV=0.38406765733998327 branch=left pbc="F F F"
O        0.42064246      -0.43819697       1.85735786
C        1.02327935      -0.22759045       0.69193567
C        0.14886805       0.45073929      -0.33458226
O        0.52428373       1.51432731      -1.00417656
C       -1.18603036      -0.07378338      -0.64807918
O       -1.39031385      -1.26978832       0.02772075
H        1.37741880      -1.24370819       0.36681600
H        1.43245417       1.68098869      -0.73516026
H        1.91663267       0.44135480       0.77701129
H       -1.19095363      -0.24702767      -1.72682715
H       -1.94999757       0.69470394      -0.48409028
H       -1.00808028      -1.13608338       0.94523057
12
Properties=species:S:1:pos:R:3 relative_energy_eV=0.488327278282668 branch=left pbc="F F F"
O        0.42507813      -0.42215390       1.85998954
C        1.02599194      -0.23849858       0.69978644
C        0.13221648       0.47553079      -0.34726810
O        0.53193653       1.53389138      -1.00295998
C       -1.17473615      -0.06408103      -0.65625275
O       -1.36162829      -1.25794116       0.02053696
H        1.36732863      -1.27434458       0.36529844
H        1.43846426       1.65245233      -0.68292228
H        1.90409930       0.44860372       0.75199523
H       -1.20515714      -0.26065003      -1.73506321
H       -1.95516265       0.68818538      -0.48619207
H       -1.01022681      -1.13505487       0.94620581
12
Properties=species:S:1:pos:R:3 relative_energy_eV=0.5784400043721689 branch=left pbc="F F F"
O        0.41965502      -0.39031247       1.85623472
C        1.02855336      -0.23803588       0.70443548
C        0.12317500       0.49440314      -0.36420501
O        0.54461445       1.54604735      -0.99492855
C       -1.16438941      -0.06195650      -0.66305211
O       -1.34472649      -1.25166102       0.01676341
H        1.35867781      -1.27986107       0.34253262
H        1.43644859       1.60048382      -0.61184268
H        1.90253961       0.45340387       0.72767138
H       -1.21804969      -0.27431947      -1.74282598
H       -1.95639911       0.68149632      -0.48398577
H       -1.01189425      -1.13374483       0.94635408
12
Properties=species:S:1:pos:R:3 relative_energy_eV=0.6577049243896909 branch=left pbc="F F F"
O        0.41068045      -0.35090237       1.84687335
C        1.02828408      -0.23176228       0.70572666
C        0.11901546       0.50487357      -0.38075627
O        0.56301308       1.55365512      -0.98229280
C       -1.15837762      -0.06458573      -0.66923331
O       -1.33724414      -1.25139577       0.01526644
H        1.35140776      -1.26755379       0.30979970
H        1.42834976       1.53736049      -0.53470737
H        1.90891029       0.45828695       0.70511279
H       -1.22818586      -0.28599066      -1.74908657
H       -1.95480125       0.67556356      -0.47964293
H       -1.01284653      -1.13160235       0.94608968
12
Properties=species:S:1:pos:R:3 relative_energy_eV=0.7409106634477212 branch=left pbc="F F F"
O        0.40210354      -0.31014453       1.83319773
C        1.02463551      -0.22229425       0.70228612
C        0.11962336       0.51156074      -0.39627682
O        0.58099664       1.55521889      -0.96681704
C       -1.15762255      -0.07030238      -0.67528992
O       -1.33524419      -1.25519303       0.01529167
H        1.34476722      -1.24512132       0.27584486
H        1.41957462       1.47324231      -0.45847184
H        1.91942007       0.46237310       0.68597272
H       -1.23553438      -0.29499034      -1.75340584
H       -1.95114078       0.67048845      -0.47480616
H       -1.01337304      -1.12888785       0.94562195
12
Properties=species:S:1:pos:R:3 relative_energy_eV=0.8375858721701661 branch=left pbc="F F F"
O        0.39480431      -0.26799217       1.81569910
C        1.02054406      -0.21063369       0.69468788
C        0.12180117       0.51117227      -0.40723299
O        0.60708939       1.55707144      -0.94769378
C       -1.16105537      -0.07831598      -0.68109861
O       -1.33703582      -1.26131519       0.01632395
H        1.33854227      -1.21624737       0.24250937
H        1.40436474       1.40719105      -0.38494709
H        1.93079383       0.46671532       0.66801936
H       -1.24130184      -0.30236316      -1.75729073
H       -1.94669009       0.66635942      -0.46979448
H       -1.01365021      -1.12568939       0.94396368
12
Properties=species:S:1:pos:R:3 relative_energy_eV=0.9864632571679977 branch=left pbc="F F F"
O        0.38689803      -0.22701911       1.79951834
C        1.01855688      -0.19590339       0.68056254
C        0.12698350       0.50826775      -0.41487660
O        0.63625554       1.55840193      -0.92676246
C       -1.16719589      -0.08713458      -0.68682386
O       -1.34084852      -1.26875426       0.01820639
H        1.33255998      -1.18481654       0.21123397
H        1.38516478       1.33957645      -0.31381603
H        1.94175498       0.47147220       0.65044707
H       -1.24617960      -0.30864515      -1.76090329
H       -1.94197564       0.66273034      -0.46496645
H       -1.01376719      -1.12222052       0.94132441
12
Properties=species:S:1:pos:R:3 relative_energy_eV=1.1706651681361109 branch=left pbc="F F F"
O        0.37842955      -0.18572303       1.78432368
C        1.01648359      -0.18189280       0.66569156
C        0.13408002       0.50554054      -0.42192291
O        0.66551397       1.56003271      -0.90598804
C       -1.17458677      -0.09653587      -0.69283933
O       -1.34525742      -1.27674780       0.02021635
H        1.32647812      -1.15216676       0.17952033
H        1.36497903       1.27157420      -0.24333035
H        1.95379052       0.47615396       0.63340004
H       -1.25095418      -0.31479191      -1.76441399
H       -1.93706039       0.65907321      -0.46007648
H       -1.01368879      -1.11855875       0.93856155
12
Properties=species:S:1:pos:R:3 relative_energy_eV=1.379447476076166 branch=left pbc="F F F"
O        0.37645189      -0.14887634       1.76610614
C        1.00981348      -0.16355698       0.64302803
C        0.13380532       0.49688870      -0.43031598
O        0.68780239       1.56143743      -0.89099413
C       -1.18897368      -0.10606604      -0.70128594
O       -1.34883598      -1.28436493       0.01975742
H        1.31862949      -1.11396913       0.15419268
H        1.35336552       1.20369760      -0.17081902
H        1.96892918       0.47926077       0.62294954
H       -1.25251853      -0.31823335      -1.76299818
H       -1.92786870       0.65395109      -0.45589104
H       -1.01239279      -1.11420893       0.93941148
12
Properties=species:S:1:pos:R:3 relative_energy_eV=1.4424508200663695 branch=left pbc="F F F"
O        0.37746712      -0.14287911       1.76183121
C        1.00761059      -0.15873190       0.63649724
C        0.13263036       0.49408698      -0.43142024
O        0.69236319       1.56101002      -0.88764177
C       -1.19302902      -0.10778130      -0.70350326
O       -1.34945138      -1.28536633       0.01848486
H        1.31679713      -1.10597954       0.15100931
H        1.35152986       1.19034429      -0.15734937
H        1.97168504       0.48044428       0.62145735
H       -1.25227058      -0.31844309      -1.76161072
H       -1.92528222       0.65257196      -0.45530493
H       -1.01184245      -1.11331602       0.94069111
12
Properties=species:S:1:pos:R:3 relative_energy_eV=1.9091818415654416 branch=left pbc="F F F"
O        0.39286963      -0.14494873       1.75483955
C        1.00553788      -0.16010940       0.63516421
C        0.12689544       0.47936017      -0.41478629
O        0.75917304       1.54380849      -0.82890675
C       -1.20823277      -0.10676106      -0.71120384
O       -1.35889699      -1.28384002       0.01005434
H        1.31982066      -1.10642357       0.16104307
H        1.30116806       1.19749122      -0.21044994
H        1.96364459       0.50771994       0.61014041
H       -1.25091723      -0.31711950      -1.75815317
H       -1.92276777       0.65155673      -0.45686864
H       -1.01008710      -1.11477510       0.94226851
12
Properties=species:S:1:pos:R:3 relative_energy_eV=1.5569911605743982 branch=left pbc="F F F"
O        0.38527456      -0.13531345       1.74504626
C        0.99254498      -0.14560050       0.62292594
C        0.13108491       0.49256830      -0.43439289
O        0.68824309       1.54876092      -0.88105759
C       -1.19781004      -0.10995863      -0.70605042
O       -1.34985941      -1.28647038       0.01491066
H        1.31351641      -1.09190883       0.14976207
H        1.35959569       1.17393716      -0.13278773
H        1.97779598       0.47946983       0.62318504
H       -1.25132829      -0.31811302      -1.75822693
H       -1.92059597       0.64987132      -0.45480890
H       -1.01025418      -1.11128190       0.94463491
12
Properties=species:S:1:pos:R:3 relative_energy_eV=1.6818974606085249 branch=left pbc="F F F"
O        0.37263882      -0.13082845       1.74380391
C        0.98670615      -0.13983979       0.62200905
C        0.13601861       0.51024713      -0.45576316
O        0.61184694       1.56227369      -0.94415302
C       -1.18244010      -0.11257689      -0.69834733
O       -1.33825070      -1.28844272       0.02291608
H        1.30824853      -1.08526780       0.13847837
H        1.41694319       1.16179183      -0.06650470
H        1.99134456       0.44660550       0.63875340
H       -1.25214568      -0.31925240      -1.76047368
H       -1.92111728       0.64992960      -0.45273265
H       -1.01158505      -1.10867744       0.94515324
12
Properties=species:S:1:pos:R:3 relative_energy_eV=1.7165338434497244 branch=left pbc="F F F"
O        0.36926525      -0.13026230       1.74471807
C        0.98701252      -0.14018848       0.62380926
C        0.13704142       0.51728064      -0.46275496
O        0.59330467       1.56440999      -0.95869969
C       -1.17756274      -0.11307605      -0.69563774
O       -1.33524008      -1.28877606       0.02520086
H        1.30725332      -1.08490564       0.13587443
H        1.42952171       1.16068196      -0.05304717
H        1.99383979       0.43831895       0.64259364
H       -1.25230967      -0.31961254      -1.76158230
H       -1.92171945       0.65037283      -0.45217765
H       -1.01219869      -1.10828076       0.94484256
12
Properties=species:S:1:pos:R:3 relative_energy_eV=1.7492565162374376 branch=left pbc="F F F"
O        0.36200987      -0.13116119       1.75487783
C        0.99598633      -0.14342606       0.62442321
C        0.13530794       0.52257533      -0.46970294
O        0.57888479       1.57377638      -0.97625929
C       -1.17089021      -0.11182089      -0.69305483
O       -1.33136409      -1.28871397       0.02968551
H        1.30643019      -1.08699317       0.13353033
H        1.43591901       1.15839898      -0.04428677
H        1.99478913       0.43118748       0.64574974
H       -1.25226764      -0.31999529      -1.76273111
H       -1.92258138       0.65107598      -0.45160714
H       -1.01401586      -1.10894088       0.94251467
12
Properties=species:S:1:pos:R:3 relative_energy_eV=1.8063656165668363 branch=left pbc="F F F"
O        0.37865265      -0.12941070       1.73476882
C        0.96272469      -0.11222733       0.59305204
C        0.14125242       0.50008339      -0.44580076
O        0.59911897       1.55479353      -0.94690355
C       -1.18342002      -0.11287174      -0.69998673
O       -1.33586079      -1.28777992       0.02131140
H        1.30759618      -1.08121438       0.14018703
H        1.42988037       1.15059508      -0.04529465
H        1.99962512       0.44179373       0.64514742
H       -1.25165308      -0.31901205      -1.75854744
H       -1.91893186       0.64857503      -0.45234484
H       -1.01077664      -1.10736203       0.94755053
12
Properties=species:S:1:pos:R:3 relative_energy_eV=1.859740670537576 branch=left pbc="F F F"
O        0.36087584      -0.13653290       1.75908219
C        1.00762765      -0.14915501       0.64785165
C        0.14518310       0.55147106      -0.48850083
O        0.54534445       1.59796937      -1.01932003
C       -1.16397403      -0.10951769      -0.69102109
O       -1.32324882      -1.28702569       0.02951092
H        1.30397846      -1.09369727       0.13124501
H        1.42690711       1.13233258      -0.02697272
H        2.00077058       0.41931341       0.65498816
H       -1.24991623      -0.31960775      -1.75957986
H       -1.91949669       0.64989522      -0.45078240
H       -1.01584330      -1.10948261       0.94663821
12
Properties=species:S:1:pos:R:3 relative_energy_eV=1.877369390331296 branch=left pbc="F F F"
O        0.35946228      -0.13732182       1.76114847
C        1.01179410      -0.15251875       0.65339052
C        0.14581483       0.55690526      -0.49282523
O        0.53972081       1.60239572      -1.02683891
C       -1.16213778      -0.10916289      -0.69021241
O       -1.32192049      -1.28689666       0.03015024
H        1.30357125      -1.09491984       0.13045693
H        1.42620794       1.12975991      -0.02485382
H        2.00109079       0.41708070       0.65613928
H       -1.24966639      -0.31963457      -1.75952967
H       -1.91940124       0.64995573      -0.45062188
H       -1.01632797      -1.10968008       0.94673570
12
Properties=species:S:1:pos:R:3 relative_energy_eV=1.9329873880687956 branch=ts pbc="F F F"
O        0.35353530      -0.14168934       1.76722942
C        1.03027716      -0.18314938       0.68605697
C        0.14889493       0.58400101      -0.51294641
O        0.52143163       1.61930433      -1.05232475
C       -1.15537520      -0.10929851      -0.68547043
O       -1.31744978      -1.28593438       0.03152406
H        1.26232431      -1.11681343       0.12884297
H        1.40838794       1.04639208       0.00340632
H        2.02592186       0.34918321       0.69361563
H       -1.23580327      -0.31855643      -1.75484587
H       -1.90767899       0.65327046      -0.44536757
H       -1.03179739      -1.11150344       0.95287532
12
Properties=species:S:1:pos:R:3 relative_energy_eV=1.8690425532186055 branch=right pbc="F F F"
O        0.34760831      -0.14605686       1.77331038
C        1.04876022      -0.21378001       0.71872342
C        0.15197503       0.61109676      -0.53306759
O        0.50314245       1.63621294      -1.07781059
C       -1.14861262      -0.10943414      -0.68072845
O       -1.31297907      -1.28497209       0.03289788
H        1.22107737      -1.13870702       0.12722901
H        1.39056794       0.96302424       0.03166645
H        2.05075294       0.28128573       0.73109198
H       -1.22194016      -0.31747829      -1.75016206
H       -1.89595674       0.65658520      -0.44011326
H       -1.04726680      -1.11332680       0.95901494
12
Properties=species:S:1:pos:R:3 relative_energy_eV=1.8346436501815333 branch=right pbc="F F F"
O        0.34573357      -0.14784227       1.77493314
C        1.05264369      -0.22394950       0.72793196
C        0.15338899       0.61865597      -0.53842151
O        0.49606544       1.64261569      -1.08724441
C       -1.14733354      -0.10952616      -0.67941025
O       -1.31151703      -1.28462388       0.03312037
H        1.22033086      -1.13776367       0.12816763
H        1.39014848       0.96115628       0.03160692
H        2.05229155       0.27965596       0.73232401
H       -1.22169968      -0.31746284      -1.75003647
H       -1.89571460       0.65662149      -0.44006443
H       -1.04720885      -1.11308741       0.95914515
12
Properties=species:S:1:pos:R:3 relative_energy_eV=1.6400764756635908 branch=right pbc="F F F"
O        0.33325795      -0.16216850       1.78684029
C        1.08286268      -0.28992375       0.79413300
C        0.16485897       0.67471891      -0.57804796
O        0.44337660       1.69040510      -1.15752996
C       -1.13780571      -0.10917188      -0.67080123
O       -1.30055365      -1.28214114       0.03487110
H        1.21480611      -1.13374149       0.13454193
H        1.38388293       0.94183427       0.03333023
H        2.06312914       0.26686886       0.74257361
H       -1.21985491      -0.31735477      -1.74847211
H       -1.89381733       0.65663971      -0.43962779
H       -1.04701393      -1.11151567       0.96024099
12
Properties=species:S:1:pos:R:3 relative_energy_eV=1.4910554431007768 branch=right pbc="F F F"
O        0.32289210      -0.17906629       1.79732479
C        1.11007014      -0.34291795       0.85164178
C        0.17991150       0.72638610      -0.61215553
O        0.39019213       1.73750951      -1.22790457
C       -1.12791470      -0.10706958      -0.66328298
O       -1.29038286      -1.27971128       0.03425690
H        1.20789882      -1.13283483       0.14074832
H        1.37403573       0.92097862       0.03559338
H        2.07760104       0.25172776       0.75822086
H       -1.21857755      -0.31765493      -1.74605977
H       -1.89244144       0.65650554      -0.43934581
H       -1.04615605      -1.10940304       0.96301481
12
Properties=species:S:1:pos:R:3 relative_energy_eV=1.3250372802904167 branch=right pbc="F F F"
O        0.31357755      -0.19656089       1.80749820
C        1.13837675      -0.39620643       0.91125829
C        0.19631720       0.77996261      -0.64658936
O        0.33611933       1.78360040      -1.29827332
C       -1.11788272      -0.10388398      -0.65692124
O       -1.28018498      -1.27769866       0.03385966
H        1.20022750      -1.13286170       0.14661637
H        1.36248959       0.90072355       0.03634640
H        2.09175476       0.23626831       0.77486734
H       -1.21720945      -0.31791642      -1.74319924
H       -1.89095223       0.65634988      -0.43900043
H       -1.04550441      -1.10732704       0.96558958
12
Properties=species:S:1:pos:R:3 relative_energy_eV=1.2041951791252359 branch=right pbc="F F F"
O        0.30454557      -0.21426687       1.81681099
C        1.16590462      -0.44826101       0.97133788
C        0.21111390       0.83281611      -0.68218996
O        0.28262898       1.83033786      -1.36866077
C       -1.10722267      -0.10133506      -0.64921811
O       -1.27023808      -1.27544978       0.03303887
H        1.19285926      -1.13301068       0.15235584
H        1.35187159       0.87972908       0.03872298
H        2.10609953       0.22101900       0.79094021
H       -1.21600100      -0.31827125      -1.74059782
H       -1.88972902       0.65635769      -0.43884210
H       -1.04470378      -1.10521546       0.96835432
12
Properties=species:S:1:pos:R:3 relative_energy_eV=1.1141866189318534 branch=right pbc="F F F"
O        0.30025180      -0.22743538       1.82240424
C        1.18281445      -0.46441835       0.99462367
C        0.21462015       0.86190220      -0.70404139
O        0.25880305       1.84580738      -1.39656916
C       -1.10107321      -0.09684071      -0.64892127
O       -1.26455315      -1.27436977       0.03287976
H        1.18804448      -1.13503995       0.15809597
H        1.34297639       0.87420990       0.03338376
H        2.11238144       0.20697674       0.80531376
H       -1.21530040      -0.31822349      -1.73695494
H       -1.88844051       0.65563040      -0.43868699
H       -1.04339556      -1.10374935       0.97052496
12
Properties=species:S:1:pos:R:3 relative_energy_eV=0.8156376874612761 branch=right pbc="F F F"
O        0.30178937      -0.27252733       1.83372962
C        1.22370980      -0.48427031       1.04333448
C        0.21756276       0.92299815      -0.75142639
O        0.20257530       1.88740786      -1.46803831
C       -1.08354062      -0.07725295      -0.65659873
O       -1.24659351      -1.26951100       0.03272894
H        1.17229519      -1.14554055       0.18081519
H        1.30584681       0.86999005       0.00127475
H        2.12827929       0.15692789       0.86165749
H       -1.21317314      -0.31759192      -1.72386096
H       -1.88343991       0.65275620      -0.43772617
H       -1.03818236      -1.09893651       0.97616266
12
Properties=species:S:1:pos:R:3 relative_energy_eV=0.4863905240981694 branch=right pbc="F F F"
O        0.32247616      -0.32485862       1.84818400
C        1.25136368      -0.48646155       1.06874323
C        0.21597488       0.98067819      -0.79681990
O        0.15003804       1.91804761      -1.53107278
C       -1.06326715      -0.05112731      -0.66745467
O       -1.22302233      -1.25865059       0.03094269
H        1.15702952      -1.16197655       0.21485356
H        1.24879273       0.86948820      -0.04706768
H        2.14856703       0.09864238       0.94034171
H       -1.21159764      -0.31691970      -1.71188480
H       -1.87759562       0.65036333      -0.43637292
H       -1.03163024      -1.09277584       0.97966042
12
Properties=species:S:1:pos:R:3 relative_energy_eV=0.20204769353222218 branch=right pbc="F F F"
O        0.34808678      -0.37074243       1.86777845
C        1.26510150      -0.48702285       1.08243145
C        0.21231759       1.02353736      -0.83238652
O        0.10401712       1.94723880      -1.58902231
C       -1.04486940      -0.02544466      -0.67653327
O       -1.19767215      -1.24523209       0.02789806
H        1.14640884      -1.18248980       0.24652784
H        1.18283463       0.86831269      -0.09780283
H        2.17928885       0.04878725       1.02140117
H       -1.21038204      -0.31606920      -1.70400378
H       -1.87239953       0.64992611      -0.43530983
H       -1.02560305      -1.08635166       0.98107466
12
Properties=species:S:1:pos:R:3 relative_energy_eV=-0.03980222194331873 branch=right pbc="F F F"
O        0.37874492      -0.40544037       1.89540375
C        1.26262049      -0.47194996       1.06673563
C        0.19524488       1.04495535      -0.85685566
O        0.07904394       1.95316844      -1.61671131
C       -1.03256599       0.00171915      -0.68997232
O       -1.17081946      -1.22919341       0.02398721
H        1.14280108      -1.20819773       0.27294705
H        1.11017721       0.87076660      -0.15215263
H        2.21862575       0.00973549       1.10463318
H       -1.20909703      -0.31395470      -1.70057084
H       -1.86732750       0.65214627      -0.43426254
H       -1.02031909      -1.07930560       0.97887177
12
Properties=species:S:1:pos:R:3 relative_energy_eV=-0.17907408265818958 branch=right pbc="F F F"
O        0.40950554      -0.42845120       1.93149935
C        1.26802349      -0.48309871       1.07550422
C        0.17187955       1.05524483      -0.87384137
O        0.04717407       1.97597603      -1.66266861
C       -1.02669783       0.02453784      -0.70111714
O       -1.13712690      -1.20876433       0.01703126
H        1.14349756      -1.23330205       0.28673384
H        1.03634885       0.86206992      -0.19993333
H        2.26138942      -0.02018096       1.18438047
H       -1.20742457      -0.31009245      -1.70611068
H       -1.86329654       0.65960184      -0.43270370
H       -1.01614342      -1.06909126       0.97327915
12
Properties=species:S:1:pos:R:3 relative_energy_eV=-0.30317637076404935 branch=right pbc="F F F"
O        0.42677659      -0.41223235       1.94812765
C        1.26494661      -0.48546562       1.06860262
C        0.14306100       1.03200516      -0.86702065
O        0.06145015       1.95745011      -1.64256433
C       -1.03923956       0.02608144      -0.70881926
O       -1.12257918      -1.19848227       0.01016971
H        1.15464241      -1.23892713       0.27721679
H        1.01884358       0.85540424      -0.20558378
H        2.26863082      -0.01239434       1.19687805
H       -1.20782894      -0.30573482      -1.71999103
H       -1.86524010       0.66855174      -0.43168223
H       -1.01633413      -1.06180665       0.96671988
12
Properties=species:S:1:pos:R:3 relative_energy_eV=-0.4957019715457136 branch=right pbc="F F F"
O        0.46347826      -0.38142165       1.98803417
C        1.28996365      -0.53367400       1.11048677
C        0.08165733       1.00607388      -0.87307698
O        0.06078082       1.94703192      -1.64193244
C       -1.06611475       0.02610889      -0.72239424
O       -1.07830058      -1.17277078      -0.01024022
H        1.18067151      -1.24398081       0.26118224
H        0.97303680       0.82127572      -0.21257473
H        2.28395516      -0.00597860       1.22657424
H       -1.21169100      -0.29369042      -1.75656738
H       -1.87519655       0.69274325      -0.42929433
H       -1.01511144      -1.03726788       0.95185629
12
Properties=species:S:1:pos:R:3 relative_energy_eV=-0.5716614786633727 branch=right pbc="F F F"
O        0.48135644      -0.37844072       2.01077210
C        1.31580179      -0.55729071       1.13926808
C        0.05569291       1.00451699      -0.88827965
O        0.04918814       1.94476372      -1.65004305
C       -1.08092204       0.03176266      -0.73623226
O       -1.04858547      -1.16121682      -0.01996661
H        1.19686244      -1.24295452       0.26933396
H        0.93938922       0.80203142      -0.22145452
H        2.29521082      -0.01926795       1.24948703
H       -1.21946711      -0.28553235      -1.77356461
H       -1.88603967       0.70384025      -0.42960323
H       -1.01135828      -1.01776247       0.94233616
12
Properties=species:S:1:pos:R:3 relative_energy_eV=-0.6849311785263126 branch=right pbc="F F F"
O        0.51833676      -0.38350379       2.04635137
C        1.36422801      -0.59317565       1.20113526
C        0.01684890       1.00053039      -0.91535502
O        0.02430538       1.93965142      -1.66519892
C       -1.11607893       0.04699874      -0.77232279
O       -0.98885746      -1.14177976      -0.03849607
H        1.23291621      -1.23573802       0.30110992
H        0.87603244       0.76852273      -0.23937846
H        2.32024408      -0.05495609       1.29037295
H       -1.24500000      -0.26862714      -1.80489861
H       -1.91484176       0.71930289      -0.43287877
H       -1.00100443      -0.97277623       0.92161261
12
Properties=species:S:1:pos:R:3 relative_energy_eV=-0.7403422556089936 branch=right pbc="F F F"
O        0.53280260      -0.39268784       2.06492382
C        1.39276711      -0.60304481       1.22783273
C        0.00706142       0.99582078      -0.92252989
O        0.01338352       1.93619771      -1.67058972
C       -1.13673532       0.05498780      -0.79478100
O       -0.96125403      -1.13045925      -0.04856663
H        1.25379287      -1.23051547       0.32970871
H        0.84838122       0.75590647      -0.24823261
H        2.33821072      -0.07629310       1.30747596
H       -1.27014076      -0.26045432      -1.82205612
H       -1.93718135       0.71995112      -0.43741928
H       -0.99395881      -0.94495961       0.90628756
12
Properties=species:S:1:pos:R:3 relative_energy_eV=-0.7977300901820854 branch=right pbc="F F F"
O        0.54941337      -0.40868917       2.07915036
C        1.41356304      -0.60801876       1.25754009
C        0.00659138       0.99477246      -0.92404607
O        0.00443239       1.93212207      -1.67428792
C       -1.15744841       0.06266921      -0.81928241
O       -0.94116055      -1.11761723      -0.06068830
H        1.27503719      -1.22709427       0.36736498
H        0.83031835       0.74804584      -0.25581794
H        2.36715378      -0.09499711       1.32187990
H       -1.30923687      -0.25351654      -1.84089451
H       -1.96567314       0.71028059      -0.44552594
H       -0.98586137      -0.91350763       0.88666130
12
Properties=species:S:1:pos:R:3 relative_energy_eV=-0.8457641381573922 branch=right pbc="F F F"
O        0.55781040      -0.42036057       2.09520695
C        1.43162014      -0.60725655       1.27325133
C        0.00654968       0.99068231      -0.91711464
O        0.00584997       1.92928630      -1.67264541
C       -1.16960761       0.06858349      -0.83751348
O       -0.93767873      -1.10791401      -0.07338020
H        1.28887406      -1.23120164       0.39678721
H        0.83035657       0.74907544      -0.25910594
H        2.39496771      -0.10164987       1.32988647
H       -1.35049212      -0.24949409      -1.85677880
H       -1.99088206       0.69320378      -0.45519568
H       -0.98023889      -0.88850512       0.86865572
12
Properties=species:S:1:pos:R:3 relative_energy_eV=-0.8990536436358525 branch=right pbc="F F F"
O        0.57367873      -0.43461123       2.11516708
C        1.44871504      -0.60952743       1.29770403
C        0.00288441       0.99532453      -0.91445332
O        0.00962223       1.93068642      -1.67326339
C       -1.17985126       0.07328080      -0.85617304
O       -0.94318960      -1.09748787      -0.09084483
H        1.30054717      -1.24490696       0.42774776
H        0.83986599       0.75455900      -0.26277067
H        2.43170607      -0.10439927       1.34423398
H       -1.40305728      -0.24454582      -1.87355394
H       -2.01928089       0.66691339      -0.46872072
H       -0.97451147      -0.86083611       0.84698060
12
Properties=species:S:1:pos:R:3 relative_energy_eV=-0.9382431551857735 branch=right pbc="F F F"
O        0.59401820      -0.44514636       2.14068274
C        1.46905716      -0.61632742       1.31892654
C       -0.01025312       1.00237313      -0.92154828
O        0.01395156       1.93943600      -1.67888005
C       -1.18802567       0.07640166      -0.87043598
O       -0.95044895      -1.08915984      -0.10742326
H        1.30869259      -1.26491350       0.45125078
H        0.84456459       0.76131688      -0.27055773
H        2.46147122      -0.10733944       1.36865265
H       -1.44527588      -0.23815798      -1.88580109
H       -2.04072693       0.64511377      -0.48100709
H       -0.96989565      -0.83914744       0.82819432
12
Properties=species:S:1:pos:R:3 relative_energy_eV=-0.9681303220313566 branch=right pbc="F F F"
O        0.62265062      -0.45588954       2.16927051
C        1.49227239      -0.62995145       1.34457779
C       -0.02894205       1.01380992      -0.94215941
O        0.01273430       1.95477268      -1.69205984
C       -1.19976575       0.07935443      -0.88405871
O       -0.95142848      -1.08125418      -0.12212770
H        1.31884073      -1.28543252       0.47519219
H        0.83506981       0.76506679      -0.28433380
H        2.48628343      -0.11752151       1.40428327
H       -1.47747844      -0.22954968      -1.89594984
H       -2.05854194       0.63136610      -0.49147022
H       -0.96456546      -0.82032160       0.81088935
12
Properties=species:S:1:pos:R:3 relative_energy_eV=-0.9994221656015725 branch=right pbc="F F F"
O        0.66583003      -0.47193039       2.21190013
C        1.52917088      -0.65271831       1.38366626
C       -0.05678178       1.02863120      -0.97825511
O        0.00473848       1.97836732      -1.71516877
C       -1.22077494       0.08569737      -0.90505243
O       -0.94331016      -1.06894599      -0.14146893
H        1.33897121      -1.30989525       0.51261052
H        0.80524180       0.76629958      -0.30924382
H        2.51709556      -0.14101931       1.45946847
H       -1.51442031      -0.21688495      -1.91129046
H       -2.08307493       0.62195520      -0.50344674
H       -0.95555668      -0.79510705       0.78833452
12
Properties=species:S:1:pos:R:3 relative_energy_eV=-1.0302548958279658 branch=right pbc="F F F"
O        0.72573454      -0.49757215       2.27329294
C        1.58317848      -0.68564290       1.44429906
C       -0.09445317       1.04859922      -1.02912606
O       -0.01281796       2.00945933      -1.75021062
C       -1.25303551       0.09812948      -0.93793454
O       -0.92465093      -1.04723527      -0.16949461
H        1.37370406      -1.33986616       0.57099906
H        0.75224315       0.76461834      -0.34826678
H        2.56432356      -0.18121872       1.53791287
H       -1.56610998      -0.20048514      -1.93679289
H       -2.12009197       0.61356558      -0.51881842
H       -0.94089508      -0.75790219       0.75619376
12
Properties=species:S:1:pos:R:3 relative_energy_eV=-1.0451061271287472 branch=right pbc="F F F"
O        0.77485715      -0.52100227       2.32790017
C        1.62832833      -0.71364795       1.49754991
C       -0.12473493       1.06653090      -1.07472644
O       -0.03293156       2.03668516      -1.78323088
C       -1.28288103       0.11020115      -0.96582025
O       -0.90885956      -1.02473130      -0.19387670
H        1.40988419      -1.36305833       0.62395916
H        0.69804278       0.76346572      -0.38647597
H        2.60641256      -0.22205264       1.60583872
H       -1.60469962      -0.18986295      -1.95902588
H       -2.15007367       0.61266823      -0.53007577
H       -0.92621547      -0.73074633       0.73003779
12
Properties=species:S:1:pos:R:3 relative_energy_eV=-1.0616057527240628 branch=right pbc="F F F"
O        0.76450642      -0.51795087       2.32139157
C        1.61849300      -0.70837210       1.48943935
C       -0.11669605       1.06491823      -1.07192290
O       -0.03405534       2.03536134      -1.78091488
C       -1.28128554       0.10888042      -0.95932588
O       -0.91759277      -1.02617676      -0.18977213
H        1.41349135      -1.35703484       0.61917548
H        0.69977763       0.76736931      -0.38560008
H        2.59801465      -0.22274344       1.59327764
H       -1.58920504      -0.19679128      -1.95431365
H       -2.14246574       0.62197679      -0.52597276
H       -0.92585339      -0.74498742       0.73659210
12
Properties=species:S:1:pos:R:3 relative_energy_eV=-1.0829297817454062 branch=right pbc="F F F"
O        0.75996710      -0.51849808       2.32838862
C        1.61452169      -0.70710988       1.49787023
C       -0.11620911       1.06361097      -1.07477526
O       -0.04067506       2.03816676      -1.78408547
C       -1.28839902       0.11458809      -0.96115124
O       -0.93288201      -1.02258200      -0.19348378
H        1.43731517      -1.35435199       0.62883033
H        0.69367561       0.77589848      -0.39413578
H        2.60270120      -0.23452896       1.58683739
H       -1.58035850      -0.20877459      -1.95683493
H       -2.14322274       0.63881864      -0.52376463
H       -0.91930515      -0.76078806       0.73835837
12
Properties=species:S:1:pos:R:3 relative_energy_eV=-1.0938651574215328 branch=right pbc="F F F"
O        0.76295094      -0.52421505       2.34280384
C        1.62139413      -0.71121116       1.51498371
C       -0.12241101       1.07120769      -1.08428535
O       -0.04937464       2.04523818      -1.79337875
C       -1.29577415       0.12101985      -0.96660431
O       -0.94640432      -1.01848074      -0.20075982
H        1.45809889      -1.36009700       0.64512598
H        0.69037938       0.78362891      -0.40395864
H        2.61720544      -0.24679913       1.59376095
H       -1.58631935      -0.21596860      -1.96152610
H       -2.15021186       0.64699730      -0.52729588
H       -0.91240429      -0.76687087       0.73318819
12
Properties=species:S:1:pos:R:3 relative_energy_eV=-1.1030529337422195 branch=right pbc="F F F"
O        0.77485365      -0.53279552       2.36605220
C        1.63653348      -0.71998642       1.54155958
C       -0.13944552       1.08109366      -1.09874947
O       -0.06233636       2.05486203      -1.80838746
C       -1.30711785       0.13006751      -0.97700168
O       -0.95838563      -1.01183345      -0.21319439
H        1.48459125      -1.37296852       0.66857473
H        0.68241827       0.79181653      -0.41985367
H        2.64142500      -0.26322883       1.61486710
H       -1.60014638      -0.22093904      -1.96884454
H       -2.16194396       0.65639244      -0.53551530
H       -0.90331679      -0.76803102       0.72254675
12
Properties=species:S:1:pos:R:3 relative_energy_eV=-1.108006633909099 branch=right pbc="F F F"
O        0.78565332      -0.53994065       2.38141871
C        1.65052283      -0.72754540       1.56001414
C       -0.15285221       1.08973989      -1.11003006
O       -0.07453075       2.06110980      -1.82107439
C       -1.31498015       0.13499841      -0.98331329
O       -0.96349348      -1.00742371      -0.22194913
H        1.50072793      -1.38378232       0.68596096
H        0.67592757       0.79655830      -0.43183383
H        2.65930696      -0.27458486       1.63594629
H       -1.61153005      -0.22147926      -1.97278514
H       -2.17009833       0.66260768      -0.54388407
H       -0.89752447      -0.76580855       0.71358367
12
Properties=species:S:1:pos:R:3 relative_energy_eV=-1.1136233968900342 branch=right pbc="F F F"
O        0.79778059      -0.54703318       2.39481961
C        1.66745392      -0.73605136       1.57885308
C       -0.16825703       1.09717319      -1.12051145
O       -0.09185566       2.06528128      -1.83546872
C       -1.32374289       0.13900873      -0.98874973
O       -0.96729397      -1.00350723      -0.23113834
H        1.51841775      -1.39582291       0.70480749
H        0.66917924       0.80187568      -0.44522187
H        2.67844883      -0.28611073       1.66220398
H       -1.62304524      -0.22020895      -1.97555677
H       -2.17829055       0.67238787      -0.55546791
H       -0.89166581      -0.76254307       0.70348449
12
Properties=species:S:1:pos:R:3 relative_energy_eV=-1.119792838126159 branch=right pbc="F F F"
O        0.80624870      -0.55210666       2.40032840
C        1.68336024      -0.74305892       1.59294923
C       -0.18026885       1.10156700      -1.12719316
O       -0.11367736       2.06514920      -1.84865937
C       -1.33061925       0.14078664      -0.99039865
O       -0.97159893      -1.00222667      -0.23777804
H        1.53514569      -1.40614328       0.72103182
H        0.66628543       0.80844361      -0.45666169
H        2.69419465      -0.29479927       1.68722881
H       -1.63084562      -0.21789990      -1.97544153
H       -2.18406042       0.68560680      -0.56868642
H       -0.88703511      -0.76086925       0.69533446
12
Properties=species:S:1:pos:R:3 relative_energy_eV=-1.1255602013134194 branch=right pbc="F F F"
O        0.80825641      -0.55290743       2.39540191
C        1.69381869      -0.74660446       1.59836850
C       -0.18529922       1.10010012      -1.12831531
O       -0.13566517       2.06009652      -1.85688950
C       -1.33372358       0.14020533      -0.98788374
O       -0.97665643      -1.00417677      -0.23925010
H        1.54860189      -1.41215274       0.73008473
H        0.66821732       0.81572474      -0.46350423
H        2.70230090      -0.29827199       1.70476259
H       -1.63221432      -0.21516334      -1.97279705
H       -2.18578040       0.69967776      -0.57993838
H       -0.88472694      -0.76207844       0.69201440
12
Properties=species:S:1:pos:R:3 relative_energy_eV=-1.129667002498536 branch=right pbc="F F F"
O        0.80485997      -0.55011233       2.38461851
C        1.69705613      -0.74667365       1.59623728
C       -0.18316600       1.09512607      -1.12669861
O       -0.15123746       2.05377150      -1.85914784
C       -1.33310443       0.13842116      -0.98358787
O       -0.98234350      -1.00772472      -0.23599821
H        1.55719561      -1.41387882       0.73125349
H        0.67277871       0.82223012      -0.46556747
H        2.70271030      -0.29730474       1.71222601
H       -1.62888722      -0.21295045      -1.96997482
H       -2.18409953       0.70877785      -0.58553423
H       -0.88463346      -0.76523271       0.69422756
12
Properties=species:S:1:pos:R:3 relative_energy_eV=-1.1330318827822339 branch=right pbc="F F F"
O        0.80005778      -0.54575196       2.37350540
C        1.69777588      -0.74586336       1.59265195
C       -0.17916801       1.08961653      -1.12588291
O       -0.16232731       2.04869506      -1.85916559
C       -1.33148152       0.13655494      -0.98038464
O       -0.98929823      -1.01098243      -0.23062258
H        1.56533749      -1.41498677       0.72952449
H        0.67766868       0.82852742      -0.46641419
H        2.70101814      -0.29508978       1.71629403
H       -1.62543164      -0.21091058      -1.96875306
H       -2.18176676       0.71299158      -0.58745985
H       -0.88525541      -0.76835138       0.69876073
12
Properties=species:S:1:pos:R:3 relative_energy_eV=-1.1369266423953377 branch=right pbc="F F F"
O        0.79542485      -0.54038027       2.36234850
C        1.70031205      -0.74611224       1.59129700
C       -0.17617422       1.08482060      -1.12799015
O       -0.17457521       2.04503012      -1.86042041
C       -1.33043772       0.13459066      -0.97902438
O       -0.99982944      -1.01369047      -0.22405693
H        1.57881976      -1.41856964       0.72874124
H        0.68258436       0.83685722      -0.46932120
H        2.70122894      -0.29354352       1.72394281
H       -1.62436619      -0.20816611      -1.96977929
H       -2.18011502       0.71401461      -0.58823528
H       -0.88574312      -0.77040173       0.70455182
12
Properties=species:S:1:pos:R:3 relative_energy_eV=-1.141016625566408 branch=right pbc="F F F"
O        0.79348005      -0.53555422       2.35402089
C        1.70758316      -0.74912057       1.59573688
C       -0.17771883       1.08313573      -1.13423319
O       -0.18850263       2.04405669      -1.86536501
C       -1.33166246       0.13303432      -0.98102401
O       -1.01247041      -1.01454656      -0.21808772
H        1.59934880      -1.42604698       0.73212202
H        0.68521112       0.84639791      -0.47657949
H        2.70653424      -0.29470908       1.73900963
H       -1.62833324      -0.20473284      -1.97395546
H       -2.18068273       0.71166332      -0.58867378
H       -0.88565807      -0.76912850       0.70908294
12
Properties=species:S:1:pos:R:3 relative_energy_eV=-1.144467548781904 branch=right pbc="F F F"
O        0.79512214      -0.53310615       2.35039477
C        1.71880483      -0.75464874       1.60564523
C       -0.18464073       1.08599165      -1.14252380
O       -0.20120338       2.04588719      -1.87385426
C       -1.33544005       0.13231578      -0.98569478
O       -1.02268385      -1.01314336      -0.21517064
H        1.62212403      -1.43543573       0.74006449
H        0.68382251       0.85416877      -0.48748540
H        2.71644515      -0.29905898       1.75905097
H       -1.63644810      -0.20193158      -1.97982844
H       -2.18351215       0.70719351      -0.58891763
H       -0.88526142      -0.76378318       0.71037315
12
Properties=species:S:1:pos:R:3 relative_energy_eV=-1.1472456260362378 branch=right pbc="F F F"
O        0.79809539      -0.53253522       2.34869708
C        1.73064591      -0.76081130       1.61683758
C       -0.19418463       1.09144063      -1.14932176
O       -0.21077656       2.04855711      -1.88332823
C       -1.34032523       0.13215063      -0.99058998
O       -1.02797311      -1.01070865      -0.21476393
H        1.64204070      -1.44360546       0.74950024
H        0.67981935       0.85881256      -0.49922860
H        2.72725942      -0.30461191       1.77869140
H       -1.64487782      -0.20078267      -1.98483889
H       -2.18701430       0.70256952      -0.58851571
H       -0.88558018      -0.75602608       0.70891441
12
Properties=species:S:1:pos:R:3 relative_energy_eV=-1.1497635583436931 branch=right pbc="F F F"
O        0.80009645      -0.53251680       2.34527046
C        1.74162983      -0.76644478       1.62662669
C       -0.20391755       1.09753069      -1.15356775
O       -0.21845408       2.05051548      -1.89251228
C       -1.34535604       0.13211761      -0.99395752
O       -1.02965107      -1.00846688      -0.21572087
H        1.65928223      -1.44988812       0.75867377
H        0.67525287       0.86184223      -0.51103645
H        2.73710743      -0.31008387       1.79661300
H       -1.65127328      -0.20170675      -1.98752449
H       -2.19027039       0.69896749      -0.58721996
H       -0.88731748      -0.74741715       0.70640899
12
Properties=species:S:1:pos:R:3 relative_energy_eV=-1.1521081384635181 branch=right pbc="F F F"
O        0.79964042      -0.53185788       2.33758533
C        1.75064808      -0.77075941       1.63317303
C       -0.21166732       1.10244629      -1.15548757
O       -0.22540827       2.05090448      -1.90029714
C       -1.34970874       0.13197916      -0.99477358
O       -1.02924845      -1.00707402      -0.21647218
H        1.67450217      -1.45433075       0.76616124
H        0.67197374       0.86498900      -0.52224013
H        2.74465603      -0.31452449       1.81231089
H       -1.65429983      -0.20471587      -1.98708410
H       -2.19301227       0.69687819      -0.58481964
H       -0.89094665      -0.73948558       0.70399743
12
Properties=species:S:1:pos:R:3 relative_energy_eV=-1.154282171111845 branch=right pbc="F F F"
O        0.79663554      -0.53004855       2.32542261
C        1.75778882      -0.77380379       1.63663655
C       -0.21643388       1.10542301      -1.15681214
O       -0.23312677       2.05010218      -1.90666380
C       -1.35316634       0.13189507      -0.99308480
O       -1.02884558      -1.00651777      -0.21650747
H        1.68942453      -1.45812162       0.77191280
H        0.67115517       0.87009919      -0.53293137
H        2.75001960      -0.31801306       1.82687248
H       -1.65435866      -0.20950217      -1.98372065
H       -2.19577442       0.69629821      -0.58165776
H       -0.89618914      -0.73336158       0.70258710
12
Properties=species:S:1:pos:R:3 relative_energy_eV=-1.1562187815106881 branch=right pbc="F F F"
O        0.79245427      -0.52734170       2.31110571
C        1.76344053      -0.77611280       1.63833095
C       -0.21846459       1.10647861      -1.15937036
O       -0.24174766       2.04923098      -1.91182161
C       -1.35579238       0.13231383      -0.99014676
O       -1.02907321      -1.00605495      -0.21567948
H        1.70439691      -1.46230702       0.77627191
H        0.67285919       0.87740636      -0.54278513
H        2.75378276      -0.32103037       1.84103292
H       -1.65319714      -0.21510441      -1.97872155
H       -2.19931184       0.69646858      -0.57837232
H       -0.90221800      -0.72949799       0.70220925
12
Properties=species:S:1:pos:R:3 relative_energy_eV=-1.1577935192872246 branch=right pbc="F F F"
O        0.78929551      -0.52481792       2.29872449
C        1.76871017      -0.77862000       1.64050496
C       -0.21935337       1.10688068      -1.16446805
O       -0.25091721       2.04969316      -1.91672779
C       -1.35807343       0.13367419      -0.98784201
O       -1.02968743      -1.00469784      -0.21501997
H        1.71918571      -1.46768390       0.78050741
H        0.67570189       0.88583016      -0.55186741
H        2.75734076      -0.32469925       1.85568715
H       -1.65334170      -0.22024226      -1.97409315
H       -2.20409491       0.69656516      -0.57603248
H       -0.90763716      -0.72743306       0.70268036
12
Properties=species:S:1:pos:R:3 relative_energy_eV=-1.159023535434244 branch=right pbc="F F F"
O        0.78870619      -0.52349614       2.29115877
C        1.77440519      -0.78200428       1.64463640
C       -0.22103803       1.10808322      -1.17177219
O       -0.25962943       2.05204856      -1.92217748
C       -1.36047676       0.13598443      -0.98759337
O       -1.02899890      -1.00165178      -0.21510119
H        1.73276050      -1.47391545       0.78554193
H        0.67743746       0.89323394      -0.56041797
H        2.76168839      -0.32988479       1.87101451
H       -1.65629677      -0.22392111      -1.97139989
H       -2.20979964       0.69595625      -0.57511198
H       -0.91162938      -0.72598378       0.70327594
12
Properties=species:S:1:pos:R:3 relative_energy_eV=-1.1600886305459426 branch=right pbc="F F F"
O        0.79034063      -0.52348148       2.28745864
C        1.78165109      -0.78678959       1.65144838
C       -0.22485196       1.11114469      -1.18071936
O       -0.26884410       2.05606872      -1.92939854
C       -1.36354304       0.13900843      -0.98934118
O       -1.02625100      -0.99673665      -0.21623096
H        1.74665513      -1.48104840       0.79236811
H        0.67702845       0.89942257      -0.57010961
H        2.76779764      -0.33746248       1.88878548
H       -1.66217383      -0.22643966      -1.97058301
H       -2.21610965       0.69484936      -0.57555207
H       -0.91457054      -0.72408643       0.70392760
12
Properties=species:S:1:pos:R:3 relative_energy_eV=-1.1611996212086524 branch=right pbc="F F F"
O        0.79378554      -0.52463396       2.28568890
C        1.79111645      -0.79334805       1.66135979
C       -0.23163247       1.11658939      -1.19138708
O       -0.27988741       2.06161805      -1.93937321
C       -1.36769866       0.14273397      -0.99275773
O       -1.02038553      -0.98950173      -0.21814291
H        1.76287061      -1.48937950       0.80179803
H        0.67401130       0.90502999      -0.58289310
H        2.77628706      -0.34859839       1.91136059
H       -1.67089978      -0.22841025      -1.97103028
H       -2.22312313       0.69355304      -0.57714428
H       -0.91731518      -0.72120347       0.70457476
12
Properties=species:S:1:pos:R:3 relative_energy_eV=-1.1622394723381149 branch=right pbc="F F F"
O        0.79744668      -0.52617679       2.28321817
C        1.80267112      -0.80115989       1.67344653
C       -0.24106972       1.12382170      -1.20242467
O       -0.29383975       2.06744707      -1.95185746
C       -1.37273041       0.14624740      -0.99663975
O       -1.01301572      -0.98120642      -0.22013512
H        1.78256806      -1.49839612       0.81352750
H        0.66924646       0.91097560      -0.59916024
H        2.78673143      -0.36268208       1.93835960
H       -1.68099400      -0.23001914      -1.97200133
H       -2.22973317       0.69300943      -0.57976777
H       -0.92015220      -0.71741167       0.70548802
12
Properties=species:S:1:pos:R:3 relative_energy_eV=-1.1630478204697283 branch=right pbc="F F F"
O        0.80099825      -0.52797173       2.28073492
C        1.81227228      -0.80770072       1.68410060
C       -0.25019752       1.13047386      -1.21126496
O       -0.30641213       2.07218089      -1.96282478
C       -1.37709375       0.14862331      -0.99974604
O       -1.00566161      -0.97399394      -0.22160976
H        1.79979482      -1.50526927       0.82449312
H        0.66373170       0.91590424      -0.61465362
H        2.79567366      -0.37648569       1.96219297
H       -1.68951020      -0.23083196      -1.97295202
H       -2.23419937       0.69347818      -0.58258487
H       -0.92226732      -0.71395808       0.70616793
12
Properties=species:S:1:pos:R:3 relative_energy_eV=-1.1635925766640867 branch=right pbc="F F F"
O        0.80235864      -0.52816787       2.27306965
C        1.82456742      -0.81499040       1.69570827
C       -0.26008207       1.13641371      -1.22038884
O       -0.32427550       2.07557250      -1.97536137
C       -1.38195021       0.14981294      -1.00164085
O       -1.00252732      -0.96847965      -0.22176184
H        1.82379755      -1.51337486       0.83732662
H        0.65978236       0.92437532      -0.63314322
H        2.80609336      -0.39076850       1.99026775
H       -1.69749441      -0.23174099      -1.97326922
H       -2.23833628       0.69525804      -0.58554520
H       -0.92480477      -0.70946116       0.70679172
12
Properties=species:S:1:pos:R:3 relative_energy_eV=-1.1641756827211793 branch=right pbc="F F F"
O        0.80656413      -0.53007762       2.27000672
C        1.83320318      -0.82040451       1.70587724
C       -0.26848036       1.14096030      -1.22869169
O       -0.33769966       2.07912117      -1.98451488
C       -1.38593033       0.15064310      -1.00368510
O       -0.99920179      -0.96392980      -0.22302132
H        1.84124151      -1.51867071       0.84942202
H        0.65404873       0.93063725      -0.64864733
H        2.81412474      -0.40465061       2.01229148
H       -1.70451888      -0.23127449      -1.97428727
H       -2.24124619       0.69748215      -0.58864532
H       -0.92497632      -0.70538713       0.70594892
12
Properties=species:S:1:pos:R:3 relative_energy_eV=-1.1651201457170828 branch=right pbc="F F F"
O        0.81286503      -0.53178675       2.26265353
C        1.85199394      -0.83122984       1.72516234
C       -0.28270319       1.14764335      -1.24514014
O       -0.36425567       2.08485282      -2.00169677
C       -1.39415038       0.15271895      -1.00762616
O       -0.99917570      -0.95734621      -0.22526253
H        1.87711233      -1.53110419       0.87144469
H        0.64675181       0.94432069      -0.67554207
H        2.83072457      -0.42597987       2.05396862
H       -1.71731772      -0.23154649      -1.97599364
H       -2.24914671       0.70040094      -0.59290816
H       -0.92556957      -0.69649432       0.70299372
12
Properties=species:S:1:pos:R:3 relative_energy_eV=-1.1661208797831932 branch=right pbc="F F F"
O        0.82813317      -0.53630356       2.25169041
C        1.89043614      -0.85352440       1.76547325
C       -0.31179519       1.16113499      -1.27937477
O       -0.41681657       2.09721129      -2.03630728
C       -1.41154297       0.15759804      -1.01687478
O       -0.99935531      -0.94354275      -0.23128509
H        1.94818322      -1.55654436       0.91675174
H        0.63065559       0.97079717      -0.72881465
H        2.86485956      -0.46888765       2.13759712
H       -1.74418043      -0.23168991      -1.98051365
H       -2.26614121       0.70606822      -0.60172348
H       -0.92530734      -0.67786802       0.69543457
12
Properties=species:S:1:pos:R:3 relative_energy_eV=-1.1677141943837341 branch=right pbc="F F F"
O        0.83131797      -0.53682945       2.25557430
C        1.88913936      -0.85253412       1.76543743
C       -0.31025245       1.15722854      -1.27935002
O       -0.41581200       2.09615471      -2.03247766
C       -1.41103358       0.15633956      -1.01718634
O       -1.00554574      -0.94716785      -0.23216376
H        1.94471670      -1.55424172       0.91714615
H        0.63040415       0.97020832      -0.72505674
H        2.86289249      -0.46678825       2.13218845
H       -1.74304070      -0.22908882      -1.98208759
H       -2.26495762       0.70708719      -0.60154264
H       -0.92069990      -0.67591907       0.69157180
12
Properties=species:S:1:pos:R:3 relative_energy_eV=-1.1695768075041997 branch=right pbc="F F F"
O        0.84623633      -0.54087070       2.25698250
C        1.91110387      -0.86565460       1.79041577
C       -0.32640561       1.16189222      -1.30051482
O       -0.44456727       2.10308407      -2.04912750
C       -1.42131501       0.15939616      -1.02491075
O       -1.01105917      -0.94146345      -0.23863182
H        1.98040824      -1.56757726       0.94379972
H        0.61928822       0.98255407      -0.75098982
H        2.88140907      -0.48900366       2.17632254
H       -1.75893573      -0.22676968      -1.98752058
H       -2.27482436       0.70951947      -0.60528907
H       -0.91420989      -0.66065762       0.68151722
12
Properties=species:S:1:pos:R:3 relative_energy_eV=-1.1722633160043188 branch=right pbc="F F F"
O        0.86272182      -0.54505084       2.26588984
C        1.92825076      -0.87710513       1.81132466
C       -0.33926907       1.16562181      -1.31718340
O       -0.46370181       2.10880713      -2.06070075
C       -1.43003148       0.16392094      -1.03447256
O       -1.01483334      -0.93510934      -0.24697872
H        2.00057937      -1.57785282       0.96195863
H        0.60883288       0.98578120      -0.76566926
H        2.89449028      -0.50284419       2.20787250
H       -1.77220573      -0.22536285      -1.99406345
H       -2.28324085       0.70808585      -0.60508410
H       -0.90446411      -0.64444276       0.66916000
12
Properties=species:S:1:pos:R:3 relative_energy_eV=-1.1741092468328134 branch=right pbc="F F F"
O        0.87873992      -0.54967222       2.27174250
C        1.95036930      -0.89156316       1.83686735
C       -0.35716204       1.17443792      -1.33631011
O       -0.49036765       2.11663172      -2.07977126
C       -1.44177783       0.16956229      -1.04441451
O       -1.01283532      -0.92294198      -0.25545710
H        2.03089232      -1.59226704       0.98517964
H        0.59594058       0.99188408      -0.78972634
H        2.91193088      -0.52453838       2.25245777
H       -1.78854019      -0.22652313      -1.99956011
H       -2.29334110       0.70920932      -0.60731358
H       -0.89672014      -0.62977044       0.65835919
12
Properties=species:S:1:pos:R:3 relative_energy_eV=-1.1752308573541086 branch=right pbc="F F F"
O        0.88032710      -0.54944468       2.27828558
C        1.94648654      -0.89013093       1.83285230
C       -0.35555305       1.17570639      -1.32997146
O       -0.48333660       2.11481338      -2.07674648
C       -1.44187405       0.17155425      -1.04608333
O       -1.00885003      -0.91895927      -0.25887571
H        2.01673394      -1.59047365       0.97721411
H        0.59604139       0.98226707      -0.78095373
H        2.90560484      -0.51824085       2.24356348
H       -1.78583941      -0.23040151      -1.99955600
H       -2.29133045       0.70709276      -0.60347523
H       -0.89128148      -0.62933398       0.65579994
12
Properties=species:S:1:pos:R:3 relative_energy_eV=-1.175956445718839 branch=right pbc="F F F"
O        0.88260160      -0.54949380       2.27385958
C        1.95376168      -0.89397143       1.83942959
C       -0.36156684       1.17886315      -1.33526749
O       -0.49528220       2.11637803      -2.08401629
C       -1.44554746       0.17227883      -1.04714774
O       -1.00819771      -0.91551690      -0.25969745
H        2.03184263      -1.59578280       0.98615711
H        0.59289375       0.98800030      -0.79303868
H        2.91086216      -0.52767510       2.26171427
H       -1.79055919      -0.23170695      -1.99952595
H       -2.29385573       0.70946312      -0.60533919
H       -0.88982392      -0.62638748       0.65492568
12
Properties=species:S:1:pos:R:3 relative_energy_eV=-1.176539498323109 branch=right pbc="F F F"
O        0.88140104      -0.54749833       2.26710619
C        1.95512786      -0.89428935       1.83915152
C       -0.36291121       1.17950521      -1.33564089
O       -0.50113924       2.11563652      -2.08584358
C       -1.44613318       0.17165418      -1.04599811
O       -1.00828901      -0.91520903      -0.25804459
H        2.03851065      -1.59741454       0.98859096
H        0.59326662       0.99150469      -0.79864316
H        2.90965528      -0.53137001       2.26906682
H       -1.79123185      -0.23323335      -1.99805439
H       -2.29359970       0.71091101      -0.60540524
H       -0.88752850      -0.62574803       0.65576793
12
Properties=species:S:1:pos:R:3 relative_energy_eV=-1.1773378513935313 branch=right pbc="F F F"
O        0.87992745      -0.54356010       2.25612820
C        1.95629785      -0.89495457       1.83841758
C       -0.36472735       1.18036821      -1.33657553
O       -0.51014420       2.11479021      -2.08785516
C       -1.44656939       0.17087033      -1.04430099
O       -1.00868207      -0.91519694      -0.25559321
H        2.04726571      -1.59993295       0.99132705
H        0.59438431       0.99623517      -0.80666941
H        2.90573951      -0.53670471       2.28036908
H       -1.79241741      -0.23609558      -1.99546795
H       -2.29306263       0.71228191      -0.60435725
H       -0.88088304      -0.62365202       0.65663100
12
Properties=species:S:1:pos:R:3 relative_energy_eV=-1.178260230080923 branch=right pbc="F F F"
O        0.87886203      -0.53824920       2.24264161
C        1.95775883      -0.89702687       1.83900224
C       -0.36784395       1.18189948      -1.33959105
O       -0.52137088       2.11521870      -2.09050231
C       -1.44716273       0.17039082      -1.04281099
O       -1.00761667      -0.91464451      -0.25273353
H        2.05743046      -1.60349818       0.99469872
H        0.59529717       1.00131219      -0.81714854
H        2.90039326      -0.54427223       2.29607920
H       -1.79523538      -0.23978947      -1.99212682
H       -2.29321904       0.71270213      -0.60227006
H       -0.87016437      -0.61959390       0.65681493
12
Properties=species:S:1:pos:R:3 relative_energy_eV=-1.1795542281452072 branch=right pbc="F F F"
O        0.87881779      -0.53100321       2.22505046
C        1.96072744      -0.90206489       1.84327956
C       -0.37420119       1.18522524      -1.34702215
O       -0.53805214       2.11848266      -2.09550343
C       -1.44873353       0.17046832      -1.04166465
O       -1.00413002      -0.91248961      -0.25026008
H        2.07185074      -1.60962563       1.00100481
H        0.59483175       1.00784628      -0.83396942
H        2.89404103      -0.55755556       2.32193545
H       -1.80160141      -0.24504035      -1.98730967
H       -2.29488536       0.71222817      -0.59915673
H       -0.85153633      -0.61202247       0.65566924
12
Properties=species:S:1:pos:R:3 relative_energy_eV=-1.1811192767254397 branch=right pbc="F F F"
O        0.87967872      -0.52244149       2.20579728
C        1.96450766      -0.91001030       1.85171493
C       -0.38390856       1.19005103      -1.35850943
O       -0.55750688       2.12510342      -2.10196600
C       -1.45146602       0.17125447      -1.04124112
O       -0.99622796      -0.90788497      -0.24872219
H        2.08749417      -1.61724568       1.00990746
H        0.59180519       1.01404324      -0.85591589
H        2.88753827      -0.57637684       2.35545434
H       -1.81171801      -0.25122448      -1.98125921
H       -2.29832011       0.71039831      -0.59522963
H       -0.82474767      -0.60121776       0.65202282
12
Properties=species:S:1:pos:R:3 relative_energy_eV=-1.1826896758793737 branch=right pbc="F F F"
O        0.88128666      -0.51411162       2.18985317
C        1.96744645      -0.91898108       1.86302303
C       -0.39508213       1.19509477      -1.37139402
O       -0.57601308       2.13403527      -2.10793358
C       -1.45498754       0.17235889      -1.04137242
O       -0.98663481      -0.90195245      -0.24975900
H        2.09930074      -1.62452628       1.02015978
H        0.58634776       1.01815995      -0.87860475
H        2.88197851      -0.59758683       2.38929131
H       -1.82358651      -0.25705033      -1.97483662
H       -2.30232911       0.70804970      -0.59139236
H       -0.79059810      -0.58904102       0.64501882
12
Properties=species:S:1:pos:R:3 relative_energy_eV=-1.1839942300721304 branch=right pbc="F F F"
O        0.88153810      -0.50665511       2.17834641
C        1.96820165      -0.92622849       1.87297916
C       -0.40471773       1.19863047      -1.38138136
O       -0.58886180       2.14192856      -2.11114171
C       -1.45827049       0.17335299      -1.04154922
O       -0.97626037      -0.89590381      -0.25156765
H        2.10444679      -1.62930257       1.02851872
H        0.58053868       1.01913433      -0.89674184
H        2.87798829      -0.61581452       2.41521265
H       -1.83377793      -0.26150630      -1.96916830
H       -2.30579918       0.70497504      -0.58739077
H       -0.75789711      -0.57816163       0.63593729
12
Properties=species:S:1:pos:R:3 relative_energy_eV=-1.185098980593466 branch=right pbc="F F F"
O        0.87949685      -0.50074793       2.17453042
C        1.96407514      -0.92875459       1.87782607
C       -0.40905214       1.19912917      -1.38482580
O       -0.59335482       2.14672401      -2.10925843
C       -1.45957725       0.17316058      -1.04062518
O       -0.97148023      -0.89356402      -0.25439408
H        2.09825732      -1.62992517       1.03200201
H        0.57713993       1.01650304      -0.90443605
H        2.87420213      -0.62578448       2.42412052
H       -1.83865675      -0.26332368      -1.96507604
H       -2.30617084       0.70277293      -0.58399434
H       -0.72775040      -0.57174090       0.62618427
12
Properties=species:S:1:pos:R:3 relative_energy_eV=-1.1861161097058357 branch=right pbc="F F F"
O        0.87621102      -0.49248971       2.16657243
C        1.96286671      -0.93320658       1.88583845
C       -0.41648263       1.20074384      -1.39059604
O       -0.60417336       2.15152625      -2.11014258
C       -1.46287248       0.17351154      -1.04018930
O       -0.96437648      -0.88904641      -0.25688821
H        2.09825913      -1.63317573       1.03979791
H        0.57292071       1.01571166      -0.91861995
H        2.87386661      -0.64114929       2.44295805
H       -1.84601064      -0.26548707      -1.96115854
H       -2.30825517       0.69932222      -0.57877426
H       -0.69482446      -0.56181177       0.61325541
12
Properties=species:S:1:pos:R:3 relative_energy_eV=-1.1868444569718122 branch=right pbc="F F F"
O        0.86369570      -0.48949542       2.17968703
C        1.94320053      -0.92114741       1.87036824
C       -0.40348832       1.19335479      -1.37373498
O       -0.57882624       2.14631594      -2.09274479
C       -1.45649234       0.17074392      -1.03571254
O       -0.96470119      -0.89601532      -0.25636807
H        2.05859939      -1.62059806       1.02355356
H        0.57903118       1.00139207      -0.89410595
H        2.86784692      -0.62488317       2.39998727
H       -1.83444598      -0.26052802      -1.96154296
H       -2.30098107       0.69614697      -0.57464622
H       -0.68630958      -0.57083731       0.60731279
12
Properties=species:S:1:pos:R:3 relative_energy_eV=-1.1882071215914038 branch=right pbc="F F F"
O        0.86425440      -0.48981717       2.18536563
C        1.94459769      -0.91950361       1.87045723
C       -0.40238914       1.19255143      -1.37237680
O       -0.58159907       2.14404456      -2.09323401
C       -1.45717971       0.17010261      -1.03668460
O       -0.97308745      -0.89970244      -0.25774601
H        2.05997231      -1.62174963       1.02544732
H        0.58099152       1.00252141      -0.89169713
H        2.87129780      -0.62303276       2.39718276
H       -1.83341900      -0.25749719      -1.96549063
H       -2.30012990       0.69815880      -0.57544352
H       -0.68618048      -0.57162707       0.60627313
12
Properties=species:S:1:pos:R:3 relative_energy_eV=-1.1889739995640412 branch=right pbc="F F F"
O        0.86347059      -0.49198383       2.19349438
C        1.94471649      -0.91584804       1.86587295
C       -0.39812006       1.19218027      -1.36889584
O       -0.57762410       2.14103760      -2.09331454
C       -1.45604682       0.17011275      -1.03752492
O       -0.97611840      -0.90327835      -0.25693597
H        2.05782529      -1.62136381       1.02258507
H        0.58474574       1.00217352      -0.88421410
H        2.87473559      -0.61693149       2.38694962
H       -1.82963888      -0.25369809      -1.97050500
H       -2.29945557       0.69922041      -0.57622746
H       -0.70136093      -0.57717201       0.61076919
12
Properties=species:S:1:pos:R:3 relative_energy_eV=-1.1893513245395297 branch=right pbc="F F F"
O        0.85893936      -0.48744481       2.19419728
C        1.93833202      -0.91329554       1.86209927
C       -0.39616351       1.19156432      -1.36664431
O       -0.57430420       2.14178903      -2.08943243
C       -1.45437718       0.16932485      -1.03603540
O       -0.97248626      -0.90530687      -0.25698860
H        2.04727092      -1.61982100       1.01896555
H        0.58687002       0.99875632      -0.88198605
H        2.87024271      -0.61767230       2.38123877
H       -1.82842777      -0.25284206      -1.96981465
H       -2.29796932       0.69735976      -0.57272970
H       -0.69079784      -0.57796274       0.60918365
12
Properties=species:S:1:pos:R:3 relative_energy_eV=-1.1896200493847573 branch=right pbc="F F F"
O        0.85732843      -0.48464131       2.19480837
C        1.93521718      -0.91268580       1.86128771
C       -0.39631204       1.19236417      -1.36750815
O       -0.57296731       2.14420333      -2.08867024
C       -1.45364224       0.16922059      -1.03532437
O       -0.96655013      -0.90514213      -0.25801993
H        2.04174406      -1.61987774       1.01763242
H        0.58726667       0.99690111      -0.88314523
H        2.86771178      -0.62094484       2.38112940
H       -1.82872190      -0.25253202      -1.96907115
H       -2.29791192       0.69521089      -0.56959835
H       -0.68603361      -0.57762732       0.60853292
12
Properties=species:S:1:pos:R:3 relative_energy_eV=-1.1898208418588183 branch=right pbc="F F F"
O        0.85677375      -0.48245624       2.19469920
C        1.93367023      -0.91247909       1.86127002
C       -0.39696333       1.19315804      -1.36881739
O       -0.57277110       2.14605519      -2.08892635
C       -1.45311840       0.16908541      -1.03471333
O       -0.96107152      -0.90458489      -0.25944447
H        2.03919428      -1.62010566       1.01718029
H        0.58731829       0.99603647      -0.88524635
H        2.86627879      -0.62428668       2.38235279
H       -1.82876750      -0.25217592      -1.96845853
H       -2.29768166       0.69299067      -0.56645406
H       -0.68573286      -0.57678837       0.60861158
12
Properties=species:S:1:pos:R:3 relative_energy_eV=-1.1900514882108837 branch=right pbc="F F F"
O        0.85666370      -0.47940973       2.19270406
C        1.93280869      -0.91281558       1.86210683
C       -0.39847572       1.19429463      -1.37104435
O       -0.57555348       2.14781179      -2.09032966
C       -1.45250816       0.16897348      -1.03396428
O       -0.95461973      -0.90343064      -0.26125545
H        2.03880982      -1.62067570       1.01792673
H        0.58700440       0.99594238      -0.88975577
H        2.86490473      -0.62969912       2.38671614
H       -1.82906940      -0.25185253      -1.96740739
H       -2.29679949       0.69041600      -0.56246358
H       -0.68603639      -0.57510605       0.60882012
12
Properties=species:S:1:pos:R:3 relative_energy_eV=-1.1903115364166297 branch=right pbc="F F F"
O        0.85675469      -0.47466231       2.18795557
C        1.93249592      -0.91370074       1.86391630
C       -0.40101213       1.19560403      -1.37416959
O       -0.58239471       2.14912423      -2.09261651
C       -1.45176308       0.16881720      -1.03310174
O       -0.94748420      -0.90173917      -0.26310074
H        2.04089039      -1.62150040       1.02014591
H        0.58654793       0.99676303      -0.89709214
H        2.86308801      -0.63765568       2.39474595
H       -1.82998424      -0.25166611      -1.96579731
H       -2.29499068       0.68767439      -0.55754460
H       -0.68501891      -0.57260954       0.60871231
12
Properties=species:S:1:pos:R:3 relative_energy_eV=-1.1905335100746015 branch=right pbc="F F F"
O        0.85734494      -0.46911975       2.18164862
C        1.93293525      -0.91504262       1.86658461
C       -0.40420546       1.19687578      -1.37786472
O       -0.59235745       2.14990889      -2.09529818
C       -1.45119052       0.16874114      -1.03245905
O       -0.94188981      -0.89999293      -0.26437421
H        2.04495974      -1.62269923       1.02375860
H        0.58586128       0.99849109      -0.90591498
H        2.86123081      -0.64659600       2.40548715
H       -1.83193274      -0.25187745      -1.96391958
H       -2.29284855       0.68574872      -0.55316694
H       -0.68077851      -0.56998873       0.60757208
12
Properties=species:S:1:pos:R:3 relative_energy_eV=-1.1907297065081366 branch=right pbc="F F F"
O        0.85849213      -0.46359841       2.17582326
C        1.93385083      -0.91622562       1.86940636
C       -0.40731238       1.19773548      -1.38130289
O       -0.60228953       2.15022652      -2.09741157
C       -1.45100562       0.16859383      -1.03217485
O       -0.93856913      -0.89890019      -0.26512335
H        2.04922062      -1.62388815       1.02766215
H        0.58518553       1.00046592      -0.91396037
H        2.85947305      -0.65434637       2.41578896
H       -1.83458033      -0.25241917      -1.96227062
H       -2.29099678       0.68477920      -0.54986941
H       -0.67433941      -0.56797415       0.60548572
12
Properties=species:S:1:pos:R:3 relative_energy_eV=-1.1909681735523918 branch=right pbc="F F F"
O        0.86056103      -0.45660860       2.16969625
C        1.93518075      -0.91726804       1.87285990
C       -0.41104518       1.19863099      -1.38549660
O       -0.61362037       2.15080585      -2.09959756
C       -1.45113062       0.16825952      -1.03198152
O       -0.93552616      -0.89830989      -0.26606139
H        2.05361528      -1.62545958       1.03248113
H        0.58425828       1.00292333      -0.92326951
H        2.85753421      -0.66290329       2.42794952
H       -1.83851229      -0.25340372      -1.96029073
H       -2.28918532       0.68399219      -0.54628985
H       -0.66500065      -0.56620988       0.60205374
12
Properties=species:S:1:pos:R:3 relative_energy_eV=-1.191367399162118 branch=right pbc="F F F"
O        0.86481730      -0.44392508       2.16055652
C        1.93757838      -0.91839809       1.87877430
C       -0.41739389       1.19996835      -1.39251624
O       -0.63091968       2.15227786      -2.10278334
C       -1.45185792       0.16727961      -1.03170856
O       -0.93011113      -0.89811581      -0.26826966
H        2.05956100      -1.62796098       1.04040080
H        0.58251224       1.00677726      -0.93855822
H        2.85448699      -0.67646208       2.44749731
H       -1.84590776      -0.25540730      -1.95691113
H       -2.28668386       0.68236947      -0.53990848
H       -0.64895270      -0.56395438       0.59548006
12
Properties=species:S:1:pos:R:3 relative_energy_eV=-1.1921362843113457 branch=right pbc="F F F"
O        0.87410375      -0.41895266       2.14515632
C        1.94215695      -0.91948732       1.88979594
C       -0.42932276       1.20246233      -1.40558109
O       -0.66059566       2.15584781      -2.10848749
C       -1.45363663       0.16490986      -1.03110536
O       -0.91852025      -0.89859063      -0.27376373
H        2.06835610      -1.63221660       1.05475979
H        0.57867966       1.01346130      -0.96692586
H        2.84945462      -0.70079018       2.48280632
H       -1.86052609      -0.25954671      -1.95030616
H       -2.28238852       0.67839865      -0.52707791
H       -0.62063220      -0.56104709       0.58278255
12
Properties=species:S:1:pos:R:3 relative_energy_eV=-1.1934873024947592 branch=right pbc="F F F"
O        0.89262662      -0.37591380       2.12492795
C        1.94962088      -0.91777703       1.90641466
C       -0.44727333       1.20496630      -1.42453728
O       -0.70269439       2.16055815      -2.11561783
C       -1.45657132       0.15962604      -1.03022260
O       -0.89999534      -0.90236997      -0.28504627
H        2.07708219      -1.63622025       1.07608205
H        0.57216484       1.02279007      -1.00904443
H        2.84221913      -0.73474831       2.53225424
H       -1.88453777      -0.26624938      -1.93984740
H       -2.27429180       0.67103877      -0.50526378
H       -0.58122076      -0.56125200       0.56195398
12
Properties=species:S:1:pos:R:3 relative_energy_eV=-1.195145204435903 branch=right pbc="F F F"
O        0.91721014      -0.33230185       2.11425747
C        1.95785130      -0.91092208       1.92081281
C       -0.46243744       1.20534635      -1.43988630
O       -0.73500214       2.16332584      -2.12037760
C       -1.45943545       0.15292869      -1.03004344
O       -0.88394850      -0.91051285      -0.29977073
H        2.07795714      -1.63609229       1.09435354
H        0.56484803       1.03001215      -1.04352138
H        2.83836698      -0.75851057       2.56883218
H       -1.90831232      -0.27228518      -1.93036601
H       -2.26480199       0.66333825      -0.48430305
H       -0.55516683      -0.56987805       0.54206574
12
Properties=species:S:1:pos:R:3 relative_energy_eV=-1.1928933246708766 branch=right pbc="F F F"
O        0.95210843      -0.26596806       2.08402175
C        1.97288629      -0.90994102       1.95059773
C       -0.49365556       1.21140569      -1.47293168
O       -0.79929337       2.17404113      -2.13593499
C       -1.46549279       0.14534680      -1.02952812
O       -0.84712178      -0.91349448      -0.32228039
H        2.09382489      -1.64219287       1.12942401
H        0.55002623       1.04426756      -1.11412740
H        2.83053140      -0.81398234       2.65166627
H       -1.94838201      -0.28341533      -1.91227193
H       -2.25359024       0.64856974      -0.44953442
H       -0.50471260      -0.57018867       0.51295232
12
Properties=species:S:1:pos:R:3 relative_energy_eV=-1.1969065926041367 branch=right pbc="F F F"
O        0.93759389      -0.30553815       2.10742384
C        1.96662016      -0.90925087       1.93473758
C       -0.47583963       1.20771300      -1.45337670
O       -0.75536842       2.16854090      -2.12809085
C       -1.46321117       0.14943268      -1.03081742
O       -0.86639707      -0.91217504      -0.31381947
H        2.08237874      -1.63629175       1.10837046
H        0.55592148       1.03437050      -1.07098711
H        2.83936435      -0.77708990       2.59896256
H       -1.92601957      -0.27657460      -1.92259869
H       -2.26074995       0.65510160      -0.47044052
H       -0.54716391      -0.57379009       0.53268950
12
Properties=species:S:1:pos:R:3 relative_energy_eV=-1.1976159494388412 branch=right pbc="F F F"
O        0.94671077      -0.28954381       2.10242201
C        1.96942367      -0.90734466       1.94025050
C       -0.48164373       1.20831546      -1.45896098
O       -0.76612185       2.16982897      -2.13108529
C       -1.46383343       0.14724598      -1.03039624
O       -0.85719353      -0.91370595      -0.32083428
H        2.08338647      -1.63517031       1.11408284
H        0.55296274       1.03630426      -1.08444453
H        2.83804112      -0.78609053       2.61181870
H       -1.93360010      -0.27837996      -1.91838423
H       -2.25711371       0.65012059      -0.46167298
H       -0.54388955      -0.57713183       0.52925766
12
Properties=species:S:1:pos:R:3 relative_energy_eV=-1.1980359516292083 branch=right pbc="F F F"
O        0.98197946      -0.22642402       2.08162772
C        1.97914439      -0.89909007       1.96008221
C       -0.50368314       1.21181371      -1.48203654
O       -0.81299612       2.17456622      -2.14425251
C       -1.46442766       0.13972645      -1.02794689
O       -0.82093610      -0.91943257      -0.34676704
H        2.08716205      -1.63164507       1.13699977
H        0.54215441       1.04536383      -1.13932384
H        2.83226070      -0.82379742       2.66562492
H       -1.96302764      -0.28499825      -1.90116420
H       -2.24160409       0.63139251      -0.42783433
H       -0.52889744      -0.59302737       0.51704384
12
Properties=species:S:1:pos:R:3 relative_energy_eV=-1.1986938881909737 branch=right pbc="F F F"
O        0.96578313      -0.25427005       2.09108389
C        1.97351817      -0.90141555       1.94926884
C       -0.49212592       1.20950502      -1.46980743
O       -0.78946182       2.17089128      -2.13771925
C       -1.46300076       0.14301869      -1.02836603
O       -0.83738002      -0.91723420      -0.33508346
H        2.08351907      -1.63098359       1.12425691
H        0.54813411       1.04048124      -1.11223434
H        2.83441749      -0.80359103       2.63623438
H       -1.94779966      -0.28133521      -1.90853028
H       -2.24760544       0.63895958      -0.44307362
H       -0.54086952      -0.58957810       0.52602352
12
Properties=species:S:1:pos:R:3 relative_energy_eV=-1.198871856860933 branch=right pbc="F F F"
O        0.97049855      -0.24526298       2.08826526
C        1.97458891      -0.89976591       1.95142250
C       -0.49457765       1.20948124      -1.47244797
O       -0.79575178       2.17045120      -2.13909759
C       -1.46274841       0.14204607      -1.02787969
O       -0.83330934      -0.91838036      -0.33795612
H        2.08351773      -1.62963190       1.12684941
H        0.54713186       1.04156446      -1.11889835
H        2.83336690      -0.80752077       2.64182769
H       -1.95117294      -0.28173084      -1.90630939
H       -2.24532550       0.63648226      -0.43865571
H       -0.53908950      -0.59328440       0.52493308
12
Properties=species:S:1:pos:R:3 relative_energy_eV=-1.199177938802677 branch=right pbc="F F F"
O        0.98471387      -0.22015971       2.08050938
C        1.97790587      -0.89449718       1.95726226
C       -0.50160238       1.20982653      -1.48065114
O       -0.81543279       2.16888616      -2.14441216
C       -1.46157834       0.13976936      -1.02589014
O       -0.82244726      -0.92193732      -0.34580084
H        2.08371901      -1.62619818       1.13461796
H        0.54457944       1.04567854      -1.13914925
H        2.83114810      -0.81880702       2.65920990
H       -1.96017258      -0.28221182      -1.89959696
H       -2.23912255       0.62965533      -0.42659318
H       -0.53458159      -0.60555678       0.52254725
12
Properties=species:S:1:pos:R:3 relative_energy_eV=-1.1993124485506996 branch=right pbc="F F F"
O        0.98523383      -0.21994594       2.08028150
C        1.97839214      -0.89409363       1.95724184
C       -0.50150549       1.20936505      -1.48042869
O       -0.81580088       2.16747835      -2.14464454
C       -1.46158127       0.13989482      -1.02544966
O       -0.82355294      -0.92231121      -0.34506053
H        2.08403639      -1.62534201       1.13437622
H        0.54489212       1.04577273      -1.13918295
H        2.83101771      -0.81736385       2.65810054
H       -1.95926465      -0.28155533      -1.89970500
H       -2.23968824       0.62952085      -0.42667229
H       -0.53504992      -0.60697189       0.52319663
12
Properties=species:S:1:pos:R:3 relative_energy_eV=-1.1995357557880197 branch=right pbc="F F F"
O        0.98721628      -0.22032556       2.07996288
C        1.98018277      -0.89360443       1.95800406
C       -0.50241536       1.20926470      -1.48116649
O       -0.81862083       2.16521152      -2.14698162
C       -1.46196787       0.14061074      -1.02418569
O       -0.82536332      -0.92253458      -0.34383586
H        2.08597572      -1.62483892       1.13517457
H        0.54490357       1.04680831      -1.14202438
H        2.83149877      -0.81611284       2.65943391
H       -1.95755330      -0.28007115      -1.89972556
H       -2.24189473       0.62909532      -0.42674719
H       -0.53483290      -0.60905520       0.52414445
12
Properties=species:S:1:pos:R:3 relative_energy_eV=-1.19971459820772 branch=right pbc="F F F"
O        0.99124318      -0.21843317       2.07833934
C        1.98342743      -0.89381877       1.96109668
C       -0.50560942       1.20966339      -1.48366035
O       -0.82481558       2.16375170      -2.15063401
C       -1.46347787       0.14100356      -1.02285127
O       -0.82572330      -0.92235928      -0.34375121
H        2.09001258      -1.62525657       1.13841818
H        0.54358631       1.04858495      -1.14932073
H        2.83162476      -0.81793291       2.66601978
H       -1.95792514      -0.27942074      -1.89910872
H       -2.24458916       0.62792419      -0.42524400
H       -0.53062498      -0.60925846       0.52274938
12
Properties=species:S:1:pos:R:3 relative_energy_eV=-1.199914018077834 branch=right pbc="F F F"
O        0.99615155      -0.21834566       2.07699329
C        1.98798453      -0.89545840       1.96578620
C       -0.51056550       1.21100954      -1.48724188
O       -0.83227396       2.16325315      -2.15592907
C       -1.46630576       0.14183620      -1.02167065
O       -0.82544461      -0.92068730      -0.34386649
H        2.09687861      -1.62726618       1.14355641
H        0.54075166       1.05067982      -1.15964917
H        2.83213461      -0.82172918       2.67658380
H       -1.95903469      -0.27929573      -1.89876973
H       -2.24925934       0.62633798      -0.42372834
H       -0.52388828      -0.60588638       0.51998868
12
Properties=species:S:1:pos:R:3 relative_energy_eV=-1.2000113215199235 branch=right pbc="F F F"
O        0.99905947      -0.21768981       2.07565988
C        1.99035148      -0.89693172       1.96892708
C       -0.51391678       1.21198304      -1.48964345
O       -0.83731495       2.16380688      -2.15892046
C       -1.46807787       0.14202463      -1.02107427
O       -0.82425801      -0.91920868      -0.34425968
H        2.10151011      -1.62884354       1.14706830
H        0.53873765       1.05186895      -1.16665611
H        2.83154345      -0.82528035       2.68393469
H       -1.96053388      -0.28007378      -1.89806403
H       -2.25148128       0.62518265      -0.42241887
H       -0.51849057      -0.60239042       0.51749999
12
Properties=species:S:1:pos:R:3 relative_energy_eV=-1.2001196830315166 branch=right pbc="F F F"
O        1.00171756      -0.21755533       2.07463909
C        1.99221953      -0.89888782       1.97198039
C       -0.51745852       1.21320729      -1.49215593
O       -0.84183011       2.16499531      -2.16142323
C       -1.46981748       0.14226152      -1.02099359
O       -0.82210129      -0.91696456      -0.34476770
H        2.10645343      -1.63075419       1.15065156
H        0.53620335       1.05262289      -1.17361017
H        2.83042712      -0.82948650       2.69143486
H       -1.96263521      -0.28157330      -1.89717887
H       -2.25344285       0.62385071      -0.42122497
H       -0.51260669      -0.59726818       0.51470164
12
Properties=species:S:1:pos:R:3 relative_energy_eV=-1.2002758615053608 branch=right pbc="F F F"
O        1.00660059      -0.21436661       2.07189711
C        1.99446194      -0.90110180       1.97654714
C       -0.52271769       1.21463419      -1.49658901
O       -0.85074111       2.16658075      -2.16470290
C       -1.47147938       0.14204371      -1.02063212
O       -0.81795185      -0.91433136      -0.34590677
H        2.11310847      -1.63284120       1.15594774
H        0.53278138       1.05408932      -1.18482612
H        2.82737856      -0.83642705       2.70290593
H       -1.96651661      -0.28426284      -1.89448856
H       -2.25432887       0.62174228      -0.41860965
H       -0.50346657      -0.59131156       0.51051026
12
Properties=species:S:1:pos:R:3 relative_energy_eV=-1.2005461453773023 branch=right pbc="F F F"
O        1.01573978      -0.20866326       2.06687820
C        1.99835480      -0.90482135       1.98452779
C       -0.53227411       1.21697160      -1.50501388
O       -0.86736877       2.16888668      -2.17002699
C       -1.47390390       0.14174298      -1.02023829
O       -0.81028209      -0.90960600      -0.34763283
H        2.12494853      -1.63636944       1.16517085
H        0.52644804       1.05676706      -1.20495400
H        2.82131152      -0.84866269       2.72339548
H       -1.97353670      -0.28938786      -1.88915592
H       -2.25528659       0.61829112      -0.41419150
H       -0.48702160      -0.58070110       0.50329416
12
Properties=species:S:1:pos:R:3 relative_energy_eV=-1.2009635173199058 branch=right pbc="F F F"
O        1.02962256      -0.19858097       2.05817394
C        2.00359524      -0.90914861       1.99560169
C       -0.54575367       1.21956003      -1.51783920
O       -0.89396966       2.17112081      -2.17714608
C       -1.47603705       0.14080325      -1.01901852
O       -0.79894198      -0.90378423      -0.34959385
H        2.14103656      -1.64047142       1.17774660
H        0.51787472       1.06124294      -1.23453010
H        2.81082841      -0.86598528       2.75258527
H       -1.98311060      -0.29699205      -1.88007717
H       -2.25461316       0.61393949      -0.40736759
H       -0.46340242      -0.56725631       0.49351809
12
Properties=species:S:1:pos:R:3 relative_energy_eV=-1.2015733088483103 branch=right pbc="F F F"
O        1.04373001      -0.18932602       2.04767665
C        2.00787102      -0.91347654       2.00599469
C       -0.56000266       1.22151239      -1.53176299
O       -0.92371217       2.17236149      -2.18309493
C       -1.47676764       0.13956509      -1.01722331
O       -0.78592537      -0.89702694      -0.34973398
H        2.15777875      -1.64439447       1.18949329
H        0.50862728       1.06590801      -1.26620610
H        2.79613069      -0.88371582       2.78244341
H       -1.99165103      -0.30654361      -1.86884668
H       -2.25219728       0.61042758      -0.40046606
H       -0.43675256      -0.55084359       0.48377907
12
Properties=species:S:1:pos:R:3 relative_energy_eV=-1.201196303087272 branch=right pbc="F F F"
O        1.07992908      -0.15073286       2.02253315
C        2.01935020      -0.91405960       2.02782006
C       -0.58910016       1.22363196      -1.56051314
O       -0.98822968       2.17098060      -2.19659588
C       -1.47757038       0.13458371      -1.01184901
O       -0.75717135      -0.89144385      -0.35669050
H        2.18292865      -1.64618787       1.21448778
H        0.49194230       1.07769780      -1.33446926
H        2.77087965      -0.91955143       2.84458622
H       -2.01248581      -0.32215596      -1.84538297
H       -2.24279986       0.59966202      -0.37767948
H       -0.39054350      -0.53797720       0.46580602
12
Properties=species:S:1:pos:R:3 relative_energy_eV=-1.2025564037103322 branch=right pbc="F F F"
O        1.06717494      -0.16141697       2.02675138
C        2.01191113      -0.91027005       2.01607569
C       -0.57779714       1.21989728      -1.55072171
O       -0.97025889       2.16759781      -2.18755150
C       -1.47264369       0.13432068      -1.01136337
O       -0.76393532      -0.89475911      -0.35110301
H        2.16892619      -1.64182330       1.20099531
H        0.49859284       1.07362749      -1.31137685
H        2.77089562      -0.90460341       2.81830821
H       -2.00140659      -0.31962029      -1.84909112
H       -2.23915286       0.60527282      -0.38348802
H       -0.40517709      -0.54377559       0.47461799
12
Properties=species:S:1:pos:R:3 relative_energy_eV=-1.2029065286333207 branch=right pbc="F F F"
O        1.07791791      -0.15527939       2.02196474
C        2.01715504      -0.91151660       2.02322108
C       -0.58695227       1.22089553      -1.55851177
O       -0.98695138       2.16745184      -2.19243126
C       -1.47500619       0.13342831      -1.01041404
O       -0.75858266      -0.89213900      -0.35263037
H        2.17782775      -1.64365458       1.20911309
H        0.49237760       1.07708471      -1.33088137
H        2.76561161      -0.91364784       2.83704408
H       -2.00703561      -0.32413505      -1.84463510
H       -2.23930129       0.60317336      -0.37873572
H       -0.38993136      -0.53721401       0.46894964
12
Properties=species:S:1:pos:R:3 relative_energy_eV=-1.203081646182909 branch=right pbc="F F F"
O        1.10390394      -0.12850213       2.00449175
C        2.02505664      -0.90881796       2.03508496
C       -0.60567012       1.22107575      -1.57623218
O       -1.02868939       2.16485524      -2.20077157
C       -1.47483493       0.12842811      -1.00569508
O       -0.73724880      -0.88951177      -0.35759995
H        2.19144930      -1.64248455       1.22332366
H        0.48105893       1.08540597      -1.37695855
H        2.74707151      -0.93458429       2.87550398
H       -2.01886633      -0.33607993      -1.82937722
H       -2.23010930       0.59566299      -0.36050245
H       -0.36599224      -0.53100033       0.46078561
12
Properties=species:S:1:pos:R:3 relative_energy_eV=-1.2033488712186227 branch=right pbc="F F F"
O        1.09592188      -0.13525798       2.00949320
C        2.02189349      -0.90800755       2.02991911
C       -0.59907533       1.22005180      -1.56955447
O       -1.01411928       2.16488613      -2.19678738
C       -1.47435907       0.12900510      -1.00684815
O       -0.74324600      -0.89122495      -0.35635788
H        2.18444532      -1.64117254       1.21727929
H        0.48486013       1.08247997      -1.36146368
H        2.75203170      -0.92629459       2.86057045
H       -2.01449024      -0.33301534      -1.83424473
H       -2.23096802       0.59789698      -0.36480256
H       -0.37576539      -0.53489987       0.46484976
12
Properties=species:S:1:pos:R:3 relative_energy_eV=-1.2034489906436647 branch=right pbc="F F F"
O        1.10123156      -0.12895263       2.00480713
C        2.02234360      -0.90697459       2.03145176
C       -0.60295794       1.21947375      -1.57304678
O       -1.02316673       2.16415062      -2.19735962
C       -1.47368675       0.12720607      -1.00545348
O       -0.73759754      -0.89038218      -0.35690185
H        2.18616392      -1.64007346       1.21924274
H        0.48231940       1.08389216      -1.37156430
H        2.74574175      -0.93033278       2.86738753
H       -2.01639890      -0.33694320      -1.83016570
H       -2.22724757       0.59625044      -0.36008279
H       -0.36961558      -0.53286710       0.46373829
12
Properties=species:S:1:pos:R:3 relative_energy_eV=-1.2035153840351995 branch=right pbc="F F F"
O        1.11055204      -0.11948490       1.99752001
C        2.02384759      -0.90616467       2.03478308
C       -0.61011006       1.21925641      -1.57962047
O       -1.03847131       2.16328183      -2.19942989
C       -1.47299330       0.12489898      -1.00347393
O       -0.72759250      -0.88802299      -0.35788495
H        2.19103558      -1.63901453       1.22344114
H        0.47758019       1.08634753      -1.38932027
H        2.73617297      -0.93779028       2.88024183
H       -2.01992271      -0.34336596      -1.82346912
H       -2.22242039       0.59300218      -0.35270442
H       -0.36054887      -0.52849656       0.46196990
12
Properties=species:S:1:pos:R:3 relative_energy_eV=-1.2035258192900073 branch=right pbc="F F F"
O        1.11311061      -0.11704202       1.99564801
C        2.02405262      -0.90630563       2.03601079
C       -0.61231388       1.21909493      -1.58169188
O       -1.04350420       2.16300635      -2.20004735
C       -1.47276707       0.12429825      -1.00276290
O       -0.72521130      -0.88712488      -0.35779389
H        2.19281863      -1.63891041       1.22488512
H        0.47611597       1.08695078      -1.39472175
H        2.73309992      -0.93994831       2.88384524
H       -2.02066696      -0.34527102      -1.82129765
H       -2.22133031       0.59213114      -0.35091588
H       -0.35627479      -0.52643216       0.46089506
12
Properties=species:S:1:pos:R:3 relative_energy_eV=-1.2035477918780089 branch=right pbc="F F F"
O        1.11573343      -0.11511923       1.99455078
C        2.02449071      -0.90657315       2.03733229
C       -0.61456601       1.21913680      -1.58369801
O       -1.04785500       2.16270181      -2.20091501
C       -1.47272098       0.12398136      -1.00221410
O       -0.72282371      -0.88601720      -0.35778560
H        2.19471812      -1.63897907       1.22647234
H        0.47442613       1.08736329      -1.39985608
H        2.73085498      -0.94176586       2.88712567
H       -2.02136409      -0.34702139      -1.81938687
H       -2.22093732       0.59107244      -0.34952607
H       -0.35282699      -0.52433280       0.45995359
12
Properties=species:S:1:pos:R:3 relative_energy_eV=-1.203556532809671 branch=right pbc="F F F"
O        1.11898078      -0.11216886       1.99352818
C        2.02516636      -0.90645839       2.03891056
C       -0.61705536       1.21911347      -1.58585725
O       -1.05290804       2.16217836      -2.20193578
C       -1.47264698       0.12351556      -1.00157168
O       -0.72027464      -0.88528476      -0.35810722
H        2.19627229      -1.63903653       1.22840514
H        0.47260086       1.08791498      -1.40561853
H        2.72884542      -0.94372866       2.89083612
H       -2.02240413      -0.34872608      -1.81724606
H       -2.22046675       0.58982539      -0.34786722
H       -0.34898054      -0.52269750       0.45857667
12
Properties=species:S:1:pos:R:3 relative_energy_eV=-1.203572245529358 branch=right pbc="F F F"
O        1.12178067      -0.10959640       1.99333139
C        2.02591148      -0.90608344       2.04022887
C       -0.61895520       1.21904960      -1.58740928
O       -1.05677322       2.16160711      -2.20280250
C       -1.47261957       0.12307596      -1.00111733
O       -0.71847710      -0.88498337      -0.35851240
H        2.19692169      -1.63919686       1.23005775
H        0.47109790       1.08833489      -1.40995056
H        2.72801761      -0.94485302       2.89337079
H       -2.02328414      -0.34996159      -1.81563992
H       -2.22027417       0.58877488      -0.34682935
H       -0.34621665      -0.52172079       0.45732548
12
Properties=species:S:1:pos:R:3 relative_energy_eV=-1.203583594326119 branch=right pbc="F F F"
O        1.12459664      -0.10649853       1.99310956
C        2.02662761      -0.90536153       2.04143181
C       -0.62077004       1.21883791      -1.58878730
O       -1.06050674       2.16097176      -2.20338436
C       -1.47255589       0.12240793      -1.00073765
O       -0.71661246      -0.88496039      -0.35903374
H        2.19678624      -1.63929650       1.23162163
H        0.46968220       1.08875709      -1.41407663
H        2.72739218      -0.94581181       2.89560561
H       -2.02429272      -0.35130935      -1.81406105
H       -2.21978427       0.58766772      -0.34565970
H       -0.34343345      -0.52095733       0.45602478
12
Properties=species:S:1:pos:R:3 relative_energy_eV=-1.2035972770663648 branch=right pbc="F F F"
O        1.12678485      -0.10401404       1.99357795
C        2.02730885      -0.90445353       2.04222786
C       -0.62196470       1.21858662      -1.58964336
O       -1.06317242       2.16036755      -2.20378456
C       -1.47244600       0.12171138      -1.00053920
O       -0.71533306      -0.88513458      -0.35934074
H        2.19561785      -1.63961451       1.23284320
H        0.46866752       1.08911533      -1.41681392
H        2.72790842      -0.94588365       2.89647805
H       -2.02483639      -0.35248455      -1.81300688
H       -2.21948135       0.58670826      -0.34517301
H       -0.34192429      -0.52045733       0.45522757
12
Properties=species:S:1:pos:R:3 relative_energy_eV=-1.2036284027617512 branch=right pbc="F F F"
O        1.12953489      -0.10037596       1.99401881
C        2.02806304      -0.90313681       2.04314080
C       -0.62360951       1.21811637      -1.59079524
O       -1.06675241       2.15958097      -2.20401131
C       -1.47224012       0.12056086      -1.00035673
O       -0.71332794      -0.88523910      -0.35947805
H        2.19327377      -1.64012656       1.23443735
H        0.46736195       1.08960224      -1.42048106
H        2.72877726      -0.94581464       2.89718544
H       -2.02534781      -0.35459828      -1.81164182
H       -2.21889130       0.58526009      -0.34445739
H       -0.33971250      -0.51938223       0.45449218
12
Properties=species:S:1:pos:R:3 relative_energy_eV=-1.2037010906897194 branch=right pbc="F F F"
O        1.13216242      -0.09660017       1.99623412
C        2.02902799      -0.90119486       2.04368894
C       -0.62506577       1.21740937      -1.59176921
O       -1.07029171       2.15849594      -2.20420794
C       -1.47180787       0.11887425      -1.00044009
O       -0.71126069      -0.88510006      -0.35854278
H        2.18769905      -1.64174985       1.23638770
H        0.46613858       1.09025473      -1.42357253
H        2.73289447      -0.94372759       2.89506196
H       -2.02441512      -0.35801073      -1.81080632
H       -2.21895437       0.58318511      -0.34514216
H       -0.33899765      -0.51738916       0.45516138
12
Properties=species:S:1:pos:R:3 relative_energy_eV=-1.2038661463648168 branch=right pbc="F F F"
O        1.13622567      -0.09021598       2.00103747
C        2.03057445      -0.89800131       2.04437822
C       -0.62780406       1.21607300      -1.59376469
O       -1.07676518       2.15653423      -2.20457999
C       -1.47087780       0.11560519      -1.00077949
O       -0.70710000      -0.88377479      -0.35523850
H        2.17576179      -1.64567604       1.24028305
H        0.46397644       1.09152965      -1.42909037
H        2.74263240      -0.93865593       2.88891038
H       -2.02095619      -0.36578293      -1.80995283
H       -2.22005555       0.57889644      -0.34753614
H       -0.33848264      -0.51208446       0.45838613
12
Properties=species:S:1:pos:R:3 relative_energy_eV=-1.204193098241376 branch=right pbc="F F F"
O        1.13905372      -0.08407496       2.01319631
C        2.03256131      -0.89345221       2.04366832
C       -0.63025063       1.21392273      -1.59550623
O       -1.08334051       2.15327289      -2.20522903
C       -1.46907525       0.11045990      -1.00212950
O       -0.70238719      -0.88001097      -0.34600882
H        2.15130154      -1.65457317       1.24628436
H        0.46205379       1.09344522      -1.43292095
H        2.76678196      -0.92494448       2.86989871
H       -2.01001901      -0.37983567      -1.81189750
H       -2.22549520       0.57177145      -0.35650099
H       -0.34405523      -0.50153341       0.46919890
12
Properties=species:S:1:pos:R:3 relative_energy_eV=-1.2046519838277163 branch=right pbc="F F F"
O        1.14122879      -0.07873308       2.02990997
C        2.03457126      -0.88937955       2.04254993
C       -0.63351633       1.21146912      -1.59847472
O       -1.09230449       2.14910477      -2.20690569
C       -1.46656171       0.10409383      -1.00376141
O       -0.69595501      -0.87270853      -0.33101052
H        2.12023883      -1.66690262       1.25522819
H        0.45982369       1.09612273      -1.43827102
H        2.80043139      -0.90599169       2.84164910
H       -1.99253533      -0.39975268      -1.81558487
H       -2.23496827       0.56221292      -0.37032476
H       -0.35332353      -0.48508755       0.48704987
12
Properties=species:S:1:pos:R:3 relative_energy_eV=-1.20532031417315 branch=right pbc="F F F"
O        1.14708783      -0.07394082       2.03974159
C        2.03675737      -0.88898846       2.04421232
C       -0.64126091       1.20994335      -1.60609635
O       -1.11057186       2.14487810      -2.21122274
C       -1.46420881       0.09862452      -1.00330825
O       -0.68582994      -0.86185767      -0.31544897
H        2.10352225      -1.67694097       1.26715320
H        0.45508699       1.10023311      -1.45514522
H        2.82232245      -0.89473029       2.82400672
H       -1.97657414      -0.42095898      -1.81517309
H       -2.24343316       0.55295661      -0.38020597
H       -0.35576878      -0.46477052       0.50354126
12
Properties=species:S:1:pos:R:3 relative_energy_eV=-1.2056563562564406 branch=right pbc="F F F"
O        1.13527412      -0.08646310       2.05643812
C        2.03454390      -0.89078123       2.03863238
C       -0.63454449       1.20916432      -1.60059845
O       -1.09693632       2.14286232      -2.21072371
C       -1.46311237       0.09891892      -1.00596639
O       -0.69412881      -0.85668250      -0.30307718
H        2.08739457      -1.68254071       1.26789948
H        0.45976040       1.09877267      -1.43792052
H        2.85064251      -0.87556324       2.78916129
H       -1.95803337      -0.42451400      -1.82621116
H       -2.25572342       0.55167888      -0.39687926
H       -0.37800750      -0.46040406       0.52130021
12
Properties=species:S:1:pos:R:3 relative_energy_eV=-1.2055064117630536 branch=right pbc="F F F"
O        1.14962865      -0.07441578       2.05115693
C        2.03728235      -0.89071768       2.04534611
C       -0.64515253       1.20917989      -1.61046759
O       -1.12023665       2.14068137      -2.21540710
C       -1.46268995       0.09685062      -1.00283110
O       -0.68257791      -0.85292221      -0.30414522
H        2.09718531      -1.68137428       1.27661845
H        0.45269853       1.10161776      -1.46368115
H        2.83867283      -0.88542325       2.80454702
H       -1.96209560      -0.43186240      -1.81707193
H       -2.25218552       0.54694298      -0.38894131
H       -0.36340022      -0.45410885       0.51693169
12
Properties=species:S:1:pos:R:3 relative_energy_eV=-1.205855035708737 branch=right pbc="F F F"
O        1.14654208      -0.07435881       2.06147433
C        2.03738220      -0.88753774       2.04276783
C       -0.64210652       1.20814454      -1.60731524
O       -1.11472031       2.13966836      -2.21422001
C       -1.46203130       0.09501966      -1.00463323
O       -0.68460080      -0.85339341      -0.30004848
H        2.07998416      -1.68605153       1.27708143
H        0.45481336       1.10120304      -1.45552728
H        2.85629533      -0.87439114       2.78726449
H       -1.95559073      -0.43547442      -1.82167635
H       -2.25640979       0.54453068      -0.39660952
H       -0.37242842      -0.45291092       0.52349699
12
Properties=species:S:1:pos:R:3 relative_energy_eV=-1.205907855028272 branch=right pbc="F F F"
O        1.14103633      -0.07948960       2.06519155
C        2.03630172      -0.88770175       2.04032013
C       -0.63790355       1.20823844      -1.60356036
O       -1.10565959       2.14037736      -2.21261707
C       -1.46217432       0.09577470      -1.00581004
O       -0.68936190      -0.85444681      -0.29903567
H        2.07638082      -1.68608737       1.27508669
H        0.45764651       1.09998003      -1.44563260
H        2.86154352      -0.87011486       2.77823993
H       -1.95310990      -0.43272458      -1.82542003
H       -2.25840390       0.54576359      -0.40062607
H       -0.37916652      -0.45512076       0.52591855
12
Properties=species:S:1:pos:R:3 relative_energy_eV=-1.2059858534339583 branch=right pbc="F F F"
O        1.13723999      -0.08188118       2.07253058
C        2.03559991      -0.88637741       2.03770608
C       -0.63487943       1.20765225      -1.60068426
O       -1.10013270       2.13982919      -2.21149573
C       -1.46154155       0.09494955      -1.00692236
O       -0.69228497      -0.85427675      -0.29509528
H        2.06712865      -1.68813379       1.27587206
H        0.46002972       1.09953242      -1.43861236
H        2.87193611      -0.86240333       2.76290085
H       -1.94718873      -0.43448390      -1.82887882
H       -2.26171145       0.54444377      -0.40677853
H       -0.38706634      -0.45440231       0.53151289
12
Properties=species:S:1:pos:R:3 relative_energy_eV=-1.206064273181255 branch=right pbc="F F F"
O        1.13325196      -0.08452796       2.08231939
C        2.03492608      -0.88457744       2.03440363
C       -0.63161650       1.20696575      -1.59770138
O       -1.09449135       2.13930530      -2.21027024
C       -1.46054746       0.09358217      -1.00822700
O       -0.69510238      -0.85344176      -0.28918188
H        2.05512888      -1.69121338       1.27788904
H        0.46246883       1.09923399      -1.43135485
H        2.88443466      -0.85248387       2.74253359
H       -1.93909055      -0.43841519      -1.83249353
H       -2.26593809       0.54210054      -0.41486365
H       -0.39629489      -0.45207950       0.53900216
12
Properties=species:S:1:pos:R:3 relative_energy_eV=-1.206085589235954 branch=right pbc="F F F"
O        1.13149405      -0.08499212       2.09067277
C        2.03456063      -0.88294739       2.03215101
C       -0.63052506       1.20609034      -1.59662241
O       -1.09347085       2.13805697      -2.21005229
C       -1.45937244       0.09182411      -1.00883989
O       -0.69540986      -0.85139477      -0.28290149
H        2.04395354      -1.69500986       1.28058571
H        0.46370499       1.09958969      -1.42882351
H        2.89626791      -0.84360823       2.72569326
H       -1.93078550      -0.44422229      -1.83485686
H       -2.27003627       0.53906342      -0.42161114
H       -0.40325196      -0.44800109       0.54666031
12
Properties=species:S:1:pos:R:3 relative_energy_eV=-1.2060967989636993 branch=right pbc="F F F"
O        1.13115283      -0.08551841       2.09064103
C        2.03426378      -0.88306061       2.03173209
C       -0.63038530       1.20611458      -1.59647068
O       -1.09315715       2.13824984      -2.20987914
C       -1.45923407       0.09190154      -1.00867006
O       -0.69551472      -0.85117500      -0.28248691
H        2.04457465      -1.69504166       1.28050043
H        0.46396007       1.09956634      -1.42867282
H        2.89505052      -0.84356200       2.72483924
H       -1.93021513      -0.44435011      -1.83464103
H       -2.26998280       0.53907906      -0.42171512
H       -0.40338350      -0.44775479       0.54687843
12
Properties=species:S:1:pos:R:3 relative_energy_eV=-1.2060923377703148 branch=right pbc="F F F"
O        1.13002237      -0.08680518       2.09188696
C        2.03408834      -0.88328956       2.03135741
C       -0.62946374       1.20624098      -1.59585689
O       -1.09124425       2.13859034      -2.20963819
C       -1.45929064       0.09207857      -1.00902269
O       -0.69632901      -0.85116486      -0.28214305
H        2.04351426      -1.69531090       1.28020516
H        0.46441876       1.09919369      -1.42645514
H        2.89660869      -0.84250629       2.72258099
H       -1.92952511      -0.44392202      -1.83563551
H       -2.27063576       0.53924001      -0.42284528
H       -0.40503473      -0.44789598       0.54762171
12
Properties=species:S:1:pos:R:3 relative_energy_eV=-1.2060968749829044 branch=right pbc="F F F"
O        1.12922761      -0.08749345       2.09251636
C        2.03384599      -0.88327276       2.03090263
C       -0.62886279       1.20621828      -1.59524785
O       -1.08996121       2.13865002      -2.20933606
C       -1.45925029       0.09212917      -1.00914595
O       -0.69695010      -0.85122999      -0.28182529
H        2.04279785      -1.69551846       1.27988471
H        0.46493727       1.09901816      -1.42498299
H        2.89745260      -0.84158696       2.72084737
H       -1.92889586      -0.44371004      -1.83619301
H       -2.27100104       0.53932570      -0.42357551
H       -0.40621083      -0.44808085       0.54821105
12
Properties=species:S:1:pos:R:3 relative_energy_eV=-1.2061038434530928 branch=right pbc="F F F"
O        1.12801602      -0.08871151       2.09323140
C        2.03344798      -0.88339869       2.03024975
C       -0.62787492       1.20626227      -1.59432315
O       -1.08788858       2.13891470      -2.20882978
C       -1.45923135       0.09232102      -1.00935676
O       -0.69793913      -0.85138774      -0.28152549
H        2.04214589      -1.69579672       1.27927234
H        0.46568329       1.09866599      -1.42259795
H        2.89822165      -0.84044435       2.71867211
H       -1.92817301      -0.44311092      -1.83705686
H       -2.27147253       0.53961665      -0.42454056
H       -0.40780613      -0.44848188       0.54886042
12
Properties=species:S:1:pos:R:3 relative_energy_eV=-1.2061008266082354 branch=right pbc="F F F"
O        1.12625290      -0.09036853       2.09350143
C        2.03279436      -0.88360936       2.02926543
C       -0.62634832       1.20637557      -1.59285100
O       -1.08474668       2.13940623      -2.20795237
C       -1.45925854       0.09272118      -1.00959966
O       -0.69953291      -0.85194358      -0.28147815
H        2.04187865      -1.69596078       1.27813621
H        0.46685427       1.09814944      -1.41903005
H        2.89842562      -0.83924593       2.71645412
H       -1.92762719      -0.44178379      -1.83820661
H       -2.27184996       0.54031775      -0.42549294
H       -0.40971303      -0.44960942       0.54930905
12
Properties=species:S:1:pos:R:3 relative_energy_eV=-1.206116629373355 branch=right pbc="F F F"
O        1.12415485      -0.09219525       2.09324875
C        2.03194298      -0.88383254       2.02795202
C       -0.62435758       1.20655749      -1.59086284
O       -1.08072047       2.14012730      -2.20664928
C       -1.45931814       0.09323175      -1.00988354
O       -0.70164449      -0.85292971      -0.28158578
H        2.04174317      -1.69617629       1.27669802
H        0.46836334       1.09752741      -1.41445945
H        2.89823688      -0.83781543       2.71408091
H       -1.92719005      -0.43993977      -1.83963846
H       -2.27219703       0.54127710      -0.42647687
H       -0.41188424      -0.45138330       0.54963194
12
Properties=species:S:1:pos:R:3 relative_energy_eV=-1.2061270204048924 branch=right pbc="F F F"
O        1.12157530      -0.09417002       2.09216562
C        2.03078904      -0.88402763       2.02613047
C       -0.62164376       1.20683729      -1.58801214
O       -1.07532221       2.14121835      -2.20459881
C       -1.45942787       0.09389654      -1.01025366
O       -0.70462946      -0.85463203      -0.28196781
H        2.04164178      -1.69653890       1.27497632
H        0.47043151       1.09675644      -1.40828585
H        2.89761495      -0.83597937       2.71132089
H       -1.92687265      -0.43723750      -1.84157532
H       -2.27252915       0.54257449      -0.42754981
H       -0.41449828      -0.45424899       0.54970546
12
Properties=species:S:1:pos:R:3 relative_energy_eV=-1.2061364522287477 branch=right pbc="F F F"
O        1.11972443      -0.09511140       2.08987017
C        2.02968065      -0.88406830       2.02430679
C       -0.61907791       1.20719484      -1.58496549
O       -1.07028869       2.14256155      -2.20193656
C       -1.45957083       0.09440573      -1.01062533
O       -0.70760892      -0.85675479      -0.28258197
H        2.04126565      -1.69744747       1.27403236
H        0.47237014       1.09610248      -1.40236910
H        2.89670058      -0.83401723       2.70897852
H       -1.92673628      -0.43455648      -1.84355525
H       -2.27282062       0.54360072      -0.42840411
H       -0.41650897      -0.45746110       0.54930524
12
Properties=species:S:1:pos:R:3 relative_energy_eV=-1.2061659704413614 branch=right pbc="F F F"
O        1.11916018      -0.09419038       2.08563580
C        2.02863015      -0.88384909       2.02247646
C       -0.61675291       1.20771301      -1.58143916
O       -1.06587609       2.14448707      -2.19794380
C       -1.45976324       0.09460278      -1.01110138
O       -0.71065734      -0.85949788      -0.28352252
H        2.03978329      -1.69977902       1.27500828
H        0.47414542       1.09561326      -1.39666543
H        2.89588692      -0.83156587       2.70660659
H       -1.92648594      -0.43192809      -1.84590656
H       -2.27330362       0.54393613      -0.42921612
H       -0.41763752      -0.46109361       0.54812297
12
Properties=species:S:1:pos:R:3 relative_energy_eV=-1.2062235795456218 branch=right pbc="F F F"
O        1.12255526      -0.08872821       2.07794380
C        2.02827046      -0.88322591       2.02156562
C       -0.61635188       1.20853312      -1.57832000
O       -1.06539370       2.14729162      -2.19201709
C       -1.46002445       0.09383482      -1.01166418
O       -0.71223385      -0.86229858      -0.28476657
H        2.03583117      -1.70547786       1.28109699
H        0.47446817       1.09576475      -1.39435061
H        2.89579775      -0.82874280       2.70515762
H       -1.92577499      -0.43101555      -1.84822692
H       -2.27432430       0.54205793      -0.42982560
H       -0.41569021      -0.46354548       0.54546187
12
Properties=species:S:1:pos:R:3 relative_energy_eV=-1.2063101795192779 branch=right pbc="F F F"
O        1.13082247      -0.07842768       2.06715346
C        2.02901996      -0.88247038       2.02222315
C       -0.61885826       1.20983109      -1.57626054
O       -1.07060943       2.15128612      -2.18406244
C       -1.46036079       0.09190970      -1.01247481
O       -0.71138296      -0.86392276      -0.28592026
H        2.02805495      -1.71610149       1.29460293
H        0.47267608       1.09671826      -1.39696899
H        2.89800329      -0.82560096       2.70398778
H       -1.92349147      -0.43287389      -1.85066717
H       -2.27670015       0.53693998      -0.43098803
H       -0.41004406      -0.46284078       0.54142961
12
Properties=species:S:1:pos:R:3 relative_energy_eV=-1.2064001431408542 branch=right pbc="F F F"
O        1.13960505      -0.06948479       2.05832470
C        2.03043916      -0.88243869       2.02361423
C       -0.62261971       1.21141552      -1.57526017
O       -1.07760057       2.15561415      -2.17646028
C       -1.46065404       0.08987986      -1.01359552
O       -0.70915760      -0.86289549      -0.28571416
H        2.01813654      -1.72891346       1.31092444
H        0.46985090       1.09775469      -1.40130947
H        2.90330664      -0.82188796       2.70049844
H       -1.91876573      -0.43684238      -1.85343287
H       -2.28077945       0.53043172      -0.43421877
H       -0.40463135      -0.45818663       0.53868390
12
Properties=species:S:1:pos:R:3 relative_energy_eV=-1.2064732375383755 branch=right pbc="F F F"
O        1.14379535      -0.06664681       2.05381126
C        2.03114645      -0.88337102       2.02401027
C       -0.62434960       1.21290187      -1.57360798
O       -1.07970650       2.15962541      -2.17027217
C       -1.46086954       0.08915274      -1.01499891
O       -0.70846235      -0.86077625      -0.28520458
H        2.00969686      -1.73916541       1.32310871
H        0.46834732       1.09768169      -1.40113168
H        2.90897709      -0.81836099       2.69430550
H       -1.91324448      -0.43884472      -1.85696165
H       -2.28493391       0.52590807      -0.43870848
H       -0.40326667      -0.45365849       0.53770403
12
Properties=species:S:1:pos:R:3 relative_energy_eV=-1.2064853940173634 branch=right pbc="F F F"
O        1.14697852      -0.06378534       2.05268063
C        2.03166160      -0.88344059       2.02464861
C       -0.62626531       1.21320867      -1.57407254
O       -1.08295677       2.16073640      -2.16801864
C       -1.46062321       0.08829843      -1.01542468
O       -0.70640030      -0.85909758      -0.28480020
H        2.00515142      -1.74355294       1.32901650
H        0.46660232       1.09770000      -1.40353206
H        2.91154339      -0.81705623       2.69160242
H       -1.91045773      -0.44125330      -1.85754259
H       -2.28622901       0.52316896      -0.44018202
H       -0.40187485      -0.45048053       0.53767887
12
Properties=species:S:1:pos:R:3 relative_energy_eV=-1.2064931372951833 branch=right pbc="F F F"
O        1.14493582      -0.06617520       2.05417299
C        2.03123207      -0.88370776       2.02377053
C       -0.62489596       1.21328560      -1.57299515
O       -1.08024923       2.16091238      -2.16777478
C       -1.46057008       0.08872267      -1.01568460
O       -0.70783320      -0.85903018      -0.28415479
H        2.00463983      -1.74359465       1.32818734
H        0.46766749       1.09736519      -1.40041811
H        2.91279715      -0.81580632       2.68845087
H       -1.90923430      -0.44047314      -1.85869043
H       -2.28698190       0.52384377      -0.44176142
H       -0.40437763      -0.45089641       0.53895186
12
Properties=species:S:1:pos:R:3 relative_energy_eV=-1.2064909911950963 branch=right pbc="F F F"
O        1.14522204      -0.06553885       2.05390282
C        2.03119551      -0.88353844       2.02368266
C       -0.62487197       1.21327457      -1.57280364
O       -1.08036429       2.16097640      -2.16738514
C       -1.46051740       0.08856812      -1.01571686
O       -0.70786241      -0.85924423      -0.28414441
H        2.00408058      -1.74398217       1.32867659
H        0.46770305       1.09741013      -1.40032159
H        2.91302719      -0.81545705       2.68790627
H       -1.90903382      -0.44056751      -1.85883210
H       -2.28703227       0.52364039      -0.44188871
H       -0.40441615      -0.45109542       0.53897842
