12
Properties=species:S:1:pos:R:3 relative_energy_eV=0.0 branch=left pbc="F F F"
O       -0.18392755      -0.75596881      -1.76738074
C       -0.99101679       0.03988092      -2.18238607
C       -0.45083527       0.34830127       1.26732023
O       -1.03417342       1.31346337       0.82465349
C        1.03177991       0.12848894       1.16523079
O        1.36054189      -1.23113159       0.94934954
H       -1.44527113       0.79746059      -1.52904505
H       -0.99214760      -0.45317337       1.81360033
H       -1.31336336       0.04553037      -3.24186923
H        1.46242315       0.40758081       2.13355824
H        1.44430212       0.80463328       0.41243026
H        1.09481707      -1.44719929       0.04498706
12
Properties=species:S:1:pos:R:3 relative_energy_eV=7.914914021966979e-06 branch=left pbc="F F F"
O       -0.18441350      -0.75660495      -1.76732298
C       -0.99089668       0.03987050      -2.18235736
C       -0.45088850       0.34830809       1.26730704
O       -1.03425879       1.31356149       0.82484533
C        1.03175669       0.12855140       1.16523201
O        1.36040189      -1.23111845       0.94938255
H       -1.44475425       0.79760589      -1.52896337
H       -0.99235040      -0.45327965       1.81333132
H       -1.31339839       0.04567470      -3.24172347
H        1.46245323       0.40763234       2.13354457
H        1.44419779       0.80465687       0.41232301
H        1.09527992      -1.44699172       0.04485018
12
Properties=species:S:1:pos:R:3 relative_energy_eV=5.267002052278258e-06 branch=left pbc="F F F"
O       -0.18583347      -0.75766095      -1.76672188
C       -0.99085569       0.04006971      -2.18228038
C       -0.45098380       0.34816415       1.26708347
O       -1.03447211       1.31350391       0.82499534
C        1.03176992       0.12873100       1.16518290
O        1.36057190      -1.23099180       0.94968547
H       -1.44396993       0.79850796      -1.52919804
H       -0.99248218      -0.45383118       1.81259932
H       -1.31335199       0.04578472      -3.24158353
H        1.46236819       0.40785064       2.13352468
H        1.44425622       0.80476983       0.41214865
H        1.09611194      -1.44703151       0.04501281
12
Properties=species:S:1:pos:R:3 relative_energy_eV=1.1775742677855305e-05 branch=left pbc="F F F"
O       -0.18815942      -0.75895790      -1.76548583
C       -0.99100690       0.04047969      -2.18210617
C       -0.45111701       0.34781816       1.26658087
O       -1.03474625       1.31328811       0.82506051
C        1.03180809       0.12899512       1.16505159
O        1.36123453      -1.23073621       0.95028271
H       -1.44305590       0.80033028      -1.52982685
H       -0.99237996      -0.45496751       1.81135297
H       -1.31317391       0.04580366      -3.24152673
H        1.46204857       0.40839385       2.13348031
H        1.44455340       0.80494871       0.41196983
H        1.09712371      -1.44752950       0.04561558
12
Properties=species:S:1:pos:R:3 relative_energy_eV=1.8702387023949996e-05 branch=left pbc="F F F"
O       -0.19083617      -0.76030812      -1.76405964
C       -0.99136471       0.04087240      -2.18186473
C       -0.45125045       0.34735077       1.26595902
O       -1.03495205       1.31300738       0.82503043
C        1.03183265       0.12923288       1.16490611
O        1.36222039      -1.23041062       0.95093033
H       -1.44204181       0.80259468      -1.53061869
H       -0.99203641      -0.45639038       1.80997893
H       -1.31292495       0.04582135      -3.24158433
H        1.46150944       0.40922208       2.13344163
H        1.44495160       0.80513719       0.41192552
H        1.09802140      -1.44826315       0.04640417
12
Properties=species:S:1:pos:R:3 relative_energy_eV=4.058315789734479e-05 branch=left pbc="F F F"
O       -0.19363109      -0.76204919      -1.76300941
C       -0.99186119       0.04098343      -2.18164660
C       -0.45136995       0.34686898       1.26544893
O       -1.03508002       1.31271268       0.82493931
C        1.03181296       0.12941603       1.16485304
O        1.36328714      -1.23002274       0.95131618
H       -1.44051218       0.80483948      -1.53128269
H       -0.99157469      -0.45774134       1.80890554
H       -1.31274833       0.04607824      -3.24173556
H        1.46084619       0.41016347       2.13351012
H        1.44524519       0.80541567       0.41216622
H        1.09871490      -1.44879828       0.04698360
12
Properties=species:S:1:pos:R:3 relative_energy_eV=6.124541141616646e-05 branch=left pbc="F F F"
O       -0.19662037      -0.76470726      -1.76277843
C       -0.99236294       0.04063413      -2.18158700
C       -0.45146056       0.34645286       1.26527877
O       -1.03524695       1.31228697       0.82473907
C        1.03176181       0.12959195       1.16501562
O        1.36420073      -1.22951929       0.95115032
H       -1.43788501       0.80672999      -1.53161998
H       -0.99113278      -0.45866039       1.80857395
H       -1.31279454       0.04679638      -3.24193617
H        1.46022595       0.41089043       2.13382716
H        1.44525144       0.80596967       0.41282338
H        1.09919212      -1.44859906       0.04696193
12
Properties=species:S:1:pos:R:3 relative_energy_eV=7.79321762820473e-05 branch=left pbc="F F F"
O       -0.19950410      -0.76811785      -1.76344640
C       -0.99266451       0.03991931      -2.18179621
C       -0.45150268       0.34618830       1.26556801
O       -1.03558881       1.31161414       0.82439230
C        1.03173451       0.12982428       1.16540730
O        1.36474222      -1.22891864       0.95036481
H       -1.43436121       0.80793777      -1.53161465
H       -0.99083253      -0.45885543       1.80924735
H       -1.31311077       0.04787039      -3.24213796
H        1.45989151       0.41099875       2.13442494
H        1.44495431       0.80688390       0.41381636
H        1.09937092      -1.44747856       0.04622270
12
Properties=species:S:1:pos:R:3 relative_energy_eV=0.00010439266407047398 branch=left pbc="F F F"
O       -0.20197796      -0.77145231      -1.76442771
C       -0.99270837       0.03920337      -2.18219500
C       -0.45149069       0.34604126       1.26610996
O       -1.03610811       1.31070075       0.82389822
C        1.03178491       0.13011710       1.16588518
O        1.36497765      -1.22831041       0.94931129
H       -1.43086856       0.80859952      -1.53151666
H       -0.99066101      -0.45850508       1.81054299
H       -1.31353822       0.04889664      -3.24230948
H        1.45988574       0.41049344       2.13513805
H        1.44455212       0.80798920       0.41484566
H        1.09928137      -1.44590716       0.04516596
12
Properties=species:S:1:pos:R:3 relative_energy_eV=0.00012663696543313563 branch=left pbc="F F F"
O       -0.20387608      -0.77397945      -1.76513143
C       -0.99259220       0.03876942      -2.18262787
C       -0.45143776       0.34592898       1.26662271
O       -1.03668139       1.30970053       0.82334222
C        1.03191404       0.13042079       1.16628976
O        1.36513159      -1.22778756       0.94838604
H       -1.42823592       0.80905270      -1.53157475
H       -0.99052549      -0.45800778       1.81187839
H       -1.31389040       0.04955447      -3.24246353
H        1.46007221       0.40971127       2.13577603
H        1.44424859       0.80903622       0.41566733
H        1.09900166      -1.44453330       0.04428351
12
Properties=species:S:1:pos:R:3 relative_energy_eV=0.000138652314490173 branch=left pbc="F F F"
O       -0.20526758      -0.77553419      -1.76533740
C       -0.99244486       0.03866293      -2.18297066
C       -0.45136428       0.34578736       1.26693425
O       -1.03718038       1.30877541       0.82280862
C        1.03208551       0.13067879       1.16655016
O        1.36537039      -1.22738530       0.94778316
H       -1.42664964       0.80954241      -1.53184264
H       -0.99035799      -0.45765701       1.81286356
H       -1.31408704       0.04980775      -3.24260331
H        1.46027105       0.40900096       2.13624159
H        1.44411123       0.80986850       0.41621184
H        1.09864241      -1.44368136       0.04380918
12
Properties=species:S:1:pos:R:3 relative_energy_eV=0.00014595152788388077 branch=left pbc="F F F"
O       -0.20627882      -0.77636523      -1.76518645
C       -0.99232447       0.03877079      -2.18320150
C       -0.45128595       0.34560998       1.26705315
O       -1.03755598       1.30800062       0.82234565
C        1.03226238       0.13087229       1.16668675
O        1.36572088      -1.22708614       0.94745265
H       -1.42584906       0.81010228      -1.53224062
H       -0.99014472      -0.45750351       1.81348052
H       -1.31415915       0.04979289      -3.24273224
H        1.46039722       0.40849513       2.13655432
H        1.44410081       0.81048445       0.41655343
H        1.09824568      -1.44330732       0.04368268
12
Properties=species:S:1:pos:R:3 relative_energy_eV=0.00015320744932978414 branch=left pbc="F F F"
O       -0.20700145      -0.77674241      -1.76487179
C       -0.99224609       0.03897361      -2.18332873
C       -0.45121195       0.34541326       1.26703156
O       -1.03779608       1.30740890       0.82197371
C        1.03241803       0.13099679       1.16674087
O        1.36613502      -1.22686935       0.94730743
H       -1.42553721       0.81067347      -1.53265814
H       -0.98991015      -0.45750610       1.81380021
H       -1.31415712       0.04965237      -3.24283756
H        1.46043077       0.40821676       2.13675162
H        1.44415254       0.81090897       0.41676285
H        1.09785254      -1.44326004       0.04377629
12
Properties=species:S:1:pos:R:3 relative_energy_eV=0.00015592804447805975 branch=left pbc="F F F"
O       -0.20749302      -0.77689136      -1.76456587
C       -0.99219618       0.03918338      -2.18338450
C       -0.45114568       0.34521885       1.26693911
O       -1.03791908       1.30699152       0.82169702
C        1.03254236       0.13106520       1.16675060
O        1.36655749      -1.22671162       0.94725454
H       -1.42547775       0.81118268      -1.53302027
H       -0.98968216      -0.45758833       1.81394443
H       -1.31413034       0.04948934      -3.24291298
H        1.46039144       0.40811264       2.13688016
H        1.44421414       0.81119359       0.41690007
H        1.09746762      -1.44337965       0.04396601
12
Properties=species:S:1:pos:R:3 relative_energy_eV=0.00015948518375807907 branch=left pbc="F F F"
O       -0.20779744      -0.77695037      -1.76436723
C       -0.99216270       0.03934856      -2.18338721
C       -0.45109002       0.34503917       1.26682209
O       -1.03793736       1.30673332       0.82150820
C        1.03263152       0.13108960       1.16674436
O        1.36694115      -1.22659566       0.94724284
H       -1.42552694       0.81158642      -1.53328440
H       -0.98949532      -0.45769647       1.81399280
H       -1.31410289       0.04936163      -3.24294633
H        1.46030401       0.40812683       2.13696899
H        1.44424923       0.81136303       0.41698434
H        1.09711558      -1.44353983       0.04416986
12
Properties=species:S:1:pos:R:3 relative_energy_eV=0.0001644686453801114 branch=left pbc="F F F"
O       -0.20804309      -0.77706004      -1.76432749
C       -0.99214036       0.03947891      -2.18333932
C       -0.45102749       0.34479369       1.26668341
O       -1.03780428       1.30656201       0.82135573
C        1.03271100       0.13108060       1.16675101
O        1.36743373      -1.22645674       0.94725092
H       -1.42564250       0.81203820      -1.53354376
H       -0.98934805      -0.45784520       1.81402088
H       -1.31406582       0.04926392      -3.24293382
H        1.46016126       0.40822780       2.13708784
H        1.44419717       0.81145137       0.41701597
H        1.09669726      -1.44366831       0.04442694
12
Properties=species:S:1:pos:R:3 relative_energy_eV=0.00017478203335485887 branch=left pbc="F F F"
O       -0.20845747      -0.77737826      -1.76444076
C       -0.99225807       0.03949024      -2.18322242
C       -0.45098190       0.34441904       1.26662459
O       -1.03734128       1.30653582       0.82128289
C        1.03275878       0.13102191       1.16684914
O        1.36807668      -1.22627016       0.94737178
H       -1.42577941       0.81275062      -1.53396717
H       -0.98951070      -0.45806264       1.81404323
H       -1.31390238       0.04920048      -3.24287535
H        1.46004857       0.40832873       2.13727477
H        1.44385149       0.81126249       0.41679368
H        1.09662452      -1.44343204       0.04471393
12
Properties=species:S:1:pos:R:3 relative_energy_eV=0.00020567110914271325 branch=left pbc="F F F"
O       -0.20942826      -0.77779013      -1.76411799
C       -0.99271524       0.03938540      -2.18315536
C       -0.45102224       0.34405430       1.26684781
O       -1.03671263       1.30658220       0.82131567
C        1.03274609       0.13093392       1.16708095
O        1.36861837      -1.22614002       0.94769608
H       -1.42583764       0.81386091      -1.53483957
H       -0.99025807      -0.45827519       1.81407587
H       -1.31344524       0.04903429      -3.24296251
H        1.46023898       0.40815264       2.13744452
H        1.44316974       0.81071476       0.41620872
H        1.09777494      -1.44264688       0.04485413
12
Properties=species:S:1:pos:R:3 relative_energy_eV=0.0002489427188265836 branch=left pbc="F F F"
O       -0.21125637      -0.77789950      -1.76254839
C       -0.99349580       0.03944722      -2.18323957
C       -0.45112760       0.34375711       1.26722482
O       -1.03629935       1.30638665       0.82125888
C        1.03274685       0.13082978       1.16734993
O        1.36912315      -1.22613790       0.94820620
H       -1.42588059       0.81553513      -1.53639121
H       -0.99128512      -0.45851927       1.81402460
H       -1.31267233       0.04851924      -3.24338291
H        1.46071722       0.40772131       2.13748758
H        1.44243588       0.81011530       0.41552791
H        1.10012285      -1.44188884       0.04493046
12
Properties=species:S:1:pos:R:3 relative_energy_eV=0.0003093894374615047 branch=left pbc="F F F"
O       -0.21434275      -0.77744451      -1.75909893
C       -0.99457349       0.03999061      -2.18351896
C       -0.45121989       0.34334006       1.26753696
O       -1.03617523       1.30564901       0.82088733
C        1.03287069       0.13064586       1.16760303
O        1.37016498      -1.22623629       0.94886127
H       -1.42613113       0.81828279      -1.53907085
H       -0.99224285      -0.45895376       1.81384996
H       -1.31153938       0.04738619      -3.24429225
H        1.46130785       0.40728567       2.13743041
H        1.44174024       0.80974494       0.41503611
H        1.10326975      -1.44182437       0.04522421
12
Properties=species:S:1:pos:R:3 relative_energy_eV=0.0003994466933363583 branch=left pbc="F F F"
O       -0.21936678      -0.77618359      -1.75301705
C       -0.99596396       0.04135955      -2.18400406
C       -0.45118214       0.34241207       1.26750946
O       -1.03617657       1.30404515       0.81993190
C        1.03324099       0.13023875       1.16784087
O        1.37260672      -1.22637187       0.94965574
H       -1.42693044       0.82296969      -1.54364218
H       -0.99277722      -0.45986181       1.81353363
H       -1.30990195       0.04528777      -3.24584174
H        1.46173122       0.40729675       2.13736776
H        1.44103671       0.80976248       0.41500758
H        1.10681218      -1.44308875       0.04610633
12
Properties=species:S:1:pos:R:3 relative_energy_eV=0.0005226688117545564 branch=left pbc="F F F"
O       -0.22498051      -0.77454112      -1.74604808
C       -0.99722825       0.04323090      -2.18440087
C       -0.45095507       0.34094802       1.26690736
O       -1.03601055       1.30201713       0.81850682
C        1.03377028       0.12961086       1.16798658
O        1.37619980      -1.22644898       0.95033623
H       -1.42820387       0.82858900      -1.54889918
H       -0.99263198      -0.46110414       1.81309324
H       -1.30820222       0.04281452      -3.24743869
H        1.46157322       0.40814259       2.13739109
H        1.44041601       0.81011249       0.41552262
H        1.10938189      -1.44550510       0.04749108
12
Properties=species:S:1:pos:R:3 relative_energy_eV=0.0006340338077279739 branch=left pbc="F F F"
O       -0.22896704      -0.77332286      -1.74104885
C       -0.99798105       0.04476692      -2.18445699
C       -0.45063997       0.33947775       1.26598100
O       -1.03560765       1.30045750       0.81718970
C        1.03421269       0.12899428       1.16800804
O        1.37945088      -1.22645063       0.95071516
H       -1.42939149       0.83298652      -1.55269040
H       -0.99210438      -0.46217285       1.81261802
H       -1.30703278       0.04101497      -3.24833819
H        1.46091575       0.40948000       2.13748297
H        1.43999767       0.81048298       0.41619887
H        1.11027608      -1.44784840       0.04878885
12
Properties=species:S:1:pos:R:3 relative_energy_eV=0.000710340906152851 branch=left pbc="F F F"
O       -0.23097274      -0.77272594      -1.73859435
C       -0.99831922       0.04565003      -2.18431730
C       -0.45034474       0.33837765       1.26518493
O       -1.03515183       1.29959223       0.81634404
C        1.03448071       0.12855365       1.16797817
O        1.38153558      -1.22642976       0.95084349
H       -1.43020303       0.83554252      -1.55468554
H       -0.99156726      -0.46283738       1.81229768
H       -1.30641421       0.04006900      -3.24859192
H        1.46021102       0.41071262       2.13759595
H        1.43978339       0.81071752       0.41674643
H        1.11009107      -1.44935596       0.04964659
12
Properties=species:S:1:pos:R:3 relative_energy_eV=0.0007611029541294556 branch=left pbc="F F F"
O       -0.23203796      -0.77243976      -1.73751160
C       -0.99854572       0.04614327      -2.18421809
C       -0.45003192       0.33749960       1.26465790
O       -1.03474916       1.29902439       0.81588329
C        1.03466967       0.12824004       1.16797349
O        1.38274665      -1.22643120       0.95084129
H       -1.43083234       0.83717803      -1.55599345
H       -0.99098635      -0.46324287       1.81232174
H       -1.30596524       0.03943882      -3.24864206
H        1.45964404       0.41170782       2.13773347
H        1.43972730       0.81090460       0.41725103
H        1.10948975      -1.45015656       0.05015115
12
Properties=species:S:1:pos:R:3 relative_energy_eV=0.0008341639859281713 branch=left pbc="F F F"
O       -0.23348067      -0.77203564      -1.73675347
C       -0.99909677       0.04657403      -2.18478348
C       -0.44940564       0.33638749       1.26481953
O       -1.03453204       1.29795356       0.81593589
C        1.03501028       0.12797375       1.16821519
O        1.38329796      -1.22650117       0.95061537
H       -1.43191257       0.83938903      -1.55883219
H       -0.98958100      -0.46356359       1.81384104
H       -1.30501226       0.03804997      -3.24933148
H        1.45945079       0.41241880       2.13812974
H        1.44000208       0.81139580       0.41831388
H        1.10838855      -1.45017584       0.05027813
12
Properties=species:S:1:pos:R:3 relative_energy_eV=0.0009505083307885798 branch=left pbc="F F F"
O       -0.23599974      -0.77118112      -1.73588800
C       -1.00021352       0.04692250      -2.18696449
C       -0.44841555       0.33537919       1.26675881
O       -1.03511119       1.29584375       0.81707063
C        1.03562746       0.12797997       1.16905208
O        1.38237142      -1.22663902       0.95002752
H       -1.43369409       0.84252561      -1.56486388
H       -0.98680469      -0.46367201       1.81834289
H       -1.30320052       0.03511694      -3.25180929
H        1.46052099       0.41177497       2.13899075
H        1.44088819       0.81243701       0.42023646
H        1.10715993      -1.44862158       0.04949465
12
Properties=species:S:1:pos:R:3 relative_energy_eV=0.0011013438343070447 branch=left pbc="F F F"
O       -0.23881121      -0.77005500      -1.73477613
C       -1.00143525       0.04712136      -2.19002365
C       -0.44752167       0.33505604       1.26987075
O       -1.03651438       1.29333485       0.81873815
C        1.03631092       0.12835324       1.17020518
O        1.38029728      -1.22673577       0.94928772
H       -1.43551135       0.84548613      -1.57198026
H       -0.98368722      -0.46354128       1.82419948
H       -1.30123581       0.03164717      -3.25537413
H        1.46265038       0.40969377       2.14002292
H        1.44210836       0.81364132       0.42223662
H        1.10647862      -1.44613560       0.04804143
12
Properties=species:S:1:pos:R:3 relative_energy_eV=0.0012089651136193424 branch=left pbc="F F F"
O       -0.24087999      -0.76905516      -1.73347562
C       -1.00224129       0.04724920      -2.19233891
C       -0.44704854       0.33528760       1.27235046
O       -1.03800884       1.29139005       0.81983781
C        1.03682684       0.12884961       1.17107884
O        1.37841919      -1.22672046       0.94882675
H       -1.43668990       0.84741994      -1.57705599
H       -0.98147331      -0.46346153       1.82843865
H       -1.29992017       0.02913145      -3.25824478
H        1.46455812       0.40751040       2.14076099
H        1.44316784       0.81443712       0.42341887
H        1.10641868      -1.44417200       0.04685097
12
Properties=species:S:1:pos:R:3 relative_energy_eV=0.00129792935513251 branch=left pbc="F F F"
O       -0.24214092      -0.76828698      -1.73213725
C       -1.00264708       0.04738488      -2.19361862
C       -0.44687686       0.33566557       1.27373311
O       -1.03923318       1.29009176       0.82020486
C        1.03720072       0.12930749       1.17157323
O        1.37730654      -1.22660995       0.94867580
H       -1.43733672       0.84858283      -1.57991315
H       -0.98013877      -0.46359451       1.83063719
H       -1.29926019       0.02770273      -3.26004304
H        1.46578748       0.40596431       2.14123450
H        1.44398252       0.81475679       0.42384264
H        1.10648506      -1.44309871       0.04625875
12
Properties=species:S:1:pos:R:3 relative_energy_eV=0.0013503662648872705 branch=left pbc="F F F"
O       -0.24304072      -0.76761584      -1.73059419
C       -1.00284713       0.04759580      -2.19412662
C       -0.44682060       0.33594539       1.27419452
O       -1.04022614       1.28912275       0.81998858
C        1.03754539       0.12969160       1.17181567
O        1.37687226      -1.22644112       0.94882490
H       -1.43773831       0.84953740      -1.58146382
H       -0.97922129      -0.46404021       1.83133401
H       -1.29894944       0.02692929      -3.26105428
H        1.46637738       0.40513907       2.14156990
H        1.44472387       0.81464900       0.42375308
H        1.10645333      -1.44264692       0.04620628
12
Properties=species:S:1:pos:R:3 relative_energy_eV=0.0014054920284252148 branch=left pbc="F F F"
O       -0.24387726      -0.76691995      -1.72864880
C       -1.00299053       0.04792324      -2.19411879
C       -0.44677138       0.33602781       1.27394266
O       -1.04119178       1.28819183       0.81931305
C        1.03796427       0.13004687       1.17189448
O        1.37706625      -1.22622960       0.94918720
H       -1.43812528       0.85069864      -1.58247847
H       -0.97834228      -0.46485152       1.83105705
H       -1.29877341       0.02646393      -3.26158891
H        1.46642086       0.40498571       2.14196969
H        1.44565582       0.81409512       0.42330734
H        1.10609328      -1.44256587       0.04661154
12
Properties=species:S:1:pos:R:3 relative_energy_eV=0.001453895845770603 branch=left pbc="F F F"
O       -0.24488993      -0.76622909      -1.72633531
C       -1.00317865       0.04840130      -2.19358497
C       -0.44670270       0.33576579       1.27291675
O       -1.04202956       1.28739876       0.81834563
C        1.03840718       0.13027161       1.17181041
O        1.37788035      -1.22607228       0.94989305
H       -1.43849140       0.85217460      -1.58306877
H       -0.97747573      -0.46602978       1.82967935
H       -1.29858155       0.02623341      -3.26152760
H        1.46575842       0.40570499       2.14233471
H        1.44678773       0.81297044       0.42250962
H        1.10564442      -1.44272356       0.04747511
12
Properties=species:S:1:pos:R:3 relative_energy_eV=0.00152631830314931 branch=left pbc="F F F"
O       -0.24590737      -0.76569823      -1.72415773
C       -1.00343591       0.04889420      -2.19280957
C       -0.44666535       0.33522393       1.27140554
O       -1.04277082       1.28694176       0.81759729
C        1.03872944       0.13031502       1.17147011
O        1.37925425      -1.22604105       0.95043584
H       -1.43878192       0.85365549      -1.58345005
H       -0.97673210      -0.46705802       1.82820573
H       -1.29827072       0.02608173      -3.26101749
H        1.46425729       0.40693227       2.14275271
H        1.44828080       0.81152297       0.42164868
H        1.10517098      -1.44290388       0.04836694
12
Properties=species:S:1:pos:R:3 relative_energy_eV=0.0015885589928075206 branch=left pbc="F F F"
O       -0.24711306      -0.76551148      -1.72279569
C       -1.00376287       0.04933956      -2.19228097
C       -0.44678640       0.33471492       1.27027211
O       -1.04315410       1.28725878       0.81779195
C        1.03872388       0.13017563       1.17112555
O        1.38045947      -1.22613896       0.95124320
H       -1.43883844       0.85463650      -1.58366970
H       -0.97627649      -0.46778740       1.82629020
H       -1.29794599       0.02606320      -3.26045415
H        1.46286774       0.40814520       2.14276239
H        1.44926029       0.81008487       0.42085041
H        1.10569453      -1.44311465       0.04931269
12
Properties=species:S:1:pos:R:3 relative_energy_eV=0.001678396038187202 branch=left pbc="F F F"
O       -0.24780809      -0.76567066      -1.72238386
C       -1.00403745       0.04942805      -2.19213653
C       -0.44705397       0.33440012       1.26908198
O       -1.04334752       1.28835556       0.81935773
C        1.03834401       0.12986231       1.17022491
O        1.38178795      -1.22621962       0.95088538
H       -1.43852564       0.85463313      -1.58378821
H       -0.97636094      -0.46738181       1.82643892
H       -1.29757724       0.02598020      -3.26007274
H        1.46040962       0.40839577       2.14274554
H        1.45069856       0.80951770       0.42049452
H        1.10659928      -1.44343456       0.04960034
12
Properties=species:S:1:pos:R:3 relative_energy_eV=0.0018453311640769243 branch=left pbc="F F F"
O       -0.24976132      -0.76594383      -1.72185858
C       -1.00462347       0.04990930      -2.19228486
C       -0.44755530       0.33410937       1.26820277
O       -1.04350586       1.29040605       0.82233976
C        1.03775603       0.12959407       1.16923004
O        1.38341160      -1.22601300       0.95211435
H       -1.43817858       0.85490164      -1.58414658
H       -0.97634603      -0.46789794       1.82334922
H       -1.29737722       0.02623609      -3.25998831
H        1.45861811       0.40902015       2.14189527
H        1.45154107       0.80865917       0.41960673
H        1.10914952      -1.44511491       0.05198815
12
Properties=species:S:1:pos:R:3 relative_energy_eV=0.0021141193392395508 branch=left pbc="F F F"
O       -0.24622643      -0.76649751      -1.72697011
C       -1.00283132       0.04905750      -2.19512970
C       -0.44816278       0.33573098       1.27461682
O       -1.04342122       1.28800797       0.81974522
C        1.03700263       0.12921871       1.17315805
O        1.37879724      -1.22601378       0.94614699
H       -1.43831784       0.85103644      -1.58542257
H       -0.97597988      -0.46297810       1.83642625
H       -1.29689982       0.02366438      -3.26147175
H        1.46298126       0.40629192       2.14498646
H        1.45032674       0.80646334       0.42311984
H        1.10586000      -1.43611569       0.04124249
12
Properties=species:S:1:pos:R:3 relative_energy_eV=0.002783577023365069 branch=left pbc="F F F"
O       -0.24933182      -0.76367415      -1.72436906
C       -1.00364657       0.05264822      -2.19452565
C       -0.44744446       0.33360678       1.27227426
O       -1.04259268       1.28407783       0.81674511
C        1.03859846       0.13034287       1.17481755
O        1.38236596      -1.22274759       0.94779512
H       -1.43996988       0.85476857      -1.58610798
H       -0.97534876      -0.47030208       1.82777138
H       -1.29697548       0.02301425      -3.26046823
H        1.46499864       0.41303104       2.14460808
H        1.45268959       0.80341264       0.42222370
H        1.09978556      -1.44031224       0.04968369
12
Properties=species:S:1:pos:R:3 relative_energy_eV=0.004517778244917281 branch=left pbc="F F F"
O       -0.25050460      -0.75927179      -1.71944228
C       -1.00416740       0.05641232      -2.19162684
C       -0.44515916       0.33018813       1.26970560
O       -1.04226977       1.27481886       0.80475347
C        1.04269080       0.13272596       1.17827447
O        1.38540759      -1.22083100       0.95089673
H       -1.44340756       0.86181007      -1.58636326
H       -0.97364811      -0.48091222       1.81677281
H       -1.29744522       0.02280150      -3.25781511
H        1.47096832       0.42291315       2.14541373
H        1.45403653       0.80071183       0.42122638
H        1.08662713      -1.44350066       0.05865229
12
Properties=species:S:1:pos:R:3 relative_energy_eV=0.00679186532033782 branch=left pbc="F F F"
O       -0.25474136      -0.75468725      -1.70896836
C       -1.00673291       0.06087656      -2.18465938
C       -0.44236183       0.32455549       1.25971438
O       -1.04225657       1.26728743       0.79453086
C        1.04741106       0.13499033       1.17752174
O        1.39310782      -1.22005350       0.95931659
H       -1.44638941       0.87277728      -1.58461938
H       -0.97396146      -0.49511699       1.79400732
H       -1.29761499       0.02499166      -3.25223183
H        1.47117361       0.43666320       2.14320938
H        1.45825226       0.79922030       0.41676149
H        1.07724232      -1.45363836       0.07586519
12
Properties=species:S:1:pos:R:3 relative_energy_eV=0.009796120655664708 branch=left pbc="F F F"
O       -0.26036945      -0.75169553      -1.69532250
C       -1.01027179       0.06455395      -2.17399893
C       -0.44029170       0.31808771       1.24687810
O       -1.04324777       1.26188153       0.78543300
C        1.05136662       0.13584026       1.17391678
O        1.40134997      -1.22227503       0.97139144
H       -1.44812452       0.88495893      -1.58047408
H       -0.97751517      -0.50740090       1.76555276
H       -1.29669040       0.02879855      -3.24355783
H        1.46737091       0.45157658       2.13822368
H        1.46407880       0.79719111       0.41017510
H        1.07547301      -1.46365099       0.09223045
12
Properties=species:S:1:pos:R:3 relative_energy_eV=0.012735151291053626 branch=left pbc="F F F"
O       -0.26681050      -0.75180979      -1.68608972
C       -1.01404471       0.06639064      -2.16654899
C       -0.43960695       0.31335853       1.23736072
O       -1.04310414       1.26118156       0.78631120
C        1.05313556       0.13501900       1.17038394
O        1.40753641      -1.22561162       0.98317143
H       -1.44834633       0.89323128      -1.57806865
H       -0.98302621      -0.51436080       1.74185499
H       -1.29545525       0.03255306      -3.23773497
H        1.46225383       0.46388930       2.13271331
H        1.46884961       0.79361400       0.40423192
H        1.08174720      -1.46958903       0.10286277
12
Properties=species:S:1:pos:R:3 relative_energy_eV=0.01621072860143613 branch=left pbc="F F F"
O       -0.28226704      -0.75247380      -1.67781198
C       -1.02041844       0.07003828      -2.16410668
C       -0.43991485       0.30800203       1.22792582
O       -1.03867076       1.26610977       0.80098517
C        1.05376533       0.13353889       1.16906569
O        1.41506473      -1.22786245       1.00530782
H       -1.44797707       0.90170063      -1.58056720
H       -0.98639737      -0.52750125       1.70378721
H       -1.29546072       0.03804879      -3.23637774
H        1.45990615       0.48140636       2.12440381
H        1.46903260       0.78437516       0.39503731
H        1.09646595      -1.47751628       0.12279872
12
Properties=species:S:1:pos:R:3 relative_energy_eV=0.01847408958383312 branch=left pbc="F F F"
O       -0.28391814      -0.74301838      -1.66567850
C       -1.02140779       0.07610996      -2.16057917
C       -0.43772052       0.30056874       1.21539873
O       -1.03553461       1.26222106       0.78255618
C        1.05502527       0.13663831       1.16660420
O        1.42187928      -1.22511539       1.01242575
H       -1.44729065       0.90413823      -1.57951843
H       -0.97780418      -0.54571023       1.69198013
H       -1.29902790       0.04104736      -3.23146319
H        1.46141539       0.48574257       2.12241422
H        1.46948222       0.79087161       0.39305982
H        1.07803011      -1.48562769       0.14324822
12
Properties=species:S:1:pos:R:3 relative_energy_eV=0.021386822023487184 branch=left pbc="F F F"
O       -0.29615932      -0.73944470      -1.66147386
C       -1.02533866       0.08116296      -2.16512435
C       -0.43697565       0.29659155       1.20997310
O       -1.02995780       1.26624247       0.79263121
C        1.05622292       0.13854861       1.16825210
O        1.42905467      -1.22156609       1.02798570
H       -1.44811166       0.90849673      -1.58622737
H       -0.97161874      -0.56358395       1.66533624
H       -1.30231425       0.04465230      -3.23546955
H        1.46535118       0.49638863       2.11904642
H        1.46532504       0.78715608       0.38745573
H        1.07765076      -1.49677845       0.16806258
12
Properties=species:S:1:pos:R:3 relative_energy_eV=0.023990039462660206 branch=left pbc="F F F"
O       -0.30099311      -0.73568151      -1.66041404
C       -1.02639777       0.08452568      -2.16978904
C       -0.43541485       0.29526236       1.20832038
O       -1.02755398       1.26752112       0.79549780
C        1.05791105       0.14178860       1.16974604
O        1.43400103      -1.21662447       1.03289955
H       -1.44980859       0.91059343      -1.59137832
H       -0.96428525      -0.57577833       1.65469834
H       -1.30541714       0.04576335      -3.23962409
H        1.46916802       0.49939982       2.11990988
H        1.46212414       0.78832004       0.38558298
H        1.06979492      -1.50722394       0.18499850
12
Properties=species:S:1:pos:R:3 relative_energy_eV=0.026387329142380622 branch=left pbc="F F F"
O       -0.30690248      -0.73352406      -1.65968846
C       -1.02781322       0.08742877      -2.17366133
C       -0.43362311       0.29524216       1.20695212
O       -1.02661919       1.26980748       0.80233085
C        1.06005269       0.14523819       1.17040186
O        1.43981398      -1.21140296       1.03774236
H       -1.45224791       0.91480111      -1.59608019
H       -0.95853729      -0.58648372       1.64061802
H       -1.30764395       0.04670868      -3.24381845
H        1.47068021       0.50301644       2.12090365
H        1.45972260       0.78835947       0.38241578
H        1.06624614      -1.52132539       0.20233176
12
Properties=species:S:1:pos:R:3 relative_energy_eV=0.02878263244019763 branch=left pbc="F F F"
O       -0.31395200      -0.73255362      -1.65682700
C       -1.03005862       0.09042986      -2.17414963
C       -0.43165135       0.29552072       1.20312837
O       -1.02751502       1.27273022       0.81039032
C        1.06222139       0.14843607       1.16862443
O        1.44740056      -1.20683236       1.04365579
H       -1.45480500       0.92193910      -1.59829030
H       -0.95513924      -0.59584615       1.62095071
H       -1.30836676       0.04775565      -3.24561441
H        1.46790950       0.50793895       2.12081732
H        1.45942984       0.78760776       0.37734122
H        1.06765515      -1.53926002       0.22042115
12
Properties=species:S:1:pos:R:3 relative_energy_eV=0.03143715511760092 branch=left pbc="F F F"
O       -0.32434676      -0.73278242      -1.65024921
C       -1.03405678       0.09428908      -2.17008824
C       -0.43031897       0.29524689       1.19508278
O       -1.02957633       1.27712712       0.82073083
C        1.06364845       0.15031088       1.16389974
O        1.45730364      -1.20378231       1.05380364
H       -1.45668313       0.93247960      -1.59725274
H       -0.95494329      -0.60458840       1.59089368
H       -1.30707741       0.04936999      -3.24380659
H        1.46016531       0.51606039       2.11758107
H        1.46148137       0.78446156       0.36927229
H        1.07753231      -1.56032620       0.24058071
12
Properties=species:S:1:pos:R:3 relative_energy_eV=0.034067036662236205 branch=left pbc="F F F"
O       -0.33564257      -0.73367462      -1.64302454
C       -1.03899135       0.09829644      -2.16425557
C       -0.43021880       0.29433209       1.18571729
O       -1.03154463       1.28220271       0.83193686
C        1.06395421       0.15034995       1.15812062
O        1.46777985      -1.20282784       1.06591247
H       -1.45749681       0.94293152      -1.59478786
H       -0.95685535      -0.61152913       1.55922144
H       -1.30459312       0.05095936      -3.24019755
H        1.45070883       0.52532238       2.11216552
H        1.46490659       0.78018761       0.36091540
H        1.09112155      -1.57868432       0.25872385
12
Properties=species:S:1:pos:R:3 relative_energy_eV=0.036339306712761754 branch=left pbc="F F F"
O       -0.34528722      -0.73434821      -1.63712358
C       -1.04360069       0.10189457      -2.15881891
C       -0.43142417       0.29304928       1.17721356
O       -1.03309286       1.28695793       0.84114697
C        1.06347650       0.14896785       1.15285897
O        1.47699493      -1.20349982       1.07670026
H       -1.45732474       0.95081369      -1.59201933
H       -0.95941963      -0.61639419       1.53352788
H       -1.30186416       0.05198378      -3.23616871
H        1.44246769       0.53328219       2.10629743
H        1.46873196       0.77651828       0.35437275
H        1.10347080      -1.59135918       0.27246063
12
Properties=species:S:1:pos:R:3 relative_energy_eV=0.038127239102323074 branch=left pbc="F F F"
O       -0.35174092      -0.73459600      -1.63460647
C       -1.04711771       0.10441501      -2.15625213
C       -0.43322956       0.29180077       1.17170629
O       -1.03421497       1.29091752       0.84859341
C        1.06310549       0.14719238       1.14936301
O        1.48430747      -1.20471652       1.08389115
H       -1.45692117       0.95511693      -1.59088991
H       -0.96158203      -0.61961915       1.51821186
H       -1.29994654       0.05230795      -3.23399137
H        1.43763746       0.53867750       2.10178930
H        1.47222197       0.77468309       0.35098320
H        1.11060889      -1.59831334       0.28164958
12
Properties=species:S:1:pos:R:3 relative_energy_eV=0.040681213307834696 branch=left pbc="F F F"
O       -0.35885994      -0.73489882      -1.63437209
C       -1.05104941       0.10665826      -2.15644948
C       -0.43648105       0.28977430       1.16679353
O       -1.03560229       1.29663077       0.86020289
C        1.06332205       0.14445652       1.14622909
O        1.49306676      -1.20618673       1.09093352
H       -1.45636191       0.95794228      -1.59188443
H       -0.96565355      -0.62367640       1.50484381
H       -1.29853826       0.05277926      -3.23373266
H        1.43485665       0.54487993       2.09619786
H        1.47757252       0.77321847       0.34924894
H        1.11685681      -1.60371171       0.29243692
12
Properties=species:S:1:pos:R:3 relative_energy_eV=0.04389195011208358 branch=left pbc="F F F"
O       -0.36684043      -0.73682690      -1.63862493
C       -1.05463040       0.10689142      -2.16290978
C       -0.43859177       0.28739347       1.16597692
O       -1.03471050       1.30376418       0.88159562
C        1.06446149       0.14219539       1.14573808
O        1.50123663      -1.20592780       1.09787101
H       -1.45675211       0.95878100      -1.59869910
H       -0.97170370      -0.62904243       1.49447359
H       -1.29945486       0.05467608      -3.23972913
H        1.43546690       0.55302783       2.09121351
H        1.48280757       0.77038746       0.34924327
H        1.12183957      -1.60745359       0.30429882
12
Properties=species:S:1:pos:R:3 relative_energy_eV=0.04724961654028448 branch=left pbc="F F F"
O       -0.37756370      -0.74165269      -1.64689253
C       -1.05815889       0.10501237      -2.17521939
C       -0.43840426       0.28563333       1.17070167
O       -1.02955143       1.31221382       0.91455473
C        1.06579126       0.14097864       1.14933085
O        1.50653353      -1.20428426       1.10803966
H       -1.45837994       0.95898957      -1.61164316
H       -0.97794977      -0.63548847       1.48188257
H       -1.30254203       0.05849552      -3.25237791
H        1.43925091       0.56454833       2.08743825
H        1.48386176       0.76271358       0.34864225
H        1.13024095      -1.60929367       0.31599089
12
Properties=species:S:1:pos:R:3 relative_energy_eV=0.049765264895540895 branch=left pbc="F F F"
O       -0.38641223      -0.74630325      -1.65230218
C       -1.06038103       0.10312633      -2.18426460
C       -0.43683589       0.28470118       1.17535774
O       -1.02360376       1.31803908       0.93997598
C        1.06622825       0.14081472       1.15309557
O        1.50792457      -1.20251226       1.11714365
H       -1.45976029       0.95965692      -1.62139236
H       -0.98195674      -0.64012302       1.47007485
H       -1.30523474       0.06208484      -3.26248954
H        1.44165257       0.57406925       2.08512931
H        1.48197044       0.75427630       0.34694980
H        1.13953727      -1.60996404       0.32316967
12
Properties=species:S:1:pos:R:3 relative_energy_eV=0.052045112312043784 branch=left pbc="F F F"
O       -0.39545273      -0.75062860      -1.65330426
C       -1.06206718       0.10210661      -2.18898939
C       -0.43465679       0.28378793       1.17804727
O       -1.01670273       1.32233816       0.95928971
C        1.06553643       0.14099334       1.15573182
O        1.50682696      -1.20087664       1.12705935
H       -1.46031163       0.96151467      -1.62678711
H       -0.98520183      -0.64393740       1.45468534
H       -1.30700406       0.06560051      -3.26909967
H        1.44086146       0.58328441       2.08241409
H        1.47867743       0.74425223       0.34317491
H        1.15262310      -1.61056918       0.32822581
12
Properties=species:S:1:pos:R:3 relative_energy_eV=0.05379925488887238 branch=left pbc="F F F"
O       -0.40181390      -0.75276688      -1.65092391
C       -1.06304481       0.10255726      -2.18925314
C       -0.43289175       0.28276744       1.17850661
O       -1.01123683       1.32424021       0.96794091
C        1.06429999       0.14115426       1.15610579
O        1.50526431      -1.19988269       1.13419996
H       -1.45986824       0.96335730      -1.62686023
H       -0.98705586      -0.64624576       1.44201875
H       -1.30740763       0.06742843      -3.27122868
H        1.43722252       0.58933493       2.08004169
H        1.47650899       0.73718986       0.33911614
H        1.16315163      -1.61126834       0.33078397
12
Properties=species:S:1:pos:R:3 relative_energy_eV=0.057987897607745253 branch=left pbc="F F F"
O       -0.41148429      -0.75312764      -1.64509221
C       -1.06483487       0.10608770      -2.18729102
C       -0.42995403       0.28018238       1.17973589
O       -1.00056592       1.32573574       0.97423645
C        1.06214805       0.14092242       1.15455434
O        1.50338027      -1.19920364       1.14517528
H       -1.45765033       0.96563792      -1.62136278
H       -0.98769958      -0.64999794       1.42273848
H       -1.30655621       0.06734873      -3.27253078
H        1.42555855       0.59783273       2.07696692
H        1.47400702       0.72895330       0.33015925
H        1.17677977      -1.61250567       0.33315806
12
Properties=species:S:1:pos:R:3 relative_energy_eV=0.06181784463660733 branch=left pbc="F F F"
O       -0.41323025      -0.75180503      -1.64624820
C       -1.06571952       0.10786702      -2.18924186
C       -0.42740516       0.27871035       1.18297947
O       -0.99454715       1.32604681       0.97639601
C        1.06256365       0.14107637       1.15405250
O        1.50477331      -1.19906395       1.14736788
H       -1.45699184       0.96492272      -1.62001748
H       -0.98533746      -0.65216759       1.42213798
H       -1.30651599       0.06545509      -3.27551208
H        1.41845762       0.60033999       2.07868137
H        1.47345117       0.72974726       0.32686526
H        1.17363005      -1.61326301       0.33298700
12
Properties=species:S:1:pos:R:3 relative_energy_eV=0.06495139292019303 branch=left pbc="F F F"
O       -0.42756526      -0.75415424      -1.63320133
C       -1.06971164       0.11109484      -2.17881766
C       -0.43064809       0.27848695       1.17323499
O       -0.99145144       1.33259018       0.97824614
C        1.06131633       0.13763968       1.15345248
O        1.49727170      -1.20723957       1.16275142
H       -1.45269073       0.97091025      -1.61078934
H       -0.98976441      -0.65604236       1.38727895
H       -1.30192507       0.06849381      -3.26491722
H        1.41268843       0.61249497       2.07367361
H        1.46642867       0.71500273       0.31238112
H        1.20917995      -1.61141125       0.33715468
12
Properties=species:S:1:pos:R:3 relative_energy_eV=0.06896270257493597 branch=left pbc="F F F"
O       -0.43289870      -0.75799911      -1.64199767
C       -1.07380608       0.10970033      -2.18546242
C       -0.42952366       0.28125260       1.17680511
O       -0.98730979       1.34021456       0.99330550
C        1.06404988       0.13546557       1.16045100
O        1.49627489      -1.21270841       1.17312380
H       -1.45394360       0.97237821      -1.61920940
H       -0.98315574      -0.65967735       1.38136952
H       -1.30129903       0.06907003      -3.26951954
H        1.41578132       0.61929379       2.07853471
H        1.45375474       0.70865025       0.30774755
H        1.21520421      -1.60777448       0.33529968
12
Properties=species:S:1:pos:R:3 relative_energy_eV=0.07359948464545596 branch=left pbc="F F F"
O       -0.44077957      -0.76326753      -1.64013020
C       -1.07680083       0.10827888      -2.18308479
C       -0.43158698       0.28397362       1.17154358
O       -0.98771339       1.34682021       1.00244413
C        1.06395660       0.13304092       1.16476882
O        1.49133223      -1.21803653       1.18441455
H       -1.45384259       0.97703616      -1.62202535
H       -0.98311521      -0.66145153       1.36263149
H       -1.29948910       0.07310046      -3.26552715
H        1.42050651       0.62650140       2.07688668
H        1.44355750       0.69663773       0.30228825
H        1.23710330      -1.60476779       0.33623782
12
Properties=species:S:1:pos:R:3 relative_energy_eV=0.0796539813036361 branch=left pbc="F F F"
O       -0.44896438      -0.77064176      -1.63666744
C       -1.07895389       0.10595138      -2.17913767
C       -0.43391333       0.28764419       1.16485799
O       -0.99015903       1.35268416       1.01237364
C        1.06114703       0.13063413       1.16983473
O        1.48527863      -1.22071892       1.19771624
H       -1.45463119       0.98336445      -1.62588831
H       -0.98398935      -0.66151274       1.34056447
H       -1.29810384       0.07879340      -3.26077633
H        1.42920824       0.63225603       2.07166683
H        1.43266202       0.68103555       0.29939678
H        1.26354757      -1.60162391       0.33650689
12
Properties=species:S:1:pos:R:3 relative_energy_eV=0.08558987799733586 branch=left pbc="F F F"
O       -0.45810353      -0.77624799      -1.62360709
C       -1.07941236       0.10588353      -2.16762986
C       -0.43768447       0.28941328       1.15386809
O       -0.99436125       1.35527021       1.01281925
C        1.05519443       0.12849330       1.17009693
O        1.47786660      -1.22124341       1.20980206
H       -1.45342335       0.99060335      -1.62130943
H       -0.99017313      -0.66006663       1.31162628
H       -1.29581445       0.08467195      -3.25042004
H        1.43448805       0.63651357       2.06085139
H        1.42800121       0.66484154       0.29576209
H        1.29655075      -1.60026678       0.33858811
12
Properties=species:S:1:pos:R:3 relative_energy_eV=0.09164130193130404 branch=left pbc="F F F"
O       -0.46902899      -0.77938275      -1.60214335
C       -1.07869514       0.10861455      -2.14971736
C       -0.44337463       0.28921127       1.14046211
O       -0.99996323       1.35532077       1.00452519
C        1.04701781       0.12619231       1.16564034
O        1.46913426      -1.22068628       1.22154753
H       -1.44986565       0.99806162      -1.60822792
H       -1.00145506      -0.65774451       1.27563191
H       -1.29235989       0.08987877      -3.23547500
H        1.43672672       0.64000929       2.04556974
H        1.42908723       0.64853020       0.29027338
H        1.33590507      -1.60013937       0.34236118
12
Properties=species:S:1:pos:R:3 relative_energy_eV=0.09774877281597583 branch=left pbc="F F F"
O       -0.48007991      -0.77954304      -1.57749282
C       -1.07764434       0.11339586      -2.12998132
C       -0.45026192       0.28741895       1.12739190
O       -1.00581503       1.35388443       0.99057935
C        1.03939574       0.12429163       1.15838094
O        1.46071729      -1.22126241       1.23052775
H       -1.44457211       1.00412740      -1.58995820
H       -1.01548224      -0.65566921       1.23935837
H       -1.28820754       0.09341762      -3.21904480
H        1.43604415       0.64318629       2.03006672
H        1.43457768       0.63524167       0.28284234
H        1.37445672      -1.60062335       0.34777747
12
Properties=species:S:1:pos:R:3 relative_energy_eV=0.10297446209551708 branch=left pbc="F F F"
O       -0.48876908      -0.77778041      -1.55902229
C       -1.07724625       0.11822504      -2.11618286
C       -0.45650360       0.28563791       1.11963299
O       -1.01070438       1.35257069       0.97856725
C        1.03486726       0.12292564       1.15243171
O        1.45466227      -1.22299251       1.23717164
H       -1.43964100       1.00723932      -1.57425938
H       -1.02757941      -0.65467925       1.21262696
H       -1.28469094       0.09454895      -3.20737346
H        1.43599092       0.64571302       2.01944983
H        1.44046359       0.62736655       0.27568263
H        1.40227909      -1.60090912       0.35172266
12
Properties=species:S:1:pos:R:3 relative_energy_eV=0.10680997650706558 branch=left pbc="F F F"
O       -0.49450684      -0.77545845      -1.54753668
C       -1.07758274       0.12189828      -2.10848029
C       -0.46124008       0.28437459       1.11547910
O       -1.01426525       1.35198960       0.97035348
C        1.03354062       0.12225253       1.14877166
O        1.45096229      -1.22584175       1.24112652
H       -1.43580063       1.00820345      -1.56321595
H       -1.03656429      -0.65483722       1.19621273
H       -1.28211193       0.09441126      -3.20020428
H        1.43636566       0.64794277       2.01409425
H        1.44509585       0.62395341       0.26952804
H        1.41923581      -1.60102267       0.35431908
12
Properties=species:S:1:pos:R:3 relative_energy_eV=0.10935935865200008 branch=left pbc="F F F"
O       -0.49769672      -0.77354626      -1.54157198
C       -1.07831843       0.12396503      -2.10518288
C       -0.46425586       0.28373127       1.11319336
O       -1.01658214       1.35204741       0.96598989
C        1.03441626       0.12192917       1.14694204
O        1.44887812      -1.22844797       1.24368438
H       -1.43325225       1.00807774      -1.55688549
H       -1.04258900      -0.65567995       1.18784499
H       -1.28050150       0.09406719      -3.19634429
H        1.43701584       0.64997604       2.01269571
H        1.44794277       0.62314546       0.26491811
H        1.42807137      -1.60139936       0.35516380
12
Properties=species:S:1:pos:R:3 relative_energy_eV=0.11231663221951749 branch=left pbc="F F F"
O       -0.50005317      -0.77145673      -1.53418588
C       -1.07929643       0.12527916      -2.10081902
C       -0.46682435       0.28279946       1.10733845
O       -1.01861505       1.35222938       0.96055272
C        1.03710789       0.12184231       1.14422690
O        1.44691743      -1.23172162       1.24505170
H       -1.43029189       1.00810835      -1.54991543
H       -1.04968571      -0.65733682       1.18043701
H       -1.27871529       0.09467212      -3.19032916
H        1.43492862       0.65333591       2.01303909
H        1.45139448       0.62339661       0.25912035
H        1.43626192      -1.60328237       0.35593091
12
Properties=species:S:1:pos:R:3 relative_energy_eV=0.1167327257735451 branch=left pbc="F F F"
O       -0.50128122      -0.76947056      -1.52049714
C       -1.07965075       0.12574185      -2.09013742
C       -0.46840912       0.28051340       1.09239027
O       -1.01954158       1.35140956       0.94997524
C        1.04027937       0.12178388       1.13783803
O        1.44497610      -1.23370204       1.24513911
H       -1.42646340       1.00991576      -1.53943504
H       -1.05830904      -0.65909040       1.17128935
H       -1.27638597       0.09769933      -3.17772475
H        1.42476064       0.65822456       2.01317500
H        1.45690460       0.62372200       0.25205552
H        1.44624881      -1.60888158       0.35637947
12
Properties=species:S:1:pos:R:3 relative_energy_eV=0.12417939037004544 branch=left pbc="F F F"
O       -0.50099734      -0.76808473      -1.49685001
C       -1.07844244       0.12563650      -2.06847526
C       -0.46863109       0.27561329       1.06466197
O       -1.01824136       1.34822207       0.93078660
C        1.04148891       0.12214882       1.12600827
O        1.44339281      -1.23316209       1.24203051
H       -1.42164914       1.01496225      -1.52324744
H       -1.06771144      -0.65952137       1.15833650
H       -1.27335705       0.10407213      -3.15560274
H        1.40198511       0.66408496       2.01057414
H        1.46573866       0.62309029       0.24425897
H        1.45955278      -1.61919637       0.35796611
12
Properties=species:S:1:pos:R:3 relative_energy_eV=0.13948470320974593 branch=left pbc="F F F"
O       -0.49899120      -0.76835284      -1.46483605
C       -1.07529174       0.12527200      -2.03558324
C       -0.46773692       0.26770622       1.02715286
O       -1.01394101       1.34193102       0.90451506
C        1.03816965       0.12307887       1.10920818
O        1.44241333      -1.22880585       1.23620332
H       -1.41655199       1.02297421      -1.50356778
H       -1.07600741      -0.65690503       1.14181448
H       -1.27028908       0.11381732      -3.12629254
H        1.36814071       0.67012932       2.00479278
H        1.47766457       0.62091895       0.23685860
H        1.47554948      -1.63389842       0.36018192
12
Properties=species:S:1:pos:R:3 relative_energy_eV=0.18060270531168499 branch=left pbc="F F F"
O       -0.49488098      -0.77127595      -1.41910967
C       -1.06870950       0.12685642      -1.98469071
C       -0.46685496       0.25576834       0.97871049
O       -1.00542123       1.33250263       0.86509826
C        1.02477715       0.12329678       1.08330479
O        1.44403502      -1.22136091       1.22629133
H       -1.41070723       1.03425037      -1.47809952
H       -1.08115049      -0.65017479       1.11729890
H       -1.26693509       0.12806591      -3.08456221
H        1.31670066       0.67594580       1.99280128
H        1.49626797       0.61751578       0.22850632
H        1.49600703      -1.65352461       0.36489830
12
Properties=species:S:1:pos:R:3 relative_energy_eV=0.23050437538950064 branch=left pbc="F F F"
O       -0.49174463      -0.77589598      -1.38060022
C       -1.05990089       0.13027524      -1.94402835
C       -0.46985769       0.25231183       0.95091821
O       -0.99822974       1.33023954       0.83073904
C        1.01230420       0.11947641       1.05849886
O        1.44956971      -1.21782705       1.22068018
H       -1.40706828       1.03984063      -1.46261644
H       -1.08085068      -0.64847374       1.09327967
H       -1.26521513       0.14160047      -3.04357575
H        1.26821151       0.67704263       1.97622613
H        1.51447364       0.61667738       0.22177936
H        1.51143629      -1.66740158       0.36914684
12
Properties=species:S:1:pos:R:3 relative_energy_eV=0.2804441723437776 branch=left pbc="F F F"
O       -0.48924180      -0.77211580      -1.33460495
C       -1.05597693       0.14236491      -1.90811591
C       -0.47479084       0.23743604       0.90963312
O       -0.99665805       1.33313695       0.77525636
C        1.00358056       0.11338385       1.03421960
O        1.45679344      -1.21589546       1.21853462
H       -1.39963936       1.05475670      -1.41443355
H       -1.07741717      -0.64992086       1.07051552
H       -1.25657241       0.13972787      -3.00360379
H        1.21865662       0.67397596       1.95482831
H        1.53104676       0.61738610       0.21520194
H        1.52334744      -1.67637048       0.37301623
12
Properties=species:S:1:pos:R:3 relative_energy_eV=0.4374026039895398 branch=left pbc="F F F"
O       -0.49520126      -0.75879184      -1.27138857
C       -1.03469914       0.14657666      -1.86243363
C       -0.48576051       0.25035553       0.87704321
O       -0.99326945       1.34649670       0.69991351
C        1.00167614       0.09588087       0.99129390
O        1.47441497      -1.22109255       1.22083438
H       -1.39231052       1.06295007      -1.37037851
H       -1.07467020      -0.67255175       1.02914924
H       -1.24734245       0.14903983      -2.91787672
H        1.13039459       0.66326364       1.90905648
H        1.55916822       0.62219194       0.20553893
H        1.54072779      -1.68645331       0.37969526
12
Properties=species:S:1:pos:R:3 relative_energy_eV=0.49536298345083196 branch=left pbc="F F F"
O       -0.49612824      -0.75511488      -1.25773582
C       -1.03210115       0.14785502      -1.85804230
C       -0.48656329       0.25155395       0.86777671
O       -0.99397246       1.34965225       0.68192946
C        1.00163904       0.09220154       0.98315235
O        1.47779313      -1.22219677       1.22185225
H       -1.39047052       1.06744180      -1.35474861
H       -1.07467575      -0.67796592       1.02191134
H       -1.24386296       0.14800076      -2.90046358
H        1.11405863       0.66099286       1.90038382
H        1.56389583       0.62320898       0.20371894
H        1.54351592      -1.68776381       0.38071291
12
Properties=species:S:1:pos:R:3 relative_energy_eV=0.5910017626829358 branch=left pbc="F F F"
O       -0.50024537      -0.73008422      -1.22550503
C       -1.04731623       0.19554203      -1.80725446
C       -0.48697027       0.24093252       0.80909813
O       -0.99213642       1.33439808       0.62052545
C        0.99902092       0.08602414       0.96653660
O        1.48187785      -1.22087133       1.22269711
H       -1.36994279       1.06586064      -1.29334162
H       -1.07434321      -0.68440510       1.01270797
H       -1.22551338       0.11773809      -2.88449668
H        1.08356041       0.65570026       1.88434352
H        1.56858364       0.62336525       0.20106604
H        1.54655289      -1.68633460       0.38407039
12
Properties=species:S:1:pos:R:3 relative_energy_eV=0.7694590479477483 branch=left pbc="F F F"
O       -0.51279391      -0.68376661      -1.20142389
C       -1.05405331       0.21276369      -1.76365442
C       -0.48356022       0.20769437       0.73605089
O       -0.99583654       1.32052108       0.54690706
C        0.99343540       0.08351602       0.95457032
O        1.48287350      -1.21686816       1.22263079
H       -1.35167105       1.08889068      -1.19776044
H       -1.07311867      -0.68373423       1.00900268
H       -1.20290851       0.07830542      -2.87591087
H        1.06314890       0.65241572       1.87551315
H        1.57005684       0.62249883       0.19844175
H        1.54755546      -1.68437107       0.38608033
12
Properties=species:S:1:pos:R:3 relative_energy_eV=1.1686258865720447 branch=left pbc="F F F"
O       -0.51612218      -0.64738823      -1.16651007
C       -1.07646495       0.25945354      -1.72168159
C       -0.48686838       0.18130858       0.65224141
O       -0.99147405       1.28087960       0.46705742
C        0.98384033       0.08256217       0.94403057
O        1.48227784      -1.21140852       1.22222196
H       -1.33065698       1.10812505      -1.10190405
H       -1.07066429      -0.67783102       1.00891793
H       -1.17699876       0.03257171      -2.86833762
H        1.04844938       0.65086497       1.87160031
H        1.57015696       0.62113944       0.19574518
H        1.54765278      -1.68241157       0.38706582
12
Properties=species:S:1:pos:R:3 relative_energy_eV=1.4321627146764513 branch=left pbc="F F F"
O       -0.51608506      -0.62854690      -1.14287004
C       -1.08522216       0.26806078      -1.72139166
C       -0.49113820       0.17187565       0.60445999
O       -0.98726925       1.25110446       0.42163956
C        0.97904895       0.08265192       0.94002311
O        1.48146096      -1.20841345       1.22166704
H       -1.32398295       1.13401330      -1.03853983
H       -1.07018348      -0.67425238       1.01057639
H       -1.16375121       0.01173987      -2.85813164
H        1.04339965       0.65100780       1.87184800
H        1.56946407       0.62025178       0.19416767
H        1.54738625      -1.68162715       0.38699863
12
Properties=species:S:1:pos:R:3 relative_energy_eV=1.5341730965446914 branch=left pbc="F F F"
O       -0.51111772      -0.62631816      -1.12450956
C       -1.08966873       0.26223101      -1.74180014
C       -0.49134273       0.16287483       0.57903180
O       -0.98923318       1.24435729       0.39725269
C        0.97774316       0.08325669       0.93932522
O        1.48103743      -1.20730401       1.22108961
H       -1.32310748       1.15957361      -0.99204389
H       -1.07120455      -0.67386737       1.01189991
H       -1.15788631       0.00324326      -2.85244025
H        1.04210177       0.65132906       1.87272182
H        1.56872416       0.61986290       0.19314126
H        1.54708174      -1.68137341       0.38677873
12
Properties=species:S:1:pos:R:3 relative_energy_eV=1.7371595732820424 branch=left pbc="F F F"
O       -0.50573986      -0.62079077      -1.09869595
C       -1.08856086       0.23159446      -1.78198855
C       -0.48081044       0.12457836       0.54458816
O       -1.00657441       1.26594360       0.35677962
C        0.97780052       0.08484884       0.94004185
O        1.48025839      -1.20590500       1.22013359
H       -1.32401741       1.21037634      -0.90591460
H       -1.07389542      -0.67475999       1.01305173
H       -1.15051730      -0.00811170      -2.84925553
H        1.04142416       0.65173638       1.87428100
H        1.56740317       0.61947692       0.19130460
H        1.54635698      -1.68112175       0.38612133
12
Properties=species:S:1:pos:R:3 relative_energy_eV=1.813594052737244 branch=left pbc="F F F"
O       -0.50431670      -0.61957318      -1.09192820
C       -1.08837735       0.22392515      -1.79322523
C       -0.47740392       0.11365101       0.53716686
O       -1.01127544       1.27252801       0.34733734
C        0.97785923       0.08523507       0.94025521
O        1.47998905      -1.20551196       1.21984597
H       -1.32448957       1.22249710      -0.88631317
H       -1.07449918      -0.67489654       1.01326243
H       -1.14892673      -0.01015635      -2.84748484
H        1.04131823       0.65185201       1.87467997
H        1.56707815       0.61936804       0.19087895
H        1.54617176      -1.68105270       0.38597195
12
Properties=species:S:1:pos:R:3 relative_energy_eV=1.936482664583309 branch=ts pbc="F F F"
O       -0.50318293      -0.61541446      -1.08192492
C       -1.09096411       0.22285250      -1.80332106
C       -0.47370632       0.09966829       0.52556420
O       -1.01419034       1.27935827       0.34607948
C        0.97715708       0.08515133       0.94021164
O        1.48033668      -1.20553416       1.21969341
H       -1.31426050       1.26751920      -0.75537684
H       -1.07933818      -0.66965825       1.01671635
H       -1.12943894      -0.05522306      -2.85722327
H        1.03743706       0.65328316       1.87389916
H        1.56603802       0.62022949       0.19000696
H        1.54409800      -1.68221110       0.38565801
12
Properties=species:S:1:pos:R:3 relative_energy_eV=2.007385454593532 branch=right pbc="F F F"
O       -0.50204916      -0.61125574      -1.07192164
C       -1.09355087       0.22177984      -1.81341689
C       -0.47000873       0.08568557       0.51396155
O       -1.01710524       1.28618853       0.34482162
C        0.97645492       0.08506760       0.94016807
O        1.48068431      -1.20555637       1.21954085
H       -1.30403142       1.31254130      -0.62444050
H       -1.08417718      -0.66441995       1.02017026
H       -1.10995115      -0.10028977      -2.86696170
H        1.03355589       0.65471431       1.87311835
H        1.56499789       0.62109093       0.18913498
H        1.54202424      -1.68336951       0.38534407
12
Properties=species:S:1:pos:R:3 relative_energy_eV=1.9395747084527102 branch=right pbc="F F F"
O       -0.50168218      -0.60696359      -1.06629351
C       -1.09674031       0.22941539      -1.81098542
C       -0.46892921       0.07926826       0.50675141
O       -1.01190249       1.29036805       0.36994576
C        0.97495388       0.08476746       0.93935987
O        1.48135776      -1.20572090       1.21962241
H       -1.30821431       1.30642535      -0.65002683
H       -1.08409731      -0.66369911       1.02044428
H       -1.10847728      -0.10409015      -2.86704492
H        1.03330447       0.65469029       1.87287216
H        1.56520013       0.62122439       0.18937080
H        1.54207035      -1.68350871       0.38550302
12
Properties=species:S:1:pos:R:3 relative_energy_eV=1.92866783842328 branch=right pbc="F F F"
O       -0.50440138      -0.59693815      -1.06311602
C       -1.09579928       0.23076236      -1.80622182
C       -0.47000069       0.08039274       0.50355089
O       -1.00924971       1.28788305       0.37619729
C        0.97483607       0.08302757       0.93811130
O        1.48254891      -1.20599166       1.21966218
H       -1.30934403       1.30216763      -0.66166222
H       -1.08385606      -0.66459748       1.02014329
H       -1.10759658      -0.10598636      -2.86428368
H        1.03212817       0.65409534       1.87172876
H        1.56525395       0.62115823       0.18968353
H        1.54232412      -1.68379651       0.38572553
12
Properties=species:S:1:pos:R:3 relative_energy_eV=1.9236613613375084 branch=right pbc="F F F"
O       -0.50430989      -0.58985143      -1.05613325
C       -1.09691484       0.23431745      -1.80665144
C       -0.47073142       0.08069295       0.50359161
O       -1.00869224       1.28621356       0.37618541
C        0.97493531       0.08112889       0.93675851
O        1.48399143      -1.20631964       1.21955216
H       -1.30989989       1.29903740      -0.66956429
H       -1.08304947      -0.66575743       1.01907417
H       -1.10694604      -0.10678144      -2.85895998
H        1.03034352       0.65296544       1.86981357
H        1.56538732       0.62091482       0.18992838
H        1.54272972      -1.68438381       0.38592418
12
Properties=species:S:1:pos:R:3 relative_energy_eV=1.920547148307378 branch=right pbc="F F F"
O       -0.50438777      -0.58214778      -1.05063874
C       -1.09659546       0.23598725      -1.80545194
C       -0.47129623       0.08118849       0.50443521
O       -1.01003853       1.28575104       0.37188824
C        0.97505886       0.07957202       0.93580178
O        1.48581120      -1.20688855       1.21923627
H       -1.31021718       1.29755440      -0.67399634
H       -1.08213630      -0.66752127       1.01783657
H       -1.10629614      -0.10752543      -2.85277623
H        1.02800696       0.65130192       1.86722742
H        1.56557250       0.62038832       0.18993987
H        1.54336162      -1.68548365       0.38601692
12
Properties=species:S:1:pos:R:3 relative_energy_eV=1.918958886541077 branch=right pbc="F F F"
O       -0.50295035      -0.57876866      -1.04718037
C       -1.09632397       0.23738747      -1.80395962
C       -0.47204327       0.08251397       0.50421389
O       -1.01225779       1.28646540       0.36707538
C        0.97503337       0.07865595       0.93495372
O        1.48735434      -1.20736629       1.21884797
H       -1.31041543       1.29813444      -0.67446859
H       -1.08157317      -0.66918929       1.01704961
H       -1.10568404      -0.10846987      -2.84807790
H        1.02596410       0.64997668       1.86545668
H        1.56568902       0.61970034       0.18972613
H        1.54405069      -1.68686339       0.38588214
12
Properties=species:S:1:pos:R:3 relative_energy_eV=1.9180119653774454 branch=right pbc="F F F"
O       -0.50097726      -0.57725092      -1.04536036
C       -1.09574953       0.23804878      -1.80192124
C       -0.47301326       0.08300249       0.50284365
O       -1.01456809       1.28828441       0.36414024
C        0.97463650       0.07830539       0.93403676
O        1.48849012      -1.20770190       1.21813424
H       -1.31078229       1.29981385      -0.67364323
H       -1.08101531      -0.67002427       1.01632510
H       -1.10499984      -0.10985153      -2.84454838
H        1.02418182       0.64897657       1.86443442
H        1.56584193       0.61894616       0.18930171
H        1.54479872      -1.68837227       0.38577611
12
Properties=species:S:1:pos:R:3 relative_energy_eV=1.9171602020633145 branch=right pbc="F F F"
O       -0.49806200      -0.57607119      -1.04344310
C       -1.09500611       0.23847096      -1.79962954
C       -0.47427392       0.08361679       0.50002244
O       -1.01688384       1.29026069       0.36292655
C        0.97367441       0.07806492       0.93266907
O        1.48947712      -1.20779789       1.21704731
H       -1.31154519       1.30263200      -0.67249944
H       -1.08047831      -0.67035232       1.01539902
H       -1.10398989      -0.11210491      -2.84069100
H        1.02201361       0.64788518       1.86358685
H        1.56607334       0.61801196       0.18855543
H        1.54584428      -1.69043943       0.38557545
12
Properties=species:S:1:pos:R:3 relative_energy_eV=1.9162577002371108 branch=right pbc="F F F"
O       -0.49414537      -0.57429344      -1.04097049
C       -1.09402056       0.23860821      -1.79708337
C       -0.47560304       0.08371689       0.49608270
O       -1.01924657       1.29231788       0.36365888
C        0.97216519       0.07795528       0.93060247
O        1.49013482      -1.20765673       1.21530057
H       -1.31284740       1.30685864      -0.67116700
H       -1.07993456      -0.66984430       1.01393422
H       -1.10247727      -0.11573744      -2.83627548
H        1.01913543       0.64648139       1.86261624
H        1.56636804       0.61688989       0.18739914
H        1.54731479      -1.69311951       0.38542113
12
Properties=species:S:1:pos:R:3 relative_energy_eV=1.9155632175388746 branch=right pbc="F F F"
O       -0.49068566      -0.57219777      -1.03861893
C       -1.09330366       0.23859180      -1.79550354
C       -0.47620669       0.08350215       0.49280644
O       -1.02063915       1.29313745       0.36596760
C        0.97085365       0.07791079       0.92858502
O        1.48995569      -1.20727134       1.21365241
H       -1.31414664       1.31101938      -0.66971140
H       -1.07984707      -0.66866087       1.01243137
H       -1.10090482      -0.11981252      -2.83317140
H        1.01649796       0.64517664       1.86164490
H        1.56656186       0.61614647       0.18616892
H        1.54870803      -1.69536541       0.38526761
12
Properties=species:S:1:pos:R:3 relative_energy_eV=1.9149878884709324 branch=right pbc="F F F"
O       -0.48801636      -0.56958773      -1.03654151
C       -1.09295821       0.23870353      -1.79490308
C       -0.47605752       0.08293265       0.49072406
O       -1.02126354       1.29298510       0.36879777
C        0.97010097       0.07786377       0.92681374
O        1.48903580      -1.20697894       1.21225615
H       -1.31514200       1.31458750      -0.66778537
H       -1.08028363      -0.66715533       1.01102101
H       -1.09931603      -0.12423637      -2.83151121
H        1.01421987       0.64400924       1.86053561
H        1.56660457       0.61591998       0.18493666
H        1.54991957      -1.69686665       0.38517513
12
Properties=species:S:1:pos:R:3 relative_energy_eV=1.9144739144285268 branch=right pbc="F F F"
O       -0.48599623      -0.56629385      -1.03466600
C       -1.09299005       0.23924074      -1.79509775
C       -0.47547489       0.08231071       0.48954815
O       -1.02149187       1.29237975       0.37139828
C        0.96995566       0.07764050       0.92528388
O        1.48763952      -1.20697925       1.21131271
H       -1.31567609       1.31740325      -0.66502686
H       -1.08123469      -0.66575061       1.00978404
H       -1.09760723      -0.12920374      -2.83081363
H        1.01220781       0.64295407       1.85918059
H        1.56650674       0.61619680       0.18366301
H        1.55100483      -1.69772160       0.38495257
12
Properties=species:S:1:pos:R:3 relative_energy_eV=1.913982518010016 branch=right pbc="F F F"
O       -0.48442881      -0.56224745      -1.03300118
C       -1.09331845       0.24035785      -1.79586414
C       -0.47490277       0.08171939       0.48878455
O       -1.02166491       1.29202268       0.37339158
C        0.97024025       0.07718924       0.92396184
O        1.48609618      -1.20754885       1.21074362
H       -1.31569330       1.31941880      -0.66125858
H       -1.08255965      -0.66472937       1.00874398
H       -1.09567424      -0.13488617      -2.83049325
H        1.01041230       0.64203678       1.85757855
H        1.56629914       0.61684813       0.18234562
H        1.55203778      -1.69800428       0.38458640
12
Properties=species:S:1:pos:R:3 relative_energy_eV=1.9135914113230683 branch=right pbc="F F F"
O       -0.48340114      -0.55827275      -1.03186335
C       -1.09378116       0.24188865      -1.79690734
C       -0.47481791       0.08136304       0.48804050
O       -1.02189379       1.29242095       0.37443831
C        0.97057651       0.07655014       0.92303426
O        1.48491857      -1.20855151       1.21065003
H       -1.31526084       1.32036012      -0.65721252
H       -1.08384006      -0.66440022       1.00807313
H       -1.09379905      -0.14034474      -2.83011296
H        1.00918603       0.64148542       1.85612267
H        1.56603487       0.61753328       0.18128733
H        1.55292148      -1.69785562       0.38396892
12
Properties=species:S:1:pos:R:3 relative_energy_eV=1.9133742008452828 branch=right pbc="F F F"
O       -0.48304726      -0.55571447      -1.03151290
C       -1.09411097       0.24322641      -1.79777672
C       -0.47530877       0.08129223       0.48726294
O       -1.02205291       1.29343163       0.37463287
C        0.97053414       0.07601752       0.92272116
O        1.48451203      -1.20953803       1.21074143
H       -1.31475285       1.32029402      -0.65443492
H       -1.08453092      -0.66469587       1.00784261
H       -1.09253920      -0.14393197      -2.82955082
H        1.00888479       0.64146556       1.85534418
H        1.56578653       0.61778397       0.18088771
H        1.55346892      -1.69745425       0.38336142
12
Properties=species:S:1:pos:R:3 relative_energy_eV=1.9132607672927406 branch=right pbc="F F F"
O       -0.48308972      -0.55467001      -1.03159742
C       -1.09419480       0.24403187      -1.79827197
C       -0.47594591       0.08134959       0.48660308
O       -1.02203198       1.29438911       0.37456688
C        0.97010931       0.07571654       0.92280894
O        1.48458586      -1.21002683       1.21079429
H       -1.31453553       1.31996080      -0.65330252
H       -1.08463853      -0.66512852       1.00779518
H       -1.09194317      -0.14559684      -2.82895746
H        1.00920456       0.64175088       1.85520424
H        1.56556455       0.61751737       0.18105001
H        1.55375890      -1.69711720       0.38282570
12
Properties=species:S:1:pos:R:3 relative_energy_eV=1.9131965609594772 branch=right pbc="F F F"
O       -0.48320606      -0.55426995      -1.03169183
C       -1.09410967       0.24449596      -1.79855412
C       -0.47642051       0.08139206       0.48611892
O       -1.02186861       1.29500889       0.37459150
C        0.96953853       0.07558686       0.92303204
O        1.48470066      -1.21018474       1.21061797
H       -1.31462461       1.31988729      -0.65293985
H       -1.08454090      -0.66541414       1.00768244
H       -1.09163060      -0.14653131      -2.82845854
H        1.00968834       0.64207619       1.85530053
H        1.56532301       0.61696007       0.18142260
H        1.55399397      -1.69683041       0.38239729
12
Properties=species:S:1:pos:R:3 relative_energy_eV=1.913159205831107 branch=right pbc="F F F"
O       -0.48330794      -0.55397714      -1.03164450
C       -1.09391114       0.24484687      -1.79877649
C       -0.47670069       0.08139346       0.48579774
O       -1.02161771       1.29536043       0.37471750
C        0.96897285       0.07550242       0.92330097
O        1.48466343      -1.21016527       1.21032664
H       -1.31493771       1.32015632      -0.65274312
H       -1.08446210      -0.66555613       1.00742435
H       -1.09136531      -0.14747148      -2.82806305
H        1.01019812       0.64237138       1.85544572
H        1.56501799       0.61624354       0.18184283
H        1.55429376      -1.69652764       0.38189036
12
Properties=species:S:1:pos:R:3 relative_energy_eV=1.9131257681146963 branch=right pbc="F F F"
O       -0.48339508      -0.55369968      -1.03142974
C       -1.09362867       0.24512312      -1.79895516
C       -0.47677759       0.08138617       0.48569365
O       -1.02135760       1.29548733       0.37484695
C        0.96857110       0.07543966       0.92360900
O        1.48445572      -1.21016668       1.20996381
H       -1.31538200       1.32066906      -0.65258498
H       -1.08450162      -0.66559803       1.00705626
H       -1.09113748      -0.14846621      -2.82781900
H        1.01066082       0.64258682       1.85558491
H        1.56469123       0.61553134       0.18218564
H        1.55464477      -1.69611616       0.38136762
12
Properties=species:S:1:pos:R:3 relative_energy_eV=1.9131064607099688 branch=right pbc="F F F"
O       -0.48346766      -0.55349683      -1.03111693
C       -1.09330672       0.24529839      -1.79905675
C       -0.47672529       0.08141106       0.48579642
O       -1.02119329       1.29550205       0.37488622
C        0.96844290       0.07536704       0.92389875
O        1.48414363      -1.21025501       1.20973394
H       -1.31581291       1.32119797      -0.65249514
H       -1.08466908      -0.66559626       1.00668548
H       -1.09100209      -0.14930261      -2.82772051
H        1.01101360       0.64268655       1.85572539
H        1.56443390       0.61501218       0.18234969
H        1.55498662      -1.69564777       0.38083240
12
Properties=species:S:1:pos:R:3 relative_energy_eV=1.9130931471336226 branch=right pbc="F F F"
O       -0.48352990      -0.55340050      -1.03076055
C       -1.09292910       0.24539540      -1.79909202
C       -0.47666043       0.08150786       0.48601470
O       -1.02114330       1.29553990       0.37483513
C        0.96850257       0.07529273       0.92419200
O        1.48378140      -1.21052303       1.20959123
H       -1.31619122       1.32163624      -0.65249554
H       -1.08493986      -0.66559080       1.00634304
H       -1.09095953      -0.14997319      -2.82767006
H        1.01131514       0.64269272       1.85590654
H        1.56426231       0.61466304       0.18235414
H        1.55533556      -1.69506360       0.38030034
12
Properties=species:S:1:pos:R:3 relative_energy_eV=1.913072525523603 branch=right pbc="F F F"
O       -0.48356623      -0.55341689      -1.03038762
C       -1.09246603       0.24543097      -1.79906873
C       -0.47666678       0.08169492       0.48627986
O       -1.02121147       1.29569062       0.37473110
C        0.96865458       0.07520593       0.92447597
O        1.48335615      -1.21093366       1.20955527
H       -1.31650053       1.32193607      -0.65259407
H       -1.08529626      -0.66557163       1.00603221
H       -1.09099796      -0.15052910      -2.82757794
H        1.01161993       0.64260962       1.85616947
H        1.56417359       0.61442839       0.18223757
H        1.55574466      -1.69436849       0.37966586
12
Properties=species:S:1:pos:R:3 relative_energy_eV=1.913053608925111 branch=right pbc="F F F"
O       -0.48355036      -0.55353502      -1.03006062
C       -1.09195671       0.24541199      -1.79900535
C       -0.47678544       0.08196420       0.48651615
O       -1.02137968       1.29596374       0.37463321
C        0.96877543       0.07514480       0.92471270
O        1.48289099      -1.21143764       1.20951612
H       -1.31668017       1.32203155      -0.65276787
H       -1.08568702      -0.66549909       1.00579981
H       -1.09109838      -0.15096359      -2.82739539
H        1.01192733       0.64243152       1.85649102
H        1.56416946       0.61428115       0.18206280
H        1.55621823      -1.69361687       0.37901635
12
Properties=species:S:1:pos:R:3 relative_energy_eV=1.913042000711357 branch=right pbc="F F F"
O       -0.48346757      -0.55369517      -1.02980814
C       -1.09145247       0.24535776      -1.79892719
C       -0.47699816       0.08227312       0.48669354
O       -1.02160302       1.29630243       0.37458268
C        0.96877711       0.07511812       0.92485654
O        1.48237218      -1.21187889       1.20943822
H       -1.31670183       1.32192848      -0.65296540
H       -1.08606546      -0.66532358       1.00567360
H       -1.09122583      -0.15131930      -2.82712207
H        1.01222631       0.64216203       1.85682895
H        1.56421688       0.61417483       0.18191840
H        1.55676557      -1.69292311       0.37834979
12
Properties=species:S:1:pos:R:3 relative_energy_eV=1.9130283902868541 branch=right pbc="F F F"
O       -0.48331616      -0.55385741      -1.02958930
C       -1.09093271       0.24528253      -1.79885322
C       -0.47727037       0.08262103       0.48684977
O       -1.02185548       1.29665686       0.37457326
C        0.96862248       0.07514088       0.92493481
O        1.48172364      -1.21225648       1.20919894
H       -1.31657811       1.32167649      -0.65316570
H       -1.08645976      -0.66499299       1.00565430
H       -1.09136756      -0.15169739      -2.82677139
H        1.01254506       0.64178114       1.85717675
H        1.56427363       0.61405394       0.18186249
H        1.55745907      -1.69223188       0.37764818
12
Properties=species:S:1:pos:R:3 relative_energy_eV=1.9130123769573402 branch=right pbc="F F F"
O       -0.48311356      -0.55396981      -1.02936759
C       -1.09041239       0.24519840      -1.79880026
C       -0.47754971       0.08297474       0.48702378
O       -1.02210164       1.29696374       0.37457086
C        0.96832250       0.07519413       0.92496501
O        1.48090928      -1.21251596       1.20878859
H       -1.31633266       1.32135485      -0.65334761
H       -1.08687502      -0.66448590       1.00575996
H       -1.09150656      -0.15216324      -2.82639669
H        1.01288188       0.64129912       1.85751690
H        1.56428979       0.61389475       0.18195240
H        1.55833185      -1.69156809       0.37685352
12
Properties=species:S:1:pos:R:3 relative_energy_eV=1.91300148566188 branch=right pbc="F F F"
O       -0.48293717      -0.55400223      -1.02916049
C       -1.09001718       0.24511837      -1.79878813
C       -0.47774153       0.08324143       0.48721017
O       -1.02226400       1.29712230       0.37452348
C        0.96798627       0.07525147       0.92498915
O        1.48012032      -1.21265927       1.20826350
H       -1.31605024       1.32110960      -0.65349238
H       -1.08722752      -0.66392414       1.00600163
H       -1.09161370      -0.15262439      -2.82614246
H        1.01315568       0.64084340       1.85777535
H        1.56422962       0.61374694       0.18219205
H        1.55920324      -1.69104676       0.37614695
12
Properties=species:S:1:pos:R:3 relative_energy_eV=1.9129944296564645 branch=right pbc="F F F"
O       -0.48284732      -0.55396982      -1.02898247
C       -1.08981207       0.24504968      -1.79881024
C       -0.47782477       0.08337234       0.48737004
O       -1.02232004       1.29715074       0.37440934
C        0.96774797       0.07525791       0.92503500
O        1.47955420      -1.21273693       1.20782141
H       -1.31583080       1.32104724      -0.65360951
H       -1.08745759      -0.66346837       1.00632900
H       -1.09167035      -0.15298900      -2.82607093
H        1.01330255       0.64052924       1.85793415
H        1.56410676       0.61367715       0.18249137
H        1.55989528      -1.69074345       0.37560164
12
Properties=species:S:1:pos:R:3 relative_energy_eV=1.9129812881838006 branch=right pbc="F F F"
O       -0.48282609      -0.55393075      -1.02879852
C       -1.08970836       0.24495964      -1.79885025
C       -0.47787812       0.08344090       0.48750785
O       -1.02232176       1.29715554       0.37422403
C        0.96758535       0.07520784       0.92512629
O        1.47913228      -1.21288823       1.20741419
H       -1.31564721       1.32113636      -0.65376645
H       -1.08763133      -0.66306487       1.00677131
H       -1.09170196      -0.15330950      -2.82611007
H        1.01335830       0.64028282       1.85807608
H        1.56394049       0.61369981       0.18282742
H        1.56054226      -1.69051279       0.37509691
12
Properties=species:S:1:pos:R:3 relative_energy_eV=1.9129698050091974 branch=right pbc="F F F"
O       -0.48286760      -0.55392525      -1.02854177
C       -1.08962257       0.24479682      -1.79890583
C       -0.47798593       0.08352099       0.48765820
O       -1.02230093       1.29723440       0.37392276
C        0.96743101       0.07506841       0.92529099
O        1.47868823      -1.21322482       1.20693777
H       -1.31541737       1.32137404      -0.65406750
H       -1.08783631      -0.66255547       1.00748061
H       -1.09172746      -0.15371560      -2.82620867
H        1.01335186       0.63996942       1.85831258
H        1.56370057       0.61383978       0.18328274
H        1.56143036      -1.69020596       0.37435684
12
Properties=species:S:1:pos:R:3 relative_energy_eV=1.9129604407498846 branch=right pbc="F F F"
O       -0.48299399      -0.55400700      -1.02822294
C       -1.08954617       0.24454057      -1.79896860
C       -0.47819661       0.08365156       0.48779245
O       -1.02226586       1.29746899       0.37353453
C        0.96727195       0.07483580       0.92552008
O        1.47825809      -1.21380524       1.20638870
H       -1.31512279       1.32175176      -0.65453969
H       -1.08807541      -0.66193433       1.00844813
H       -1.09173321      -0.15421669      -2.82630884
H        1.01325222       0.63953945       1.85868336
H        1.56341584       0.61412164       0.18382438
H        1.56257980      -1.68976974       0.37336715
12
Properties=species:S:1:pos:R:3 relative_energy_eV=1.9129483889919356 branch=right pbc="F F F"
O       -0.48319715      -0.55417835      -1.02794539
C       -1.08950176       0.24427250      -1.79900961
C       -0.47846204       0.08382084       0.48785894
O       -1.02221853       1.29783314       0.37321699
C        0.96713823       0.07458780       0.92571252
O        1.47798756      -1.21441350       1.20594900
H       -1.31483247       1.32212766      -0.65502782
H       -1.08827800      -0.66138171       1.00931869
H       -1.09169093      -0.15469061      -2.82632196
H        1.01306112       0.63906401       1.85909472
H        1.56319864       0.61444811       0.18426343
H        1.56363924      -1.68931309       0.37240913
12
Properties=species:S:1:pos:R:3 relative_energy_eV=1.9129366087981907 branch=right pbc="F F F"
O       -0.48345844      -0.55439089      -1.02776312
C       -1.08951214       0.24406319      -1.79902367
C       -0.47868545       0.08398865       0.48786456
O       -1.02214060       1.29820599       0.37304448
C        0.96703728       0.07441124       0.92580963
O        1.47791771      -1.21483807       1.20565567
H       -1.31458823       1.32239893      -0.65537942
H       -1.08840490      -0.66099609       1.00985486
H       -1.09159309      -0.15505632      -2.82624160
H        1.01281068       0.63861015       1.85943979
H        1.56309529       0.61471218       0.18452599
H        1.56436580      -1.68893216       0.37173144
12
Properties=species:S:1:pos:R:3 relative_energy_eV=1.9129254046274582 branch=right pbc="F F F"
O       -0.48386000      -0.55466654      -1.02757266
C       -1.08956972       0.24385965      -1.79902133
C       -0.47888641       0.08418682       0.48786190
O       -1.02198561       1.29862351       0.37291422
C        0.96692301       0.07426534       0.92585543
O        1.47793108      -1.21513891       1.20535322
H       -1.31429553       1.32264706      -0.65567994
H       -1.08852954      -0.66060648       1.01024291
H       -1.09141997      -0.15547017      -2.82608854
H        1.01245830       0.63802550       1.85981545
H        1.56303602       0.61495999       0.18476505
H        1.56504231      -1.68850894       0.37107290
12
Properties=species:S:1:pos:R:3 relative_energy_eV=1.9129175834495982 branch=right pbc="F F F"
O       -0.48462073      -0.55511336      -1.02722852
C       -1.08970650       0.24356251      -1.79900893
C       -0.47911345       0.08448210       0.48788411
O       -1.02164110       1.29921582       0.37270485
C        0.96673383       0.07410007       0.92589363
O        1.47797604      -1.21542086       1.20480614
H       -1.31378707       1.32300041      -0.65605197
H       -1.08874654      -0.65998105       1.01069518
H       -1.09109473      -0.15615818      -2.82584189
H        1.01184767       0.63701734       1.86040123
H        1.56296041       0.61530137       0.18516677
H        1.56603613      -1.68782934       0.37009796
12
Properties=species:S:1:pos:R:3 relative_energy_eV=1.9128975237563282 branch=right pbc="F F F"
O       -0.48580958      -0.55573625      -1.02664384
C       -1.08991952       0.24315332      -1.79898326
C       -0.47932985       0.08484913       0.48796160
O       -1.02104460       1.29993724       0.37233632
C        0.96646229       0.07392835       0.92595202
O        1.47798788      -1.21563797       1.20392136
H       -1.31300779       1.32346586      -0.65648969
H       -1.08912045      -0.65905145       1.01124064
H       -1.09062006      -0.15716783      -2.82554689
H        1.01098067       0.63554057       1.86123680
H        1.56283880       0.61575098       0.18582428
H        1.56742621      -1.68685507       0.36870920
12
Properties=species:S:1:pos:R:3 relative_energy_eV=1.9128836811287329 branch=right pbc="F F F"
O       -0.48700337      -0.55630918      -1.02597494
C       -1.09011912       0.24276466      -1.79894847
C       -0.47943949       0.08511166       0.48805809
O       -1.02037825       1.30047963       0.37188747
C        0.96621356       0.07382618       0.92603893
O        1.47793605      -1.21571479       1.20296342
H       -1.31221756       1.32386928      -0.65682195
H       -1.08956758      -0.65813881       1.01170019
H       -1.09019447      -0.15812015      -2.82535440
H        1.01020150       0.63416884       1.86203046
H        1.56270137       0.61618090       0.18655292
H        1.56871139      -1.68594133       0.36738674
12
Properties=species:S:1:pos:R:3 relative_energy_eV=1.912880582967773 branch=right pbc="F F F"
O       -0.48765497      -0.55660874      -1.02551453
C       -1.09019096       0.24254351      -1.79890954
C       -0.47944074       0.08515633       0.48810383
O       -1.01994620       1.30065454       0.37155811
C        0.96609622       0.07381456       0.92612926
O        1.47785221      -1.21568997       1.20237395
H       -1.31175758       1.32403604      -0.65694414
H       -1.08991664      -0.65764028       1.01190704
H       -1.09002234      -0.15859245      -2.82532730
H        1.00986511       0.63352627       1.86245923
H        1.56261256       0.61645534       0.18703617
H        1.56934737      -1.68547824       0.36664636
12
Properties=species:S:1:pos:R:3 relative_energy_eV=1.9128823311093583 branch=right pbc="F F F"
O       -0.48789592      -0.55675116      -1.02526085
C       -1.09017747       0.24242933      -1.79886469
C       -0.47942217       0.08508745       0.48808666
O       -1.01971319       1.30065512       0.37136925
C        0.96606588       0.07383664       0.92620284
O        1.47781389      -1.21567167       1.20209303
H       -1.31154204       1.32405355      -0.65696308
H       -1.09016415      -0.65745157       1.01195282
H       -1.09001505      -0.15872141      -2.82535389
H        1.00980330       0.63338598       1.86263232
H        1.56257582       0.61665405       0.18730150
H        1.56951515      -1.68532940       0.36632255
12
Properties=species:S:1:pos:R:3 relative_energy_eV=1.9128741664007975 branch=right pbc="F F F"
O       -0.48803501      -0.55690510      -1.02504559
C       -1.09012357       0.24231144      -1.79879704
C       -0.47943098       0.08498602       0.48803020
O       -1.01949859       1.30065983       0.37121917
C        0.96604950       0.07385052       0.92627732
O        1.47782661      -1.21569731       1.20186868
H       -1.31135069       1.32403768      -0.65697885
H       -1.09044394      -0.65732096       1.01195282
H       -1.09005178      -0.15878938      -2.82534627
H        1.00979357       0.63336875       1.86276388
H        1.56255311       0.61691887       0.18754911
H        1.56955586      -1.68524347       0.36602501
