12
Properties=species:S:1:pos:R:3 relative_energy_eV=0.0 branch=left pbc="F F F"
O        0.12063629      -0.74419056       1.71591283
C        0.92138719      -0.17314937       0.76410671
C        0.18138850       0.33160504      -0.41318808
O        0.71846364       1.17816983      -1.25701515
C       -1.19390806      -0.11687192      -0.64355590
O       -1.54017665      -1.23109110      -0.02150217
H        1.65512730      -0.89169360       0.32863924
H        1.61485153       1.40968715      -0.96228992
H        1.53929406       0.64822419       1.16793339
H       -1.41746818      -0.04011829      -1.72793553
H       -1.71168862       0.81078775      -0.23943294
H       -0.69325212      -1.13735418       1.16881333
12
Properties=species:S:1:pos:R:3 relative_energy_eV=6.347618182189763e-07 branch=left pbc="F F F"
O        0.12072846      -0.74430460       1.71587358
C        0.92139457      -0.17308276       0.76414170
C        0.18141141       0.33168171      -0.41309363
O        0.71837025       1.17815370      -1.25701591
C       -1.19378398      -0.11683368      -0.64360644
O       -1.54002189      -1.23100642      -0.02149498
H        1.65485205      -0.89175662       0.32858026
H        1.61471842       1.40987750      -0.96242528
H        1.53956378       0.64798937       1.16821680
H       -1.41751303      -0.04025889      -1.72793702
H       -1.71175168       0.81074573      -0.23967933
H       -0.69331348      -1.13720008       1.16892605
12
Properties=species:S:1:pos:R:3 relative_energy_eV=3.0470509955193847e-06 branch=left pbc="F F F"
O        0.12091463      -0.74443525       1.71587713
C        0.92143368      -0.17296041       0.76420104
C        0.18138687       0.33191180      -0.41291057
O        0.71828459       1.17815686      -1.25706762
C       -1.19365073      -0.11685727      -0.64364983
O       -1.53985881      -1.23099929      -0.02150081
H        1.65451439      -0.89181929       0.32844955
H        1.61461685       1.41002618      -0.96259906
H        1.53989518       0.64773247       1.16859733
H       -1.41760360      -0.04037738      -1.72794055
H       -1.71180197       0.81069495      -0.24003249
H       -0.69347622      -1.13706842       1.16906167
12
Properties=species:S:1:pos:R:3 relative_energy_eV=8.423219696851447e-06 branch=left pbc="F F F"
O        0.12110697      -0.74454472       1.71595648
C        0.92148343      -0.17283178       0.76430088
C        0.18130771       0.33226465      -0.41269050
O        0.71824606       1.17822252      -1.25716871
C       -1.19357363      -0.11694407      -0.64366130
O       -1.53971807      -1.23109125      -0.02148493
H        1.65420698      -0.89186786       0.32823628
H        1.61459970       1.41006804      -0.96277202
H        1.54021558       0.64751738       1.16896455
H       -1.41766966      -0.04045554      -1.72795875
H       -1.71187391       0.81065606      -0.24038973
H       -0.69367633      -1.13698847       1.16915353
12
Properties=species:S:1:pos:R:3 relative_energy_eV=1.9323981177876703e-05 branch=left pbc="F F F"
O        0.12121116      -0.74462297       1.71609765
C        0.92151254      -0.17273117       0.76445148
C        0.18119967       0.33268169      -0.41248078
O        0.71825739       1.17835581      -1.25729856
C       -1.19357048      -0.11707484      -0.64363507
O       -1.53960856      -1.23125944      -0.02142543
H        1.65396941      -0.89187817       0.32792768
H        1.61469438       1.41001771      -0.96293783
H        1.54050646       0.64734270       1.16928681
H       -1.41767980      -0.04051819      -1.72798397
H       -1.71199235       0.81063065      -0.24069179
H       -0.69384499      -1.13693881       1.16917561
12
Properties=species:S:1:pos:R:3 relative_energy_eV=2.5392584575456567e-05 branch=left pbc="F F F"
O        0.12113934      -0.74465991       1.71628655
C        0.92148090      -0.17265469       0.76468065
C        0.18107435       0.33316025      -0.41226445
O        0.71834534       1.17857339      -1.25740991
C       -1.19363273      -0.11724186      -0.64355762
O       -1.53950809      -1.23149650      -0.02130807
H        1.65376165      -0.89178200       0.32741081
H        1.61494280       1.40988700      -0.96316568
H        1.54082656       0.64713142       1.16963522
H       -1.41761767      -0.04062316      -1.72798483
H       -1.71221889       0.81059737      -0.24096717
H       -0.69393872      -1.13688636       1.16913028
12
Properties=species:S:1:pos:R:3 relative_energy_eV=4.775291381520219e-05 branch=left pbc="F F F"
O        0.12078625      -0.74459432       1.71648678
C        0.92131487      -0.17257682       0.76498624
C        0.18097396       0.33364604      -0.41201455
O        0.71851607       1.17884755      -1.25738654
C       -1.19372142      -0.11742076      -0.64341538
O       -1.53942652      -1.23177295      -0.02115831
H        1.65350654      -0.89142503       0.32650999
H        1.61543568       1.40971469      -0.96355712
H        1.54122619       0.64675668       1.17010875
H       -1.41746844      -0.04085487      -1.72790064
H       -1.71259351       0.81051772      -0.24124420
H       -0.69389484      -1.13683295       1.16907078
12
Properties=species:S:1:pos:R:3 relative_energy_eV=8.286488264275249e-05 branch=left pbc="F F F"
O        0.12025314      -0.74434873       1.71660621
C        0.92100208      -0.17244025       0.76523991
C        0.18093986       0.33396266      -0.41172459
O        0.71874653       1.17907239      -1.25706785
C       -1.19374961      -0.11751397      -0.64323593
O       -1.53938482      -1.23196729      -0.02108809
H        1.65311905      -0.89073813       0.32530171
H        1.61609775       1.40951885      -0.96412186
H        1.54164053       0.64619260       1.17067006
H       -1.41723508      -0.04122845      -1.72770283
H       -1.71307171       0.81035827      -0.24149628
H       -0.69370290      -1.13686299       1.16910535
12
Properties=species:S:1:pos:R:3 relative_energy_eV=0.0001340471499133855 branch=left pbc="F F F"
O        0.11986303      -0.74395009       1.71661868
C        0.92062827      -0.17217803       0.76531325
C        0.18095513       0.33408562      -0.41139826
O        0.71891377       1.17917030      -1.25647971
C       -1.19366592      -0.11745210      -0.64308072
O       -1.53937618      -1.23200116      -0.02117401
H        1.65251767      -0.88987705       0.32408121
H        1.61677618       1.40923635      -0.96471345
H        1.54195509       0.64558615       1.17116985
H       -1.41690394      -0.04166329      -1.72747178
H       -1.71354116       0.81012929      -0.24166720
H       -0.69346711      -1.13708100       1.16928796
12
Properties=species:S:1:pos:R:3 relative_energy_eV=0.00018594355969980825 branch=left pbc="F F F"
O        0.11986002      -0.74347345       1.71658770
C        0.92024921      -0.17169871       0.76521734
C        0.18088306       0.33427536      -0.41094975
O        0.71900421       1.17927011      -1.25571144
C       -1.19351486      -0.11721657      -0.64293975
O       -1.53927941      -1.23190877      -0.02136424
H        1.65152955      -0.88898961       0.32290912
H        1.61745883       1.40854362      -0.96525653
H        1.54217750       0.64508425       1.17152034
H       -1.41630916      -0.04213732      -1.72730981
H       -1.71413258       0.80980874      -0.24172997
H       -0.69327153      -1.13755268       1.16951283
12
Properties=species:S:1:pos:R:3 relative_energy_eV=0.0002741701009654207 branch=left pbc="F F F"
O        0.12038308      -0.74300400       1.71660904
C        0.91981261      -0.17082107       0.76505100
C        0.18052862       0.33505474      -0.41020223
O        0.71897691       1.17963361      -1.25480839
C       -1.19339683      -0.11676523      -0.64275012
O       -1.53886835      -1.23177434      -0.02150687
H        1.64974992      -0.88810490       0.32151266
H        1.61841979       1.40681148      -0.96574957
H        1.54242081       0.64480840       1.17169942
H       -1.41504214      -0.04276421      -1.72732313
H       -1.71522641       0.80929754      -0.24162013
H       -0.69310317      -1.13836705       1.16957416
12
Properties=species:S:1:pos:R:3 relative_energy_eV=0.0004233569070493104 branch=left pbc="F F F"
O        0.12132235      -0.74277256       1.71674034
C        0.91928399      -0.16951954       0.76501783
C        0.17968769       0.33692014      -0.40908618
O        0.71893236       1.18060036      -1.25396653
C       -1.19349032      -0.11613410      -0.64243787
O       -1.53788851      -1.23170868      -0.02132206
H        1.64704798      -0.88739458       0.31974335
H        1.61979674       1.40353540      -0.96616091
H        1.54283530       0.64495142       1.17167448
H       -1.41280350      -0.04361409      -1.72760533
H       -1.71718951       0.80854003      -0.24125553
H       -0.69287974      -1.13939884       1.16914430
12
Properties=species:S:1:pos:R:3 relative_energy_eV=0.0006076048066461226 branch=left pbc="F F F"
O        0.12203753      -0.74297351       1.71690234
C        0.91879716      -0.16833154       0.76526005
C        0.17866145       0.33930640      -0.40803562
O        0.71888832       1.18189076      -1.25355234
C       -1.19383890      -0.11558492      -0.64208731
O       -1.53661814      -1.23178399      -0.02073848
H        1.64448634      -0.88713314       0.31810268
H        1.62123033       1.39988444      -0.96636655
H        1.54338240       0.64548266       1.17151855
H       -1.41037930      -0.04443329      -1.72802953
H       -1.71943507       0.80780206      -0.24076387
H       -0.69255730      -1.14012100       1.16827599
12
Properties=species:S:1:pos:R:3 relative_energy_eV=0.0007722742793703219 branch=left pbc="F F F"
O        0.12216456      -0.74341876       1.71697259
C        0.91848208      -0.16767298       0.76566544
C        0.17783551       0.34121595      -0.40734888
O        0.71892864       1.18298285      -1.25347994
C       -1.19427585      -0.11524890      -0.64178240
O       -1.53546193      -1.23193537      -0.02003976
H        1.64295854      -0.88725227       0.31700924
H        1.62225712       1.39717116      -0.96643511
H        1.54391291       0.64610749       1.17135427
H       -1.40866337      -0.04496521      -1.72834197
H       -1.72129081       0.80731750      -0.24042818
H       -0.69219256      -1.14029654       1.16734062
12
Properties=species:S:1:pos:R:3 relative_energy_eV=0.0008953406340879155 branch=left pbc="F F F"
O        0.12185885      -0.74385837       1.71694202
C        0.91834487      -0.16746830       0.76608868
C        0.17729864       0.34242745      -0.40690846
O        0.71892398       1.18365456      -1.25342483
C       -1.19468511      -0.11500596      -0.64152164
O       -1.53443852      -1.23211923      -0.01945177
H        1.64234964      -0.88753989       0.31634981
H        1.62296205       1.39544708      -0.96646546
H        1.54437808       0.64669738       1.17119577
H       -1.40771453      -0.04517649      -1.72846036
H       -1.72278185       0.80708477      -0.24041794
H       -0.69184128      -1.14013810       1.16656012
12
Properties=species:S:1:pos:R:3 relative_energy_eV=0.0010653885092324344 branch=left pbc="F F F"
O        0.12117529      -0.74422948       1.71680561
C        0.91843410      -0.16756889       0.76665509
C        0.17672049       0.34340222      -0.40616950
O        0.71889257       1.18411239      -1.25284925
C       -1.19524829      -0.11451261      -0.64105957
O       -1.53270974      -1.23246016      -0.01889469
H        1.64227649      -0.88803766       0.31565757
H        1.62373336       1.39351548      -0.96664371
H        1.54503517       0.64756869       1.17085218
H       -1.40706825      -0.04500240      -1.72833319
H       -1.72517461       0.80700768      -0.24114643
H       -0.69141177      -1.13979038       1.16561185
12
Properties=species:S:1:pos:R:3 relative_energy_eV=0.00140960769749654 branch=left pbc="F F F"
O        0.12047786      -0.74407006       1.71665883
C        0.91906519      -0.16795508       0.76732986
C        0.17600633       0.34415280      -0.40445939
O        0.71852434       1.18409166      -1.25084878
C       -1.19607052      -0.11327554      -0.64013490
O       -1.52938934      -1.23319239      -0.01864788
H        1.64271584      -0.88873573       0.31469006
H        1.62497862       1.39049694      -0.96716423
H        1.54600765       0.64892243       1.16998873
H       -1.40671083      -0.04398928      -1.72777127
H       -1.72987778       0.80717274      -0.24358161
H       -0.69107252      -1.13961358       1.16442656
12
Properties=species:S:1:pos:R:3 relative_energy_eV=0.0019338554793648655 branch=left pbc="F F F"
O        0.12067650      -0.74306619       1.71674200
C        0.92011124      -0.16832819       0.76767289
C        0.17537062       0.34435659      -0.40223860
O        0.71808875       1.18363738      -1.24798766
C       -1.19674075      -0.11167692      -0.63904198
O       -1.52574953      -1.23408118      -0.01901282
H        1.64330697      -0.88917240       0.31391208
H        1.62613943       1.38728515      -0.96790851
H        1.54678823       0.64997370       1.16883616
H       -1.40673792      -0.04241022      -1.72695829
H       -1.73535411       0.80748022      -0.24698206
H       -0.69124459      -1.13999304       1.16345276
12
Properties=species:S:1:pos:R:3 relative_energy_eV=0.0024314029615197796 branch=left pbc="F F F"
O        0.12170441      -0.74175883       1.71704552
C        0.92101868      -0.16845201       0.76754678
C        0.17509278       0.34431965      -0.40063818
O        0.71768402       1.18316356      -1.24582838
C       -1.19703855      -0.11043389      -0.63828102
O       -1.52346998      -1.23475160      -0.01962517
H        1.64375011      -0.88914019       0.31377020
H        1.62696195       1.38510835      -0.96842173
H        1.54711282       0.65010402       1.16793830
H       -1.40695898      -0.04109112      -1.72631703
H       -1.73938342       0.80762484      -0.24962641
H       -0.69181900      -1.14068786       1.16292311
12
Properties=species:S:1:pos:R:3 relative_energy_eV=0.0028825615172536345 branch=left pbc="F F F"
O        0.12311817      -0.74039148       1.71738390
C        0.92168921      -0.16840670       0.76707076
C        0.17499957       0.34441900      -0.39977566
O        0.71766113       1.18311333      -1.24462372
C       -1.19719386      -0.10951182      -0.63775723
O       -1.52232558      -1.23516021      -0.02011456
H        1.64433325      -0.88872865       0.31442598
H        1.62754010       1.38359677      -0.96869732
H        1.54730492       0.64922504       1.16733993
H       -1.40724472      -0.04013884      -1.72581471
H       -1.74266368       0.80733811      -0.25140583
H       -0.69256370      -1.14134966       1.16245446
12
Properties=species:S:1:pos:R:3 relative_energy_eV=0.0037647262324753683 branch=left pbc="F F F"
O        0.12502225      -0.73836566       1.71751972
C        0.92229750      -0.16828848       0.76584534
C        0.17509072       0.34560304      -0.39980467
O        0.71810774       1.18416737      -1.24444324
C       -1.19778186      -0.10816398      -0.63713155
O       -1.52161467      -1.23537394      -0.02008588
H        1.64646818      -0.88756670       0.31723272
H        1.62898195       1.38145303      -0.96860232
H        1.54826625       0.64593767       1.16682932
H       -1.40777553      -0.03909494      -1.72506249
H       -1.74883760       0.80558572      -0.25316960
H       -0.69357012      -1.14188823       1.16135865
12
Properties=species:S:1:pos:R:3 relative_energy_eV=0.005556998949032277 branch=left pbc="F F F"
O        0.12557248      -0.73657266       1.71665147
C        0.92249527      -0.16838581       0.76418506
C        0.17501763       0.34830834      -0.40132453
O        0.71977599       1.18707405      -1.24593195
C       -1.19932328      -0.10645897      -0.63639178
O       -1.52113491      -1.23498814      -0.01875815
H        1.65106393      -0.88597231       0.32243106
H        1.63133465       1.37857373      -0.96809775
H        1.55093726       0.64041147       1.16673290
H       -1.40846985      -0.03832411      -1.72407987
H       -1.75862827       0.80180748      -0.25438842
H       -0.69398608      -1.14146817       1.15945796
12
Properties=species:S:1:pos:R:3 relative_energy_eV=0.008303457043439266 branch=left pbc="F F F"
O        0.12343007      -0.73603921       1.71461864
C        0.92224759      -0.16885306       0.76278471
C        0.17472020       0.35179281      -0.40391645
O        0.72182564       1.19073046      -1.24844583
C       -1.20173018      -0.10471162      -0.63579074
O       -1.52084034      -1.23396929      -0.01655788
H        1.65711965      -0.88494622       0.32801974
H        1.63437264       1.37587138      -0.96732651
H        1.55520562       0.63531768       1.16736651
H       -1.40914899      -0.03831467      -1.72341336
H       -1.76937213       0.79713333      -0.25453519
H       -0.69317496      -1.14000667       1.15768236
12
Properties=species:S:1:pos:R:3 relative_energy_eV=0.011090187721492839 branch=left pbc="F F F"
O        0.11998329      -0.73649892       1.71235497
C        0.92214575      -0.16946912       0.76194529
C        0.17416752       0.35423053      -0.40589577
O        0.72373446       1.19334384      -1.25020474
C       -1.20402748      -0.10344823      -0.63552910
O       -1.52105918      -1.23276310      -0.01525772
H        1.66200737      -0.88508585       0.33141174
H        1.63656555       1.37432930      -0.96691401
H        1.55948916       0.63340801       1.16862255
H       -1.40970422      -0.03909863      -1.72374893
H       -1.77693184       0.79376401      -0.25369383
H       -0.69171558      -1.13870692       1.15739555
12
Properties=species:S:1:pos:R:3 relative_energy_eV=0.015612599872838473 branch=left pbc="F F F"
O        0.11512805      -0.73696789       1.70890240
C        0.92368364      -0.17012694       0.76085693
C        0.17362313       0.35644368      -0.40710094
O        0.72565951       1.19505058      -1.25097747
C       -1.20756322      -0.10178107      -0.63597014
O       -1.52350036      -1.23090927      -0.01654500
H        1.66759619      -0.88691768       0.33368491
H        1.63944194       1.37353476      -0.96681741
H        1.56603616       0.63506283       1.17163522
H       -1.41084312      -0.04159136      -1.72674640
H       -1.78507268       0.79080498      -0.25093802
H       -0.68953443      -1.13859772       1.16050195
12
Properties=species:S:1:pos:R:3 relative_energy_eV=0.02498408196879609 branch=left pbc="F F F"
O        0.11211080      -0.73545332       1.70440189
C        0.93034959      -0.16970892       0.75974145
C        0.17362792       0.35792841      -0.40585131
O        0.72859249       1.19518953      -1.24934751
C       -1.21319823      -0.09917980      -0.63760502
O       -1.53049372      -1.22848650      -0.02336423
H        1.67358224      -0.89142563       0.33495020
H        1.64296848       1.37384202      -0.96781156
H        1.57422173       0.64037999       1.17742429
H       -1.41336139      -0.04796619      -1.73348324
H       -1.79559031       0.78864227      -0.24461828
H       -0.68815482      -1.13975695       1.16604936
12
Properties=species:S:1:pos:R:3 relative_energy_eV=0.05133376590492844 branch=left pbc="F F F"
O        0.11769446      -0.72880998       1.69960888
C        0.94757678      -0.16714994       0.75987576
C        0.17667319       0.35903111      -0.39984343
O        0.73261045       1.19239102      -1.24354690
C       -1.22334391      -0.09323762      -0.64110149
O       -1.54523749      -1.22623628      -0.03896281
H        1.68024403      -0.90142478       0.33638798
H        1.64973880       1.37647853      -0.97093128
H        1.58192565       0.64799389       1.18886373
H       -1.41881160      -0.06489278      -1.74287008
H       -1.81365148       0.78654415      -0.23049977
H       -0.69076408      -1.13668246       1.16350545
12
Properties=species:S:1:pos:R:3 relative_energy_eV=0.08539454325364204 branch=left pbc="F F F"
O        0.12764228      -0.72292190       1.69779433
C        0.96064914      -0.16550685       0.76237511
C        0.18024502       0.35922436      -0.39405479
O        0.73622800       1.18995708      -1.23862764
C       -1.22979340      -0.08697731      -0.64342665
O       -1.55484019      -1.22686818      -0.04849349
H        1.68316621      -0.90974459       0.33793765
H        1.65436253       1.37931725      -0.97424622
H        1.58209347       0.65003676       1.19757256
H       -1.42297619      -0.08117224      -1.74457856
H       -1.82707047       0.78496226      -0.21881903
H       -0.69505161      -1.12630178       1.14705275
12
Properties=species:S:1:pos:R:3 relative_energy_eV=0.13676805654904456 branch=left pbc="F F F"
O        0.13812595      -0.72155625       1.69781856
C        0.96767271      -0.16825781       0.76796422
C        0.18518128       0.36023441      -0.38987086
O        0.73858787       1.18784649      -1.23511491
C       -1.23204764      -0.07694066      -0.64200063
O       -1.55604846      -1.23213832      -0.04618583
H        1.68354461      -0.91805684       0.34099667
H        1.65981994       1.38327746      -0.97798460
H        1.57383368       0.64537308       1.20591589
H       -1.42628526      -0.10183501      -1.73412909
H       -1.83899207       0.78151529      -0.20740689
H       -0.69873782      -1.09545699       1.10048347
12
Properties=species:S:1:pos:R:3 relative_energy_eV=0.26303369755441963 branch=left pbc="F F F"
O        0.13969948      -0.73077544       1.69897085
C        0.96415000      -0.17908198       0.77224060
C        0.18980513       0.36072415      -0.38752422
O        0.74210373       1.18889004      -1.23558559
C       -1.23003206      -0.06746383      -0.62886618
O       -1.54224758      -1.23794888      -0.02823253
H        1.68125044      -0.92468902       0.34611924
H        1.66471553       1.38779386      -0.98209283
H        1.55889954       0.63536064       1.21447937
H       -1.42831250      -0.12596889      -1.71012085
H       -1.84773744       0.77429380      -0.19816518
H       -0.69763948      -1.03712961       1.01926333
12
Properties=species:S:1:pos:R:3 relative_energy_eV=0.4751373674516799 branch=left pbc="F F F"
O        0.13950242      -0.74205193       1.69941755
C        0.96051642      -0.19031869       0.77620948
C        0.19394378       0.36080723      -0.38535302
O        0.74697292       1.19148882      -1.23748898
C       -1.22844881      -0.05636740      -0.61644033
O       -1.52819815      -1.24477808      -0.01097666
H        1.67756466      -0.92991577       0.35175217
H        1.66830732       1.39204941      -0.98629002
H        1.54204745       0.62339538       1.22227676
H       -1.42982152      -0.15002012      -1.68256788
H       -1.85415005       0.76575704      -0.19024857
H       -0.69358166      -0.97604104       0.94019551
12
Properties=species:S:1:pos:R:3 relative_energy_eV=0.7236968684501335 branch=left pbc="F F F"
O        0.13506672      -0.75613675       1.69764460
C        0.95324656      -0.20215998       0.78030793
C        0.19738961       0.36226523      -0.38616372
O        0.74905057       1.19360441      -1.24007207
C       -1.22544560      -0.04817278      -0.60251217
O       -1.51077577      -1.25241756       0.01054111
H        1.67290709      -0.93267733       0.35713663
H        1.67221144       1.39586403      -0.98923343
H        1.52605581       0.61109755       1.22810802
H       -1.42998188      -0.17022188      -1.65157237
H       -1.85623338       0.75684432      -0.18570173
H       -0.68883638      -0.91388442       0.86200320
12
Properties=species:S:1:pos:R:3 relative_energy_eV=1.0494545445908443 branch=left pbc="F F F"
O        0.12094766      -0.77327648       1.68888427
C        0.94234882      -0.21461504       0.78547432
C        0.19917176       0.36373861      -0.38978256
O        0.75354306       1.19639251      -1.24178667
C       -1.22077718      -0.04783771      -0.58573560
O       -1.48455795      -1.25783147       0.04161036
H        1.66904991      -0.93387281       0.36141591
H        1.67228161       1.39861424      -0.99258299
H        1.51317442       0.60059758       1.23204290
H       -1.42836586      -0.18529893      -1.61806916
H       -1.85673383       0.75001671      -0.18402378
H       -0.68542763      -0.85262238       0.78303901
12
Properties=species:S:1:pos:R:3 relative_energy_eV=1.5015194881234493 branch=left pbc="F F F"
O        0.09523310      -0.79288975       1.67035089
C        0.92762736      -0.22723339       0.79126975
C        0.20685787       0.36895931      -0.39862552
O        0.75174781       1.19438114      -1.24002024
C       -1.21539215      -0.05610597      -0.56441089
O       -1.44764880      -1.26007325       0.08249223
H        1.66742978      -0.93508185       0.36403818
H        1.67386819       1.40140601      -0.99493031
H        1.50364675       0.59287704       1.23460820
H       -1.42557029      -0.19585560      -1.58432704
H       -1.85807772       0.74522963      -0.18376962
H       -0.68506710      -0.79160848       0.70381039
12
Properties=species:S:1:pos:R:3 relative_energy_eV=2.2535481025461195 branch=left pbc="F F F"
O        0.05663594      -0.81355919       1.64090291
C        0.90995603      -0.23686888       0.79432601
C        0.20567657       0.35972290      -0.39588769
O        0.75595119       1.19909163      -1.24388487
C       -1.20528998      -0.06920225      -0.52594938
O       -1.38390613      -1.24712761       0.14230293
H        1.66953356      -0.93746618       0.36425454
H        1.67232141       1.40295378      -0.99729800
H        1.49883610       0.58951518       1.23599528
H       -1.42449210      -0.20210299      -1.56763223
H       -1.85908164       0.74171592      -0.18480815
H       -0.70148614      -0.74266748       0.61816465
12
Properties=species:S:1:pos:R:3 relative_energy_eV=3.580642740456824 branch=left pbc="F F F"
O        0.03046678      -0.82473608       1.62147579
C        0.90674587      -0.24064448       0.79356844
C        0.21057669       0.36467781      -0.40188331
O        0.75424625       1.19747611      -1.24256040
C       -1.20457087      -0.09621236      -0.49578884
O       -1.31138372      -1.19774633       0.19028197
H        1.66941728      -0.93799208       0.36444803
H        1.67257567       1.40332572      -0.99764162
H        1.49806226       0.58959064       1.23636625
H       -1.42394678      -0.20221672      -1.56754248
H       -1.85963436       0.74356634      -0.18561598
H       -0.74790025      -0.75508373       0.56537816
12
Properties=species:S:1:pos:R:3 relative_energy_eV=4.235342477157246 branch=ts pbc="F F F"
O        0.02315432      -0.82653397       1.61483481
C        0.90934255      -0.24022274       0.79273100
C        0.21345960       0.36707814      -0.40301957
O        0.75380741       1.19722648      -1.24241498
C       -1.20706239      -0.10148999      -0.49083085
O       -1.29964015      -1.18994273       0.19915227
H        1.66811366      -0.93994143       0.36913183
H        1.67412737       1.40383313      -0.99751860
H        1.49422318       0.58813591       1.24037946
H       -1.41953210      -0.20525210      -1.56795980
H       -1.85147015       0.74527048      -0.18436989
H       -0.85585840      -0.81295681       0.48247776
12
Properties=species:S:1:pos:R:3 relative_energy_eV=4.072300576603084 branch=right pbc="F F F"
O        0.01584185      -0.82833187       1.60819382
C        0.91193923      -0.23980100       0.79189355
C        0.21634250       0.36947846      -0.40415583
O        0.75336857       1.19697686      -1.24226956
C       -1.20955390      -0.10676762      -0.48587287
O       -1.28789657      -1.18213914       0.20802257
H        1.66681005      -0.94189078       0.37381563
H        1.67567907       1.40434054      -0.99739557
H        1.49038410       0.58668118       1.24439266
H       -1.41511741      -0.20828748      -1.56837712
H       -1.84330595       0.74697462      -0.18312381
H       -0.96381655      -0.87082990       0.39957736
12
Properties=species:S:1:pos:R:3 relative_energy_eV=4.0627962637790915 branch=right pbc="F F F"
O        0.01018125      -0.82785473       1.60048273
C        0.92598441      -0.23493988       0.79001581
C        0.22075410       0.37253997      -0.39992611
O        0.75404395       1.19888063      -1.24435209
C       -1.21863843      -0.07239501      -0.51838748
O       -1.28905830      -1.20184373       0.22290404
H        1.66747191      -0.94317463       0.37538954
H        1.67429304       1.40414517      -0.99796385
H        1.49029288       0.58676998       1.24702332
H       -1.41516770      -0.20988783      -1.57104997
H       -1.84165842       0.75066367      -0.18250097
H       -0.96782370      -0.89649970       0.42306586
12
Properties=species:S:1:pos:R:3 relative_energy_eV=3.9603738966998208 branch=right pbc="F F F"
O        0.00699666      -0.82733174       1.59406608
C        0.92659922      -0.23410621       0.78657420
C        0.21751979       0.37238228      -0.39830732
O        0.75577061       1.20052570      -1.24562853
C       -1.21335875      -0.08985362      -0.49974440
O       -1.28107625      -1.18801054       0.22517827
H        1.66837771      -0.94451966       0.37678925
H        1.67397281       1.40431881      -0.99849716
H        1.49097637       0.58740667       1.24992731
H       -1.41634916      -0.21016271      -1.57671031
H       -1.84233727       0.75449972      -0.18245075
H       -0.97641677      -0.89874481       0.41350421
12
Properties=species:S:1:pos:R:3 relative_energy_eV=3.9466517153068708 branch=right pbc="F F F"
O        0.00718429      -0.82515538       1.58769637
C        0.92919676      -0.23140701       0.78168024
C        0.21761120       0.37576846      -0.39770631
O        0.75451258       1.20043370      -1.24585533
C       -1.21115190      -0.09467167      -0.49403541
O       -1.28638521      -1.19136336       0.22279284
H        1.67052490      -0.94710474       0.37921131
H        1.67462950       1.40478121      -0.99888604
H        1.49192993       0.58791433       1.25494610
H       -1.41743662      -0.21118451      -1.58057643
H       -1.84204462       0.75947689      -0.18289604
H       -0.97789587      -0.90108402       0.41832954
12
Properties=species:S:1:pos:R:3 relative_energy_eV=3.9369286373403156 branch=right pbc="F F F"
O        0.00660667      -0.82281715       1.57576202
C        0.93284600      -0.22767411       0.77545169
C        0.21651451       0.38027149      -0.39585700
O        0.75383601       1.20173922      -1.24720454
C       -1.21180613      -0.09867420      -0.49239447
O       -1.28951839      -1.19390353       0.22509315
H        1.67465164      -0.95119266       0.38316236
H        1.67448932       1.40542680      -1.00013936
H        1.49335541       0.58825332       1.26346753
H       -1.41849246      -0.21261983      -1.58307103
H       -1.83902137       0.76558943      -0.18402769
H       -0.98278627      -0.90799485       0.42445819
12
Properties=species:S:1:pos:R:3 relative_energy_eV=3.9328430997684336 branch=right pbc="F F F"
O        0.00656340      -0.82241544       1.56767792
C        0.93524798      -0.22531401       0.77118630
C        0.21511232       0.38401761      -0.39561072
O        0.75279314       1.20297456      -1.24840366
C       -1.21418302      -0.10082890      -0.49269295
O       -1.29082091      -1.19537915       0.22905127
H        1.67824564      -0.95372376       0.38664469
H        1.67409461       1.40606624      -1.00154772
H        1.49379402       0.58722873       1.27068585
H       -1.41921531      -0.21401260      -1.58260950
H       -1.83443549       0.76875309      -0.18576622
H       -0.98652146      -0.91096248       0.42608558
12
Properties=species:S:1:pos:R:3 relative_energy_eV=3.9302959720025683 branch=right pbc="F F F"
O        0.00747166      -0.82332499       1.56260928
C        0.93681033      -0.22403479       0.76812644
C        0.21339132       0.38646589      -0.39571812
O        0.75193310       1.20517776      -1.25039035
C       -1.21664770      -0.10218900      -0.49346157
O       -1.29212132      -1.19561930       0.23241928
H        1.68161912      -0.95485513       0.38997138
H        1.67301233       1.40669481      -1.00339043
H        1.49323428       0.58479738       1.27743829
H       -1.42018568      -0.21589308      -1.58065453
H       -1.82886516       0.77048943      -0.18802279
H       -0.98897736      -0.91130509       0.42577398
12
Properties=species:S:1:pos:R:3 relative_energy_eV=3.9283514573144203 branch=right pbc="F F F"
O        0.00895064      -0.82550525       1.56016945
C        0.93764663      -0.22391018       0.76645235
C        0.21258374       0.38852271      -0.39699680
O        0.74991030       1.20732255      -1.25239935
C       -1.21795679      -0.10274451      -0.49430964
O       -1.29375787      -1.19458791       0.23490915
H        1.68483033      -0.95454777       0.39291477
H        1.67176960       1.40748448      -1.00561367
H        1.49167458       0.58116370       1.28372849
H       -1.42174085      -0.21847586      -1.57837718
H       -1.82308014       0.77170778      -0.19054696
H       -0.99015526      -0.91002584       0.42477021
12
Properties=species:S:1:pos:R:3 relative_energy_eV=3.926251776299978 branch=right pbc="F F F"
O        0.01103361      -0.82926989       1.55902707
C        0.93813623      -0.22477845       0.76571366
C        0.21232868       0.38958137      -0.39849441
O        0.74744332       1.21065366      -1.25515126
C       -1.21749087      -0.10266296      -0.49524755
O       -1.29638037      -1.19212367       0.23697608
H        1.68876497      -0.95285844       0.39591629
H        1.66934838       1.40863774      -1.00919075
H        1.48885855       0.57591178       1.29120804
H       -1.42451503      -0.22250384      -1.57636237
H       -1.81635580       0.77372817      -0.19373257
H       -0.99049677      -0.90791154       0.42403856
12
Properties=species:S:1:pos:R:3 relative_energy_eV=3.923834837629329 branch=right pbc="F F F"
O        0.01322525      -0.83530166       1.55868996
C        0.93839493      -0.22684208       0.76613835
C        0.21376712       0.39000650      -0.40088669
O        0.74307886       1.21438455      -1.25788084
C       -1.21466430      -0.10188730      -0.49638781
O       -1.29998470      -1.18790254       0.23932268
H        1.69384600      -0.94962905       0.39876233
H        1.66620488       1.41065195      -1.01461615
H        1.48454256       0.56914005       1.30054044
H       -1.42896438      -0.22840969      -1.57527607
H       -1.80868493       0.77750225      -0.19773648
H       -0.99008640      -0.90530901       0.42403107
12
Properties=species:S:1:pos:R:3 relative_energy_eV=3.9217042179097916 branch=right pbc="F F F"
O        0.01453629      -0.84224046       1.55835076
C        0.93861513      -0.22947498       0.76758824
C        0.21636142       0.38840005      -0.40253019
O        0.73900157       1.21801275      -1.25966371
C       -1.21028054      -0.10071224      -0.49738208
O       -1.30367211      -1.18302464       0.24163618
H        1.69898695      -0.94588994       0.40039653
H        1.66264407       1.41331887      -1.02121818
H        1.47982728       0.56325745       1.30968607
H       -1.43404248      -0.23469923      -1.57589194
H       -1.80216558       0.78273469      -0.20168028
H       -0.98913713      -0.90327829       0.42540938
12
Properties=species:S:1:pos:R:3 relative_energy_eV=3.920234636107125 branch=right pbc="F F F"
O        0.01434064      -0.84801094       1.55736540
C        0.93891578      -0.23168346       0.76930982
C        0.21947669       0.38569788      -0.40339745
O        0.73575056       1.21962842      -1.25926303
C       -1.20693081      -0.09981071      -0.49793570
O       -1.30602360      -1.17923661       0.24374128
H        1.70266977      -0.94319534       0.40038094
H        1.66061487       1.41613217      -1.02689280
H        1.47620706       0.56055366       1.31598138
H       -1.43779506      -0.23909608      -1.57745371
H       -1.79846721       0.78752826      -0.20459880
H       -0.98808383      -0.90210320       0.42746343
12
Properties=species:S:1:pos:R:3 relative_energy_eV=3.919137229788248 branch=right pbc="F F F"
O        0.01328480      -0.85263249       1.55538812
C        0.93937581      -0.23329090       0.77068229
C        0.22202612       0.38189596      -0.40331414
O        0.73408923       1.22021348      -1.25748032
C       -1.20548187      -0.09939388      -0.49802948
O       -1.30745511      -1.17666487       0.24566043
H        1.70523905      -0.94167748       0.39950844
H        1.65957540       1.41897147      -1.03179563
H        1.47337272       0.56033139       1.32014073
H       -1.44003982      -0.24169919      -1.57890976
H       -1.79643391       0.79143877      -0.20695882
H       -0.98687757      -0.90108820       0.42980891
12
Properties=species:S:1:pos:R:3 relative_energy_eV=3.9181955674794153 branch=right pbc="F F F"
O        0.01182558      -0.85698697       1.55242513
C        0.93987881      -0.23458814       0.77146942
C        0.22410673       0.37762957      -0.40325994
O        0.73288743       1.22008706      -1.25475524
C       -1.20583595      -0.09933789      -0.49783054
O       -1.30844045      -1.17474015       0.24778226
H        1.70735231      -0.94094861       0.39853106
H        1.65950313       1.42202910      -1.03631452
H        1.47045903       0.56137783       1.32325820
H       -1.44109562      -0.24317371      -1.57951908
H       -1.79480907       0.79455822      -0.20937637
H       -0.98515706      -0.89950222       0.43229037
12
Properties=species:S:1:pos:R:3 relative_energy_eV=3.9173557049853116 branch=right pbc="F F F"
O        0.01037949      -0.86143509       1.54875180
C        0.94019831      -0.23575753       0.77137553
C        0.22541931       0.37326166      -0.40358101
O        0.73219810       1.22023512      -1.25212758
C       -1.20729641      -0.09938789      -0.49743263
O       -1.30933018      -1.17296625       0.25010611
H        1.70936938      -0.94066667       0.39817334
H        1.65966179       1.42497738      -1.04047316
H        1.46685331       0.56248101       1.32583991
H       -1.44124086      -0.24403966      -1.57888565
H       -1.79295675       0.79687600      -0.21204747
H       -0.98258064      -0.89717398       0.43500159
12
Properties=species:S:1:pos:R:3 relative_energy_eV=3.916270130459452 branch=right pbc="F F F"
O        0.00831526      -0.86782514       1.54330100
C        0.94013138      -0.23745208       0.77021958
C        0.22684485       0.36792760      -0.40505161
O        0.73114807       1.22101681      -1.24929546
C       -1.20936711      -0.09924305      -0.49669558
O       -1.31030881      -1.17016034       0.25363609
H        1.71214182      -0.94044795       0.39871762
H        1.65993473       1.42851749      -1.04541788
H        1.46079631       0.56320263       1.32879383
H       -1.44078530      -0.24497926      -1.57689039
H       -1.79033331       0.79931765      -0.21579701
H       -0.97784304      -0.89347022       0.43918061
12
Properties=species:S:1:pos:R:3 relative_energy_eV=3.9138543672288506 branch=right pbc="F F F"
O        0.00283160      -0.88265577       1.53007957
C        0.93921938      -0.24149744       0.76612604
C        0.23009083       0.35669580      -0.40966776
O        0.72890439       1.22399560      -1.24430919
C       -1.21308133      -0.09836086      -0.49453032
O       -1.31160223      -1.16290403       0.26244139
H        1.71844097      -0.94013792       0.40133180
H        1.66016731       1.43553003      -1.05542151
H        1.44539949       0.56358662       1.33453051
H       -1.43919926      -0.24707751      -1.57172375
H       -1.78513102       0.80438955      -0.22403125
H       -0.96536533      -0.88515988       0.44987526
12
Properties=species:S:1:pos:R:3 relative_energy_eV=3.9308707854270324 branch=right pbc="F F F"
O       -0.01448712      -0.92291942       1.49178204
C        0.93630250      -0.25224057       0.75247649
C        0.23933678       0.32763660      -0.42406516
O        0.72314134       1.23383667      -1.23286889
C       -1.22114385      -0.09457713      -0.48777108
O       -1.31182012      -1.14174023       0.28869074
H        1.73546002      -0.93999171       0.41044593
H        1.66050617       1.45290858      -1.08046750
H        1.40144233       0.56295733       1.34868487
H       -1.43431301      -0.25306913      -1.55758399
H       -1.77331025       0.81801701      -0.24542845
H       -0.93044010      -0.86441368       0.48080585
12
Properties=species:S:1:pos:R:3 relative_energy_eV=3.9093678382996586 branch=right pbc="F F F"
O       -0.00017314      -0.88726598       1.52397742
C        0.93810251      -0.24258603       0.76193002
C        0.23055239       0.35411440      -0.41347036
O        0.72918177       1.22644268      -1.24432912
C       -1.21394058      -0.09683506      -0.49288424
O       -1.30911327      -1.15979037       0.26721124
H        1.71981616      -0.94121472       0.40441252
H        1.66060466       1.43610059      -1.05595012
H        1.43776790       0.56280098       1.33341643
H       -1.43657922      -0.24671261      -1.56821135
H       -1.78569388       0.80442372      -0.22593540
H       -0.95985052      -0.88307341       0.45453377
12
Properties=species:S:1:pos:R:3 relative_energy_eV=3.904742281918516 branch=right pbc="F F F"
O       -0.00277393      -0.89198587       1.51847634
C        0.93734447      -0.24394338       0.75875900
C        0.23183403       0.35135205      -0.41649635
O        0.72871295       1.22921100      -1.24471541
C       -1.21315044      -0.09533483      -0.49150615
O       -1.30786834      -1.15699597       0.27153807
H        1.72199718      -0.94163397       0.40696786
H        1.66051961       1.43711928      -1.05758682
H        1.43101291       0.56150042       1.33445745
H       -1.43575137      -0.24793982      -1.56622883
H       -1.78585551       0.80609427      -0.22782851
H       -0.95534680      -0.88103897       0.45886416
12
Properties=species:S:1:pos:R:3 relative_energy_eV=4.072762963180139 branch=right pbc="F F F"
O       -0.05191938      -0.93765623       1.44681941
C        0.92351843      -0.26069998       0.71568168
C        0.25121255       0.31532726      -0.46132868
O        0.73444221       1.26012648      -1.24694835
C       -1.20325182      -0.07055367      -0.46947244
O       -1.27443112      -1.12509484       0.31753503
H        1.73686809      -0.95604698       0.43559823
H        1.66852828       1.44012160      -1.05761412
H        1.34758195       0.55658815       1.31761612
H       -1.41539898      -0.25557314      -1.54064202
H       -1.82371598       0.81423072      -0.23480862
H       -0.88275965      -0.85436525       0.52226463
12
Properties=species:S:1:pos:R:3 relative_energy_eV=3.888200813022195 branch=right pbc="F F F"
O       -0.00907937      -0.89720135       1.50854675
C        0.93493110      -0.24670319       0.74951523
C        0.23535495       0.34884805      -0.42594478
O        0.72947857       1.23817035      -1.25059792
C       -1.20679444      -0.08898600      -0.48783517
O       -1.30161705      -1.15249018       0.27954842
H        1.72481806      -0.94434404       0.41481930
H        1.66095335       1.43452560      -1.05400417
H        1.41665340       0.55649713       1.33215777
H       -1.43380767      -0.25181719      -1.56215395
H       -1.79490013       0.80735739      -0.22644782
H       -0.94531606      -0.87745239       0.46709715
12
Properties=species:S:1:pos:R:3 relative_energy_eV=3.8788706980394636 branch=right pbc="F F F"
O       -0.01434820      -0.89953097       1.50152082
C        0.93367577      -0.24851532       0.74362811
C        0.23800124       0.34661907      -0.43282905
O        0.73102092       1.24307134      -1.25303192
C       -1.20433895      -0.08459626      -0.48529868
O       -1.29558912      -1.14890291       0.28383900
H        1.72608240      -0.94716678       0.41937428
H        1.66216053       1.43265800      -1.05072567
H        1.40754183       0.55473538       1.32904856
H       -1.43198074      -0.25397581      -1.55919363
H       -1.80338928       0.80713223      -0.22443751
H       -0.93816172      -0.87512383       0.47280646
12
Properties=species:S:1:pos:R:3 relative_energy_eV=3.880697388338376 branch=right pbc="F F F"
O       -0.03053406      -0.90372083       1.47780402
C        0.93223193      -0.25303936       0.72467782
C        0.24579971       0.33980171      -0.45355793
O        0.73687082       1.25954938      -1.26159015
C       -1.19774321      -0.07066599      -0.47752710
O       -1.27761468      -1.13957513       0.29601310
H        1.73179908      -0.95759068       0.43452474
H        1.66608557       1.42671344      -1.04028848
H        1.38154036       0.54880890       1.32343773
H       -1.42906205      -0.26346244      -1.55080313
H       -1.83098816       0.80717200      -0.21689824
H       -0.91771065      -0.86758695       0.48890842
12
Properties=species:S:1:pos:R:3 relative_energy_eV=3.86969153044447 branch=right pbc="F F F"
O       -0.02148953      -0.89721481       1.49252918
C        0.93363730      -0.25027933       0.73514829
C        0.24203923       0.34461689      -0.44360476
O        0.73547235       1.25096506      -1.25791928
C       -1.20130361      -0.07708819      -0.48188782
O       -1.28614070      -1.14561928       0.28615484
H        1.72792434      -0.95351017       0.42652684
H        1.66479892       1.42791402      -1.04245515
H        1.39766880       0.55212004       1.32481090
H       -1.43160817      -0.25945567      -1.55557861
H       -1.82147368       0.80533423      -0.21742494
H       -0.92885058      -0.87137871       0.47840130
12
Properties=species:S:1:pos:R:3 relative_energy_eV=3.8678135615064093 branch=right pbc="F F F"
O       -0.02247787      -0.89365177       1.49268198
C        0.93407689      -0.25027685       0.73416891
C        0.24221147       0.34473232      -0.44556822
O        0.73736568       1.25163157      -1.25859198
C       -1.20190251      -0.07536890      -0.48181555
O       -1.28349250      -1.14599680       0.28409636
H        1.72752677      -0.95561639       0.42736029
H        1.66633250       1.42617824      -1.03893824
H        1.39843300       0.55249323       1.32303597
H       -1.43226484      -0.26057638      -1.55508022
H       -1.82747069       0.80331899      -0.21408337
H       -0.92766320      -0.87046320       0.47743486
12
Properties=species:S:1:pos:R:3 relative_energy_eV=3.8628078807942074 branch=right pbc="F F F"
O       -0.02751004      -0.87586555       1.49214955
C        0.93772890      -0.24930393       0.72848697
C        0.24190920       0.34546832      -0.45489315
O        0.74699073       1.25560516      -1.26173627
C       -1.20575372      -0.06750411      -0.48232232
O       -1.27107791      -1.14855355       0.27454309
H        1.72751669      -0.96623489       0.43273132
H        1.67343331       1.41854904      -1.02313940
H        1.40329023       0.55287077       1.31853298
H       -1.43866487      -0.26783682      -1.55268393
H       -1.85460225       0.79417955      -0.19847013
H       -0.92258554      -0.86497006       0.47150205
12
Properties=species:S:1:pos:R:3 relative_energy_eV=3.8621286069337657 branch=right pbc="F F F"
O       -0.02822419      -0.87417927       1.49150134
C        0.93872551      -0.24890981       0.72846382
C        0.24202208       0.34532220      -0.45558332
O        0.74769924       1.25582253      -1.26116942
C       -1.20699244      -0.06729426      -0.48324502
O       -1.26981972      -1.14855970       0.27369622
H        1.72843896      -0.96692701       0.43353109
H        1.67422786       1.41885756      -1.02296768
H        1.40462231       0.55208531       1.32047304
H       -1.44198245      -0.26959205      -1.55263222
H       -1.85560836       0.79365246      -0.19770068
H       -0.92243406      -0.86387405       0.47033359
12
Properties=species:S:1:pos:R:3 relative_energy_eV=3.861037234930336 branch=right pbc="F F F"
O       -0.02988971      -0.87173987       1.48965806
C        0.94060022      -0.24798253       0.72936377
C        0.24274392       0.34422769      -0.45632293
O        0.74870639       1.25668972      -1.25936370
C       -1.20897429      -0.06771841      -0.48589026
O       -1.26805207      -1.14883424       0.27257305
H        1.73089965      -0.96702932       0.43545990
H        1.67577773       1.42112179      -1.02488485
H        1.40781179       0.54910331       1.32678549
H       -1.45233948      -0.27386119      -1.55298155
H       -1.85476335       0.79341751      -0.19791223
H       -0.92184605      -0.86099056       0.46821602
12
Properties=species:S:1:pos:R:3 relative_energy_eV=3.860692654770901 branch=right pbc="F F F"
O       -0.03073477      -0.87061922       1.48975196
C        0.94057174      -0.24745830       0.72979325
C        0.24297013       0.34402858      -0.45632156
O        0.74934710       1.25679134      -1.25860719
C       -1.20920048      -0.06835337      -0.48679522
O       -1.26708424      -1.14945223       0.27201850
H        1.73046331      -0.96670668       0.43593859
H        1.67677566       1.42191775      -1.02514167
H        1.40941170       0.54840730       1.32737787
H       -1.45606195      -0.27399695      -1.55307262
H       -1.85428273       0.79269792      -0.19820022
H       -0.92150070      -0.86085225       0.46795911
12
Properties=species:S:1:pos:R:3 relative_energy_eV=3.859963327191508 branch=right pbc="F F F"
O       -0.03330441      -0.86627128       1.49110843
C        0.93945685      -0.24589902       0.73042032
C        0.24329615       0.34439007      -0.45683564
O        0.75214689       1.25753150      -1.25740403
C       -1.20880811      -0.07010558      -0.48850704
O       -1.26378807      -1.15226711       0.26986246
H        1.72759958      -0.96637145       0.43737379
H        1.67979118       1.42300476      -1.02392615
H        1.41414075       0.54720271       1.32622329
H       -1.46535828      -0.27282634      -1.55316867
H       -1.85433984       0.78953284      -0.19811647
H       -0.92015794      -0.86151723       0.46767054
12
Properties=species:S:1:pos:R:3 relative_energy_eV=3.8596644736171584 branch=right pbc="F F F"
O       -0.03486392      -0.86300890       1.49271612
C        0.93826497      -0.24497554       0.73038390
C        0.24317358       0.34535646      -0.45748221
O        0.75413410       1.25815871      -1.25748925
C       -1.20815358      -0.07108295      -0.48884313
O       -1.26139179      -1.15441004       0.26827274
H        1.72483961      -0.96687914       0.43809214
H        1.68160126       1.42268475      -1.02171526
H        1.41677669       0.54736745       1.32346877
H       -1.46914830      -0.27100495      -1.55306474
H       -1.85519211       0.78698222      -0.19725667
H       -0.91936573      -0.86278422       0.46761844
12
Properties=species:S:1:pos:R:3 relative_energy_eV=3.8595323362605995 branch=right pbc="F F F"
O       -0.03573714      -0.86094160       1.49389758
C        0.93748791      -0.24458909       0.73019033
C        0.24301605       0.34621269      -0.45815424
O        0.75525387       1.25880667      -1.25807963
C       -1.20757154      -0.07151614      -0.48863832
O       -1.25991923      -1.15577177       0.26729889
H        1.72298838      -0.96782066       0.43843262
H        1.68228506       1.42198197      -1.01982654
H        1.41778574       0.54800484       1.32120709
H       -1.47020487      -0.26973779      -1.55296868
H       -1.85580954       0.78550492      -0.19618991
H       -0.91889990      -0.86373021       0.46753166
12
Properties=species:S:1:pos:R:3 relative_energy_eV=3.8594685517728067 branch=right pbc="F F F"
O       -0.03615631      -0.86000767       1.49447125
C        0.93723330      -0.24453565       0.73013074
C        0.24300671       0.34653639      -0.45858186
O        0.75548121       1.25925627      -1.25849649
C       -1.20728193      -0.07169877      -0.48849332
O       -1.25921233      -1.15636268       0.26686929
H        1.72210159      -0.96869897       0.43852620
H        1.68228709       1.42159749      -1.01892380
H        1.41779531       0.54864895       1.32016409
H       -1.47026313      -0.26924820      -1.55296268
H       -1.85562811       0.78507316      -0.19539620
H       -0.91868859      -0.86415651       0.46739363
12
Properties=species:S:1:pos:R:3 relative_energy_eV=3.8593657604615146 branch=right pbc="F F F"
O       -0.03683654      -0.85868694       1.49516174
C        0.93709756      -0.24454808       0.73019874
C        0.24319004       0.34656032      -0.45926968
O        0.75542322       1.26000793      -1.25887128
C       -1.20689609      -0.07199989      -0.48852632
O       -1.25817628      -1.15714954       0.26621909
H        1.72092186      -0.97029783       0.43870278
H        1.68197432       1.42135808      -1.01802448
H        1.41742018       0.54973638       1.31916036
H       -1.47064452      -0.26893154      -1.55305841
H       -1.85448152       0.78488087      -0.19405576
H       -0.91831746      -0.86452597       0.46706408
12
Properties=species:S:1:pos:R:3 relative_energy_eV=3.859247151440286 branch=right pbc="F F F"
O       -0.03771297      -0.85714368       1.49578644
C        0.93713109      -0.24458912       0.73041110
C        0.24364322       0.34592159      -0.46012725
O        0.75493816       1.26088406      -1.25882208
C       -1.20646448      -0.07242251      -0.48894589
O       -1.25692665      -1.15798933       0.26538024
H        1.71962321      -0.97229736       0.43908310
H        1.68141149       1.42161669      -1.01755540
H        1.41671774       0.55098854       1.31854712
H       -1.47174122      -0.26894985      -1.55326041
H       -1.85213787       0.78508366      -0.19239973
H       -0.91780690      -0.86469896       0.46660361
12
Properties=species:S:1:pos:R:3 relative_energy_eV=3.859137974346595 branch=right pbc="F F F"
O       -0.03860952      -0.85563997       1.49619240
C        0.93727697      -0.24463899       0.73066007
C        0.24433945       0.34448381      -0.46110851
O        0.75408992       1.26170374      -1.25816892
C       -1.20600326      -0.07286461      -0.48971981
O       -1.25571106      -1.15871425       0.26446384
H        1.71846960      -0.97418277       0.43980617
H        1.68070585       1.42249541      -1.01772873
H        1.41582758       0.55200505       1.31841124
H       -1.47351261      -0.26931060      -1.55350010
H       -1.84895141       0.78568563      -0.19074767
H       -0.91724669      -0.86461878       0.46614083
12
Properties=species:S:1:pos:R:3 relative_energy_eV=3.859054661294067 branch=right pbc="F F F"
O       -0.03920075      -0.85467217       1.49630030
C        0.93737527      -0.24470336       0.73074581
C        0.24504241       0.34270982      -0.46203562
O        0.75321264       1.26223110      -1.25719720
C       -1.20562326      -0.07313777      -0.49045165
O       -1.25496920      -1.15909052       0.26379068
H        1.71785794      -0.97521930       0.44078641
H        1.68012441       1.42364631      -1.01834671
H        1.41508083       0.55238113       1.31849933
H       -1.47512676      -0.26972731      -1.55362775
H       -1.84620938       0.78641072      -0.18963533
H       -0.91688933      -0.86442501       0.46587254
12
Properties=species:S:1:pos:R:3 relative_energy_eV=3.858976642573907 branch=right pbc="F F F"
O       -0.03964363      -0.85399178       1.49628867
C        0.93735921      -0.24483383       0.73063608
C        0.24580120       0.34062913      -0.46319306
O        0.75235283       1.26272402      -1.25611941
C       -1.20525605      -0.07328351      -0.49101420
O       -1.25454238      -1.15929775       0.26327957
H        1.71762756      -0.97572565       0.44215717
H        1.67958941       1.42493724      -1.01908569
H        1.41442328       0.55235757       1.31840352
H       -1.47643644      -0.27002249      -1.55362315
H       -1.84387314       0.78718289      -0.18876137
H       -0.91672704      -0.86427227       0.46573271
12
Properties=species:S:1:pos:R:3 relative_energy_eV=3.8588709832911263 branch=right pbc="F F F"
O       -0.04025906      -0.85320191       1.49629157
C        0.93720447      -0.24515476       0.73031720
C        0.24695402       0.33751798      -0.46524854
O        0.75121421       1.26362179      -1.25476901
C       -1.20476097      -0.07342139      -0.49150052
O       -1.25419002      -1.15955452       0.26273373
H        1.71763399      -0.97618947       0.44450830
H        1.67884177       1.42672575      -1.01993799
H        1.41358793       0.55220426       1.31777021
H       -1.47777760      -0.27013648      -1.55347972
H       -1.84104814       0.78824062      -0.18758777
H       -0.91672578      -0.86424836       0.46560338
12
Properties=species:S:1:pos:R:3 relative_energy_eV=3.858694371472666 branch=right pbc="F F F"
O       -0.04146987      -0.85195996       1.49640150
C        0.93687468      -0.24591922       0.72972646
C        0.24906972       0.33210242      -0.46932968
O        0.74935129       1.26559823      -1.25283529
C       -1.20398937      -0.07368928      -0.49197504
O       -1.25380044      -1.16007015       0.26202815
H        1.71797436      -0.97708076       0.44891951
H        1.67751242       1.42964937      -1.02099026
H        1.41224249       0.55218779       1.31603211
H       -1.47953759      -0.26990958      -1.55313162
H       -1.83659388       0.78999007      -0.18551845
H       -0.91695899      -0.86449555       0.46537349
12
Properties=species:S:1:pos:R:3 relative_energy_eV=3.8584177877655748 branch=right pbc="F F F"
O       -0.04370427      -0.85014821       1.49666340
C        0.93642044      -0.24745310       0.72888665
C        0.25273235       0.32322868      -0.47656311
O        0.74635225       1.26940356      -1.25012299
C       -1.20288874      -0.07426337      -0.49243521
O       -1.25343686      -1.16099221       0.26125508
H        1.71892774      -0.97893536       0.45639069
H        1.67524505       1.43425137      -1.02223371
H        1.41009451       0.55279439       1.31258685
H       -1.48199303      -0.26906396      -1.55251563
H       -1.82952016       0.79278827      -0.18214891
H       -0.91755443      -0.86520683       0.46493782
12
Properties=species:S:1:pos:R:3 relative_energy_eV=3.8580869594879914 branch=right pbc="F F F"
O       -0.04687176      -0.84830455       1.49692097
C        0.93609908      -0.24984641       0.72802622
C        0.25792352       0.31128454      -0.48670301
O        0.74223933       1.27503922      -1.24675764
C       -1.20162471      -0.07522452      -0.49285278
O       -1.25344137      -1.16211719       0.26088807
H        1.72074443      -0.98194202       0.46652157
H        1.67203871       1.44031260      -1.02357023
H        1.40711186       0.55452895       1.30759612
H       -1.48505898      -0.26748262      -1.55168048
H       -1.81996424       0.79653851      -0.17798932
H       -0.91852104      -0.86638354       0.46430153
12
Properties=species:S:1:pos:R:3 relative_energy_eV=3.857784385656487 branch=right pbc="F F F"
O       -0.04975665      -0.84762099       1.49679688
C        0.93624925      -0.25245467       0.72746531
C        0.26319071       0.29978238      -0.49659983
O        0.73808438       1.28073175      -1.24346824
C       -1.20060872      -0.07628990      -0.49317049
O       -1.25423581      -1.16273193       0.26154157
H        1.72315580      -0.98520383       0.47619614
H        1.66876297       1.44607301      -1.02473519
H        1.40393628       0.55715336       1.30272962
H       -1.48794017      -0.26561793      -1.55085365
H       -1.81060825       0.80015992      -0.17490851
H       -0.91955496      -0.86757845       0.46370746
12
Properties=species:S:1:pos:R:3 relative_energy_eV=3.8574690479817946 branch=right pbc="F F F"
O       -0.05149006      -0.84835619       1.49614158
C        0.93695877      -0.25469662       0.72718686
C        0.26755351       0.29077398      -0.50426466
O        0.73469374       1.28529658      -1.24055079
C       -1.19993602      -0.07718890      -0.49346329
O       -1.25579475      -1.16248441       0.26318038
H        1.72571528      -0.98806917       0.48363257
H        1.66609432       1.45045327      -1.02544450
H        1.40105480       0.56015110       1.29896691
H       -1.49052971      -0.26396479      -1.55015171
H       -1.80330004       0.80288786      -0.17380572
H       -0.92034503      -0.86840014       0.46327352
12
Properties=species:S:1:pos:R:3 relative_energy_eV=3.857097158113902 branch=right pbc="F F F"
O       -0.05222022      -0.85005349       1.49490250
C        0.93831247      -0.25680987       0.72685436
C        0.27184816       0.28218647      -0.51124575
O        0.73152505       1.28964867      -1.23708380
C       -1.19922506      -0.07802985      -0.49404973
O       -1.25803456      -1.16136780       0.26565098
H        1.72853232      -0.99122912       0.49052235
H        1.66366417       1.45435023      -1.02554829
H        1.39785811       0.56389743       1.29544213
H       -1.49417741      -0.26253493      -1.54942359
H       -1.79661812       0.80517317      -0.17419001
H       -0.92079012      -0.86882850       0.46287005
12
Properties=species:S:1:pos:R:3 relative_energy_eV=3.8566304033229244 branch=right pbc="F F F"
O       -0.05168304      -0.85228881       1.49319315
C        0.94010695      -0.25866384       0.72608666
C        0.27601304       0.27374104      -0.51768139
O        0.72858950       1.29370431      -1.23266441
C       -1.19821421      -0.07873997      -0.49507996
O       -1.26058916      -1.15938123       0.26857612
H        1.73119990      -0.99453572       0.49708623
H        1.66151535       1.45783003      -1.02483906
H        1.39412080       0.56800608       1.29189034
H       -1.49927382      -0.26165946      -1.54862619
H       -1.79036113       0.80716439      -0.17582581
H       -0.92074942      -0.86877453       0.46258558
12
Properties=species:S:1:pos:R:3 relative_energy_eV=3.8561271058861166 branch=right pbc="F F F"
O       -0.04984113      -0.85463912       1.49128921
C        0.94184556      -0.26013671       0.72456205
C        0.27970066       0.26576425      -0.52347167
O        0.72599862       1.29716211      -1.22738086
C       -1.19682180      -0.07919968      -0.49640331
O       -1.26296232      -1.15678222       0.27150633
H        1.73329260      -0.99735427       0.50309537
H        1.65969600       1.46076316      -1.02329480
H        1.38980744       0.57163089       1.28821202
H       -1.50520947      -0.26171071      -1.54774967
H       -1.78454643       0.80916126      -0.17826690
H       -0.92028498      -0.86825680       0.46260351
12
Properties=species:S:1:pos:R:3 relative_energy_eV=3.8556631642186403 branch=right pbc="F F F"
O       -0.04757504      -0.85637009       1.48972662
C        0.94286379      -0.26129904       0.72234516
C        0.28267246       0.25848858      -0.52885657
O        0.72374707       1.30003659      -1.22197881
C       -1.19528092      -0.07942046      -0.49760030
O       -1.26452057      -1.15440656       0.27378344
H        1.73460210      -0.99907830       0.50839920
H        1.65811537       1.46324367      -1.02130033
H        1.38529916       0.57390290       1.28437810
H       -1.51056320      -0.26277878      -1.54683536
H       -1.77889821       0.81164903      -0.18032633
H       -0.91978730      -0.86756545       0.46296650
12
Properties=species:S:1:pos:R:3 relative_energy_eV=3.855259601581565 branch=right pbc="F F F"
O       -0.04535592      -0.85775823       1.48865972
C        0.94302172      -0.26203278       0.71998769
C        0.28417173       0.25391307      -0.53259450
O        0.72242291       1.30170647      -1.21775302
C       -1.19429157      -0.07941704      -0.49812878
O       -1.26537394      -1.15263704       0.27554834
H        1.73529133      -0.99902113       0.51131017
H        1.65714930       1.46443795      -1.01896570
H        1.38159507       0.57458552       1.28110061
H       -1.51352764      -0.26469681      -1.54601069
H       -1.77477082       0.81425475      -0.18215728
H       -0.91965749      -0.86693273       0.46370478
12
Properties=species:S:1:pos:R:3 relative_energy_eV=3.8549190004177945 branch=right pbc="F F F"
O       -0.04477297      -0.85834145       1.48750514
C        0.94297149      -0.26418613       0.71679058
C        0.28840974       0.24257876      -0.54232267
O        0.71898784       1.30698613      -1.21117573
C       -1.19289699      -0.07998370      -0.49883232
O       -1.26628195      -1.15138238       0.27758850
H        1.73729075      -1.00028706       0.51902345
H        1.65455978       1.46861377      -1.01612100
H        1.37575081       0.57637860       1.27470473
H       -1.51854127      -0.26717531      -1.54459472
H       -1.76465612       0.81981583      -0.18216236
H       -0.92014646      -0.86661524       0.46429778
12
Properties=species:S:1:pos:R:3 relative_energy_eV=3.854690201993435 branch=right pbc="F F F"
O       -0.03967602      -0.86197385       1.48604881
C        0.94181697      -0.26346828       0.71292177
C        0.28480988       0.24746239      -0.54008406
O        0.72165804       1.30492260      -1.20828913
C       -1.19421438      -0.07934098      -0.49748055
O       -1.26745021      -1.14888025       0.28124659
H        1.73761156      -0.99407286       0.51183828
H        1.65652243       1.46374166      -1.00841464
H        1.37335419       0.57430997       1.27200939
H       -1.51625989      -0.27406516      -1.54349169
H       -1.76638799       0.82298807      -0.18849654
H       -0.92110999      -0.86522135       0.46689313
12
Properties=species:S:1:pos:R:3 relative_energy_eV=3.8540271278488945 branch=right pbc="F F F"
O       -0.04177990      -0.86127047       1.48592281
C        0.94221991      -0.26450449       0.71332471
C        0.28705788       0.24263713      -0.54413781
O        0.72035184       1.30793693      -1.20727754
C       -1.19430359      -0.08007456      -0.49779691
O       -1.26804695      -1.14943350       0.28153599
H        1.73909225      -0.99591901       0.51488586
H        1.65559569       1.46595874      -1.00813408
H        1.37297140       0.57630408       1.27033408
H       -1.51824218      -0.27384623      -1.54319479
H       -1.76259421       0.82426835      -0.18710273
H       -0.92164757      -0.86565514       0.46634178
12
Properties=species:S:1:pos:R:3 relative_energy_eV=3.8533007597416145 branch=right pbc="F F F"
O       -0.04300766      -0.86168798       1.48479832
C        0.94270643      -0.26558999       0.71237716
C        0.28893928       0.23725429      -0.54950086
O        0.72020578       1.31220150      -1.20404322
C       -1.19543546      -0.08125321      -0.49795362
O       -1.27017646      -1.14896563       0.28415901
H        1.74195365      -0.99619564       0.51508203
H        1.65565734       1.46674329      -1.00230200
H        1.37203794       0.57961079       1.26605569
H       -1.52145272      -0.27750823      -1.54208675
H       -1.75770229       0.82738238      -0.18843613
H       -0.92305126      -0.86558984       0.46655178
12
Properties=species:S:1:pos:R:3 relative_energy_eV=3.85292784162084 branch=right pbc="F F F"
O       -0.04248055      -0.86234425       1.48375991
C        0.94282676      -0.26526883       0.71126313
C        0.28802580       0.23766945      -0.55003322
O        0.72233266       1.31345596      -1.20232592
C       -1.19690377      -0.08190049      -0.49792604
O       -1.27212351      -1.14797368       0.28659211
H        1.74341571      -0.99432180       0.51018189
H        1.65736946       1.46453628      -0.99518835
H        1.37271500       0.58125138       1.26374986
H       -1.52287403      -0.28238238      -1.54124544
H       -1.75753713       0.82867034      -0.19139815
H       -0.92409186      -0.86499019       0.46727161
12
Properties=species:S:1:pos:R:3 relative_energy_eV=3.8527508004553965 branch=right pbc="F F F"
O       -0.04112485      -0.86315953       1.48266852
C        0.94287503      -0.26510136       0.70951485
C        0.28779093       0.23662129      -0.55145078
O        0.72354238       1.31441651      -1.19961465
C       -1.19738870      -0.08234845      -0.49823731
O       -1.27405841      -1.14637209       0.28904307
H        1.74425449      -0.99272076       0.50720109
H        1.65819646       1.46340972      -0.98905612
H        1.37211741       0.58244888       1.26102907
H       -1.52461452      -0.28650939      -1.54034755
H       -1.75616431       0.83003837      -0.19417280
H       -0.92475141      -0.86432142       0.46812400
12
Properties=species:S:1:pos:R:3 relative_energy_eV=3.8526480177442863 branch=right pbc="F F F"
O       -0.04038864      -0.86319890       1.48210904
C        0.94280222      -0.26469203       0.70862727
C        0.28746240       0.23678584      -0.55152949
O        0.72437971       1.31416462      -1.19876552
C       -1.19734492      -0.08248033      -0.49856235
O       -1.27512506      -1.14529102       0.29024427
H        1.74408929      -0.99180374       0.50499725
H        1.65860007       1.46288975      -0.98598264
H        1.37230623       0.58253022       1.26035637
H       -1.52507281      -0.28851453      -1.54000785
H       -1.75612105       0.82987657      -0.19535158
H       -0.92491296      -0.86386464       0.46856663
12
Properties=species:S:1:pos:R:3 relative_energy_eV=3.8525552373939718 branch=right pbc="F F F"
O       -0.04000692      -0.86294952       1.48151356
C        0.94272689      -0.26455667       0.70759789
C        0.28800887       0.23522671      -0.55293447
O        0.72445701       1.31422997      -1.19770206
C       -1.19680458      -0.08273136      -0.49907790
O       -1.27639040      -1.14399938       0.29169795
H        1.74375762      -0.99145328       0.50413993
H        1.65814433       1.46375055      -0.98335674
H        1.37207682       0.58254704       1.25943807
H       -1.52557170      -0.29002008      -1.53970746
H       -1.75462159       0.82980471      -0.19584991
H       -0.92510193      -0.86344689       0.46894254
12
Properties=species:S:1:pos:R:3 relative_energy_eV=3.852466373469724 branch=right pbc="F F F"
O       -0.04034378      -0.86207800       1.48125872
C        0.94262224      -0.26438762       0.70709794
C        0.28863353       0.23408088      -0.55397832
O        0.72435633       1.31389714      -1.19797575
C       -1.19623238      -0.08296380      -0.49946672
O       -1.27711982      -1.14319171       0.29266684
H        1.74300435      -0.99171203       0.50366971
H        1.65735639       1.46524951      -0.98199936
H        1.37250697       0.58202776       1.25949102
H       -1.52520282      -0.29046087      -1.53981093
H       -1.75367651       0.82908794      -0.19533413
H       -0.92523009      -0.86314744       0.46908239
12
Properties=species:S:1:pos:R:3 relative_energy_eV=3.8523904196190415 branch=right pbc="F F F"
O       -0.04087258      -0.86121790       1.48114758
C        0.94263641      -0.26454433       0.70667727
C        0.28963460       0.23220563      -0.55566568
O        0.72387897       1.31390540      -1.19841202
C       -1.19577620      -0.08332380      -0.49970566
O       -1.27764017      -1.14265114       0.29369372
H        1.74241279      -0.99251704       0.50416110
H        1.65611287       1.46748416      -0.98097837
H        1.37274617       0.58157901       1.25929405
H       -1.52476173      -0.29045967      -1.54006820
H       -1.75219780       0.82884909      -0.19466997
H       -0.92549894      -0.86290767       0.46922758
12
Properties=species:S:1:pos:R:3 relative_energy_eV=3.8523171075012215 branch=right pbc="F F F"
O       -0.04135568      -0.86022846       1.48128869
C        0.94274877      -0.26470066       0.70645765
C        0.29030365       0.23116416      -0.55674434
O        0.72368097       1.31353598      -1.19969967
C       -1.19566775      -0.08370968      -0.49975268
O       -1.27779432      -1.14238261       0.29461319
H        1.74168634      -0.99363740       0.50427713
H        1.65488660       1.46982280      -0.97981145
H        1.37353563       0.58087683       1.25940562
H       -1.52389515      -0.29027751      -1.54058471
H       -1.75164137       0.82852078      -0.19423455
H       -0.92581327      -0.86258253       0.46948651
12
Properties=species:S:1:pos:R:3 relative_energy_eV=3.852205805693302 branch=right pbc="F F F"
O       -0.04139745      -0.85921733       1.48152019
C        0.94310874      -0.26517076       0.70586919
C        0.29111344       0.22956905      -0.55843583
O        0.72358961       1.31311975      -1.20114735
C       -1.19581255      -0.08432527      -0.49976972
O       -1.27811812      -1.14182862       0.29626987
H        1.74095705      -0.99536816       0.50430348
H        1.65309230       1.47328603      -0.97691404
H        1.37451099       0.58011820       1.25877686
H       -1.52315012      -0.29065108      -1.54121446
H       -1.75085799       0.82876307      -0.19477801
H       -0.92636150      -0.86189323       0.47022120
12
Properties=species:S:1:pos:R:3 relative_energy_eV=3.8520358178484457 branch=right pbc="F F F"
O       -0.04079648      -0.85781708       1.48209085
C        0.94375361      -0.26580091       0.70496866
C        0.29147502       0.22864315      -0.55973034
O        0.72419685       1.31185895      -1.20351000
C       -1.19637531      -0.08509372      -0.49979099
O       -1.27845942      -1.14090628       0.29852857
H        1.73984511      -0.99786159       0.50306584
H        1.65084274       1.47788473      -0.97133258
H        1.37659223       0.57892628       1.25764974
H       -1.52227630      -0.29194607      -1.54201513
H       -1.75108024       0.82910056      -0.19685010
H       -0.92704348      -0.86058643       0.47162686
12
Properties=species:S:1:pos:R:3 relative_energy_eV=3.8518352056307776 branch=right pbc="F F F"
O       -0.03937125      -0.85624416       1.48285532
C        0.94472226      -0.26690157       0.70339731
C        0.29173954       0.22724740      -0.56145501
O        0.72523118       1.31024959      -1.20551230
C       -1.19706041      -0.08596332      -0.50003828
O       -1.27920018      -1.13927952       0.30149127
H        1.73874617      -1.00111472       0.50120907
H        1.64783616       1.48387612      -0.96243999
H        1.37917927       0.57774940       1.25491248
H       -1.52226020      -0.29478990      -1.54248650
H       -1.75109017       0.83019104      -0.20097230
H       -0.92779811      -0.85861884       0.47374025
12
Properties=species:S:1:pos:R:3 relative_energy_eV=3.8516143872875546 branch=right pbc="F F F"
O       -0.03791134      -0.85411269       1.48400302
C        0.94569990      -0.26806124       0.70190093
C        0.29135395       0.22706456      -0.56190988
O        0.72679506       1.30781016      -1.20764740
C       -1.19761093      -0.08652947      -0.50049513
O       -1.27977194      -1.13756459       0.30373361
H        1.73742066      -1.00462202       0.49846080
H        1.64470015       1.48987459      -0.95249954
H        1.38279025       0.57635486       1.25174124
H       -1.52260645      -0.29834818      -1.54251133
H       -1.75197102       0.83098589      -0.20593212
H       -0.92821408      -0.85645042       0.47585708
12
Properties=species:S:1:pos:R:3 relative_energy_eV=3.8513804206468194 branch=right pbc="F F F"
O       -0.03703435      -0.85164677       1.48515028
C        0.94660003      -0.26962365       0.70034599
C        0.29137060       0.22597900      -0.56271627
O        0.72779196       1.30568939      -1.20862251
C       -1.19746998      -0.08683598      -0.50125230
O       -1.28052517      -1.13577084       0.30537772
H        1.73640093      -1.00835865       0.49684585
H        1.64088284       1.49631098      -0.94279332
H        1.38624637       0.57520682       1.24745932
H       -1.52383340      -0.30225214      -1.54178932
H       -1.75139710       0.83217714      -0.21083578
H       -0.92835860      -0.85447391       0.47753159
12
Properties=species:S:1:pos:R:3 relative_energy_eV=3.8511689160495735 branch=right pbc="F F F"
O       -0.03760600      -0.84829998       1.48639751
C        0.94719947      -0.27104390       0.69943528
C        0.29140062       0.22563485      -0.56254095
O        0.72827685       1.30340414      -1.21002720
C       -1.19674785      -0.08680791      -0.50205473
O       -1.28082749      -1.13458073       0.30578000
H        1.73514981      -1.01210313       0.49591823
H        1.63696132       1.50233521      -0.93527533
H        1.39037289       0.57370311       1.24379495
H       -1.52452566      -0.30531957      -1.54086004
H       -1.75080369       0.83255904      -0.21408857
H       -0.92817618      -0.85307980       0.47822208
12
Properties=species:S:1:pos:R:3 relative_energy_eV=3.8510205992370174 branch=right pbc="F F F"
O       -0.03914125      -0.84540832       1.48700379
C        0.94760095      -0.27252316       0.69869493
C        0.29251742       0.22351695      -0.56379848
O        0.72746534       1.30265533      -1.21029537
C       -1.19556331      -0.08684069      -0.50275794
O       -1.28130374      -1.13374697       0.30620067
H        1.73449280      -1.01535433       0.49737863
H        1.63296951       1.50783616      -0.93065168
H        1.39310809       0.57266318       1.24022922
H       -1.52520021      -0.30731001      -1.53995862
H       -1.74816524       0.83337004      -0.21544481
H       -0.92810628      -0.85245696       0.47810086
12
Properties=species:S:1:pos:R:3 relative_energy_eV=3.850952905126178 branch=right pbc="F F F"
O       -0.04070087      -0.84309330       1.48737533
C        0.94775637      -0.27312333       0.69857961
C        0.29312588       0.22301082      -0.56404929
O        0.72688714       1.30211521      -1.21144282
C       -1.19497065      -0.08692614      -0.50304569
O       -1.28121995      -1.13361202       0.30632164
H        1.73362920      -1.01746020       0.49825476
H        1.63067521       1.51092557      -0.92864358
H        1.39557103       0.57159709       1.23881639
H       -1.52466370      -0.30792825      -1.53992186
H       -1.74732470       0.83319900      -0.21520319
H       -0.92809093      -0.85230327       0.47765989
12
Properties=species:S:1:pos:R:3 relative_energy_eV=3.8509244357410353 branch=right pbc="F F F"
O       -0.04136630      -0.84254101       1.48722740
C        0.94784986      -0.27346451       0.69846230
C        0.29383564       0.22192036      -0.56497386
O        0.72615181       1.30275584      -1.21118241
C       -1.19472610      -0.08710817      -0.50313750
O       -1.28139346      -1.13351125       0.30677571
H        1.73348968      -1.01826974       0.49967916
H        1.62950868       1.51207623      -0.92848984
H        1.39612199       0.57139925       1.23791550
H       -1.52447159      -0.30802302      -1.54013069
H       -1.74614009       0.83359146      -0.21478408
H       -0.92818609      -0.85242429       0.47733950
12
Properties=species:S:1:pos:R:3 relative_energy_eV=3.850901002080718 branch=right pbc="F F F"
O       -0.04159152      -0.84178774       1.48733591
C        0.94797188      -0.27353353       0.69833005
C        0.29392285       0.22195533      -0.56511334
O        0.72594928       1.30284014      -1.21158747
C       -1.19485624      -0.08732890      -0.50322985
O       -1.28141380      -1.13333453       0.30729647
H        1.73286191      -1.01915935       0.49984457
H        1.62877480       1.51298541      -0.92730225
H        1.39750632       0.57094939       1.23729862
H       -1.52389668      -0.30844474      -1.54064054
H       -1.74630210       0.83350746      -0.21487390
H       -0.92825267      -0.85224780       0.47734293
12
Properties=species:S:1:pos:R:3 relative_energy_eV=3.850867662289602 branch=right pbc="F F F"
O       -0.04146624      -0.84137733       1.48746593
C        0.94809310      -0.27350518       0.69822185
C        0.29375514       0.22229560      -0.56503165
O        0.72574295       1.30329247      -1.21140154
C       -1.19514074      -0.08753485      -0.50337778
O       -1.28147858      -1.13305835       0.30780664
H        1.73216221      -1.01992536       0.49997546
H        1.62823142       1.51323113      -0.92637918
H        1.39904726       0.57059965       1.23659368
H       -1.52328388      -0.30906977      -1.54133632
H       -1.74678644       0.83346040      -0.21527259
H       -0.92820217      -0.85200728       0.47743668
12
Properties=species:S:1:pos:R:3 relative_energy_eV=3.8508358040890016 branch=right pbc="F F F"
O       -0.04107555      -0.84064254       1.48785433
C        0.94829142      -0.27357789       0.69787285
C        0.29339427       0.22265038      -0.56495354
O        0.72546000       1.30379089      -1.21085144
C       -1.19545500      -0.08779535      -0.50373674
O       -1.28172333      -1.13242445       0.30855202
H        1.73108369      -1.02122102       0.49967110
H        1.62742820       1.51399212      -0.92416329
H        1.40142395       0.57008128       1.23520493
H       -1.52264315      -0.31051206      -1.54206982
H       -1.74740133       0.83343068      -0.21655131
H       -0.92810913      -0.85137093       0.47787207
12
Properties=species:S:1:pos:R:3 relative_energy_eV=3.850798680610751 branch=right pbc="F F F"
O       -0.04082370      -0.83997416       1.48840349
C        0.94836379      -0.27352118       0.69783017
C        0.29275006       0.22364229      -0.56420549
O        0.72515570       1.30437224      -1.21004124
C       -1.19566091      -0.08787636      -0.50408505
O       -1.28173138      -1.13202963       0.30865398
H        1.73000607      -1.02220727       0.49905713
H        1.62713498       1.51394225      -0.92324954
H        1.40370013       0.56952136       1.23443726
H       -1.52187936      -0.31169249      -1.54263432
H       -1.74847517       0.83302724      -0.21769610
H       -0.92786615      -0.85080319       0.47823082
12
Properties=species:S:1:pos:R:3 relative_energy_eV=3.8507569934135972 branch=right pbc="F F F"
O       -0.04070289      -0.83896856       1.48910251
C        0.94847512      -0.27368023       0.69763570
C        0.29231766       0.22413918      -0.56383641
O        0.72440960       1.30540459      -1.20862017
C       -1.19564960      -0.08802783      -0.50454435
O       -1.28184811      -1.13149697       0.30891907
H        1.72882802      -1.02360206       0.49839006
H        1.62670777       1.51442745      -0.92216869
H        1.40608073       0.56880654       1.23334823
H       -1.52111758      -0.31327169      -1.54299074
H       -1.74909429       0.83268688      -0.21933661
H       -0.92773236      -0.85001624       0.47880249
12
Properties=species:S:1:pos:R:3 relative_energy_eV=3.8506925746642082 branch=right pbc="F F F"
O       -0.04096714      -0.83731314       1.49017964
C        0.94857164      -0.27387587       0.69767182
C        0.29174050       0.22533783      -0.56287627
O        0.72315095       1.30727209      -1.20647804
C       -1.19548005      -0.08820239      -0.50505876
O       -1.28165436      -1.13110295       0.30894553
H        1.72715098      -1.02548339       0.49723631
H        1.62655784       1.51457303      -0.92233872
H        1.40922027       0.56750605       1.23268825
H       -1.51965549      -0.31506498      -1.54337550
H       -1.75035141       0.83178624      -0.22138524
H       -0.92760964      -0.84903147       0.47949205
12
Properties=species:S:1:pos:R:3 relative_energy_eV=3.850593177236078 branch=right pbc="F F F"
O       -0.04161913      -0.83425938       1.49174448
C        0.94891477      -0.27459377       0.69739623
C        0.29155682       0.22624814      -0.56234009
O        0.72076796       1.31086075      -1.20280123
C       -1.19501097      -0.08875508      -0.50578663
O       -1.28150694      -1.13031992       0.30985898
H        1.72464857      -1.02900310       0.49559145
H        1.62593751       1.51592500      -0.92227850
H        1.41371162       0.56514160       1.23141632
H       -1.51734970      -0.31817100      -1.54378913
H       -1.75153981       0.83069731      -0.22508343
H       -0.92783660      -0.84736959       0.48077253
12
Properties=species:S:1:pos:R:3 relative_energy_eV=3.850458911525493 branch=right pbc="F F F"
O       -0.04266285      -0.83001406       1.49358293
C        0.94950142      -0.27568987       0.69701988
C        0.29169757       0.22755445      -0.56174301
O        0.71792253       1.31561334      -1.19854343
C       -1.19441817      -0.08962734      -0.50646349
O       -1.28118178      -1.12938893       0.31158824
H        1.72156433      -1.03368987       0.49332343
H        1.62506196       1.51805352      -0.92258986
H        1.41902608       0.56165756       1.23033074
H       -1.51414887      -0.32196241      -1.54431239
H       -1.75330425       0.82926502      -0.22984546
H       -0.92838386      -0.84537054       0.48235333
12
Properties=species:S:1:pos:R:3 relative_energy_eV=3.8503884976144036 branch=right pbc="F F F"
O       -0.04328725      -0.82661314       1.49467695
C        0.95017511      -0.27687574       0.69630331
C        0.29238402       0.22785828      -0.56211908
O        0.71609669       1.31915039      -1.19574595
C       -1.19402733      -0.09054623      -0.50681451
O       -1.28123577      -1.12834733       0.31403268
H        1.71947006      -1.03757638       0.49168121
H        1.62386928       1.52093682      -0.92163774
H        1.42242566       0.55876748       1.22919104
H       -1.51193325      -0.32513644      -1.54465143
H       -1.75419481       0.82866419      -0.23386533
H       -0.92906829      -0.84388113       0.48364972
12
Properties=species:S:1:pos:R:3 relative_energy_eV=3.8503515527791023 branch=right pbc="F F F"
O       -0.04333298      -0.82533163       1.49491529
C        0.95048994      -0.27737475       0.69590625
C        0.29272575       0.22811262      -0.56231389
O        0.71606463       1.31996924      -1.19544887
C       -1.19406567      -0.09095830      -0.50679520
O       -1.28133867      -1.12786343       0.31536644
H        1.71881476      -1.03897250       0.49095017
H        1.62336043       1.52246651      -0.92066506
H        1.42328267       0.55760535       1.22884376
H       -1.51129682      -0.32629967      -1.54480810
H       -1.75473731       0.82856776      -0.23527157
H       -0.92929263      -0.84352041       0.48402165
12
Properties=species:S:1:pos:R:3 relative_energy_eV=3.850341614912395 branch=right pbc="F F F"
O       -0.04314138      -0.82510938       1.49488035
C        0.95058497      -0.27755926       0.69564644
C        0.29285784       0.22804128      -0.56255940
O        0.71642369       1.31992896      -1.19564539
C       -1.19420349      -0.09109735      -0.50675929
O       -1.28157185      -1.12758526       0.31599296
H        1.71874479      -1.03931141       0.49082671
H        1.62321782       1.52324301      -0.91980699
H        1.42319995       0.55741417       1.22851679
H       -1.51141216      -0.32675475      -1.54483756
H       -1.75477250       0.82875935      -0.23560750
H       -0.92925359      -0.84356861       0.48405374
12
Properties=species:S:1:pos:R:3 relative_energy_eV=3.850333300348211 branch=right pbc="F F F"
O       -0.04299775      -0.82501438       1.49494270
C        0.95057739      -0.27760859       0.69557928
C        0.29274230       0.22837984      -0.56238824
O        0.71681701       1.31982522      -1.19582661
C       -1.19436558      -0.09111633      -0.50673347
O       -1.28174013      -1.12743751       0.31621049
H        1.71860787      -1.03947739       0.49064656
H        1.62338928       1.52357920      -0.91953628
H        1.42323413       0.55730557       1.22840732
H       -1.51142944      -0.32708283      -1.54488753
H       -1.75510630       0.82876045      -0.23569007
H       -0.92905470      -0.84371249       0.48397672
12
Properties=species:S:1:pos:R:3 relative_energy_eV=3.8503257097963797 branch=right pbc="F F F"
O       -0.04293801      -0.82495041       1.49507819
C        0.95052861      -0.27766545       0.69556457
C        0.29261351       0.22866739      -0.56219661
O        0.71693653       1.32002619      -1.19561090
C       -1.19444926      -0.09110474      -0.50675432
O       -1.28191981      -1.12730524       0.31630389
H        1.71839214      -1.03970436       0.49053002
H        1.62366681       1.52380983      -0.91968566
H        1.42337794       0.55720432       1.22826031
H       -1.51131657      -0.32749077      -1.54490548
H       -1.75535806       0.82871848      -0.23582502
H       -0.92885975      -0.84380450       0.48394188
