12
Properties=species:S:1:pos:R:3 relative_energy_eV=0.0 branch=left pbc="F F F"
O        0.39348398      -1.47317244       1.25059270
C        0.99949018      -0.34835933       0.63686028
C        0.11802097       0.28528830      -0.44288253
O        0.77696129       1.04610550      -1.41252092
C       -1.28787880       0.13466309      -0.50423742
O       -2.06584547      -0.49539744       0.25923862
H        1.92856255      -0.67898427       0.17594949
H        1.23874696       1.76404011      -0.96728225
H        1.25614026       0.41866844       1.37504615
H       -0.92181801       0.07500431      -0.40702738
H       -1.83122379       0.65859468      -1.33358037
H       -0.56946850      -1.31651339       1.27272391
12
Properties=species:S:1:pos:R:3 relative_energy_eV=1.161884210887365e-05 branch=left pbc="F F F"
O        0.39356587      -1.47296090       1.25060849
C        0.99951795      -0.34821428       0.63684325
C        0.11795075       0.28534367      -0.44283581
O        0.77670793       1.04623727      -1.41255316
C       -1.28798909       0.13452843      -0.50423140
O       -2.06591357      -0.49622545       0.25877476
H        1.92847373      -0.67909801       0.17589668
H        1.23936180       1.76368969      -0.96737244
H        1.25608416       0.41883795       1.37503142
H       -0.92194176       0.07513644      -0.40674250
H       -1.83123022       0.65905802      -1.33338270
H       -0.56941596      -1.31639527       1.27284369
12
Properties=species:S:1:pos:R:3 relative_energy_eV=1.2864891687058844e-05 branch=left pbc="F F F"
O        0.39362163      -1.47274339       1.25065074
C        0.99954149      -0.34803508       0.63683492
C        0.11783386       0.28545413      -0.44269731
O        0.77641312       1.04620228      -1.41260343
C       -1.28804085       0.13442218      -0.50426784
O       -2.06594288      -0.49717883       0.25807941
H        1.92838542      -0.67916865       0.17572762
H        1.23983875       1.76335599      -0.96761146
H        1.25605985       0.41895690       1.37514711
H       -0.92209871       0.07529529      -0.40641770
H       -1.83107623       0.65969816      -1.33308477
H       -0.56936384      -1.31632140       1.27312298
12
Properties=species:S:1:pos:R:3 relative_energy_eV=1.811151196307037e-05 branch=left pbc="F F F"
O        0.39365263      -1.47258153       1.25073108
C        0.99953740      -0.34787590       0.63683502
C        0.11768503       0.28560829      -0.44251720
O        0.77611565       1.04614144      -1.41260533
C       -1.28804646       0.13437936      -0.50433062
O       -2.06594109      -0.49798902       0.25737189
H        1.92829695      -0.67909489       0.17546010
H        1.24022361       1.76292972      -0.96780429
H        1.25610439       0.41903371       1.37527014
H       -0.92224319       0.07541529      -0.40617661
H       -1.83089017       0.66024065      -1.33279239
H       -0.56932315      -1.31626953       1.27343846
12
Properties=species:S:1:pos:R:3 relative_energy_eV=2.0403820599312894e-05 branch=left pbc="F F F"
O        0.39364459      -1.47262058       1.25078687
C        0.99951681      -0.34784261       0.63686147
C        0.11765482       0.28563188      -0.44244943
O        0.77603994       1.04585686      -1.41273726
C       -1.28795001       0.13444771      -0.50439715
O       -2.06592165      -0.49848380       0.25670226
H        1.92829705      -0.67900183       0.17538298
H        1.23996273       1.76289242      -0.96808610
H        1.25609343       0.41899857       1.37540817
H       -0.92224626       0.07532585      -0.40617955
H       -1.83065666       0.66095648      -1.33236596
H       -0.56926322      -1.31622336       1.27395395
12
Properties=species:S:1:pos:R:3 relative_energy_eV=2.9363327485043555e-05 branch=left pbc="F F F"
O        0.39365626      -1.47269646       1.25084323
C        0.99947723      -0.34784653       0.63688668
C        0.11763418       0.28564240      -0.44242928
O        0.77595183       1.04571535      -1.41282441
C       -1.28787576       0.13453731      -0.50446474
O       -2.06591225      -0.49892626       0.25607662
H        1.92829022      -0.67880977       0.17533223
H        1.23979483       1.76265507      -0.96820577
H        1.25610230       0.41897900       1.37542587
H       -0.92221809       0.07515944      -0.40628390
H       -1.83055029       0.66160890      -1.33195301
H       -0.56917887      -1.31608085       1.27447672
12
Properties=species:S:1:pos:R:3 relative_energy_eV=3.0468909244518727e-05 branch=left pbc="F F F"
O        0.39365407      -1.47292312       1.25082534
C        0.99945090      -0.34797309       0.63693226
C        0.11776570       0.28547829      -0.44256401
O        0.77609935       1.04542143      -1.41305140
C       -1.28775684       0.13467389      -0.50451275
O       -2.06591289      -0.49909245       0.25561016
H        1.92837973      -0.67872546       0.17557643
H        1.23908638       1.76288024      -0.96840705
H        1.25600708       0.41887187       1.37543001
H       -0.92205713       0.07482087      -0.40658116
H       -1.83047540       0.66241529      -1.33147719
H       -0.56906933      -1.31591013       1.27509958
12
Properties=species:S:1:pos:R:3 relative_energy_eV=3.896717316820286e-05 branch=left pbc="F F F"
O        0.39368604      -1.47307160       1.25080320
C        0.99943453      -0.34807732       0.63696619
C        0.11786300       0.28534418      -0.44268782
O        0.77618389       1.04533812      -1.41317132
C       -1.28772639       0.13474606      -0.50454898
O       -2.06593759      -0.49922902       0.25533542
H        1.92843807      -0.67864848       0.17579293
H        1.23873242       1.76292140      -0.96845785
H        1.25595070       0.41880980       1.37535881
H       -0.92194925       0.07455889      -0.40683891
H       -1.83054213       0.66296065      -1.33118651
H       -0.56896169      -1.31571506       1.27551505
12
Properties=species:S:1:pos:R:3 relative_energy_eV=4.166950202488806e-05 branch=left pbc="F F F"
O        0.39373211      -1.47323631       1.25076821
C        0.99943703      -0.34821119       0.63701769
C        0.11798640       0.28515353      -0.44283370
O        0.77634165       1.04521410      -1.41329970
C       -1.28772629       0.13479765      -0.50458794
O       -2.06598573      -0.49926641       0.25517494
H        1.92853347      -0.67863814       0.17609952
H        1.23828343       1.76316452      -0.96857258
H        1.25589580       0.41870453       1.37532079
H       -0.92184384       0.07429060      -0.40715526
H       -1.83064207       0.66351206      -1.33095539
H       -0.56884037      -1.31554732       1.27590363
12
Properties=species:S:1:pos:R:3 relative_energy_eV=4.280658686184324e-05 branch=left pbc="F F F"
O        0.39386707      -1.47335851       1.25081856
C        0.99944686      -0.34833693       0.63710708
C        0.11802437       0.28496040      -0.44292889
O        0.77644673       1.04517380      -1.41330999
C       -1.28786210       0.13479371      -0.50468933
O       -2.06611656      -0.49938673       0.25499295
H        1.92863665      -0.67856003       0.17637572
H        1.23812053       1.76332755      -0.96871537
H        1.25598449       0.41855641       1.37531583
H       -0.92185474       0.07404644      -0.40761106
H       -1.83087952       0.66412578      -1.33082018
H       -0.56864220      -1.31540427       1.27634487
12
Properties=species:S:1:pos:R:3 relative_energy_eV=5.4308005928760394e-05 branch=left pbc="F F F"
O        0.39409299      -1.47340437       1.25105936
C        0.99944686      -0.34839299       0.63722772
C        0.11788126       0.28484316      -0.44289231
O        0.77645260       1.04514707      -1.41316475
C       -1.28813570       0.13474602      -0.50488463
O       -2.06634216      -0.49957090       0.25471290
H        1.92873321      -0.67835821       0.17645360
H        1.23834741       1.76342741      -0.96895355
H        1.25631357       0.41835112       1.37545527
H       -0.92205711       0.07389746      -0.40820175
H       -1.83117109       0.66472873      -1.33080033
H       -0.56839024      -1.31547688       1.27686866
12
Properties=species:S:1:pos:R:3 relative_energy_eV=7.017449206614401e-05 branch=left pbc="F F F"
O        0.39431971      -1.47328807       1.25145695
C        0.99940927      -0.34828100       0.63729257
C        0.11753784       0.28495975      -0.44270488
O        0.77623313       1.04526115      -1.41287957
C       -1.28844213       0.13468019      -0.50510508
O       -2.06656750      -0.49980957       0.25437501
H        1.92873231      -0.67803831       0.17614681
H        1.23918398       1.76316508      -0.96907499
H        1.25680627       0.41822509       1.37566970
H       -0.92240772       0.07392822      -0.40864380
H       -1.83142053       0.66493562      -1.33090448
H       -0.56821308      -1.31580055       1.27725195
12
Properties=species:S:1:pos:R:3 relative_energy_eV=8.185612750821747e-05 branch=left pbc="F F F"
O        0.39448286      -1.47305671       1.25188091
C        0.99933290      -0.34802950       0.63726060
C        0.11712770       0.28527369      -0.44250179
O        0.77585000       1.04553557      -1.41261129
C       -1.28867627       0.13463754      -0.50528937
O       -2.06673034      -0.50003136       0.25404209
H        1.92863827      -0.67771169       0.17562606
H        1.24039013       1.76260427      -0.96898015
H        1.25728669       0.41821496       1.37586869
H       -0.92274093       0.07397295      -0.40891418
H       -1.83164030       0.66477230      -1.33099961
H       -0.56814914      -1.31624441       1.27749822
12
Properties=species:S:1:pos:R:3 relative_energy_eV=0.00010668328832252882 branch=left pbc="F F F"
O        0.39462614      -1.47260273       1.25236752
C        0.99918288      -0.34753297       0.63708038
C        0.11659901       0.28591956      -0.44237233
O        0.77511467       1.04630564      -1.41239144
C       -1.28889717       0.13460793      -0.50547765
O       -2.06685125      -0.50033768       0.25365474
H        1.92838811      -0.67737223       0.17489334
H        1.24253330       1.76140488      -0.96842798
H        1.25780803       0.41836510       1.37601648
H       -0.92303236       0.07373285      -0.40923743
H       -1.83212642       0.66422565      -1.33097794
H       -0.56817340      -1.31677839       1.27775247
12
Properties=species:S:1:pos:R:3 relative_energy_eV=0.00015056629126775078 branch=left pbc="F F F"
O        0.39475290      -1.47190621       1.25272055
C        0.99896578      -0.34679740       0.63674784
C        0.11609685       0.28689038      -0.44253842
O        0.77398960       1.04788029      -1.41240221
C       -1.28910484       0.13456248      -0.50565228
O       -2.06688839      -0.50074972       0.25334705
H        1.92794462      -0.67722798       0.17430053
H        1.24574021       1.75949727      -0.96721044
H        1.25821145       0.41869812       1.37601347
H       -0.92308802       0.07266540      -0.40994042
H       -1.83322086       0.66349871      -1.33063370
H       -0.56822774      -1.31707372       1.27812820
12
Properties=species:S:1:pos:R:3 relative_energy_eV=0.00022970751524553634 branch=left pbc="F F F"
O        0.39483579      -1.47128790       1.25261322
C        0.99879385      -0.34618217       0.63647410
C        0.11593419       0.28767777      -0.44303969
O        0.77299126       1.04971305      -1.41270158
C       -1.28924936       0.13445171      -0.50574353
O       -2.06680265      -0.50109070       0.25341605
H        1.92746145      -0.67748126       0.17435734
H        1.24859956       1.75776527      -0.96580353
H        1.25821538       0.41906384       1.37583800
H       -0.92279111       0.07079798      -0.41109602
H       -1.83463341       0.66320529      -1.32999131
H       -0.56818341      -1.31669525       1.27855710
12
Properties=species:S:1:pos:R:3 relative_energy_eV=0.0003060551080125151 branch=left pbc="F F F"
O        0.39485599      -1.47102846       1.25204582
C        0.99871226      -0.34592861       0.63641298
C        0.11615230       0.28785596      -0.44370957
O        0.77255774       1.05104097      -1.41311446
C       -1.28929396       0.13426144      -0.50574283
O       -2.06658840      -0.50114861       0.25394257
H        1.92708051      -0.67803820       0.17501938
H        1.24992975       1.75700929      -0.96479246
H        1.25776318       0.41934670       1.37562639
H       -0.92227199       0.06858264      -0.41264665
H       -1.83574878       0.66371393      -1.32919383
H       -0.56797706      -1.31572939       1.27903280
12
Properties=species:S:1:pos:R:3 relative_energy_eV=0.00039998516331252176 branch=left pbc="F F F"
O        0.39483770      -1.47110669       1.25110021
C        0.99862593      -0.34594949       0.63650977
C        0.11658112       0.28730403      -0.44457087
O        0.77262988       1.05189869      -1.41340502
C       -1.28926258       0.13392122      -0.50569552
O       -2.06617008      -0.50085685       0.25500702
H        1.92669631      -0.67873589       0.17594506
H        1.25003741       1.75704298      -0.96401024
H        1.25678934       0.41973114       1.37536368
H       -0.92164785       0.06586082      -0.41500408
H       -1.83639298       0.66511089      -1.32813135
H       -0.56755264      -1.31428317       1.27977149
12
Properties=species:S:1:pos:R:3 relative_energy_eV=0.0005303441103023943 branch=left pbc="F F F"
O        0.39487384      -1.47142312       1.24997289
C        0.99834195      -0.34606275       0.63649982
C        0.11692934       0.28582035      -0.44583262
O        0.77302571       1.05252382      -1.41320409
C       -1.28921638       0.13334678      -0.50569191
O       -2.06545255      -0.50015594       0.25664614
H        1.92618985      -0.67924837       0.17657331
H        1.24978829       1.75723198      -0.96277193
H        1.25509242       0.42065231       1.37475599
H       -0.92110171       0.06243113      -0.41873837
H       -1.83647866       0.66740815      -1.32658059
H       -0.56682057      -1.31258663       1.28125148
12
Properties=species:S:1:pos:R:3 relative_energy_eV=0.0007277718705154257 branch=left pbc="F F F"
O        0.39514082      -1.47164711       1.24924505
C        0.99772951      -0.34599109       0.63592407
C        0.11675079       0.28365406      -0.44751418
O        0.77327526       1.05331075      -1.41215980
C       -1.28933116       0.13260744      -0.50586938
O       -2.06463023      -0.49933469       0.25832862
H        1.92565196      -0.67899616       0.17612559
H        1.25081138       1.75630296      -0.96016264
H        1.25289381       0.42245386       1.37334959
H       -0.92099411       0.05909678      -0.42326841
H       -1.83625296       0.66979425      -1.32475259
H       -0.56587359      -1.31131333       1.28363419
12
Properties=species:S:1:pos:R:3 relative_energy_eV=0.0009567133038217435 branch=left pbc="F F F"
O        0.39571852      -1.47141438       1.24938702
C        0.99694638      -0.34560719       0.63462116
C        0.11590371       0.28166083      -0.44926046
O        0.77292362       1.05459691      -1.41048094
C       -1.28977020       0.13193369      -0.50626889
O       -2.06414128      -0.49897486       0.25923012
H        1.92537409      -0.67779772       0.17452140
H        1.25416936       1.75342875      -0.95605755
H        1.25092352       0.42482952       1.37107339
H       -0.92149905       0.05718742      -0.42682016
H       -1.83638932       0.67104411      -1.32332512
H       -0.56498791      -1.31094936       1.28626011
12
Properties=species:S:1:pos:R:3 relative_energy_eV=0.0011861405364470556 branch=left pbc="F F F"
O        0.39657953      -1.47060359       1.25032716
C        0.99623066      -0.34501763       0.63284135
C        0.11459351       0.28045462      -0.45074252
O        0.77184036       1.05661988      -1.40857024
C       -1.29058390       0.13142683      -0.50683353
O       -2.06416660      -0.49947105       0.25913339
H        1.92545198      -0.67598120       0.17231051
H        1.25984710       1.74862258      -0.95094481
H        1.24960864       0.42728857       1.36813984
H       -0.92252609       0.05712089      -0.42834996
H       -1.83743340       0.67070392      -1.32277252
H       -0.56427035      -1.31122611       1.28834138
12
Properties=species:S:1:pos:R:3 relative_energy_eV=0.0014413779026654083 branch=left pbc="F F F"
O        0.39790728      -1.46915173       1.25203706
C        0.99561155      -0.34434579       0.63069992
C        0.11285424       0.28015079      -0.45195089
O        0.76992363       1.05985681      -1.40638375
C       -1.29189348       0.13103680      -0.50760767
O       -2.06459225      -0.50108087       0.25819940
H        1.92573505      -0.67373125       0.16970481
H        1.26831093       1.74148137      -0.94465434
H        1.24877219       0.42986412       1.36428332
H       -0.92415275       0.05876806      -0.42780525
H       -1.83980843       0.66884442      -1.32332296
H       -0.56349658      -1.31175498       1.28968039
12
Properties=species:S:1:pos:R:3 relative_energy_eV=0.0017076912081392948 branch=left pbc="F F F"
O        0.39939697      -1.46790870       1.25375941
C        0.99525971      -0.34411936       0.62897745
C        0.11152067       0.28024872      -0.45290215
O        0.76832747       1.06278697      -1.40487205
C       -1.29314864       0.13095045      -0.50841857
O       -2.06508127      -0.50280869       0.25710344
H        1.92618620      -0.67207658       0.16803237
H        1.27559921       1.73535183      -0.93927365
H        1.24799796       0.43175355       1.36063804
H       -0.92563458       0.06066656      -0.42632651
H       -1.84262863       0.66718502      -1.32438328
H       -0.56262372      -1.31209199       1.29054551
12
Properties=species:S:1:pos:R:3 relative_energy_eV=0.0019115213162876898 branch=left pbc="F F F"
O        0.40066431      -1.46738283       1.25492747
C        0.99516598      -0.34441790       0.62807315
C        0.11095614       0.28024617      -0.45360629
O        0.76770700       1.06433180      -1.40436079
C       -1.29396530       0.13113009      -0.50907921
O       -2.06538082      -0.50383603       0.25638022
H        1.92663375      -0.67141270       0.16764523
H        1.27935629       1.73221588      -0.93601957
H        1.24710785       0.43268022       1.35811549
H       -0.92652216       0.06170262      -0.42517162
H       -1.84484102       0.66676754      -1.32528315
H       -0.56171068      -1.31208710       1.29125909
12
Properties=species:S:1:pos:R:3 relative_energy_eV=0.00207261745526921 branch=left pbc="F F F"
O        0.40175876      -1.46751570       1.25565665
C        0.99516405      -0.34505306       0.62782378
C        0.11094181       0.28003740      -0.45410985
O        0.76793841       1.06459414      -1.40449592
C       -1.29436852       0.13153209      -0.50960916
O       -2.06540676      -0.50411335       0.25607981
H        1.92688119      -0.67150448       0.16807498
H        1.28008034       1.73164589      -0.93459053
H        1.24603110       0.43292019       1.35662160
H       -0.92691567       0.06181067      -0.42470866
H       -1.84620670       0.66751281      -1.32589811
H       -0.56072667      -1.31192884       1.29203543
12
Properties=species:S:1:pos:R:3 relative_energy_eV=0.0022150645581859862 branch=left pbc="F F F"
O        0.40283330      -1.46830409       1.25621136
C        0.99500782      -0.34586710       0.62794796
C        0.11127063       0.27949770      -0.45458984
O        0.76896135       1.06360190      -1.40496788
C       -1.29436840       0.13231837      -0.51002294
O       -2.06500292      -0.50358117       0.25607803
H        1.92674745      -0.67224881       0.16906444
H        1.27811251       1.73343584      -0.93479281
H        1.24463224       0.43267227       1.35600397
H       -0.92689645       0.06107955      -0.42512662
H       -1.84656839       0.66933232      -1.32613294
H       -0.55955781      -1.31199901       1.29320727
12
Properties=species:S:1:pos:R:3 relative_energy_eV=0.002516660122637404 branch=left pbc="F F F"
O        0.40137253      -1.46598849       1.25721381
C        0.99541483      -0.34526128       0.62821978
C        0.11054992       0.28263175      -0.45315675
O        0.76563872       1.06978146      -1.40359762
C       -1.29462424       0.13060680      -0.50985536
O       -2.06453728      -0.50676134       0.25623470
H        1.92636188      -0.67189484       0.16706834
H        1.28623307       1.72691493      -0.93476394
H        1.24630124       0.43333100       1.35551949
H       -0.92787855       0.06513891      -0.42181547
H       -1.84819742       0.66411082      -1.32771209
H       -0.56146333      -1.31267194       1.28952513
12
Properties=species:S:1:pos:R:3 relative_energy_eV=0.002693871192605002 branch=left pbc="F F F"
O        0.39936143      -1.46549508       1.25455641
C        0.99699381      -0.34524340       0.62768275
C        0.11116873       0.28053558      -0.45442474
O        0.76599034       1.06846763      -1.40523864
C       -1.29487546       0.12866669      -0.50974930
O       -2.06725282      -0.50586959       0.25633447
H        1.93007042      -0.66951525       0.16679825
H        1.28587788       1.72619783      -0.93035584
H        1.24714630       0.43410512       1.35517989
H       -0.92705511       0.06299516      -0.42295981
H       -1.84904700       0.66504121      -1.32546792
H       -0.56320719      -1.30994814       1.29052448
12
Properties=species:S:1:pos:R:3 relative_energy_eV=0.003322922222650959 branch=left pbc="F F F"
O        0.39675055      -1.46278529       1.25304115
C        0.99762198      -0.34303975       0.62679536
C        0.11000796       0.28200942      -0.45348095
O        0.76256530       1.07224370      -1.40375415
C       -1.29547410       0.12640514      -0.50880359
O       -2.06885972      -0.50824241       0.25587576
H        1.93113046      -0.66702323       0.16428522
H        1.29377917       1.71909990      -0.92766877
H        1.25110678       0.43524845       1.35552567
H       -0.92757053       0.06574615      -0.42073528
H       -1.84965964       0.65931842      -1.32528966
H       -0.56622685      -1.30904273       1.28708926
12
Properties=species:S:1:pos:R:3 relative_energy_eV=0.004199095161311561 branch=left pbc="F F F"
O        0.39521077      -1.46005478       1.25089124
C        0.99767273      -0.33978438       0.62541225
C        0.10795620       0.28334271      -0.45198789
O        0.75892062       1.07454494      -1.40121551
C       -1.29679852       0.12506733      -0.50753165
O       -2.07093851      -0.51087174       0.25462348
H        1.93120093      -0.66406364       0.16183650
H        1.30227772       1.71127005      -0.92430056
H        1.25644220       0.43634730       1.35607748
H       -0.92867842       0.06859441      -0.41809650
H       -1.84984775       0.65299279      -1.32582101
H       -0.56824658      -1.30744723       1.28299218
12
Properties=species:S:1:pos:R:3 relative_energy_eV=0.005367644982470665 branch=left pbc="F F F"
O        0.39533942      -1.45677140       1.24898307
C        0.99709200      -0.33558066       0.62425397
C        0.10455113       0.28625974      -0.44867858
O        0.75407087       1.07739088      -1.39685961
C       -1.29925632       0.12457327      -0.50614054
O       -2.07287431      -0.51520020       0.25265752
H        1.92905593      -0.66104094       0.15886449
H        1.31417452       1.70047433      -0.92090808
H        1.26348404       0.43734871       1.35653730
H       -0.93133376       0.07308721      -0.41331367
H       -1.85037120       0.64463632      -1.32890888
H       -0.56876090      -1.30523949       1.27639304
12
Properties=species:S:1:pos:R:3 relative_energy_eV=0.006837251776232733 branch=left pbc="F F F"
O        0.39710112      -1.45316577       1.24784220
C        0.99634298      -0.33134997       0.62418094
C        0.10023072       0.29118093      -0.44324709
O        0.74836023       1.08121614      -1.39137398
C       -1.30264762       0.12437863      -0.50507571
O       -2.07447818      -0.52111703       0.25062578
H        1.92484236      -0.65817880       0.15502884
H        1.32898759       1.68712076      -0.91780837
H        1.27127669       0.43817127       1.35676734
H       -0.93559251       0.07875867      -0.40647195
H       -1.85159834       0.63521418      -1.33493824
H       -0.56765358      -1.30229125       1.26735027
12
Properties=species:S:1:pos:R:3 relative_energy_eV=0.008337518445841852 branch=left pbc="F F F"
O        0.39911461      -1.44992116       1.24803026
C        0.99595443      -0.32842296       0.62538260
C        0.09634851       0.29721641      -0.43710562
O        0.74291045       1.08610433      -1.38646765
C       -1.30570018       0.12377866      -0.50462215
O       -2.07521385      -0.52717432       0.24948378
H        1.92013043      -0.65614341       0.15070186
H        1.34349061       1.67432505      -0.91605125
H        1.27757538       0.43876095       1.35692202
H       -0.94012202       0.08433618      -0.39942241
H       -1.85323167       0.62673344      -1.34198007
H       -0.56608517      -1.29965544       1.25800871
12
Properties=species:S:1:pos:R:3 relative_energy_eV=0.009571946085998206 branch=left pbc="F F F"
O        0.40031081      -1.44751916       1.24924982
C        0.99610586      -0.32707944       0.62721485
C        0.09367197       0.30282602      -0.43179320
O        0.73861509       1.09094311      -1.38317578
C       -1.30763870       0.12262949      -0.50467332
O       -2.07522675      -0.53188549       0.24937320
H        1.91642309      -0.65488677       0.14632895
H        1.35488134       1.66459154      -0.91559074
H        1.28134092       0.43916148       1.35728090
H       -0.94364604       0.08855598      -0.39397425
H       -1.85460060       0.62052035      -1.34782890
H       -0.56506543      -1.29791936       1.25046857
12
Properties=species:S:1:pos:R:3 relative_energy_eV=0.010614665792672895 branch=left pbc="F F F"
O        0.40054043      -1.44560497       1.25142018
C        0.99662170      -0.32660556       0.62916727
C        0.09182319       0.30800918      -0.42722357
O        0.73496518       1.09569055      -1.38098054
C       -1.30860695       0.12099423      -0.50497382
O       -2.07480374      -0.53535443       0.24985671
H        1.91359105      -0.65385459       0.14127337
H        1.36417766       1.65706456      -0.91602344
H        1.28325476       0.43946770       1.35810648
H       -0.94613898       0.09181972      -0.38995606
H       -1.85534327       0.61558006      -1.35227023
H       -0.56490940      -1.29726874       1.24448373
12
Properties=species:S:1:pos:R:3 relative_energy_eV=0.01164001296456263 branch=left pbc="F F F"
O        0.39985091      -1.44356731       1.25498948
C        0.99717265      -0.32618739       0.63084422
C        0.09026190       0.31345610      -0.42288562
O        0.73101198       1.10123556      -1.37894946
C       -1.30881352       0.11899513      -0.50526354
O       -2.07393271      -0.53827548       0.25047221
H        1.91088136      -0.65270840       0.13463047
H        1.37357445       1.65005778      -0.91745582
H        1.28411776       0.43970207       1.35961293
H       -0.94786020       0.09535963      -0.38651317
H       -1.85527203       0.61014240      -1.35574108
H       -0.56582085      -1.29827240       1.23913946
12
Properties=species:S:1:pos:R:3 relative_energy_eV=0.01272485707886517 branch=left pbc="F F F"
O        0.39850555      -1.44118705       1.25979845
C        0.99730614      -0.32524608       0.63165143
C        0.08884150       0.31889343      -0.41912780
O        0.72658833       1.10773369      -1.37656384
C       -1.30842555       0.11721875      -0.50520953
O       -2.07258095      -0.54098512       0.25069917
H        1.90798215      -0.65163000       0.12707537
H        1.38350392       1.64327397      -0.91998557
H        1.28445173       0.43979324       1.36160303
H       -0.94880194       0.09992069      -0.38323789
H       -1.85446798       0.60348490      -1.35825381
H       -0.56773115      -1.30133275       1.23443108
12
Properties=species:S:1:pos:R:3 relative_energy_eV=0.013758543998847017 branch=left pbc="F F F"
O        0.39726647      -1.43883197       1.26448031
C        0.99682533      -0.32380369       0.63140173
C        0.08774060       0.32308558      -0.41670079
O        0.72258433       1.11371180      -1.37409499
C       -1.30782386       0.11640343      -0.50470885
O       -2.07117743      -0.54327141       0.25026978
H        1.90519455      -0.65090077       0.12073393
H        1.39219397       1.63780247      -0.92285232
H        1.28463671       0.43966795       1.36338561
H       -0.94899713       0.10478894      -0.38039706
H       -1.85338889       0.59684217      -1.35974321
H       -0.56988284      -1.30555684       1.23110595
12
Properties=species:S:1:pos:R:3 relative_energy_eV=0.01460572581163433 branch=left pbc="F F F"
O        0.39671980      -1.43680889       1.26800679
C        0.99588648      -0.32226401       0.63055856
C        0.08703776       0.32557779      -0.41563851
O        0.71966808       1.11808844      -1.37203505
C       -1.30739611       0.11660721      -0.50393643
O       -2.07012347      -0.54501817       0.24927152
H        1.90270056      -0.65058953       0.11683766
H        1.39852790       1.63416184      -0.92523964
H        1.28493589       0.43937123       1.36438538
H       -0.94881972       0.10920749      -0.37809408
H       -1.85252629       0.59148379      -1.36061749
H       -0.57143901      -1.30987952       1.22938138
12
Properties=species:S:1:pos:R:3 relative_energy_eV=0.015302951107514673 branch=left pbc="F F F"
O        0.39691589      -1.43495238       1.27043778
C        0.99459165      -0.32083817       0.62963964
C        0.08662473       0.32700999      -0.41541471
O        0.71765366       1.12132193      -1.37043717
C       -1.30719905       0.11748867      -0.50308935
O       -2.06941404      -0.54654067       0.24797697
H        1.90017948      -0.65060898       0.11509148
H        1.40316712       1.63170827      -0.92713865
H        1.28554564       0.43899863       1.36445944
H       -0.94860827       0.11338278      -0.37602635
H       -1.85199628       0.58728783      -1.36142511
H       -0.57228862      -1.31432024       1.22880612
12
Properties=species:S:1:pos:R:3 relative_energy_eV=0.01601284378557466 branch=left pbc="F F F"
O        0.39774893      -1.43302827       1.27216583
C        0.99285590      -0.31955375       0.62901952
C        0.08634561       0.32818935      -0.41559235
O        0.71619736       1.12424351      -1.36933852
C       -1.30722500       0.11865763      -0.50227093
O       -2.06883228      -0.54819495       0.24646629
H        1.89709290      -0.65093468       0.11510115
H        1.40717141       1.62969239      -0.92877378
H        1.28675490       0.43871551       1.36342293
H       -0.94871823       0.11807169      -0.37369700
H       -1.85181435       0.58376646      -1.36270885
H       -0.57240523      -1.31968725       1.22908581
12
Properties=species:S:1:pos:R:3 relative_energy_eV=0.016839574938785518 branch=left pbc="F F F"
O        0.39880696      -1.43124844       1.27312743
C        0.99077483      -0.31857886       0.62913459
C        0.08611651       0.32976076      -0.41582003
O        0.71516543       1.12735632      -1.36894936
C       -1.30725355       0.11957086      -0.50185591
O       -2.06810914      -0.55007475       0.24539960
H        1.89349224      -0.65153890       0.11666570
H        1.41077771       1.62778377      -0.93026294
H        1.28876756       0.43884340       1.36124928
H       -0.94934936       0.12305710      -0.37122896
H       -1.85185037       0.58101349      -1.36454257
H       -0.57216687      -1.32600710       1.22996328
12
Properties=species:S:1:pos:R:3 relative_energy_eV=0.01784521852459875 branch=left pbc="F F F"
O        0.39925635      -1.43027943       1.27334173
C        0.98878985      -0.31802372       0.63005972
C        0.08581279       0.33204954      -0.41594267
O        0.71434096       1.13075368      -1.36946581
C       -1.30713741       0.11950664      -0.50209440
O       -2.06671160      -0.55189626       0.24526835
H        1.89018709      -0.65251788       0.11936786
H        1.41392782       1.62608400      -0.93158263
H        1.29142991       0.43974790       1.35844531
H       -0.95061857       0.12759466      -0.36890982
H       -1.85206154       0.57925815      -1.36657632
H       -0.57204368      -1.33233966       1.23096878
12
Properties=species:S:1:pos:R:3 relative_energy_eV=0.019160884723532945 branch=left pbc="F F F"
O        0.39834046      -1.43067378       1.27269887
C        0.98714010      -0.31772915       0.63153317
C        0.08536046       0.33531159      -0.41595696
O        0.71323414       1.13475482      -1.37051667
C       -1.30647724       0.11837017      -0.50327427
O       -2.06406823      -0.55360919       0.24690807
H        1.88796026      -0.65400816       0.12277960
H        1.41657915       1.62456657      -0.93312646
H        1.29464379       0.44178068       1.35571864
H       -0.95208597       0.13078264      -0.36733200
H       -1.85212301       0.57823905      -1.36812471
H       -0.57333191      -1.33784761       1.23157282
12
Properties=species:S:1:pos:R:3 relative_energy_eV=0.020824284620175604 branch=left pbc="F F F"
O        0.39585824      -1.43272891       1.27175254
C        0.98628254      -0.31739151       0.63259303
C        0.08468576       0.33886933      -0.41608717
O        0.71148824       1.13874046      -1.37159017
C       -1.30567019       0.11648374      -0.50474722
O       -2.06001832      -0.55491426       0.24937539
H        1.88779476      -0.65641093       0.12630480
H        1.41875314       1.62363118      -0.93482697
H        1.29762590       0.44482426       1.35400425
H       -0.95330364       0.13268993      -0.36638579
H       -1.85244518       0.57751409      -1.36888859
H       -0.57587923      -1.34136977       1.23137602
12
Properties=species:S:1:pos:R:3 relative_energy_eV=0.02287649142999726 branch=left pbc="F F F"
O        0.39241634      -1.43573275       1.27039026
C        0.98635282      -0.31696125       0.63258571
C        0.08414398       0.34202328      -0.41628680
O        0.70878595       1.14251472      -1.37171633
C       -1.30464042       0.11530738      -0.50615918
O       -2.05527120      -0.55630742       0.25264485
H        1.89008018      -0.66007342       0.12977388
H        1.42020038       1.62331317      -0.93709848
H        1.29956245       0.44833390       1.35379088
H       -0.95315808       0.13339074      -0.36668521
H       -1.85309497       0.57622540      -1.36837011
H       -0.58020539      -1.34209613       1.23001067
12
Properties=species:S:1:pos:R:3 relative_energy_eV=0.027014366185539984 branch=left pbc="F F F"
O        0.38751151      -1.43963593       1.26867871
C        0.98802094      -0.31682147       0.63070353
C        0.08389580       0.34494477      -0.41673071
O        0.70358797       1.14800316      -1.37081225
C       -1.30438782       0.11518583      -0.50598579
O       -2.04773288      -0.55907780       0.25487058
H        1.89683878      -0.66921189       0.13640989
H        1.42233732       1.62399429      -0.94119358
H        1.29955711       0.45299676       1.35463865
H       -0.95174978       0.13709983      -0.36680972
H       -1.85691766       0.57217595      -1.36705298
H       -0.58578929      -1.33971587       1.22616380
12
Properties=species:S:1:pos:R:3 relative_energy_eV=0.03810023327423551 branch=left pbc="F F F"
O        0.38047711      -1.44086009       1.26399579
C        0.99318206      -0.31950519       0.62728445
C        0.08620730       0.34683652      -0.41816177
O        0.69356371       1.15942505      -1.36766161
C       -1.30384601       0.11877963      -0.50292930
O       -2.03678683      -0.56697807       0.25778278
H        1.91109718      -0.68895155       0.15146803
H        1.42562703       1.62651251      -0.95041563
H        1.29430218       0.45665971       1.35608032
H       -0.94684161       0.14636087      -0.36791601
H       -1.86686391       0.56132473      -1.36253151
H       -0.59494622      -1.32966651       1.21588460
12
Properties=species:S:1:pos:R:3 relative_energy_eV=0.05534594314667629 branch=left pbc="F F F"
O        0.37507509      -1.43660259       1.25881989
C        1.00003541      -0.32511470       0.62512480
C        0.09038347       0.34678230      -0.42018141
O        0.68421774       1.17349206      -1.36536914
C       -1.30349180       0.12168470      -0.49601511
O       -2.02747969      -0.57645385       0.25767273
H        1.92539762      -0.71137384       0.17069677
H        1.42951777       1.62985113      -0.96068523
H        1.28511334       0.45548020       1.35526585
H       -0.94259060       0.16047279      -0.36773993
H       -1.88052741       0.54831575      -1.35767655
H       -0.60047896      -1.31659632       1.20296748
12
Properties=species:S:1:pos:R:3 relative_energy_eV=0.07807293589394249 branch=left pbc="F F F"
O        0.37084143      -1.42714707       1.25340839
C        1.00703251      -0.33306809       0.62468438
C        0.09620945       0.34615490      -0.42250503
O        0.67663257       1.18924356      -1.36535940
C       -1.30078671       0.12232208      -0.48970819
O       -2.02304188      -0.58711994       0.25943370
H        1.93609885      -0.73113689       0.19222207
H        1.43375701       1.63381329      -0.97056694
H        1.27378447       0.44775462       1.35158387
H       -0.93921677       0.17455686      -0.36816307
H       -1.89345579       0.53563602      -1.35022451
H       -0.60268320      -1.30107174       1.18807489
12
Properties=species:S:1:pos:R:3 relative_energy_eV=0.0944746208460856 branch=left pbc="F F F"
O        0.36863954      -1.42033456       1.25117417
C        1.00983931      -0.33807121       0.62446718
C        0.10017290       0.34563573      -0.42467646
O        0.67482655       1.19985756      -1.36692904
C       -1.29789785       0.11821954      -0.48619577
O       -2.02115327      -0.59143920       0.26023180
H        1.93969736      -0.73956776       0.20520513
H        1.43591353       1.63609813      -0.97601826
H        1.26726915       0.43982359       1.34840820
H       -0.94013178       0.18108688      -0.36724271
H       -1.89969582       0.52951210      -1.34409384
H       -0.60230767      -1.29088320       1.17854976
12
Properties=species:S:1:pos:R:3 relative_energy_eV=0.12856084351733443 branch=left pbc="F F F"
O        0.35990189      -1.41279498       1.25246498
C        1.00982705      -0.34221584       0.61901063
C        0.10682041       0.34577412      -0.43343644
O        0.67314036       1.21767377      -1.37229633
C       -1.29082643       0.10450205      -0.49190063
O       -2.02094974      -0.59733697       0.26829084
H        1.94111125      -0.74532919       0.22691458
H        1.44216453       1.64224686      -0.98315543
H        1.25903664       0.42027917       1.34391805
H       -0.94270421       0.18448727      -0.36104916
H       -1.90376536       0.52232149      -1.32601645
H       -0.59858448      -1.26967014       1.16013553
12
Properties=species:S:1:pos:R:3 relative_energy_eV=0.1850569028465543 branch=left pbc="F F F"
O        0.33825653      -1.40923752       1.25054009
C        1.00785042      -0.34438070       0.61226177
C        0.11339836       0.33974357      -0.45606832
O        0.67151223       1.24101488      -1.37498766
C       -1.27946043       0.08549169      -0.49528684
O       -2.00796718      -0.59874643       0.28259386
H        1.94480107      -0.74177496       0.24287168
H        1.44752211       1.65134019      -0.99366807
H        1.25554720       0.40052549       1.34988366
H       -0.94131141       0.16683757      -0.34815565
H       -1.90512386       0.51799127      -1.30546645
H       -0.60985313      -1.23886748       1.13836209
12
Properties=species:S:1:pos:R:3 relative_energy_eV=0.2621373573110759 branch=left pbc="F F F"
O        0.31593912      -1.40988997       1.24794867
C        0.99997962      -0.34560085       0.60315239
C        0.11364153       0.33137796      -0.48026144
O        0.66429906       1.25863453      -1.37707511
C       -1.27252541       0.06633691      -0.50523627
O       -1.99256570      -0.59948028       0.30120614
H        1.95206697      -0.73534362       0.25122770
H        1.45617450       1.66272158      -1.00137270
H        1.25685829       0.38817412       1.36356716
H       -0.92600913       0.14543663      -0.33129039
H       -1.90413816       0.51687507      -1.28828746
H       -0.62854878      -1.20930452       1.11930148
12
Properties=species:S:1:pos:R:3 relative_energy_eV=0.3515918463272101 branch=left pbc="F F F"
O        0.29987497      -1.40968410       1.23308442
C        0.99163118      -0.34748723       0.60124323
C        0.11776958       0.32496960      -0.49471024
O        0.64750658       1.26692418      -1.37495001
C       -1.25803776       0.05209249      -0.49947183
O       -1.97233684      -0.59242268       0.32374870
H        1.96088853      -0.72426232       0.24698820
H        1.46121618       1.67245249      -1.00758495
H        1.25992518       0.38408626       1.38105099
H       -0.90624877       0.10588340      -0.33708697
H       -1.89683678       0.51922371      -1.27509474
H       -0.67018014      -1.18183822       1.10566338
12
Properties=species:S:1:pos:R:3 relative_energy_eV=0.6403068457457266 branch=left pbc="F F F"
O        0.22555614      -1.40353604       1.20120714
C        1.00225987      -0.35536411       0.62380959
C        0.15123079       0.27949752      -0.55133439
O        0.63478583       1.29865626      -1.37123670
C       -1.23731282       0.09577958      -0.47496779
O       -1.93068888      -0.61464345       0.35582315
H        1.98219596      -0.70081689       0.22349495
H        1.46370088       1.68778928      -1.02159239
H        1.26951898       0.38747803       1.42095320
H       -0.89935871       0.03025446      -0.31936426
H       -1.90896968       0.51699654      -1.28471176
H       -0.71774643      -1.15215359       1.10079950
12
Properties=species:S:1:pos:R:3 relative_energy_eV=0.7986057127545791 branch=left pbc="F F F"
O        0.21119211      -1.40152627       1.17742463
C        1.01069440      -0.35662442       0.63565283
C        0.16411883       0.26730267      -0.55476490
O        0.62439120       1.30842043      -1.36581754
C       -1.22471026       0.10344990      -0.46821556
O       -1.90847555      -0.61224294       0.38144103
H        1.98662908      -0.68681410       0.21055931
H        1.45596057       1.68981412      -1.02981058
H        1.27097122       0.38747406       1.43482566
H       -0.88544779      -0.01634452      -0.33513989
H       -1.90034634       0.51828076      -1.27819230
H       -0.76980555      -1.13125211       1.09491755
12
Properties=species:S:1:pos:R:3 relative_energy_eV=0.968141360746813 branch=left pbc="F F F"
O        0.22440611      -1.39806305       1.13877577
C        1.01989864      -0.35701717       0.64636425
C        0.17118700       0.27222893      -0.52673531
O        0.60354685       1.30965484      -1.35533119
C       -1.20321225       0.08368374      -0.46530315
O       -1.88205366      -0.58589424       0.42168766
H        1.98365590      -0.66783627       0.19597483
H        1.43869745       1.68685556      -1.04025220
H        1.26828785       0.38434775       1.44413610
H       -0.85766514      -0.08332828      -0.38853505
H       -1.86806558       0.52356663      -1.25138124
H       -0.86351122      -1.09826083       1.08347977
12
Properties=species:S:1:pos:R:3 relative_energy_eV=1.1502201039147621 branch=left pbc="F F F"
O        0.23589337      -1.39429738       1.10302500
C        1.02842727      -0.35667007       0.65564821
C        0.17598977       0.27890007      -0.49623954
O        0.58693928       1.31071436      -1.34553162
C       -1.18531967       0.06214563      -0.46479183
O       -1.86123526      -0.55801505       0.45648246
H        1.97927309      -0.65104860       0.18325024
H        1.42039062       1.68250317      -1.05010734
H        1.26509750       0.38135761       1.45068487
H       -0.83111539      -0.14339632      -0.43975702
H       -1.83648221       0.52878339      -1.22510183
H       -0.94268640      -1.07103920       1.07531865
12
Properties=species:S:1:pos:R:3 relative_energy_eV=1.342179333072636 branch=left pbc="F F F"
O        0.24474059      -1.39094944       1.07127414
C        1.03532135      -0.35258270       0.65985477
C        0.17538096       0.29843162      -0.45444704
O        0.56438872       1.30159958      -1.33729353
C       -1.17613597       0.02377680      -0.46664256
O       -1.84355071      -0.51834005       0.48259743
H        1.97053978      -0.63714392       0.17557062
H        1.40714049       1.67811806      -1.05571997
H        1.26004270       0.37700291       1.44915727
H       -0.80254947      -0.19298429      -0.49780279
H       -1.79808195       0.53420641      -1.19143600
H       -1.00206451      -1.05119733       1.06776789
12
Properties=species:S:1:pos:R:3 relative_energy_eV=1.5497339186549652 branch=left pbc="F F F"
O        0.25190357      -1.38968005       1.05609377
C        1.03406253      -0.34849820       0.65700889
C        0.16513977       0.31297242      -0.42387603
O        0.55796563       1.29604214      -1.33105103
C       -1.17167957      -0.00421872      -0.46670573
O       -1.83760361      -0.49372928       0.49919413
H        1.96519018      -0.63122064       0.17409974
H        1.39384290       1.67230317      -1.06013677
H        1.25681024       0.37414281       1.44509432
H       -0.77699199      -0.21451546      -0.53866750
H       -1.77337859       0.53786665      -1.16972573
H       -1.03008908      -1.04152718       1.06155216
12
Properties=species:S:1:pos:R:3 relative_energy_eV=1.8250603868673352 branch=left pbc="F F F"
O        0.26127637      -1.38974754       1.04466030
C        1.02001282      -0.34239049       0.64743692
C        0.17868762       0.34480917      -0.39499268
O        0.54875784       1.28213783      -1.31905313
C       -1.13386705      -0.03847435      -0.46833383
O       -1.85633580      -0.48070079       0.53825481
H        1.96228802      -0.62750125       0.17324582
H        1.37793897       1.66401150      -1.06363681
H        1.25391548       0.37207225       1.44013916
H       -0.77067168      -0.22764385      -0.59297101
H       -1.75344933       0.54507392      -1.15408280
H       -1.05338126      -1.03170872       1.05221348
12
Properties=species:S:1:pos:R:3 relative_energy_eV=2.340303167797174 branch=left pbc="F F F"
O        0.26541846      -1.39103297       1.03993443
C        1.00737451      -0.33543581       0.63556391
C        0.14928084       0.35077046      -0.38006266
O        0.53861117       1.26823910      -1.31073813
C       -1.07644696      -0.03177932      -0.46297742
O       -1.88338797      -0.48051800       0.57169355
H        1.96374380      -0.62707190       0.17341128
H        1.37421460       1.66228247      -1.06490532
H        1.25348235       0.37188057       1.43893698
H       -0.74843828      -0.24145191      -0.63419859
H       -1.74720706       0.55111894      -1.15092245
H       -1.06147347      -1.02706394       1.04714467
12
Properties=species:S:1:pos:R:3 relative_energy_eV=3.0512656945393246 branch=left pbc="F F F"
O        0.26824988      -1.39356240       1.04103956
C        1.00018491      -0.33212660       0.62927444
C        0.15357535       0.35559377      -0.37544829
O        0.53189414       1.25970135      -1.30500858
C       -1.14834818       0.01328821      -0.42498163
O       -1.88717598      -0.48232461       0.58333057
H        1.96552077      -0.62666033       0.17349994
H        1.37506581       1.66243146      -1.06487169
H        1.25383650       0.37249794       1.43869464
H       -0.67519153      -0.28396194      -0.68737576
H       -1.73750196       0.54964529      -1.14962862
H       -1.06493773      -1.02458442       1.04435567
12
Properties=species:S:1:pos:R:3 relative_energy_eV=3.8931204871623777 branch=ts pbc="F F F"
O        0.26868252      -1.39388722       1.04137633
C        0.99992456      -0.33190076       0.62888261
C        0.15670249       0.35816176      -0.37416315
O        0.53171901       1.25929206      -1.30460999
C       -1.15760074       0.01942483      -0.41904343
O       -1.88728490      -0.48244772       0.58365195
H        1.96770239      -0.62570870       0.17336471
H        1.37675022       1.66280666      -1.06489271
H        1.25387151       0.37409233       1.43788694
H       -0.60840028      -0.38009542      -0.77965592
H       -1.73002479       0.54878075      -1.15308532
H       -1.06937478      -1.02331455       1.04288176
12
Properties=species:S:1:pos:R:3 relative_energy_eV=3.008241858355177 branch=right pbc="F F F"
O        0.26911516      -1.39421203       1.04171310
C        0.99966421      -0.33167492       0.62849078
C        0.15982964       0.36072975      -0.37287802
O        0.53154388       1.25888278      -1.30421141
C       -1.16685329       0.02556145      -0.41310522
O       -1.88739382      -0.48257082       0.58397334
H        1.96988401      -0.62475706       0.17322948
H        1.37843463       1.66318186      -1.06491372
H        1.25390653       0.37568673       1.43707923
H       -0.54160904      -0.47622889      -0.87193609
H       -1.72254761       0.54791620      -1.15654201
H       -1.07381183      -1.02204468       1.04140786
12
Properties=species:S:1:pos:R:3 relative_energy_eV=2.085670918935648 branch=right pbc="F F F"
O        0.27359271      -1.39763405       1.04516115
C        0.99922021      -0.33371828       0.62742853
C        0.17668060       0.38341120      -0.35980126
O        0.53373180       1.25688067      -1.30139497
C       -1.22995589       0.08009643      -0.37541170
O       -1.88603188      -0.48427167       0.58536244
H        1.97096764      -0.62336991       0.17243888
H        1.37886749       1.66248037      -1.06482518
H        1.25344316       0.37792014       1.43598711
H       -0.49894264      -0.54791946      -0.92707266
H       -1.72560240       0.55008467      -1.15816837
H       -1.07580836      -1.02348974       1.04260334
12
Properties=species:S:1:pos:R:3 relative_energy_eV=1.8358349671107135 branch=right pbc="F F F"
O        0.27883678      -1.40318697       1.05389932
C        1.00330044      -0.34254028       0.63538579
C        0.14583889       0.39732123      -0.35670242
O        0.54632213       1.26199495      -1.29884637
C       -1.22069054       0.11805237      -0.36178719
O       -1.90052193      -0.48697171       0.59700742
H        1.97191535      -0.61981884       0.17055092
H        1.38134909       1.66200827      -1.06565000
H        1.25388066       0.38198443       1.43438949
H       -0.47307263      -0.60486101      -0.96192643
H       -1.74894080       0.56647667      -1.16882561
H       -1.06805500      -1.02998871       1.04481240
12
Properties=species:S:1:pos:R:3 relative_energy_eV=1.7875000103394996 branch=right pbc="F F F"
O        0.28339603      -1.40784164       1.06172822
C        1.00062904      -0.34512990       0.63831732
C        0.14275425       0.40331909      -0.35539589
O        0.54608178       1.26302563      -1.29900659
C       -1.22613551       0.11917869      -0.36511057
O       -1.89955860      -0.48079891       0.59522110
H        1.97176161      -0.61642270       0.16806070
H        1.39185710       1.66397042      -1.06240653
H        1.25466201       0.38472418       1.43394185
H       -0.46812403      -0.62685212      -0.96882818
H       -1.76467327       0.57864269      -1.17065967
H       -1.06248798      -1.03534505       1.04644556
12
Properties=species:S:1:pos:R:3 relative_energy_eV=1.6961484486328118 branch=right pbc="F F F"
O        0.29550907      -1.42081234       1.08532386
C        0.99291335      -0.34858038       0.64457502
C        0.13970438       0.41734057      -0.35093314
O        0.55996600       1.27424581      -1.29452923
C       -1.24184828       0.11641979      -0.39156212
O       -1.89446368      -0.46579483       0.59414934
H        1.96864048      -0.60519226       0.16082576
H        1.41186985       1.66305227      -1.05583096
H        1.25708429       0.39214909       1.43268834
H       -0.46390093      -0.68442386      -0.98251331
H       -1.80824842       0.61136994      -1.16911013
H       -1.04706370      -1.04930341       1.04922390
12
Properties=species:S:1:pos:R:3 relative_energy_eV=1.6067960019936436 branch=right pbc="F F F"
O        0.31508143      -1.43565487       1.12206363
C        0.97986161      -0.35022045       0.65304495
C        0.13983762       0.44969231      -0.34218284
O        0.58021240       1.28975596      -1.27905134
C       -1.25230866       0.10150730      -0.44186152
O       -1.88207133      -0.44517448       0.59508414
H        1.95910993      -0.58557150       0.14997556
H        1.44854259       1.66031535      -1.04402859
H        1.26108847       0.40287175       1.43045977
H       -0.47958972      -0.77972777      -1.00841750
H       -1.87563948       0.66035293      -1.16257173
H       -1.02396245      -1.06767617       1.04979279
12
Properties=species:S:1:pos:R:3 relative_energy_eV=1.5424933846024942 branch=right pbc="F F F"
O        0.31643736      -1.42877936       1.12180585
C        0.97790934      -0.34711986       0.65214606
C        0.13659532       0.45156130      -0.33915836
O        0.58406870       1.29358953      -1.27309236
C       -1.24504010       0.09233508      -0.44700357
O       -1.87292246      -0.44571132       0.59364435
H        1.95455734      -0.58321820       0.15021802
H        1.45236299       1.65744792      -1.04317364
H        1.26160505       0.40250632       1.43031762
H       -0.49825373      -0.78472265      -1.01238196
H       -1.87280689       0.65782326      -1.15763176
H       -1.02435050      -1.06524164       1.04661705
12
Properties=species:S:1:pos:R:3 relative_energy_eV=1.3547966427286156 branch=right pbc="F F F"
O        0.32141462      -1.39685439       1.11858318
C        0.96779052      -0.32838227       0.64575386
C        0.13297642       0.46171813      -0.33079971
O        0.58918558       1.30759087      -1.24054410
C       -1.21050715       0.05513324      -0.47601319
O       -1.83028463      -0.45907380       0.59677609
H        1.93335439      -0.57195642       0.15040636
H        1.47670728       1.64201809      -1.03587289
H        1.26483925       0.40294790       1.43049463
H       -0.59509760      -0.80049554      -1.03168174
H       -1.84761886       0.63669530      -1.13471832
H       -1.03259743      -1.04887075       1.02992312
12
Properties=species:S:1:pos:R:3 relative_energy_eV=1.2941502674475487 branch=right pbc="F F F"
O        0.33488854      -1.38924395       1.13210299
C        0.95768808      -0.31918611       0.64722272
C        0.13751056       0.48165233      -0.32232630
O        0.60147213       1.32789292      -1.21588164
C       -1.20141061       0.03033965      -0.50254216
O       -1.80618139      -0.45860640       0.59687451
H        1.92066717      -0.55643842       0.14345634
H        1.50344655       1.62712610      -1.02590208
H        1.26949320       0.41213202       1.43034128
H       -0.65987864      -0.85076665      -1.05793988
H       -1.85809377       0.64329993      -1.12614779
H       -1.02943943      -1.04773106       1.02304929
12
Properties=species:S:1:pos:R:3 relative_energy_eV=1.2231482462539134 branch=right pbc="F F F"
O        0.34808058      -1.37808546       1.13992219
C        0.95284410      -0.30608701       0.64923833
C        0.14833614       0.49716232      -0.31535131
O        0.60919837       1.35316300      -1.18789999
C       -1.18737443       0.00017968      -0.52461851
O       -1.78574761      -0.46442464       0.59703993
H        1.90886425      -0.53988702       0.13518078
H        1.53045031       1.60618067      -1.01381420
H        1.27502480       0.42420444       1.43063173
H       -0.75028275      -0.88404508      -1.08476605
H       -1.84765133       0.63417312      -1.11935301
H       -1.03158005      -1.04206366       1.01609737
12
Properties=species:S:1:pos:R:3 relative_energy_eV=1.1855064928477077 branch=right pbc="F F F"
O        0.36355482      -1.37137986       1.15068570
C        0.95160087      -0.29422357       0.65483773
C        0.15781846       0.51091223      -0.30872266
O        0.61914708       1.38049320      -1.16114077
C       -1.17808214      -0.02575298      -0.54723053
O       -1.77496181      -0.46619123       0.59768470
H        1.90036182      -0.52197290       0.12474215
H        1.55799859       1.58583458      -1.00081676
H        1.28121945       0.43843234       1.43074967
H       -0.83682431      -0.92355863      -1.11557577
H       -1.84171328       0.62910799      -1.11604968
H       -1.02995719      -1.04123081       1.01314346
12
Properties=species:S:1:pos:R:3 relative_energy_eV=1.1259443065700907 branch=right pbc="F F F"
O        0.37140277      -1.37200326       1.15036525
C        0.96089946      -0.28848834       0.66146864
C        0.16297397       0.50098021      -0.31356638
O        0.62182687       1.39470049      -1.15161511
C       -1.18145996      -0.02728027      -0.54001479
O       -1.78863176      -0.46847649       0.59914365
H        1.90510710      -0.51544230       0.11786030
H        1.56147108       1.57446003      -0.99482658
H        1.28535597       0.44830939       1.43203691
H       -0.87215108      -0.92164875      -1.13184033
H       -1.82347044       0.61671128      -1.12452340
H       -1.03316160      -1.04135163       1.01781908
12
Properties=species:S:1:pos:R:3 relative_energy_eV=1.065273865191557 branch=right pbc="F F F"
O        0.39303581      -1.37251446       1.15674297
C        0.97695244      -0.28411274       0.67175686
C        0.16736946       0.48180151      -0.32456963
O        0.62312601       1.41707497      -1.12799400
C       -1.18886242      -0.03432949      -0.53425919
O       -1.81416521      -0.46940330       0.60615489
H        1.91763415      -0.49884532       0.10371284
H        1.57725845       1.55369072      -0.97978854
H        1.29551524       0.47109866       1.43520880
H       -0.93510827      -0.92759670      -1.16884270
H       -1.80389659       0.60833292      -1.14572840
H       -1.03869668      -1.04472643       1.02991329
12
Properties=species:S:1:pos:R:3 relative_energy_eV=1.0434840672714927 branch=right pbc="F F F"
O        0.40385907      -1.37095227       1.16078030
C        0.98360303      -0.28400237       0.67166583
C        0.16622124       0.46917901      -0.32828623
O        0.62321929       1.41879389      -1.11609494
C       -1.19392764      -0.03981645      -0.53516147
O       -1.82004897      -0.47033877       0.61020042
H        1.92693716      -0.49181791       0.09983199
H        1.57922143       1.54618180      -0.97266958
H        1.30007416       0.47998075       1.43470358
H       -0.95456272      -0.92222946      -1.18238849
H       -1.79855186       0.60980944      -1.15673848
H       -1.04588182      -1.04431730       1.03646428
12
Properties=species:S:1:pos:R:3 relative_energy_eV=1.0092888478557143 branch=right pbc="F F F"
O        0.42915556      -1.36756785       1.17495162
C        0.99416886      -0.28494055       0.66861434
C        0.16125913       0.44675009      -0.33144569
O        0.62314283       1.41413634      -1.09035972
C       -1.20537174      -0.05044068      -0.54778832
O       -1.82265092      -0.47046174       0.61627006
H        1.94702367      -0.47565759       0.09486218
H        1.58236107       1.53204866      -0.95535006
H        1.30884017       0.49563127       1.42786862
H       -0.98735473      -0.91883607      -1.21075592
H       -1.79835951       0.62227287      -1.17437066
H       -1.06205202      -1.04246442       1.04981071
12
Properties=species:S:1:pos:R:3 relative_energy_eV=0.9923867102406803 branch=right pbc="F F F"
O        0.44502647      -1.36533609       1.18487858
C        0.99800553      -0.28668697       0.66515720
C        0.15868434       0.43528112      -0.33068107
O        0.62108553       1.40465604      -1.07827481
C       -1.21046159      -0.05451728      -0.55800106
O       -1.81901484      -0.47028180       0.61559900
H        1.95902461      -0.46661207       0.09583007
H        1.57941918       1.52478581      -0.94316171
H        1.31287872       0.50144761       1.41818554
H       -0.99882488      -0.91653604      -1.22495900
H       -1.80202571       0.63269695      -1.17855739
H       -1.07363495      -1.03842694       1.05629179
12
Properties=species:S:1:pos:R:3 relative_energy_eV=0.9771639531209075 branch=right pbc="F F F"
O        0.46218409      -1.36484349       1.19659021
C        1.00083620      -0.28917146       0.66202166
C        0.15790966       0.42590595      -0.32847913
O        0.61737148       1.39397828      -1.07080872
C       -1.21222111      -0.05630715      -0.56785189
O       -1.81531340      -0.46978647       0.61019057
H        1.96996291      -0.45722202       0.09943050
H        1.57393090       1.51676559      -0.92766268
H        1.31640538       0.50637943       1.40351386
H       -1.00864602      -0.91710315      -1.23981762
H       -1.80660451       0.64360012      -1.17563776
H       -1.08565319      -1.03172530       1.06081813
12
Properties=species:S:1:pos:R:3 relative_energy_eV=0.9641957901112619 branch=right pbc="F F F"
O        0.47692072      -1.36634340       1.20633061
C        1.00328937      -0.29340979       0.65998340
C        0.15880034       0.41821411      -0.32746417
O        0.61255693       1.38387232      -1.07127857
C       -1.21057881      -0.05597124      -0.57256554
O       -1.81610290      -0.46983802       0.60143726
H        1.97901698      -0.45040124       0.10513836
H        1.56490366       1.51011964      -0.91175107
H        1.31897488       0.51080332       1.38721311
H       -1.01306457      -0.91487017      -1.25112149
H       -1.80796156       0.65145956      -1.16641944
H       -1.09659264      -1.02316478       1.06280468
12
Properties=species:S:1:pos:R:3 relative_energy_eV=0.9532920319652476 branch=right pbc="F F F"
O        0.49070158      -1.36975055       1.21534187
C        1.00657796      -0.29847269       0.65918759
C        0.16046020       0.41111025      -0.32861714
O        0.60853185       1.37687102      -1.07650807
C       -1.20691229      -0.05633528      -0.57384286
O       -1.82270551      -0.47141292       0.59193684
H        1.98708922      -0.44479521       0.11081549
H        1.55606101       1.50395519      -0.89457432
H        1.32164120       0.51811753       1.37100279
H       -1.01921087      -0.91231580      -1.26255526
H       -1.80516073       0.65712225      -1.15301406
H       -1.10691123      -1.01362345       1.06313424
12
Properties=species:S:1:pos:R:3 relative_energy_eV=0.9473101447383669 branch=right pbc="F F F"
O        0.49782971      -1.37245385       1.21936945
C        1.00905880      -0.30253300       0.65914119
C        0.16153242       0.40656793      -0.33187691
O        0.60764833       1.37304059      -1.08353524
C       -1.20451689      -0.05766986      -0.57187897
O       -1.83129105      -0.47486338       0.58667280
H        1.99194848      -0.44364920       0.11420165
H        1.55035682       1.50254137      -0.88405330
H        1.32295460       0.52514055       1.36186128
H       -1.02153982      -0.90846164      -1.26790417
H       -1.80011134       0.66015107      -1.14202334
H       -1.11370765      -1.00734027       1.06233266
12
Properties=species:S:1:pos:R:3 relative_energy_eV=0.9435820992748631 branch=right pbc="F F F"
O        0.50197952      -1.37375422       1.22158717
C        1.01095712      -0.30426039       0.65919568
C        0.16223249       0.40350383      -0.33520414
O        0.60970961       1.37141258      -1.08859578
C       -1.20410289      -0.06060933      -0.57052605
O       -1.83874276      -0.47956142       0.58479636
H        1.99482061      -0.44416977       0.11509978
H        1.54944947       1.50384735      -0.87748576
H        1.32346109       0.53232616       1.35733443
H       -1.02537579      -0.90747755      -1.27159226
H       -1.79563718       0.66359672      -1.13411440
H       -1.11858887      -1.00438364       1.06181206
12
Properties=species:S:1:pos:R:3 relative_energy_eV=0.9402859612873726 branch=right pbc="F F F"
O        0.50435708      -1.37323818       1.22242886
C        1.01231241      -0.30473814       0.65882208
C        0.16309119       0.40089471      -0.33862562
O        0.61366098       1.36836448      -1.09366432
C       -1.20520551      -0.06386100      -0.56933386
O       -1.84521807      -0.48586205       0.58375194
H        1.99676653      -0.44676029       0.11528558
H        1.55035599       1.50850048      -0.87312947
H        1.32270955       0.53922087       1.35437223
H       -1.02760680      -0.90697043      -1.27294145
H       -1.79170321       0.66863222      -1.12649652
H       -1.12335774      -1.00371235       1.06183764
12
Properties=species:S:1:pos:R:3 relative_energy_eV=0.9372902471932321 branch=right pbc="F F F"
O        0.50680058      -1.37074449       1.22378297
C        1.01359743      -0.30339612       0.65782445
C        0.16458374       0.39806806      -0.34116382
O        0.61917251       1.36409947      -1.09731734
C       -1.20707592      -0.06725917      -0.56941303
O       -1.84990678      -0.49328386       0.58238890
H        1.99826461      -0.44966338       0.11475181
H        1.55342253       1.51478963      -0.86912914
H        1.32109125       0.54630257       1.35139565
H       -1.03246362      -0.90876528      -1.27492907
H       -1.78870790       0.67567378      -1.11896010
H       -1.12861603      -1.00535089       1.06307581
12
Properties=species:S:1:pos:R:3 relative_energy_eV=0.9351313363204099 branch=right pbc="F F F"
O        0.50799710      -1.36685060       1.22504180
C        1.01445299      -0.30152086       0.65639749
C        0.16651335       0.39557214      -0.34237378
O        0.62387778       1.35832672      -1.09999299
C       -1.20844847      -0.06858893      -0.56951062
O       -1.85174002      -0.49956142       0.58008360
H        1.99916095      -0.45259296       0.11454646
H        1.55551927       1.52130817      -0.86679041
H        1.31871665       0.55067019       1.34843197
H       -1.03588120      -0.90966057      -1.27574541
H       -1.78700101       0.68212261      -1.11292546
H       -1.13300500      -1.00875418       1.06514443
12
Properties=species:S:1:pos:R:3 relative_energy_eV=0.9339730920091824 branch=right pbc="F F F"
O        0.50885941      -1.36359844       1.22733179
C        1.01521728      -0.30009916       0.65538587
C        0.16821987       0.39361717      -0.34226039
O        0.62638686       1.35411142      -1.10090069
C       -1.20835207      -0.06837074      -0.56983098
O       -1.85128149      -0.50293924       0.57775247
H        1.99988631      -0.45347955       0.11453719
H        1.55629285       1.52466981      -0.86510896
H        1.31702236       0.55266751       1.34562070
H       -1.04000077      -0.91004627      -1.27764287
H       -1.78640535       0.68611379      -1.10971059
H       -1.13568287      -1.01217599       1.06713352
12
Properties=species:S:1:pos:R:3 relative_energy_eV=0.9332842486510344 branch=right pbc="F F F"
O        0.50868627      -1.36133723       1.22975379
C        1.01573377      -0.29996432       0.65500570
C        0.16945146       0.39222586      -0.34210284
O        0.62714181       1.35090841      -1.10222462
C       -1.20733920      -0.06715611      -0.56941106
O       -1.85027664      -0.50456398       0.57596326
H        2.00052920      -0.45381226       0.11501855
H        1.55534195       1.52646881      -0.86437297
H        1.31577747       0.55310976       1.34328983
H       -1.04197770      -0.90829693      -1.27897747
H       -1.78596528       0.68802947      -1.10792956
H       -1.13694071      -1.01514119       1.06829448
12
Properties=species:S:1:pos:R:3 relative_energy_eV=0.9326372643299692 branch=right pbc="F F F"
O        0.50828034      -1.35938462       1.23365541
C        1.01628365      -0.30051060       0.65515343
C        0.17063432       0.39074494      -0.34221684
O        0.62762933       1.34823812      -1.10419725
C       -1.20581009      -0.06594642      -0.56882147
O       -1.84919999      -0.50606014       0.57468980
H        2.00137493      -0.45373239       0.11564783
H        1.55403208       1.52771188      -0.86352921
H        1.31475075       0.55397589       1.34072868
H       -1.04485280      -0.90568389      -1.28153326
H       -1.78526572       0.68977502      -1.10613321
H       -1.13769442      -1.01865750       1.06886317
12
Properties=species:S:1:pos:R:3 relative_energy_eV=0.9319256253329513 branch=right pbc="F F F"
O        0.50693432      -1.35730514       1.23888514
C        1.01650111      -0.30180811       0.65590893
C        0.17183070       0.38924649      -0.34298154
O        0.62816760       1.34535473      -1.10773204
C       -1.20420167      -0.06466943      -0.56769918
O       -1.84804726      -0.50801735       0.57414611
H        2.00211615      -0.45425495       0.11674159
H        1.55227679       1.52955674      -0.86333239
H        1.31358125       0.55530166       1.33816672
H       -1.04726891      -0.90127264      -1.28452175
H       -1.78410333       0.69171944      -1.10367688
H       -1.13762436      -1.02338117       1.06840237
12
Properties=species:S:1:pos:R:3 relative_energy_eV=0.9312439885889034 branch=right pbc="F F F"
O        0.50543342      -1.35534779       1.24506598
C        1.01622544      -0.30306451       0.65722880
C        0.17280918       0.38791196      -0.34422371
O        0.62911082       1.34302492      -1.11163138
C       -1.20326616      -0.06413426      -0.56679578
O       -1.84683005      -0.51033690       0.57461644
H        2.00239413      -0.45524580       0.11814092
H        1.55122752       1.53152374      -0.86367352
H        1.31267372       0.55754318       1.33606983
H       -1.05027236      -0.89687005      -1.28848712
H       -1.78287266       0.69413647      -1.10066511
H       -1.13647061      -1.02867068       1.06666175
12
Properties=species:S:1:pos:R:3 relative_energy_eV=0.930594775811187 branch=right pbc="F F F"
O        0.50398097      -1.35342054       1.25089371
C        1.01530366      -0.30376737       0.65890665
C        0.17338244       0.38684267      -0.34566887
O        0.63016428       1.34106384      -1.11516443
C       -1.20338491      -0.06422596      -0.56624501
O       -1.84539341      -0.51271016       0.57570799
H        2.00184106      -0.45702136       0.12009379
H        1.55088525       1.53343642      -0.86492258
H        1.31210940       0.56007073       1.33477824
H       -1.05276216      -0.89279594      -1.29247395
H       -1.78192606       0.69673650      -1.09727411
H       -1.13403813      -1.03373855       1.06367567
12
Properties=species:S:1:pos:R:3 relative_energy_eV=0.9299437075897004 branch=right pbc="F F F"
O        0.50325544      -1.35127653       1.25670614
C        1.01401462      -0.30340001       0.66086402
C        0.17363547       0.38564597      -0.34702670
O        0.63126683       1.33928376      -1.11759315
C       -1.20440501      -0.06493589      -0.56642977
O       -1.84352974      -0.51522093       0.57677590
H        2.00054252      -0.45924514       0.12276103
H        1.55135521       1.53465715      -0.86658357
H        1.31205001       0.56316510       1.33384999
H       -1.05611125      -0.88961590      -1.29740663
H       -1.78151243       0.69990141      -1.09329876
H       -1.13039926      -1.03848871       1.05968860
12
Properties=species:S:1:pos:R:3 relative_energy_eV=0.9292590206478053 branch=right pbc="F F F"
O        0.50320160      -1.34851082       1.26231604
C        1.01262150      -0.30189428       0.66303413
C        0.17371369       0.38398477      -0.34814835
O        0.63206817       1.33706456      -1.11897268
C       -1.20594703      -0.06580100      -0.56719670
O       -1.84117693      -0.51815171       0.57705361
H        1.99868117      -0.46202536       0.12642240
H        1.55204307       1.53493732      -0.86857181
H        1.31240702       0.56667191       1.33297780
H       -1.06017857      -0.88663324      -1.30313180
H       -1.78161484       0.70367043      -1.08848536
H       -1.12565646      -1.04284231       1.05500982
12
Properties=species:S:1:pos:R:3 relative_energy_eV=0.9286169810293359 branch=right pbc="F F F"
O        0.50383626      -1.34525839       1.26744377
C        1.01178844      -0.29949407       0.66511145
C        0.17384053       0.38176522      -0.34882464
O        0.63240515       1.33441992      -1.11925042
C       -1.20732165      -0.06648854      -0.56840617
O       -1.83881987      -0.52167016       0.57588286
H        1.99702459      -0.46473211       0.13051534
H        1.55253230       1.53383097      -0.87013302
H        1.31309469       0.57050529       1.33186798
H       -1.06530811      -0.88397242      -1.30946717
H       -1.78214919       0.70790894      -1.08321841
H       -1.12076075      -1.04634439       1.05078552
12
Properties=species:S:1:pos:R:3 relative_energy_eV=0.9280363452144229 branch=right pbc="F F F"
O        0.50428764      -1.34164660       1.27181217
C        1.01174555      -0.29694485       0.66698894
C        0.17415285       0.37927649      -0.34914097
O        0.63220378       1.33141374      -1.11932935
C       -1.20804523      -0.06661741      -0.56952576
O       -1.83686799      -0.52603939       0.57331238
H        1.99613209      -0.46723514       0.13449595
H        1.55232635       1.53163963      -0.87126631
H        1.31380016       0.57429034       1.33064744
H       -1.07051509      -0.88086515      -1.31551233
H       -1.78277115       0.71221818      -1.07787145
H       -1.11628659      -1.04901957       1.04769641
12
Properties=species:S:1:pos:R:3 relative_energy_eV=0.9274288514952786 branch=right pbc="F F F"
O        0.50387927      -1.33743467       1.27637665
C        1.01239695      -0.29444427       0.66898230
C        0.17466491       0.37666753      -0.34934600
O        0.63169079       1.32806548      -1.11996951
C       -1.20819603      -0.06628381      -0.57043020
O       -1.83525684      -0.53207466       0.56959484
H        1.99611620      -0.46974834       0.13843244
H        1.55155612       1.52841342      -0.87233413
H        1.31445393       0.57849171       1.32943956
H       -1.07606897      -0.87669005      -1.32194376
H       -1.78339950       0.71710633      -1.07195819
H       -1.11167442      -1.05159838       1.04546312
12
Properties=species:S:1:pos:R:3 relative_energy_eV=0.9267019381877617 branch=right pbc="F F F"
O        0.50170006      -1.33192638       1.28199882
C        1.01346625      -0.29192630       0.67153072
C        0.17529333       0.37406239      -0.34963092
O        0.63091873       1.32414396      -1.12196857
C       -1.20806721      -0.06554908      -0.57098123
O       -1.83367007      -0.54111421       0.56474469
H        1.99686102      -0.47286301       0.14284866
H        1.55034892       1.52391635      -0.87419266
H        1.31504564       0.58352885       1.32853559
H       -1.08196625      -0.87024014      -1.32955650
H       -1.78400740       0.72320713      -1.06452601
H       -1.10576063      -1.05476927       1.04350455
12
Properties=species:S:1:pos:R:3 relative_energy_eV=0.9258937448794313 branch=right pbc="F F F"
O        0.49737074      -1.32526459       1.28882764
C        1.01451128      -0.28953111       0.67455884
C        0.17578213       0.37206623      -0.35005818
O        0.63016883       1.32010160      -1.12555055
C       -1.20810614      -0.06476884      -0.57104056
O       -1.83208314      -0.55326867       0.55938965
H        1.99815037      -0.47640686       0.14754862
H        1.54931822       1.51830455      -0.87732277
H        1.31556406       0.58905961       1.32829699
H       -1.08759747      -0.86159388      -1.33844187
H       -1.78459891       0.73035864      -1.05566988
H       -1.09831757      -1.05858640       1.04176918
12
Properties=species:S:1:pos:R:3 relative_energy_eV=0.925134930643253 branch=right pbc="F F F"
O        0.49192639      -1.31883364       1.29528623
C        1.01484265      -0.28768141       0.67724247
C        0.17575186       0.37142730      -0.35043961
O        0.62975406       1.31698400      -1.12975261
C       -1.20872877      -0.06441729      -0.57055215
O       -1.83072432      -0.56592959       0.55490785
H        1.99933844      -0.47935467       0.15157436
H        1.54920190       1.51269176      -0.88143111
H        1.31597075       0.59341109       1.32888772
H       -1.09124269      -0.85257848      -1.34687559
H       -1.78507180       0.73673351      -1.04721653
H       -1.09085607      -1.06198229       1.04067610
12
Properties=species:S:1:pos:R:3 relative_energy_eV=0.9244887526911043 branch=right pbc="F F F"
O        0.48730906      -1.31380445       1.30041485
C        1.01426728      -0.28637256       0.67891951
C        0.17511200       0.37198036      -0.35057973
O        0.62991246       1.31513432      -1.13316232
C       -1.20996229      -0.06477560      -0.56985921
O       -1.82984262      -0.57660139       0.55181469
H        1.99995265      -0.48070499       0.15436846
H        1.55032663       1.50781582      -0.88547697
H        1.31635667       0.59579480       1.32970544
H       -1.09271342      -0.84515929      -1.35408076
H       -1.78552167       0.74126088      -1.04038906
H       -1.08503435      -1.06409761       1.04063221
12
Properties=species:S:1:pos:R:3 relative_energy_eV=0.9238351212006819 branch=right pbc="F F F"
O        0.48410737      -1.30968040       1.30486712
C        1.01283036      -0.28516682       0.67979441
C        0.17400925       0.37302420      -0.35042570
O        0.63067205       1.31374289      -1.13563368
C       -1.21160850      -0.06566029      -0.56918311
O       -1.82929247      -0.58585269       0.54935609
H        1.99974687      -0.48054391       0.15651625
H        1.55250711       1.50329580      -0.88939452
H        1.31678496       0.59673606       1.33012199
H       -1.09278230      -0.83868451      -1.36107451
H       -1.78610743       0.74448307      -1.03418095
H       -1.08070488      -1.06522312       1.04154374
12
Properties=species:S:1:pos:R:3 relative_energy_eV=0.9232260094831872 branch=right pbc="F F F"
O        0.48287246      -1.30594006       1.30969313
C        1.01090999      -0.28365131       0.68040159
C        0.17292946       0.37349649      -0.35011719
O        0.63206221       1.31174647      -1.13725436
C       -1.21314260      -0.06672298      -0.56882729
O       -1.82881261      -0.59421159       0.54673697
H        1.99855122      -0.47941019       0.15865486
H        1.55520876       1.49910301      -0.89287679
H        1.31721288       0.59748239       1.32938273
H       -1.09303953      -0.83249318      -1.36886627
H       -1.78692771       0.74732380      -1.02748157
H       -1.07766214      -1.06625258       1.04286130
12
Properties=species:S:1:pos:R:3 relative_energy_eV=0.9226949365020118 branch=right pbc="F F F"
O        0.48325752      -1.30201057       1.31554286
C        1.00906796      -0.28172351       0.68145968
C        0.17237662       0.37265615      -0.34986157
O        0.63384753       1.30842827      -1.13857062
C       -1.21402251      -0.06752580      -0.56887414
O       -1.82810033      -0.60250130       0.54329849
H        1.99653453      -0.47825068       0.16119273
H        1.55769595       1.49516926      -0.89591433
H        1.31753067       0.59933139       1.32738799
H       -1.09471954      -0.82557842      -1.37769722
H       -1.78789816       0.75053835      -1.01953942
H       -1.07540786      -1.06806289       1.04388267
12
Properties=species:S:1:pos:R:3 relative_energy_eV=0.922218422703736 branch=right pbc="F F F"
O        0.48454261      -1.29752677       1.32293556
C        1.00774561      -0.27948994       0.68350657
C        0.17253926       0.37039833      -0.34984324
O        0.63584462       1.30368413      -1.14018613
C       -1.21414216      -0.06794948      -0.56928158
O       -1.82703064      -0.61172337       0.53869252
H        1.99417849      -0.47769047       0.16414241
H        1.55970067       1.49113793      -0.89865512
H        1.31771534       0.60327769       1.32451528
H       -1.09855095      -0.81724957      -1.38774561
H       -1.78897613       0.75476338      -1.00997096
H       -1.07340434      -1.07116164       1.04419742
12
Properties=species:S:1:pos:R:3 relative_energy_eV=0.9217632918880554 branch=right pbc="F F F"
O        0.48608038      -1.29254461       1.33160210
C        1.00695327      -0.27719888       0.68665022
C        0.17324597       0.36725348      -0.35002010
O        0.63794034       1.29792299      -1.14246182
C       -1.21371323      -0.06800563      -0.56984123
O       -1.82564868      -0.62231177       0.53299351
H        1.99175354      -0.47782600       0.16709746
H        1.56137181       1.48667875      -0.90154316
H        1.31773581       0.60924211       1.32146333
H       -1.10383996      -0.80713230      -1.39842753
H       -1.79016117       0.75975476      -0.99901401
H       -1.07155569      -1.07536270       1.04380833
12
Properties=species:S:1:pos:R:3 relative_energy_eV=0.9213473712625273 branch=right pbc="F F F"
O        0.48742528      -1.28745706       1.34091873
C        1.00664874      -0.27505702       0.69059583
C        0.17415585       0.36409569      -0.35026238
O        0.64002535       1.29202584      -1.14535668
C       -1.21318655      -0.06786845      -0.57039068
O       -1.82418405      -0.63387642       0.52677746
H        1.98967546      -0.47850669       0.16950949
H        1.56302533       1.48166460      -0.90471739
H        1.31763085       0.61657783       1.31900307
H       -1.10969694      -0.79607349      -1.40887967
H       -1.79151545       0.76512697      -0.98763608
H       -1.06984147      -1.08018162       1.04274541
12
Properties=species:S:1:pos:R:3 relative_energy_eV=0.9210240112915926 branch=right pbc="F F F"
O        0.48834315      -1.28382063       1.34782701
C        1.00663104      -0.27361733       0.69399888
C        0.17469567       0.36243563      -0.35018874
O        0.64158656       1.28797919      -1.14787824
C       -1.21296341      -0.06759551      -0.57061169
O       -1.82321172      -0.64307541       0.52190314
H        1.98829762      -0.47911461       0.17032964
H        1.56465209       1.47710986      -0.90775570
H        1.31741604       0.62245740       1.31821448
H       -1.11337755      -0.78717375      -1.41567526
H       -1.79284984       0.76874529      -0.97931242
H       -1.06905724      -1.08385997       1.04145599
12
Properties=species:S:1:pos:R:3 relative_energy_eV=0.9207988745074545 branch=right pbc="F F F"
O        0.48904254      -1.28077394       1.35359558
C        1.00668240      -0.27232621       0.69666638
C        0.17471151       0.36201599      -0.34981296
O        0.64281309       1.28534392      -1.14988398
C       -1.21339041      -0.06743108      -0.57064556
O       -1.82272164      -0.65076235       0.51823334
H        1.98762031      -0.47946373       0.17056951
H        1.56652289       1.47254389      -0.91058618
H        1.31735149       0.62696732       1.31840527
H       -1.11595826      -0.78058409      -1.42106065
H       -1.79432824       0.77185433      -0.97305452
H       -1.06818327      -1.08691389       1.03988087
12
Properties=species:S:1:pos:R:3 relative_energy_eV=0.9205934754700138 branch=right pbc="F F F"
O        0.49033333      -1.28021780       1.35497142
C        1.00681958      -0.27188071       0.69775818
C        0.17409841       0.36357203      -0.34867433
O        0.64329698       1.28516652      -1.15046882
C       -1.21395268      -0.06682866      -0.57018262
O       -1.82323528      -0.65327472       0.51680819
H        1.98721946      -0.47888183       0.16872752
H        1.56820784       1.46918621      -0.91284422
H        1.31717041       0.62791926       1.32023558
H       -1.11435704      -0.77788348      -1.42056125
H       -1.79581316       0.77149092      -0.97189281
H       -1.06962545      -1.08789761       1.03843023
12
Properties=species:S:1:pos:R:3 relative_energy_eV=0.9203731211182458 branch=right pbc="F F F"
O        0.49216490      -1.27706557       1.36055081
C        1.00687752      -0.27015687       0.69962722
C        0.17328037       0.36457251      -0.34740449
O        0.64435818       1.28328988      -1.15182212
C       -1.21521945      -0.06627687      -0.56982453
O       -1.82372709      -0.65981620       0.51397392
H        1.98689974      -0.47840263       0.16859610
H        1.57070172       1.46338402      -0.91598469
H        1.31742510       0.63086901       1.32120177
H       -1.11537879      -0.77304558      -1.42518143
H       -1.79807085       0.77447770      -0.96717084
H       -1.06914896      -1.09135926       1.03574532
12
Properties=species:S:1:pos:R:3 relative_energy_eV=0.9201540349913557 branch=right pbc="F F F"
O        0.49456087      -1.27752654       1.35972917
C        1.00712869      -0.26976444       0.69901665
C        0.17233010       0.36660566      -0.34587083
O        0.64424346       1.28411131      -1.15102914
C       -1.21579075      -0.06532648      -0.56914996
O       -1.82523968      -0.65793693       0.51454930
H        1.98689888      -0.47698423       0.16692819
H        1.57161089       1.46135052      -0.91679510
H        1.31766180       0.62916053       1.32264416
H       -1.11233827      -0.77425168      -1.42226155
H       -1.79927587       0.77309049      -0.96942271
H       -1.07162772      -1.09205809       1.03396886
12
Properties=species:S:1:pos:R:3 relative_energy_eV=0.9199879199295538 branch=right pbc="F F F"
O        0.49697676      -1.27702199       1.36004796
C        1.00736397      -0.26894898       0.69858713
C        0.17170489       0.36746706      -0.34465483
O        0.64420000       1.28374666      -1.15061334
C       -1.21602307      -0.06434992      -0.56853995
O       -1.82670328      -0.65689262       0.51470538
H        1.98682061      -0.47569792       0.16671913
H        1.57196942       1.45946725      -0.91728503
H        1.31829864       0.62831785       1.32271564
H       -1.11086294      -0.77451475      -1.42112101
H       -1.79994950       0.77299272      -0.97024820
H       -1.07363310      -1.09409522       1.03199413
12
Properties=species:S:1:pos:R:3 relative_energy_eV=0.9199107603162702 branch=right pbc="F F F"
O        0.49802155      -1.27628185       1.36082969
C        1.00749021      -0.26830411       0.69874721
C        0.17160848       0.36728100      -0.34425096
O        0.64426697       1.28293494      -1.15072749
C       -1.21588205      -0.06403047      -0.56830044
O       -1.82731044      -0.65729784       0.51425805
H        1.98673757      -0.47500148       0.16722805
H        1.57202180       1.45829096      -0.91751624
H        1.31899894       0.62886019       1.32209578
H       -1.11126039      -0.77362491      -1.42145412
H       -1.79982980       0.77356448      -0.96952832
H       -1.07470044      -1.09592080       1.03092579
12
Properties=species:S:1:pos:R:3 relative_energy_eV=0.9198160554333299 branch=right pbc="F F F"
O        0.49872605      -1.27450174       1.36284584
C        1.00749823      -0.26708367       0.69963809
C        0.17153814       0.36673676      -0.34384678
O        0.64449574       1.28122474      -1.15151233
C       -1.21575042      -0.06377561      -0.56797682
O       -1.82786547      -0.65976359       0.51281535
H        1.98658093      -0.47411557       0.16855931
H        1.57229288       1.45586729      -0.91850137
H        1.32043257       0.63082311       1.32102395
H       -1.11267809      -0.77083455      -1.42318900
H       -1.79943792       0.77526686      -0.96681207
H       -1.07567023      -1.09937393       1.02926283
12
Properties=species:S:1:pos:R:3 relative_energy_eV=0.9197387467338558 branch=right pbc="F F F"
O        0.49850798      -1.27275155       1.36471455
C        1.00729411      -0.26587391       0.70077945
C        0.17142886       0.36642760      -0.34352444
O        0.64471057       1.27979338      -1.15243290
C       -1.21580868      -0.06376527      -0.56771604
O       -1.82808246      -0.66284744       0.51121854
H        1.98645672      -0.47327258       0.16991122
H        1.57280164       1.45324756      -0.91993989
H        1.32210258       0.63304611       1.32031018
H       -1.11409520      -0.76793836      -1.42508166
H       -1.79900401       0.77707087      -0.96370073
H       -1.07614970      -1.10266631       1.02776872
12
Properties=species:S:1:pos:R:3 relative_energy_eV=0.9196957812000619 branch=right pbc="F F F"
O        0.49751620      -1.27184093       1.36542071
C        1.00694232      -0.26514721       0.70160082
C        0.17128143       0.36661850      -0.34328712
O        0.64476462       1.27929042      -1.15301222
C       -1.21604298      -0.06387037      -0.56754730
O       -1.82800817      -0.66496113       0.51023655
H        1.98636997      -0.47269717       0.17067695
H        1.57333103       1.45150471      -0.92134630
H        1.32337760       0.63432396       1.32034360
H       -1.11448217      -0.76638407      -1.42603026
H       -1.79880875       0.77809705      -0.96171419
H       -1.07607870      -1.10446365       1.02696576
12
Properties=species:S:1:pos:R:3 relative_energy_eV=0.9196832662000816 branch=right pbc="F F F"
O        0.49674149      -1.27195207       1.36499628
C        1.00672077      -0.26506586       0.70176037
C        0.17119933       0.36700936      -0.34313901
O        0.64468035       1.27959498      -1.15298310
C       -1.21620869      -0.06393611      -0.56749562
O       -1.82789400      -0.66519869       0.51017890
H        1.98631945      -0.47245933       0.17063914
H        1.57359337       1.45117929      -0.92200435
H        1.32378252       0.63427711       1.32080008
H       -1.11395637      -0.76657264      -1.42583105
H       -1.79890423       0.77805798      -0.96154848
H       -1.07591156      -1.10446390       1.02693381
12
Properties=species:S:1:pos:R:3 relative_energy_eV=0.9196829246720881 branch=right pbc="F F F"
O        0.49638866      -1.27228845       1.36443158
C        1.00664412      -0.26516322       0.70169997
C        0.17117979       0.36728550      -0.34301145
O        0.64457435       1.27993544      -1.15279148
C       -1.21625562      -0.06391842      -0.56745742
O       -1.82789593      -0.66479865       0.51037880
H        1.98627914      -0.47233192       0.17039679
H        1.57367098       1.45132300      -0.92228587
H        1.32384442       0.63388273       1.32119534
H       -1.11329711      -0.76713241      -1.42537848
H       -1.79906572       0.77775973      -0.96191996
H       -1.07590466      -1.10408321       1.02704915
