12
Properties=species:S:1:pos:R:3 pbc="F F F"
C        0.04582890       0.09030576      -0.78883383
O        1.04019226      -0.52551494      -0.31466535
O       -0.01495766      -0.99569082       2.22168116
C       -0.41349287      -0.18837330      -2.13910345
C        0.08593862       0.20771863       2.54938844
O        0.63966504       1.10123418       1.84202153
H        0.20897069      -0.91570864      -2.64667732
H       -0.43419930       0.82425344      -0.14680546
H        1.08086218      -0.31278409       0.69630881
H       -0.45961262       0.74120969      -2.71100214
H       -0.33441499       0.52441405       3.53084387
H       -1.44477637      -0.55109465      -2.09317759
