16
Properties=species:S:1:pos:R:3 pbc="F F F"
O        0.62440521      -1.34868498      -1.73486523
C       -0.33743241      -0.50951685      -1.53368455
C        0.04338777       0.84126506      -1.03134037
O        1.36123034       0.80545418      -0.55988350
O        1.24484461       1.37670428       1.13687831
C        0.49027939       0.59711103       1.67016953
C       -0.33362948      -0.37312708       0.87114645
O       -1.29406085      -0.88502694       1.77841569
H       -1.19836252      -0.57380144      -2.22447511
H       -0.15988638       1.65691502      -1.73755480
H       -0.71714679       0.85969780      -0.23510672
H        1.71486628      -0.06070796      -0.82808571
H        0.34893706       0.63925719       2.76725097
H       -0.61580160      -0.02908612      -0.12562430
H        0.58791851      -1.37723393       0.42260727
H       -1.75954915      -1.61921926       1.36415206
