16
Properties=species:S:1:pos:R:3 pbc="F F F"
O       -2.97309280      -0.56501657      -0.41045593
C       -1.57935340      -0.64689756      -0.47844241
C       -0.93013153       0.09860751       0.66320048
O       -1.61786088       0.50891602       1.58805818
C        0.51323015       0.41547148       0.63480924
O        0.46527729       1.60937874      -0.80869293
C        1.44816381      -0.42903107      -0.01813470
O        2.70846219      -0.45397992       0.58840797
H       -1.21231283      -0.23891967      -1.42497551
H       -1.24091651      -1.69437372      -0.43569919
H       -3.15762567      -0.14500160       0.44806661
H        0.82516902       1.03317138       1.47153508
H        1.00184974       2.39413938      -0.63905388
H        1.28187701       0.55459050      -0.99659016
H        1.08253356      -1.38120244      -0.38143710
H        3.27146612      -1.08941878       0.12897868
