16
Properties=species:S:1:pos:R:3 pbc="F F F"
C        1.98650329       1.37794679       0.99787775
C        0.68180274       1.11872362       0.90944858
C       -0.21298963       1.71554461      -0.05395900
C       -1.51783446       1.44895390      -0.12794784
C        0.11013912      -2.57500690      -0.34994970
C       -0.89746868      -2.13767649      -1.08799008
H        2.47310904       2.08278358       0.33354642
H        2.61417404       0.89863582       1.73505255
H        0.24073462       0.40357531       1.59593239
H        0.22267750       2.42194943      -0.75736441
H       -1.98328787       0.74939663       0.55433860
H       -2.16155088       1.91142112      -0.86292151
H        1.09442746      -2.13319114      -0.42505406
H        0.00098824      -3.38838764       0.35588714
H       -0.77502953      -1.29469471      -1.75358298
H       -1.87639539      -2.59997328      -1.06331619
