12
Properties=species:S:1:pos:R:3 pbc="F F F"
C       -0.45895589      -0.41172017      -0.48603534
O       -1.41161736      -1.08150703      -0.83818131
O        0.79200555      -0.37369201       1.59974520
C        0.66543375      -0.02655350      -1.40310903
C       -0.38584565       0.07466439       0.97180759
O       -0.30526954       1.47900368       1.03598925
H        0.75571412       1.05836007      -1.45247082
H       -1.17133869       1.83970248       0.81448379
H        0.69784538      -1.31665871       1.77619026
H        1.61270368      -0.39756540      -1.01208236
H       -1.27797750      -0.29590941       1.49012091
H        0.48782241      -0.43128205      -2.39374174
