12
Properties=species:S:1:pos:R:3 pbc="F F F"
C       -0.75559551      -0.06314524      -1.63688677
O       -1.36166248      -0.17634025      -0.58561816
O        0.39527452       0.03082619       1.56892600
C        0.71513566       0.11283574      -1.76752379
C       -0.07325226      -0.08783706       2.82543562
O        0.62661818      -0.00394530       3.79829645
H        0.92171470       1.05663537      -2.27536665
H       -1.32294479      -0.08698889      -2.58648686
H       -0.32670615      -0.06022380       0.90719001
H        1.21959223       0.10007025      -0.80611966
H       -1.16198187      -0.26975536       2.86528607
H        1.12331332      -0.66899485      -2.40980522
