12
Properties=species:S:1:pos:R:3 pbc="F F F"
C       -0.50694045      -0.00583524      -0.82808681
O       -1.31062193      -0.84095593      -0.48252060
O        0.72013886      -0.05235731       1.61956373
C        0.78375667       0.00202249      -1.57375096
C       -0.61806697       0.11543773       1.58518865
O       -1.09784483       1.28610953       1.74687157
H        1.47582431       0.68150166      -1.07368377
H       -1.02667137       1.27257671      -0.43050595
H        0.90962364      -0.99543444       1.52638257
H        1.11249948      -1.03093583      -1.51183665
H       -1.11222143      -0.75131036       2.03396461
H        0.67052400       0.31918100      -2.61158638
