12
Properties=species:S:1:pos:R:3 pbc="F F F"
C       -0.21860755      -1.33930981      -0.13806545
O       -0.54919221      -1.39065678       1.02674158
O       -0.01529371       1.23743441       2.15889267
C        0.68986248      -0.29477388      -0.72771800
C       -0.16307536       0.66082233      -1.53943203
O       -0.19845730       0.68261045      -2.74483291
H       -0.27001842       1.56011196       3.02856364
H       -0.62431367      -2.07095229      -0.86264255
H       -0.34722936       0.32789308       2.12023311
H        1.17236573       0.25245896       0.08264788
H       -0.79343389       1.33550128      -0.92794693
H        1.41795316      -0.76033455      -1.39119723
