16
Properties=species:S:1:pos:R:3 pbc="F F F"
O       -1.35617958       0.77090974      -1.09976412
C       -0.04493831       1.09297843      -1.36118390
C        0.61165025       0.51188742      -2.51627651
O        0.95051496       0.07774711      -1.17504102
C        0.06390219      -0.15567635       1.87600372
O       -1.30944990       0.10355664       1.66027938
C        0.44098713      -1.54555831       1.44676058
O       -0.39474746      -2.40821132       1.28821118
H        0.07162456      -0.21480007      -3.11110628
H        1.38974529       1.06243215      -3.03386544
H        0.32516351      -0.04730186       2.93845936
H        0.66830303       0.56467930       1.32314316
H       -1.46857627       0.69719600      -0.13149082
H        0.25455610       2.08007886      -1.00730081
H        1.51894923      -1.74259368       1.29109966
H       -1.72907235      -0.77345240       1.61405949
