16
Properties=species:S:1:pos:R:3 pbc="F F F"
O       -0.38277690       0.70017027      -0.19104329
C        0.14875246       0.94414794      -1.44615229
C        0.67895156      -0.08157022      -2.33227943
O        1.54647122       0.84793147      -1.63621942
C       -0.06542843      -0.03944900       2.01847593
O       -1.45181556       0.02084973       2.33719118
C        0.14315061      -0.40051099       0.56125912
O       -0.49156419      -1.59690152       0.22161268
H        0.73239318      -1.10322002      -1.98248647
H        0.62360106       0.05706076      -3.40704654
H        0.37004430      -0.81635920       2.64499430
H        0.44112825       0.90688291       2.22474023
H       -1.82414264       0.74600831       1.82013863
H       -0.31031380       1.84638489      -1.83863606
H        1.20196851      -0.52094661       0.33682709
H       -1.35284030      -1.58436583       0.66670001
