16
Properties=species:S:1:pos:R:3 pbc="F F F"
O        1.50407455       0.21398528      -1.42207859
C       -0.38631716      -0.79376611      -0.53228642
C       -1.40184958       0.00940379      -1.11875468
O       -1.63901416       1.18037769      -0.60242918
C       -0.15880027       0.93164313       1.30398155
O        0.85234790       1.61508521       1.43103096
C        0.03494322      -0.52472855       0.86044399
O        1.39328518      -0.89534244       1.05924675
H       -1.44424942      -0.07478638      -2.21751818
H       -2.03307963      -0.93504409      -0.74361050
H        1.32272226       1.14291905      -1.23127886
H       -1.12865148       1.25680647       1.64421001
H        1.94374854      -0.10478503      -0.61410594
H       -0.05685240      -1.70651264      -0.99629441
H       -0.60211307      -1.14570521       1.52145412
H        1.76551799      -0.20646380       1.63892469
