12
Properties=species:S:1:pos:R:3 pbc="F F F"
C       -0.41064491       0.20911047      -1.09839292
O       -1.12861167      -0.88417795      -1.61097697
O        0.27369080       1.50900242       1.23697474
C       -0.15251752       0.14222024       0.35503495
C        0.94901941      -0.81656384       0.74568014
O        1.27692029      -1.69094652      -0.02479562
H       -0.94706578       1.29007538      -0.64165930
H        0.47753470       0.70721348      -1.46544221
H       -0.53873921       2.01628344       1.22027141
H       -0.97323548      -0.21651400       0.98446466
H        1.48200124      -0.74327651       1.71476877
H       -0.36067850      -1.45606356      -1.54646735
