12
Properties=species:S:1:pos:R:3 pbc="F F F"
C       -0.26114019      -0.17810145      -0.93096274
O       -1.55291542      -0.43188161      -1.40940369
O       -0.00134034       1.50376050       0.78103727
C       -0.11787692      -0.36920166       0.46473831
C        1.24894162      -0.62076406       0.98436741
O        2.25599868      -0.57500761       0.31310057
H       -0.06345864       1.11912638      -0.54881809
H        0.57740082      -0.48902786      -1.54394187
H       -0.89950182       1.81483419       0.94521939
H       -0.96396567      -0.62997747       1.09709060
H        1.27699344      -0.77780731       2.08252366
H       -1.55146543      -0.29959105      -2.36548918
