12
Properties=species:S:1:pos:R:3 pbc="F F F"
O       -1.17548292       1.44881483       1.44918575
C       -0.80199722       1.26002857      -0.29091854
C       -0.09681919       0.13080915      -0.61671480
O       -1.01751111      -0.60934813      -1.42201032
C        0.39592164      -0.87453180       0.31250408
O        1.88433573      -0.06152044       0.77441183
H       -1.24116704       2.01184313      -0.76124966
H        0.63864970       0.53571969      -1.31489749
H       -1.67953285      -0.99523085      -0.83366160
H        1.03426731      -1.42886902       0.04281371
H       -0.03958004      -0.94133475       1.23491789
H        2.18138774      -0.43912047       1.55216619
