12
Properties=species:S:1:pos:R:3 pbc="F F F"
O        1.35124819      -0.94828504       1.12741660
C        1.09859190       0.30419018       0.53499438
C        0.16761734       0.65173292      -0.61414262
O        0.48669136       1.39194475      -1.52155515
C       -1.21708616       0.03922776      -0.63628318
O       -1.61665122      -0.57207845       0.56356993
H        0.98724959      -1.51316470       0.29053315
H        2.09716426       0.61601615       0.23437667
H        0.79621638       0.95334655       1.35803908
H       -1.22085352      -0.76829440      -1.38165001
H       -1.94521474       0.78506835      -0.94832650
H       -0.92165073      -1.05936509       1.02169896
