12
Properties=species:S:1:pos:R:3 pbc="F F F"
C       -0.93659322      -0.51187664      -1.37988672
O       -0.77826201       0.81723718      -1.38518191
O        1.52458450       0.10472992       0.29340055
C       -0.50505967      -1.33515659      -0.40841754
C        1.32733056       0.89475211       1.19643461
O        0.04365638       1.10745270       1.42000804
H       -0.58393275       0.35042411       1.48000142
H       -1.61719035      -0.82953124      -2.16553584
H        0.36726602       1.13236560      -0.72992371
H       -0.00435275      -1.00190273       0.49075421
H        2.03571275       1.62207031       1.60722689
H       -0.87315944      -2.35056473      -0.41887999
