16
Properties=species:S:1:pos:R:3 pbc="F F F"
C        1.49328395      -0.76684648      -0.86019260
C        0.25972273       0.04123799      -0.50029750
O        0.40591065       1.38436375      -0.94186566
N       -0.87860122      -0.47131066      -1.24788456
C       -1.11202215       0.59760118       1.47730029
N        0.13561863       0.06135789       0.96071951
H        2.36314293      -0.39732016      -0.31863321
H        1.34573942      -1.81760502      -0.60660763
H        1.67332404      -0.69559697      -1.92840995
H       -1.12689355      -1.39344160      -0.90953404
H       -1.67923718       0.13557680      -1.11420253
H       -1.99047207      -0.03558572       1.29067955
H       -1.02733862       0.74106711       2.55346501
H       -1.30293212       1.57205320       1.03291350
H        0.30296318      -0.86881505       1.32311868
H        1.04443456       1.79375283      -0.34322026
