12
Properties=species:S:1:pos:R:3 pbc="F F F"
C       -1.16915967       0.02644843      -0.89314463
O        1.21711328       0.11875673       1.80753184
O        1.03600605      -0.36846668      -1.33878952
C       -0.94377181      -0.00012885       0.41701841
C       -0.16850017      -0.31581738      -1.92682383
O       -0.50256791      -0.65563281      -3.03641381
H       -2.16187542       0.26096415      -1.25743836
H        1.98883865       0.61804252       2.04412502
H        1.30128272       0.45596389      -0.53440103
H       -0.00058640      -0.32228909       0.84780159
H        1.11889478      -0.08068929       2.74338769
H       -1.71567410       0.26284837       1.12714662
