12
Properties=species:S:1:pos:R:3 pbc="F F F"
C       -1.60139902      -0.38738126      -1.64704204
O        2.12387213       1.03510726       3.61492794
O       -0.69493623      -2.33100340      -2.63460168
C       -0.59373005      -0.03724932      -0.85140918
C       -1.40614700      -1.31035915      -2.81131660
O       -1.97126494      -0.98319216      -3.88208490
H       -2.60185286       0.01879233      -1.50941998
H        2.66816529       1.07749766       4.49010759
H        1.66186917       1.94030194       3.43414054
H        0.37253892      -0.50739144      -0.97287010
H        2.73944205       0.79297707       2.82586541
H       -0.69639893       0.69182772      -0.05620719
