16
Properties=species:S:1:pos:R:3 pbc="F F F"
O       -1.66355884      -0.43481140      -4.69182372
C       -1.53687752       0.53450207      -4.01879018
C       -0.35852797       0.16834168      -0.07021218
O       -0.76023503       1.43315726      -0.14344415
C       -0.17644207      -0.41148377       1.26998239
O       -0.29763792       0.62828400       2.25074188
C        1.17920199      -1.10955593       1.41516745
O        2.23827638      -0.17694661       1.22262040
H       -1.76770958       1.55512216      -4.46783511
H       -0.32442889      -0.39921347      -0.98193091
H       -0.80004372       1.71364995       0.79874989
H       -0.98139604      -1.13009095       1.47394583
H        0.61166223       0.90163411       2.44544290
H        1.24715924      -1.96861483       0.73519804
H        1.26847246      -1.48396534       2.43750806
H        2.12185183       0.18068394       0.32520753
