11
Properties=species:S:1:pos:R:3 relative_energy_eV=3.2720989464660306 branch=ts pbc="F F F"
C        0.57441305       0.09249918      -0.50635378
C       -0.56604443      -0.14756977      -1.37175207
O       -1.19718712       0.46038449      -0.30732045
N        0.27292753       0.00298732       1.57602822
H        0.93317253       1.11180092      -0.47545831
H        1.34537311      -0.65770353      -0.36521598
H       -0.82766120      -1.19401501      -1.55589513
H       -0.57655223       0.41154070      -2.31554284
H        0.48396095       0.59354853       2.38345208
H        0.20855027      -0.95260075       1.91695836
H       -0.65095075       0.27914187       1.02108378
