11
Properties=species:S:1:pos:R:3 relative_energy_eV=2.1957823064540207 branch=ts pbc="F F F"
C       -0.23667484      -0.62111976      -0.52503828
C       -0.04253325       0.49826818      -1.43665514
O        1.19213421       0.72550621      -0.89673995
N        0.06625090      -0.07204905       1.66378581
H        0.51040661      -1.39256737      -0.51358065
H       -1.21902018      -0.90315575      -0.18013401
H       -0.77244621       1.31325734      -1.34312987
H       -0.06824681       0.13550619      -2.48730058
H        0.80429579       0.50581126       1.27894729
H       -0.66249093       0.50732973       2.06133957
H        0.42830910      -0.69681072       2.37850110
