16
Properties=species:S:1:pos:R:3 pbc="F F F"
O       -2.91986993      -0.23346283      -1.02738848
C       -2.21519631       0.05915886      -0.09094513
C       -0.95225152      -0.70526156       0.16458575
O       -0.74277280      -0.93032820       1.54091579
C        0.25673094       0.88157701      -0.26600328
O        0.51422514       1.69805646      -1.28534478
C        1.52352993       0.25240595       0.24739227
O        1.95818889      -0.63250922      -0.78817580
H       -2.60673043       0.75626514       0.68321230
H       -0.56735211      -1.24227138      -0.67697552
H       -1.28716585      -1.72392199       1.53973833
H       -0.02628034       1.41595738       0.62368631
H        0.26549076       0.43151947      -1.38430976
H        2.25152474       1.06173952       0.31858627
H        1.64246321      -0.29306789       1.18380995
H        2.90546324      -0.79586058      -0.78278904
