12
Properties=species:S:1:pos:R:3 pbc="F F F"
C       -0.52840180      -0.34845099      -1.63012249
O        0.05468719       0.47902158      -0.73029131
O        0.30907085       1.27390685       3.96908419
C       -0.63557596      -0.60380810      -2.93812356
C        0.78755930       0.33667655       3.38662566
O        0.69647771      -0.08469141       2.10339877
H       -0.15570435       0.71141454       1.45741057
H       -1.04340192      -1.09040144      -1.03162361
H        0.46573841       0.97474463      -1.45484553
H       -0.28665860       0.08828989      -3.69353210
H        1.46987549      -0.29634736       3.96580468
H       -1.13366631      -1.44035474      -3.40378528
