16
Properties=species:S:1:pos:R:3 pbc="F F F"
O        1.09377940      -0.32618730      -1.20757750
C       -0.10482700      -0.91483305      -0.89711328
C       -1.22777899      -0.10156010      -1.46316516
O       -1.42115960       1.14432259      -0.81633849
C        0.03168951       0.96137065       1.74109535
O        1.00076236       1.74207013       1.84670241
C        0.30797042      -0.44502511       1.57280705
O        1.60060657      -0.76012459       1.63283596
H       -1.04135823       0.01865514      -2.54447792
H       -2.17099513      -0.62747640      -1.33458658
H       -0.57936161       1.61632219      -0.79777608
H       -1.00866536       1.28845649       1.82016754
H        1.80048277      -0.82024108      -0.76740375
H       -0.13569380      -1.98578534      -1.07013887
H       -0.22290526      -0.95170882       0.48879944
H        2.04321130       0.12472372       1.77710100
