16
Properties=species:S:1:pos:R:3 pbc="F F F"
O       -3.13170719       0.48012393      -0.21342583
C       -2.51017039      -0.09811662      -1.20598839
C       -0.76957476      -0.54351176       0.43239900
O       -1.41519519      -0.82923908       1.40694913
C        0.47743963       0.29464451       0.48645632
O        0.36343152       0.97500772      -0.75198149
C        1.74235695      -0.55217247       0.45650712
O        2.63354006       0.48291123       0.00396097
H       -2.14085944       0.74765934      -1.84909500
H       -1.25886706      -0.77144098      -0.67593633
H       -3.29097398      -0.15323975       0.51403993
H        0.42277570       1.03418509       1.29456917
H        1.83071533       1.31927062      -1.00548293
H        1.67708371      -1.27841332      -0.35955855
H        1.83759583      -1.02637189       1.43522246
H        3.46943955      -0.01733964       0.00906296
