16
Properties=species:S:1:pos:R:3 pbc="F F F"
O       -3.03694406       0.54202319      -0.35528320
C       -2.32636598      -0.15260062      -1.20109553
C       -0.68508877      -0.70634793       0.62758248
O       -1.42406974      -1.04553231       1.50617361
C        0.38808773       0.51600447       0.50688798
O        0.38027693       1.22399644      -0.58251860
C        1.28992838      -0.66751054       0.53272127
O        2.82633403       0.58292556      -0.09745545
H       -1.98716321       0.52831515      -2.01021849
H       -1.21258623      -0.78607410      -0.56590238
H       -3.24226430       0.01331298       0.43962925
H        0.27124923       1.00171296       1.48725606
H        2.08978320       1.08115100      -0.57400941
H        1.40231196      -1.27985020      -0.34938185
H        1.80562657      -1.02894769       1.40693530
H        3.39788521       0.24141711      -0.79379898
