12
Properties=species:S:1:pos:R:3 pbc="F F F"
O       -0.37065726      -0.86743510      -1.45922023
C        0.10094251      -0.51709096      -0.43668249
C       -1.23600283      -0.67087620       0.86792885
O       -0.95963468       0.22836566       1.85500680
C        1.02229459       0.63170469      -0.27364610
O        1.84863927       0.72523984      -1.39605600
H       -0.56683992      -1.57964542       0.92766665
H       -2.04478785      -0.89312216       0.24114966
H       -1.35267469       0.93508118       1.12758407
H        0.52562679       1.57747791      -0.02078845
H        1.55687115       0.30951756       0.62755193
H        1.47642352       0.12078987      -2.06060505
