12
Properties=species:S:1:pos:R:3 pbc="F F F"
C       -3.67450695      -0.79791217      -0.11647530
O       -2.78815289      -0.10582640      -0.53287484
O        0.15591287       0.35349627      -0.14937134
C        1.31240124       0.31432091       0.03055597
C        2.64590372       0.75667270      -0.00593244
O        3.70098442       0.03172256       0.49598023
H       -4.40549051      -0.43677966       0.63663400
H       -3.82918151      -1.84297627      -0.46311046
H        0.36681906       0.92359956      -0.38575309
H        0.18205490      -0.09418354       0.06140002
H        2.96932214       1.69724733      -0.42979949
H        3.36392384      -0.79938490       0.85875290
