12
Properties=species:S:1:pos:R:3 pbc="F F F"
C        0.31861493      -0.32055814      -0.26787470
O        1.46992414      -1.06841699      -0.18331820
O        0.54096063       0.29257019       2.00064466
C       -0.32740032      -0.38063866      -1.60077586
C       -0.12413128       0.37010437       0.78458341
O       -1.22350598       1.19219795       0.75868648
H        0.36921640      -0.04979602      -2.37436944
H       -1.85434160       0.87010657       1.41802849
H        0.80467665       1.19029052       2.24887773
H       -0.60322939      -1.40950017      -1.84323817
H        1.79585613      -0.98470455       0.72446600
H       -1.21707299       0.24157777      -1.63763249
