16
Properties=species:S:1:pos:R:3 pbc="F F F"
C        2.13469380      -0.60189221      -0.49083998
C        1.00736274       0.05447881       0.15142318
O        1.01326796       1.37889196      -0.13538918
N       -1.49076888      -0.76079799      -1.73818158
C       -0.94010565       0.70856138       1.67331498
N       -0.03062496      -0.03843814       0.87435412
H        3.06389732      -0.13926739      -0.20884199
H        1.89801900      -1.55880940      -0.08143576
H        1.47792140      -0.50817735      -1.33206741
H       -1.36328911      -1.58701568      -2.30690198
H       -2.48849583      -0.62822863      -1.64330000
H       -1.52808249       0.10023232       2.35273754
H       -0.41502904       1.50473100       2.20893915
H       -1.57682404       1.13222160       0.89154009
H       -1.14393684      -0.98853508      -0.81259142
H        0.36348133       2.00159314       0.17686136
