16
Properties=species:S:1:pos:R:3 pbc="F F F"
O        2.63617127       2.95080140      -1.33030712
C        2.09465620       3.06209420      -0.28859546
C        0.76332511       3.73323990       0.08152074
O        0.09767602       4.38797812      -0.95358907
O       -1.50717652      -1.74937114       1.63713087
C       -1.62095419      -2.39013260       0.62427153
C       -0.59324389      -3.35286692       0.06923655
O       -1.25691370      -4.15463622      -0.90530764
H        0.60696408      -0.73119679       1.82217134
H        0.15029643       2.91527667       0.44335825
H        1.01680423       4.37277323       0.92897081
H        0.75619193       4.85174708      -1.49429355
H       -2.54658746      -2.31869554       0.01040946
H        0.23787472      -2.78505736      -0.36715405
H       -0.18357170      -3.94111968       0.89852227
H       -0.65045159      -4.85080605      -1.17550173
