12
Properties=species:S:1:pos:R:3 pbc="F F F"
O        1.69558192       0.83232809       0.11367905
C        1.19163746      -0.25479808      -0.00322454
C       -0.03084478      -0.60151946      -0.80600170
O       -0.29734838       0.58057823      -1.48119896
C       -0.47414000       0.63983505       1.07176780
O       -1.41655514       1.20855168       0.69445024
H        1.60090876      -1.15381554       0.50456564
H       -0.79853220      -1.01766430      -0.13976819
H        0.24794774      -1.34506751      -1.56479901
H       -1.33769495       0.49376809      -1.59195944
H       -0.33177124      -0.41552860       1.20133925
H       -0.04918919       1.03333235       2.00114986
