16
Properties=species:S:1:pos:R:3 relative_energy_eV=0.0 branch=left pbc="F F F"
C        1.54171316      -0.63634466      -0.86672435
C        0.25897986       0.07908124      -0.48502551
O        0.32262836       1.44470285      -0.87350367
N       -0.84135454      -0.47403065      -1.26001965
C       -1.14776185       0.48151649       1.50566262
N        0.12818113       0.03335925       0.97463712
H        2.38512206      -0.23221137      -0.30835925
H        1.45959025      -1.70242421      -0.65033292
H        1.71934853      -0.51602446      -1.93077599
H       -1.02983601      -1.42406790      -0.96273648
H       -1.68037971       0.07303157      -1.10520482
H       -1.99390576      -0.18198404       1.27858550
H       -1.07673757       0.57122810       2.58856958
H       -1.38262997       1.46784604       1.11119364
H        0.34175161      -0.90133985       1.29928697
H        0.94025298       1.86802620      -0.26269216
16
Properties=species:S:1:pos:R:3 relative_energy_eV=2.92992262984626e-06 branch=left pbc="F F F"
C        1.54158559      -0.63646521      -0.86667598
C        0.25904831       0.07926917      -0.48494273
O        0.32282356       1.44483682      -0.87352218
N       -0.84127317      -0.47389384      -1.25998603
C       -1.14782937       0.48144326       1.50555964
N        0.12823807       0.03365242       0.97469708
H        2.38523647      -0.23243676      -0.30861448
H        1.45911630      -1.70250983      -0.65008669
H        1.71898769      -0.51615998      -1.93076604
H       -1.02955577      -1.42398770      -0.96270554
H       -1.68038750       0.07305697      -1.10524708
H       -1.99361559      -0.18239056       1.27850284
H       -1.07693677       0.57098668       2.58840428
H       -1.38290295       1.46773917       1.11124173
H        0.34200683      -0.90095618       1.29941420
H        0.94042087       1.86818016      -0.26271239
16
Properties=species:S:1:pos:R:3 relative_energy_eV=8.820394214126281e-06 branch=left pbc="F F F"
C        1.54146956      -0.63661295      -0.86666666
C        0.25913412       0.07951590      -0.48484411
O        0.32308913       1.44498923      -0.87362307
N       -0.84121042      -0.47372607      -1.25994137
C       -1.14794066       0.48128716       1.50552097
N        0.12831164       0.03406470       0.97482036
H        2.38536646      -0.23276131      -0.30883411
H        1.45863545      -1.70263602      -0.64989095
H        1.71861559      -0.51640945      -1.93084273
H       -1.02937661      -1.42380820      -0.96249565
H       -1.68035475       0.07323184      -1.10545083
H       -1.99325350      -0.18293310       1.27833512
H       -1.07727432       0.57072974       2.58830337
H       -1.38333834       1.46749267       1.11134076
H        0.34247543      -0.90042816       1.29961211
H        0.94061378       1.86836861      -0.26278257
16
Properties=species:S:1:pos:R:3 relative_energy_eV=1.581296783115249e-05 branch=left pbc="F F F"
C        1.54137870      -0.63669329      -0.86671302
C        0.25919958       0.07981331      -0.48474053
O        0.32327193       1.44513376      -0.87386968
N       -0.84111617      -0.47372800      -1.25985316
C       -1.14805093       0.48118987       1.50562395
N        0.12839614       0.03453765       0.97504178
H        2.38548619      -0.23312443      -0.30894616
H        1.45815132      -1.70270222      -0.64979185
H        1.71824338      -0.51668154      -1.93103490
H       -1.02899866      -1.42378773      -0.96210720
H       -1.68037411       0.07313579      -1.10576644
H       -1.99302084      -0.18298820       1.27756147
H       -1.07784236       0.56997130       2.58843371
H       -1.38344466       1.46754580       1.11205970
H        0.34288146      -0.89987851       1.29980556
H        0.94080159       1.86862106      -0.26314257
16
Properties=species:S:1:pos:R:3 relative_energy_eV=2.1091949747642502e-05 branch=left pbc="F F F"
C        1.54135123      -0.63657599      -0.86681012
C        0.25918217       0.08002042      -0.48470384
O        0.32313600       1.44518648      -0.87422657
N       -0.84097000      -0.47408780      -1.25974253
C       -1.14807084       0.48130794       1.50590734
N        0.12842469       0.03484574       0.97525218
H        2.38550795      -0.23332104      -0.30883514
H        1.45783799      -1.70256823      -0.64987262
H        1.71805333      -0.51679022      -1.93127021
H       -1.02828578      -1.42417057      -0.96169506
H       -1.68052270       0.07239565      -1.10604668
H       -1.99326333      -0.18190510       1.27602166
H       -1.07847482       0.56852817       2.58891519
H       -1.38270608       1.46830152       1.11364994
H        0.34287223      -0.89965872       1.29988457
H        0.94089049       1.86885643      -0.26386745
16
Properties=species:S:1:pos:R:3 relative_energy_eV=3.450069380050991e-05 branch=left pbc="F F F"
C        1.54138827      -0.63631178      -0.86690755
C        0.25909460       0.08003718      -0.48475432
O        0.32274244       1.44513285      -0.87448587
N       -0.84082461      -0.47463296      -1.25963574
C       -1.14798128       0.48161563       1.50619926
N        0.12840508       0.03480403       0.97534517
H        2.38542515      -0.23324377      -0.30860071
H        1.45782174      -1.70228064      -0.65008278
H        1.71811527      -0.51667214      -1.93141822
H       -1.02749346      -1.42480263      -0.96148439
H       -1.68075233       0.07129688      -1.10604160
H       -1.99386759      -0.18016988       1.27442607
H       -1.07888479       0.56707587       2.58949168
H       -1.38143499       1.46944360       1.11534209
H        0.34235836      -0.89989944       1.29976924
H        0.94085065       1.86897192      -0.26460170
16
Properties=species:S:1:pos:R:3 relative_energy_eV=4.039693340018857e-05 branch=left pbc="F F F"
C        1.54143466      -0.63606224      -0.86696999
C        0.25900219       0.07994564      -0.48484350
O        0.32232872       1.44504878      -0.87460041
N       -0.84071999      -0.47509295      -1.25955898
C       -1.14786335       0.48192143       1.50638173
N        0.12836161       0.03461359       0.97531479
H        2.38531511      -0.23305592      -0.30840653
H        1.45795229      -1.70200810      -0.65029997
H        1.71829854      -0.51649062      -1.93144958
H       -1.02689553      -1.42535099      -0.96142583
H       -1.68095320       0.07034917      -1.10585704
H       -1.99449194      -0.17863761       1.27330259
H       -1.07907878       0.56603395       2.58992050
H       -1.38029967       1.47044912       1.11656290
H        0.34179445      -0.90029080       1.29959935
H        0.94077740       1.86899231      -0.26510942
16
Properties=species:S:1:pos:R:3 relative_energy_eV=4.900420935882721e-05 branch=left pbc="F F F"
C        1.54148017      -0.63585225      -0.86700804
C        0.25891627       0.07980690      -0.48494300
O        0.32190297       1.44495985      -0.87461914
N       -0.84064129      -0.47549211      -1.25946673
C       -1.14774122       0.48222894       1.50646319
N        0.12833139       0.03436554       0.97522816
H        2.38521053      -0.23283380      -0.30828611
H        1.45818224      -1.70178798      -0.65055000
H        1.71854431      -0.51630195      -1.93140445
H       -1.02641497      -1.42582130      -0.96137929
H       -1.68112989       0.06952071      -1.10552361
H       -1.99507929      -0.17726129       1.27240412
H       -1.07926767       0.56516071       2.59022145
H       -1.37928348       1.47139207       1.11756248
H        0.34124483      -0.90070067       1.29938357
H        0.94070758       1.86898143      -0.26552199
16
Properties=species:S:1:pos:R:3 relative_energy_eV=5.281045559968334e-05 branch=left pbc="F F F"
C        1.54152307      -0.63569704      -0.86702321
C        0.25882499       0.07963465      -0.48504930
O        0.32134803       1.44485995      -0.87460642
N       -0.84057540      -0.47592777      -1.25933269
C       -1.14762932       0.48257879       1.50645869
N        0.12829791       0.03417044       0.97507926
H        2.38512812      -0.23262155      -0.30825096
H        1.45855223      -1.70166819      -0.65093612
H        1.71889332      -0.51613067      -1.93126977
H       -1.02597864      -1.42626666      -0.96114676
H       -1.68129034       0.06868302      -1.10508928
H       -1.99572600      -0.17572812       1.27136649
H       -1.07972515       0.56396516       2.59044588
H       -1.37820647       1.47255431       1.11883944
H        0.34085335      -0.90102951       1.29914932
H        0.94067275       1.86898804      -0.26607397
16
Properties=species:S:1:pos:R:3 relative_energy_eV=6.527416007884312e-05 branch=left pbc="F F F"
C        1.54156917      -0.63568409      -0.86700466
C        0.25874416       0.07949858      -0.48509374
O        0.32076031       1.44476222      -0.87462012
N       -0.84056055      -0.47634270      -1.25916282
C       -1.14758577       0.48291125       1.50636796
N        0.12828718       0.03416485       0.97498041
H        2.38512942      -0.23252260      -0.30831682
H        1.45903863      -1.70177982      -0.65142234
H        1.71925302      -0.51601766      -1.93109865
H       -1.02573308      -1.42658880      -0.96065360
H       -1.68137952       0.06807226      -1.10472549
H       -1.99620213      -0.17435319       1.27022699
H       -1.08055608       0.56246804       2.59052529
H       -1.37728895       1.47377202       1.12038739
H        0.34080378      -0.90104560       1.29896858
H        0.94068286       1.86905013      -0.26679780
16
Properties=species:S:1:pos:R:3 relative_energy_eV=8.67573526193155e-05 branch=left pbc="F F F"
C        1.54160966      -0.63581640      -0.86696159
C        0.25869489       0.07946031      -0.48505300
O        0.32037070       1.44468648      -0.87472918
N       -0.84061177      -0.47660101      -1.25906212
C       -1.14764271       0.48308619       1.50628110
N        0.12826481       0.03441413       0.97498157
H        2.38521443      -0.23259115      -0.30840080
H        1.45942395      -1.70208233      -0.65179068
H        1.71947366      -0.51598697      -1.93098410
H       -1.02578074      -1.42669420      -0.96012254
H       -1.68136235       0.06790781      -1.10468199
H       -1.99635271      -0.17361253       1.26935295
H       -1.08139982       0.56114577       2.59048568
H       -1.37684567       1.47460755       1.12172344
H        0.34118487      -0.90069968       1.29898516
H        0.94072125       1.86914096      -0.26746331
16
Properties=species:S:1:pos:R:3 relative_energy_eV=8.836616325424984e-05 branch=left pbc="F F F"
C        1.54166633      -0.63597473      -0.86691564
C        0.25865333       0.07945889      -0.48497445
O        0.32015671       1.44459797      -0.87491377
N       -0.84070496      -0.47677211      -1.25903543
C       -1.14773762       0.48318020       1.50625168
N        0.12822715       0.03470998       0.97506829
H        2.38531838      -0.23269623      -0.30840646
H        1.45970985      -1.70240343      -0.65199398
H        1.71958799      -0.51592487      -1.93094845
H       -1.02597195      -1.42674941      -0.95978685
H       -1.68131204       0.06796049      -1.10480720
H       -1.99632272      -0.17325291       1.26872210
H       -1.08198482       0.56014752       2.59043723
H       -1.37662892       1.47513753       1.12275136
H        0.34159141      -0.90025859       1.29910994
H        0.94071427       1.86920470      -0.26799780
16
Properties=species:S:1:pos:R:3 relative_energy_eV=9.5647726993775e-05 branch=left pbc="F F F"
C        1.54176608      -0.63610020      -0.86686080
C        0.25857465       0.07940841      -0.48491187
O        0.31994679       1.44442396      -0.87523211
N       -0.84083694      -0.47700644      -1.25909910
C       -1.14783914       0.48330484       1.50631266
N        0.12810687       0.03500556       0.97515834
H        2.38539706      -0.23275015      -0.30825499
H        1.46001032      -1.70268742      -0.65209813
H        1.71973370      -0.51571518      -1.93093885
H       -1.02620307      -1.42693906      -0.95971068
H       -1.68128634       0.06795047      -1.10499258
H       -1.99637306      -0.17273156       1.26803468
H       -1.08230528       0.55906660       2.59047949
H       -1.37625111       1.47574655       1.12390490
H        0.34191111      -0.89981740       1.29934347
H        0.94061079       1.86920607      -0.26857388
16
Properties=species:S:1:pos:R:3 relative_energy_eV=0.00011306220949336421 branch=left pbc="F F F"
C        1.54197125      -0.63611909      -0.86678852
C        0.25839188       0.07917561      -0.48492368
O        0.31953623       1.44403049      -0.87578746
N       -0.84103788      -0.47752074      -1.25924145
C       -1.14791064       0.48365251       1.50649376
N        0.12785038       0.03519013       0.97520711
H        2.38540138      -0.23261198      -0.30781862
H        1.46054800      -1.70287474      -0.65217605
H        1.72009746      -0.51513237      -1.93090721
H       -1.02636951      -1.42756270      -0.96006612
H       -1.68137919       0.06752358      -1.10495908
H       -1.99678420      -0.17132275       1.26680745
H       -1.08233566       0.55735274       2.59072061
H       -1.37515242       1.47697043       1.12578599
H        0.34183865      -0.89946222       1.29966667
H        0.94029666       1.86907618      -0.26945287
16
Properties=species:S:1:pos:R:3 relative_energy_eV=0.000134527770569548 branch=left pbc="F F F"
C        1.54221904      -0.63598003      -0.86671758
C        0.25814277       0.07876358      -0.48507051
O        0.31896297       1.44349109      -0.87644834
N       -0.84123791      -0.47822432      -1.25942027
C       -1.14790669       0.48417308       1.50673619
N        0.12749158       0.03517912       0.97509328
H        2.38528369      -0.23227349      -0.30720220
H        1.46120854      -1.70283676      -0.65223377
H        1.72067230      -0.51430144      -1.93080225
H       -1.02633685      -1.42853265      -0.96081896
H       -1.68160866       0.06661899      -1.10454187
H       -1.99764017      -0.16910853       1.26523308
H       -1.08203697       0.55526860       2.59114099
H       -1.37345040       1.47865991       1.12804910
H        0.34134970      -0.89934814       1.30001106
H        0.93984944       1.86881616      -0.27044744
16
Properties=species:S:1:pos:R:3 relative_energy_eV=0.00014426664893107954 branch=left pbc="F F F"
C        1.54239046      -0.63576987      -0.86667440
C        0.25794689       0.07837168      -0.48527683
O        0.31848691       1.44305467      -0.87691766
N       -0.84135038      -0.47879474      -1.25951911
C       -1.14782752       0.48463427       1.50689662
N        0.12723352       0.03499678       0.97489071
H        2.38510623      -0.23191378      -0.30671733
H        1.46172314      -1.70262690      -0.65227940
H        1.72120037      -0.51362658      -1.93065816
H       -1.02614580      -1.42938099      -0.96155053
H       -1.68186108       0.06568745      -1.10390097
H       -1.99849356      -0.16712616       1.26396907
H       -1.08165635       0.55369228       2.59151453
H       -1.37195754       1.48006573       1.12973446
H        0.34068747      -0.89945953       1.30019883
H        0.93947957       1.86856092      -0.27114933
16
Properties=species:S:1:pos:R:3 relative_energy_eV=0.00015112491200852674 branch=left pbc="F F F"
C        1.54245382      -0.63559864      -0.86664798
C        0.25784333       0.07811590      -0.48546298
O        0.31821724       1.44280218      -0.87718181
N       -0.84138173      -0.47910943      -1.25955748
C       -1.14772988       0.48489827       1.50695805
N        0.12710268       0.03483185       0.97467554
H        2.38493668      -0.23167756      -0.30644516
H        1.46198923      -1.70239724      -0.65230461
H        1.72155036      -0.51326538      -1.93051162
H       -1.02596274      -1.42987719      -0.96201257
H       -1.68203545       0.06505497      -1.10337883
H       -1.99908473      -0.16587692       1.26324365
H       -1.08137179       0.55278764       2.59173862
H       -1.37107225       1.48088644       1.13066310
H        0.34023945      -0.89959254       1.30029146
H        0.93926811       1.86838290      -0.27150689
16
Properties=species:S:1:pos:R:3 relative_energy_eV=0.00015401685959659517 branch=left pbc="F F F"
C        1.54245215      -0.63547466      -0.86662228
C        0.25779867       0.07796539      -0.48560876
O        0.31809422       1.44266151      -0.87734204
N       -0.84137503      -0.47926216      -1.25955059
C       -1.14762262       0.48502795       1.50695251
N        0.12707689       0.03470856       0.97450284
H        2.38478307      -0.23153990      -0.30629962
H        1.46211311      -1.70219947      -0.65232346
H        1.72176079      -0.51310618      -1.93037243
H       -1.02584336      -1.43012852      -0.96226391
H       -1.68214194       0.06468526      -1.10300605
H       -1.99942182      -0.16515708       1.26284816
H       -1.08120384       0.55229096       2.59183717
H       -1.37061981       1.48130594       1.13115526
H        0.33996361      -0.89967786       1.30033303
H        0.93914823       1.86826550      -0.27167937
16
Properties=species:S:1:pos:R:3 relative_energy_eV=0.00015554647870885674 branch=left pbc="F F F"
C        1.54239876      -0.63537627      -0.86656893
C        0.25778319       0.07787061      -0.48575015
O        0.31806173       1.44255346      -0.87754136
N       -0.84135453      -0.47933685      -1.25954678
C       -1.14748020       0.48506110       1.50690984
N        0.12711117       0.03465450       0.97432806
H        2.38458695      -0.23145441      -0.30615520
H        1.46215277      -1.70201644      -0.65233398
H        1.72190694      -0.51305777      -1.93019283
H       -1.02582569      -1.43023905      -0.96237543
H       -1.68219425       0.06448266      -1.10280535
H       -1.99961347      -0.16466229       1.26258886
H       -1.08109554       0.55187649       2.59184878
H       -1.37040812       1.48151988       1.13156080
H        0.33988437      -0.89967759       1.30040717
H        0.93904823       1.86816722      -0.27181302
16
Properties=species:S:1:pos:R:3 relative_energy_eV=0.00016466428132844158 branch=left pbc="F F F"
C        1.54230962      -0.63527989      -0.86644965
C        0.25775977       0.07779735      -0.48588248
O        0.31806394       1.44241017      -0.87786971
N       -0.84134539      -0.47943332      -1.25956305
C       -1.14723955       0.48505162       1.50685085
N        0.12722588       0.03462273       0.97418722
H        2.38427080      -0.23132494      -0.30586446
H        1.46217800      -1.70185299      -0.65235307
H        1.72201142      -0.51302399      -1.92994234
H       -1.02595368      -1.43029908      -0.96238006
H       -1.68220491       0.06440262      -1.10288846
H       -1.99963505      -0.16417229       1.26234235
H       -1.08102268       0.55137954       2.59177528
H       -1.37025568       1.48166175       1.13212821
H        0.33992032      -0.89964142       1.30048975
H        0.93887951       1.86806739      -0.27201993
16
Properties=species:S:1:pos:R:3 relative_energy_eV=0.0001728039042063756 branch=left pbc="F F F"
C        1.54223497      -0.63518260      -0.86625782
C        0.25768384       0.07772069      -0.48598042
O        0.31799762       1.44220936      -0.87831022
N       -0.84137491      -0.47964349      -1.25968617
C       -1.14691116       0.48506332       1.50684751
N        0.12734220       0.03456342       0.97410783
H        2.38381493      -0.23103687      -0.30530517
H        1.46222615      -1.70176405      -0.65238176
H        1.72210105      -0.51289790      -1.92965970
H       -1.02621720      -1.43040057      -0.96227159
H       -1.68217657       0.06436186      -1.10343903
H       -1.99953825      -0.16352496       1.26209443
H       -1.08091250       0.55075179       2.59167940
H       -1.36993440       1.48188558       1.13296436
H        0.34003073      -0.89971198       1.30050609
H        0.93859581       1.86797168      -0.27234727
16
Properties=species:S:1:pos:R:3 relative_energy_eV=0.00018947061471408233 branch=left pbc="F F F"
C        1.54223888      -0.63505052      -0.86602246
C        0.25750145       0.07757491      -0.48603663
O        0.31771102       1.44193574      -0.87872450
N       -0.84145602      -0.48008332      -1.25991991
C       -1.14651346       0.48523627       1.50695785
N        0.12739503       0.03430471       0.97410627
H        2.38322222      -0.23044297      -0.30443170
H        1.46237600      -1.70174839      -0.65242858
H        1.72224750      -0.51254485      -1.92940303
H       -1.02644644      -1.43070294      -0.96216939
H       -1.68218795       0.06415098      -1.10434398
H       -1.99945034      -0.16248703       1.26177720
H       -1.08067279       0.55004416       2.59167852
H       -1.36908434       1.48242791       1.13403950
H        0.33991717      -0.90013421       1.30026559
H        0.93816438       1.86788481      -0.27278430
16
Properties=species:S:1:pos:R:3 relative_energy_eV=0.00020689093980763573 branch=left pbc="F F F"
C        1.54233613      -0.63485761      -0.86577812
C        0.25719191       0.07731184      -0.48612044
O        0.31711394       1.44160839      -0.87900833
N       -0.84157483      -0.48077702      -1.26030086
C       -1.14608032       0.48563017       1.50720987
N        0.12729405       0.03376582       0.97406371
H        2.38246202      -0.22947422      -0.30324903
H        1.46261793      -1.70175221      -0.65246600
H        1.72257819      -0.51193631      -1.92917605
H       -1.02649525      -1.43126936      -0.96209730
H       -1.68229304       0.06357772      -1.10541824
H       -1.99957769      -0.16090971       1.26136180
H       -1.08018571       0.54924591       2.59188597
H       -1.36749260       1.48344437       1.13528476
H        0.33946791      -0.90103658       1.29964529
H        0.93759965       1.86779407      -0.27327663
16
Properties=species:S:1:pos:R:3 relative_energy_eV=0.00022941586576052941 branch=left pbc="F F F"
C        1.54247739      -0.63461204      -0.86558198
C        0.25680415       0.07695288      -0.48628214
O        0.31628241       1.44129356      -0.87906640
N       -0.84168316      -0.48160218      -1.26070776
C       -1.14567045       0.48619271       1.50753944
N        0.12707279       0.03300490       0.97390094
H        2.38162423      -0.22832424      -0.30201539
H        1.46290778      -1.70169239      -0.65246210
H        1.72313136      -0.51121026      -1.92897023
H       -1.02627346      -1.43200429      -0.96211999
H       -1.68252583       0.06266915      -1.10628157
H       -1.99996478      -0.15903560       1.26087325
H       -1.07950090       0.54848970       2.59231652
H       -1.36537509       1.48478920       1.13643362
H        0.33865297      -0.90224613       1.29868672
H        0.93700286       1.86770029      -0.27370254
16
Properties=species:S:1:pos:R:3 relative_energy_eV=0.0002487469573679846 branch=left pbc="F F F"
C        1.54256950      -0.63437300      -0.86545998
C        0.25644951       0.07662130      -0.48653612
O        0.31545750       1.44108424      -0.87897631
N       -0.84172829      -0.48230951      -1.26107710
C       -1.14535531       0.48670789       1.50785313
N        0.12679363       0.03230721       0.97357566
H        2.38087204      -0.22738332      -0.30104129
H        1.46313917      -1.70153578      -0.65238590
H        1.72382775      -0.51062401      -1.92875547
H       -1.02592918      -1.43265295      -0.96214290
H       -1.68279111       0.06170135      -1.10682863
H       -2.00050915      -0.15737460       1.26047440
H       -1.07877242       0.54786339       2.59283731
H       -1.36337099       1.48604185       1.13731121
H        0.33780290      -0.90331743       1.29768935
H        0.93650674       1.86760861      -0.27397700
16
Properties=species:S:1:pos:R:3 relative_energy_eV=0.0002614101740618935 branch=left pbc="F F F"
C        1.54257222      -0.63415418      -0.86537744
C        0.25614093       0.07637253      -0.48683344
O        0.31470421       1.44097247      -0.87884816
N       -0.84170608      -0.48287391      -1.26137246
C       -1.14509329       0.48710141       1.50813161
N        0.12653782       0.03178646       0.97317364
H        2.38024513      -0.22679359      -0.30035990
H        1.46333021      -1.70129711      -0.65224513
H        1.72458430      -0.51022513      -1.92849555
H       -1.02560281      -1.43315439      -0.96218938
H       -1.68304501       0.06084600      -1.10726061
H       -2.00102905      -0.15605860       1.26021004
H       -1.07809955       0.54735876       2.59335198
H       -1.36168393       1.48703151       1.13802701
H        0.33701779      -0.90406780       1.29680416
H        0.93608938       1.86752082      -0.27415601
16
Properties=species:S:1:pos:R:3 relative_energy_eV=0.0002840259276126744 branch=left pbc="F F F"
C        1.54248115      -0.63392668      -0.86528329
C        0.25583005       0.07622185      -0.48717818
O        0.31391995       1.44093984      -0.87877817
N       -0.84162476      -0.48338547      -1.26171638
C       -1.14481531       0.48738216       1.50843984
N        0.12626910       0.03144485       0.97269895
H        2.37967539      -0.22652990      -0.29981007
H        1.46353364      -1.70097757      -0.65202428
H        1.72547153      -0.50994491      -1.92813600
H       -1.02539466      -1.43357564      -0.96220557
H       -1.68325969       0.06005373      -1.10795939
H       -2.00151218      -0.15488570       1.26011218
H       -1.07740137       0.54683810       2.59386343
H       -1.36013206       1.48783441       1.13888568
H        0.33628242      -0.90454702       1.29599645
H        0.93563905       1.86742317      -0.27434487
16
Properties=species:S:1:pos:R:3 relative_energy_eV=0.0003054460776183987 branch=left pbc="F F F"
C        1.54232943      -0.63366156      -0.86513669
C        0.25546637       0.07616857      -0.48749662
O        0.31300184       1.44094937      -0.87880970
N       -0.84150977      -0.48396125      -1.26212639
C       -1.14445668       0.48760414       1.50882984
N        0.12601059       0.03123651       0.97228260
H        2.37919290      -0.22655606      -0.29928939
H        1.46383375      -1.70060944      -0.65175042
H        1.72645590      -0.50968210      -1.92768217
H       -1.02534442      -1.43402605      -0.96231240
H       -1.68344548       0.05931093      -1.10920874
H       -2.00187187      -0.15368220       1.26018572
H       -1.07667556       0.54628423       2.59435438
H       -1.35856047       1.48852131       1.14008980
H        0.33547498      -0.90486034       1.29527310
H        0.93506075       1.86732917      -0.27464259
16
Properties=species:S:1:pos:R:3 relative_energy_eV=0.0003302682780486066 branch=left pbc="F F F"
C        1.54221665      -0.63338334      -0.86495911
C        0.25510899       0.07620413      -0.48769947
O        0.31206550       1.44098662      -0.87892786
N       -0.84141042      -0.48454123      -1.26259820
C       -1.14408013       0.48778751       1.50925142
N        0.12577827       0.03110651       0.97205639
H        2.37893340      -0.22675275      -0.29881140
H        1.46419675      -1.70028752      -0.65151316
H        1.72733309      -0.50940452      -1.92726861
H       -1.02543520      -1.43451473      -0.96249758
H       -1.68356570       0.05865579      -1.11081376
H       -2.00210477      -0.15248543       1.26042516
H       -1.07601523       0.54579301       2.59472365
H       -1.35714353       1.48908490       1.14148154
H        0.33465772      -0.90515058       1.29474076
H        0.93442686       1.86726688      -0.27502947
16
Properties=species:S:1:pos:R:3 relative_energy_eV=0.00035477882192935795 branch=left pbc="F F F"
C        1.54222593      -0.63311014      -0.86479483
C        0.25480549       0.07624911      -0.48774131
O        0.31120307       1.44100595      -0.87902599
N       -0.84136131      -0.48509450      -1.26300145
C       -1.14373544       0.48800808       1.50963080
N        0.12562262       0.03092531       0.97208485
H        2.37895362      -0.22692530      -0.29841566
H        1.46456483      -1.70005718      -0.65139228
H        1.72794741      -0.50909111      -1.92700824
H       -1.02550748      -1.43505221      -0.96285747
H       -1.68367724       0.05808507      -1.11230574
H       -2.00224117      -0.15132855       1.26071104
H       -1.07550605       0.54548635       2.59495346
H       -1.35596624       1.48959470       1.14274379
H        0.33379509      -0.90559092       1.29440591
H        0.93383909       1.86726058      -0.27542666
16
Properties=species:S:1:pos:R:3 relative_energy_eV=0.00037268889900587965 branch=left pbc="F F F"
C        1.54239964      -0.63280231      -0.86466270
C        0.25456128       0.07625435      -0.48770302
O        0.31034615       1.44100991      -0.87903766
N       -0.84134500      -0.48563571      -1.26339789
C       -1.14342565       0.48833696       1.50997276
N        0.12548299       0.03056657       0.97225318
H        2.37923031      -0.22696731      -0.29806153
H        1.46490153      -1.69985200      -0.65138514
H        1.72842442      -0.50873293      -1.92689611
H       -1.02543319      -1.43569151      -0.96336022
H       -1.68382000       0.05740485      -1.11349744
H       -2.00247079      -0.15001221       1.26104102
H       -1.07502201       0.54532170       2.59511725
H       -1.35488384       1.49022094       1.14386350
H        0.33274217      -0.90636517       1.29412349
H        0.93327420       1.86730912      -0.27580928
16
Properties=species:S:1:pos:R:3 relative_energy_eV=0.00038880253487150185 branch=left pbc="F F F"
C        1.54277847      -0.63239852      -0.86456365
C        0.25435159       0.07614880      -0.48763514
O        0.30933227       1.44095985      -0.87889154
N       -0.84132157      -0.48626676      -1.26377696
C       -1.14309623       0.48888529       1.51031752
N        0.12533770       0.02988642       0.97249211
H        2.37976581      -0.22681028      -0.29770908
H        1.46520659      -1.69957758      -0.65149641
H        1.72890697      -0.50830042      -1.92689664
H       -1.02506643      -1.43652834      -0.96414002
H       -1.68407541       0.05644575      -1.11433771
H       -2.00291371      -0.14827667       1.26141180
H       -1.07443873       0.54526680       2.59532583
H       -1.35368671       1.49116423       1.14490804
H        0.33123207      -0.90766594       1.29375322
H        0.93264951       1.86743263      -0.27620121
16
Properties=species:S:1:pos:R:3 relative_energy_eV=0.000417727247622679 branch=left pbc="F F F"
C        1.54329198      -0.63195063      -0.86452270
C        0.25423493       0.07592906      -0.48764078
O        0.30830898       1.44085735      -0.87860601
N       -0.84122999      -0.48686752      -1.26415012
C       -1.14280822       0.48957689       1.51062662
N        0.12513357       0.02896466       0.97260484
H        2.38040775      -0.22647802      -0.29740906
H        1.46539596      -1.69921009      -0.65169063
H        1.72944842      -0.50790245      -1.92695734
H       -1.02441610      -1.43740387      -0.96496618
H       -1.68437527       0.05525378      -1.11463872
H       -2.00362995      -0.14631830       1.26181554
H       -1.07373322       0.54525210       2.59562048
H       -1.35253719       1.49234340       1.14577062
H        0.32944065      -0.90928914       1.29323827
H        0.93202988       1.86760805      -0.27653469
16
Properties=species:S:1:pos:R:3 relative_energy_eV=0.0004394231418700656 branch=left pbc="F F F"
C        1.54374815      -0.63158860      -0.86452741
C        0.25421739       0.07564852      -0.48770495
O        0.30751697       1.44068668      -0.87829789
N       -0.84104148      -0.48734008      -1.26439896
C       -1.14261005       0.49021130       1.51086838
N        0.12490450       0.02810551       0.97254721
H        2.38090793      -0.22611736      -0.29723936
H        1.46547670      -1.69884762      -0.65191429
H        1.72990988      -0.50761896      -1.92700141
H       -1.02370638      -1.43807299      -0.96563872
H       -1.68460143       0.05421096      -1.11456690
H       -2.00436283      -0.14466936       1.26216205
H       -1.07309043       0.54524469       2.59597121
H       -1.35169111       1.49341535       1.14634721
H        0.32784456      -0.91068565       1.29272192
H        0.93153977       1.86778286      -0.27676798
16
Properties=species:S:1:pos:R:3 relative_energy_eV=0.00045385752491711173 branch=left pbc="F F F"
C        1.54407132      -0.63135535      -0.86455516
C        0.25428551       0.07537752      -0.48780157
O        0.30702762       1.44047477      -0.87806907
N       -0.84075103      -0.48766317      -1.26459847
C       -1.14252247       0.49068707       1.51106727
N        0.12461594       0.02745314       0.97234210
H        2.38118488      -0.22582021      -0.29718960
H        1.46551717      -1.69855938      -0.65214898
H        1.73024465      -0.50742949      -1.92700084
H       -1.02312511      -1.43848260      -0.96597710
H       -1.68462923       0.05343732      -1.11443239
H       -2.00501894      -0.14346759       1.26248996
H       -1.07255033       0.54520194       2.59633024
H       -1.35118979       1.49423049       1.14677198
H        0.32661793      -0.91164525       1.29226763
H        0.93118403       1.86792599      -0.27693589
16
Properties=species:S:1:pos:R:3 relative_energy_eV=0.00047275197539420333 branch=left pbc="F F F"
C        1.54429210      -0.63121856      -0.86457444
C        0.25439751       0.07507807      -0.48784468
O        0.30669528       1.44015474      -0.87793042
N       -0.84029650      -0.48801130      -1.26476650
C       -1.14250130       0.49108111       1.51132657
N        0.12421952       0.02694064       0.97209354
H        2.38129074      -0.22556669      -0.29723517
H        1.46563909      -1.69836815      -0.65247506
H        1.73041213      -0.50719469      -1.92694840
H       -1.02265914      -1.43876898      -0.96614063
H       -1.68439489       0.05289444      -1.11458927
H       -2.00560147      -0.14246749       1.26287661
H       -1.07206413       0.54514024       2.59675708
H       -1.35085131       1.49489408       1.14727837
H        0.32552817      -0.91230167       1.29188572
H        0.93085638       1.86807944      -0.27715323
16
Properties=species:S:1:pos:R:3 relative_energy_eV=0.0005006837400287623 branch=left pbc="F F F"
C        1.54443694      -0.63116246      -0.86457324
C        0.25454554       0.07474483      -0.48777858
O        0.30646662       1.43971389      -0.87791057
N       -0.83961589      -0.48849803      -1.26502052
C       -1.14256569       0.49141544       1.51172051
N        0.12362683       0.02650788       0.97187578
H        2.38125814      -0.22531114      -0.29737236
H        1.46597955      -1.69832554      -0.65299850
H        1.73036629      -0.50676444      -1.92685978
H       -1.02239382      -1.43904184      -0.96598119
H       -1.68370926       0.05255580      -1.11534435
H       -2.00619616      -0.14147985       1.26341365
H       -1.07157629       0.54506316       2.59726072
H       -1.35055794       1.49546000       1.14807544
H        0.32439845      -0.91278277       1.29156695
H        0.93049883       1.86827024      -0.27751386
16
Properties=species:S:1:pos:R:3 relative_energy_eV=0.0005236448469077004 branch=left pbc="F F F"
C        1.54448118      -0.63116879      -0.86453193
C        0.25462559       0.07442941      -0.48753094
O        0.30627893       1.43925821      -0.87797732
N       -0.83889021      -0.48915102      -1.26527284
C       -1.14265811       0.49169274       1.51220931
N        0.12300118       0.02617960       0.97189989
H        2.38114702      -0.22505021      -0.29757174
H        1.46656298      -1.69848329      -0.65365373
H        1.73003105      -0.50611355      -1.92677424
H       -1.02226535      -1.43941517      -0.96586350
H       -1.68274359       0.05239600      -1.11657379
H       -2.00667695      -0.14051925       1.26397237
H       -1.07120254       0.54509843       2.59773114
H       -1.35015994       1.49589385       1.14904234
H        0.32326988      -0.91317746       1.29141783
H        0.93016102       1.86849566      -0.27796277
16
Properties=species:S:1:pos:R:3 relative_energy_eV=0.0005517703739315039 branch=left pbc="F F F"
C        1.54447646      -0.63117842      -0.86448991
C        0.25462023       0.07420712      -0.48723176
O        0.30613126       1.43897657      -0.87804825
N       -0.83836865      -0.48980974      -1.26550402
C       -1.14275788       0.49184457       1.51260239
N        0.12255800       0.02593932       0.97214551
H        2.38106534      -0.22478071      -0.29776849
H        1.46724356      -1.69874489      -0.65428637
H        1.72958309      -0.50538677      -1.92674819
H       -1.02236183      -1.43984143      -0.96555257
H       -1.68177968       0.05243519      -1.11781417
H       -2.00704791      -0.13976319       1.26435281
H       -1.07102493       0.54522968       2.59800053
H       -1.34969686       1.49613839       1.14983178
H        0.32235285      -0.91357249       1.29142024
H        0.92996906       1.86867192      -0.27834944
16
Properties=species:S:1:pos:R:3 relative_energy_eV=0.0005733817288273713 branch=left pbc="F F F"
C        1.54443025      -0.63115619      -0.86445687
C        0.25450868       0.07406903      -0.48698756
O        0.30598353       1.43890564      -0.87802985
N       -0.83814033      -0.49034327      -1.26566281
C       -1.14279361       0.49201192       1.51285558
N        0.12235630       0.02571277       0.97250851
H        2.38102547      -0.22450325      -0.29793042
H        1.46784994      -1.69898898      -0.65473593
H        1.72912303      -0.50476164      -1.92676804
H       -1.02213127      -1.44036921      -0.96580933
H       -1.68120823       0.05221497      -1.11833400
H       -2.00738902      -0.13904120       1.26457161
H       -1.07095325       0.54553830       2.59811072
H       -1.34907322       1.49638290       1.15028886
H        0.32147360      -0.91409678       1.29144588
H        0.92990026       1.86879009      -0.27850627
16
Properties=species:S:1:pos:R:3 relative_energy_eV=0.000592780814258731 branch=left pbc="F F F"
C        1.54444401      -0.63106696      -0.86448086
C        0.25438360       0.07393021      -0.48688612
O        0.30585069       1.43895351      -0.87793181
N       -0.83808772      -0.49085686      -1.26578919
C       -1.14282541       0.49211554       1.51294226
N        0.12236091       0.02546256       0.97284817
H        2.38107350      -0.22417528      -0.29806782
H        1.46850593      -1.69915328      -0.65516255
H        1.72870472      -0.50411454      -1.92684280
H       -1.02201597      -1.44088877      -0.96559612
H       -1.68082050       0.05214169      -1.11860979
H       -2.00783571      -0.13845022       1.26464400
H       -1.07100668       0.54584438       2.59810012
H       -1.34842176       1.49659983       1.15045143
H        0.32065518      -0.91473653       1.29145724
H        0.92999731       1.86875981      -0.27851608
16
Properties=species:S:1:pos:R:3 relative_energy_eV=0.0006216965794010321 branch=left pbc="F F F"
C        1.54443493      -0.63091641      -0.86454115
C        0.25417836       0.07377747      -0.48699389
O        0.30578405       1.43909063      -0.87770846
N       -0.83819669      -0.49118559      -1.26601898
C       -1.14278117       0.49256077       1.51299249
N        0.12239972       0.02505542       0.97308160
H        2.38108505      -0.22376727      -0.29817228
H        1.46925251      -1.69920039      -0.65541968
H        1.72812383      -0.50349711      -1.92695187
H       -1.02050376      -1.44172314      -0.96695738
H       -1.68109616       0.05085781      -1.11742902
H       -2.00869712      -0.13724458       1.26498999
H       -1.07090513       0.54648887       2.59813601
H       -1.34728602       1.49729890       1.15049507
H        0.31906179      -0.91577826       1.29113666
H        0.93010789       1.86854797      -0.27807904
16
Properties=species:S:1:pos:R:3 relative_energy_eV=0.0006661009920208016 branch=left pbc="F F F"
C        1.54463546      -0.63064172      -0.86474177
C        0.25406629       0.07342904      -0.48730019
O        0.30586129       1.43898421      -0.87743386
N       -0.83824697      -0.49163428      -1.26624049
C       -1.14278385       0.49305474       1.51293818
N        0.12245163       0.02458894       0.97307983
H        2.38121909      -0.22325995      -0.29824959
H        1.47058266      -1.69907229      -0.65593120
H        1.72727473      -0.50245016      -1.92718138
H       -1.01910936      -1.44252231      -0.96711614
H       -1.68161488       0.04983151      -1.11663284
H       -2.00987723      -0.13597645       1.26550559
H       -1.07101105       0.54703803       2.59820358
H       -1.34605696       1.49817536       1.15045216
H        0.31714173      -0.91692840       1.29065334
H        0.93042948       1.86774879      -0.27744515
16
Properties=species:S:1:pos:R:3 relative_energy_eV=0.0007289977602340514 branch=left pbc="F F F"
C        1.54477687      -0.63038427      -0.86494617
C        0.25396609       0.07312604      -0.48765378
O        0.30622960       1.43866268      -0.87715636
N       -0.83825061      -0.49153550      -1.26662114
C       -1.14272169       0.49410696       1.51302327
N        0.12208781       0.02404584       0.97277997
H        2.38119635      -0.22286235      -0.29824913
H        1.47197018      -1.69879278      -0.65613922
H        1.72615479      -0.50155095      -1.92744674
H       -1.01584204      -1.44349947      -0.96976349
H       -1.68309871       0.04692995      -1.11437886
H       -2.01118977      -0.13392473       1.26666109
H       -1.07082760       0.54790529       2.59846295
H       -1.34450510       1.49967341       1.15062615
H        0.31444087      -0.91810516       1.28967831
H        0.93057503       1.86657009      -0.27631676
16
Properties=species:S:1:pos:R:3 relative_energy_eV=0.0008047550982155371 branch=left pbc="F F F"
C        1.54501690      -0.63011040      -0.86517452
C        0.25398019       0.07275989      -0.48761532
O        0.30661781       1.43795851      -0.87688624
N       -0.83802838      -0.49156022      -1.26668579
C       -1.14271471       0.49491376       1.51313540
N        0.12150971       0.02364385       0.97253521
H        2.38128107      -0.22254030      -0.29833055
H        1.47354264      -1.69850307      -0.65661759
H        1.72503663      -0.50039947      -1.92776997
H       -1.01419091      -1.44408776      -0.97051946
H       -1.68429812       0.04530890      -1.11402709
H       -2.01179576      -0.13249490       1.26749246
H       -1.07102847       0.54842830       2.59867410
H       -1.34347304       1.50070860       1.15078593
H        0.31265743      -0.91875252       1.28908293
H        0.93084910       1.86509186      -0.27551942
16
Properties=species:S:1:pos:R:3 relative_energy_eV=0.0008825606000755215 branch=left pbc="F F F"
C        1.54503651      -0.62987990      -0.86530702
C        0.25388345       0.07258076      -0.48720901
O        0.30697975       1.43735966      -0.87648601
N       -0.83784221      -0.49131070      -1.26671346
C       -1.14265657       0.49591676       1.51337821
N        0.12065295       0.02314740       0.97251203
H        2.38124278      -0.22222649      -0.29855707
H        1.47473580      -1.69827905      -0.65688957
H        1.72407705      -0.49951183      -1.92804970
H       -1.01213910      -1.44485115      -0.97292502
H       -1.68566793       0.04279098      -1.11308518
H       -2.01197929      -0.13078112       1.26818168
H       -1.07104255       0.54922648       2.59885566
H       -1.34239715       1.50177081       1.15095115
H        0.31103676      -0.91937621       1.28856172
H        0.93104182       1.86378862      -0.27465832
16
Properties=species:S:1:pos:R:3 relative_energy_eV=0.0009728411878313636 branch=left pbc="F F F"
C        1.54500942      -0.62946548      -0.86548368
C        0.25362911       0.07227501      -0.48625529
O        0.30704882       1.43674619      -0.87558662
N       -0.83766784      -0.49158474      -1.26632937
C       -1.14257141       0.49684675       1.51359412
N        0.11979433       0.02238846       0.97300738
H        2.38133723      -0.22150846      -0.29922254
H        1.47622203      -1.69807007      -0.65765314
H        1.72317900      -0.49808921      -1.92838320
H       -1.01146232      -1.44590119      -0.97412873
H       -1.68672402       0.04103211      -1.11329798
H       -2.01170336      -0.12906918       1.26804406
H       -1.07141793       0.55022087       2.59887403
H       -1.34120644       1.50257244       1.15068712
H        0.30981371      -0.92030235       1.28856983
H        0.93168174       1.86227385      -0.27387588
16
Properties=species:S:1:pos:R:3 relative_energy_eV=0.001105760407881462 branch=left pbc="F F F"
C        1.54469925      -0.62877007      -0.86572360
C        0.25299499       0.07189894      -0.48495665
O        0.30689595       1.43650385      -0.87374920
N       -0.83777176      -0.49211586      -1.26587621
C       -1.14235979       0.49840412       1.51381878
N        0.11882211       0.02090831       0.97400328
H        2.38135442      -0.22003772      -0.30055182
H        1.47790429      -1.69774077      -0.65867838
H        1.72234639      -0.49626635      -1.92873496
H       -1.00969723      -1.44808222      -0.97748944
H       -1.68831304       0.03731742      -1.11181192
H       -2.01169798      -0.12594038       1.26736968
H       -1.07157876       0.55222139       2.59882539
H       -1.33905099       1.50400942       1.14988685
H        0.30755655      -0.92240083       1.28857164
H        0.93285772       1.86045572      -0.27234335
16
Properties=species:S:1:pos:R:3 relative_energy_eV=0.0012810210646421183 branch=left pbc="F F F"
C        1.54433586      -0.62777598      -0.86612255
C        0.25213677       0.07122455      -0.48371721
O        0.30637603       1.43657974      -0.87101865
N       -0.83812884      -0.49338387      -1.26523939
C       -1.14204707       0.50009478       1.51383909
N        0.11825951       0.01894002       0.97526908
H        2.38141922      -0.21780218      -0.30245983
H        1.47982900      -1.69722323      -0.66021323
H        1.72177043      -0.49395919      -1.92905557
H       -1.00815904      -1.45098755      -0.98034579
H       -1.68989813       0.03350123      -1.10980832
H       -2.01216126      -0.12222330       1.26589943
H       -1.07179554       0.55473005       2.59871399
H       -1.33637899       1.50569050       1.14840358
H        0.30467505      -0.92544120       1.28876888
H        0.93472911       1.85840058      -0.27035341
16
Properties=species:S:1:pos:R:3 relative_energy_eV=0.0014512684992951108 branch=left pbc="F F F"
C        1.54399740      -0.62692716      -0.86653342
C        0.25143153       0.07060924      -0.48325162
O        0.30586247       1.43698793      -0.86843215
N       -0.83864075      -0.49443839      -1.26500369
C       -1.14172133       0.50161748       1.51369750
N        0.11813554       0.01718162       0.97602372
H        2.38131148      -0.21571397      -0.30411051
H        1.48104746      -1.69663548      -0.66133404
H        1.72165488      -0.49237942      -1.92921853
H       -1.00581116      -1.45365205      -0.98361905
H       -1.69139843       0.02946103      -1.10640978
H       -2.01327408      -0.11873541       1.26472182
H       -1.07158781       0.55703413       2.59868374
H       -1.33396667       1.50741867       1.14702431
H        0.30154029      -0.92832842       1.28862233
H        0.93638128       1.85686510      -0.26830053
16
Properties=species:S:1:pos:R:3 relative_energy_eV=0.0015905893269518856 branch=left pbc="F F F"
C        1.54391918      -0.62630730      -0.86696037
C        0.25109305       0.07000527      -0.48332902
O        0.30528204       1.43727349      -0.86633183
N       -0.83903120      -0.49534792      -1.26492429
C       -1.14143066       0.50252880       1.51339182
N        0.11839532       0.01595876       0.97625724
H        2.38117229      -0.21407814      -0.30523962
H        1.48174874      -1.69607604      -0.66217106
H        1.72180394      -0.49137013      -1.92934180
H       -1.00415945      -1.45541837      -0.98518385
H       -1.69232953       0.02697960      -1.10359751
H       -2.01444588      -0.11637338       1.26380042
H       -1.07144323       0.55859641       2.59863880
H       -1.33224649       1.50857070       1.14590564
H        0.29900189      -0.93039504       1.28845522
H        0.93763206       1.85581816      -0.26680969
16
Properties=species:S:1:pos:R:3 relative_energy_eV=0.0017059001911547966 branch=left pbc="F F F"
C        1.54399218      -0.62590163      -0.86740975
C        0.25104737       0.06950190      -0.48372565
O        0.30464355       1.43745020      -0.86448268
N       -0.83932155      -0.49580178      -1.26512152
C       -1.14112963       0.50321277       1.51301654
N        0.11869238       0.01504777       0.97607439
H        2.38087627      -0.21278397      -0.30591012
H        1.48191622      -1.69553913      -0.66257884
H        1.72206005      -0.49094916      -1.92953509
H       -1.00201940      -1.45663774      -0.98707559
H       -1.69313850       0.02453301      -1.10023679
H       -2.01570567      -0.11435327       1.26335412
H       -1.07116697       0.55988454       2.59853637
H       -1.33070820       1.50948676       1.14511519
H        0.29650696      -0.93188694       1.28811405
H        0.93841703       1.85510152      -0.26557453
16
Properties=species:S:1:pos:R:3 relative_energy_eV=0.0018380262372375 branch=left pbc="F F F"
C        1.54441906      -0.62545835      -0.86809849
C        0.25129999       0.06881251      -0.48401433
O        0.30337914       1.43726535      -0.86213998
N       -0.83940633      -0.49625196      -1.26522662
C       -1.14071863       0.50361991       1.51237142
N        0.11903034       0.01400950       0.97581694
H        2.38053199      -0.21131431      -0.30635561
H        1.48207886      -1.69490549      -0.66307906
H        1.72223998      -0.49043200      -1.93010841
H       -1.00021015      -1.45755585      -0.98801636
H       -1.69362577       0.02275560      -1.09682802
H       -2.01689135      -0.11236701       1.26276217
H       -1.07130867       0.56123275       2.59806567
H       -1.32862830       1.50997542       1.14411519
H        0.29370736      -0.93331954       1.28796135
H        0.93906454       1.85429832      -0.26466575
16
Properties=species:S:1:pos:R:3 relative_energy_eV=0.002009121561059146 branch=left pbc="F F F"
C        1.54490372      -0.62505452      -0.86885459
C        0.25162320       0.06822965      -0.48390605
O        0.30165236       1.43695294      -0.85961175
N       -0.83932178      -0.49618813      -1.26531862
C       -1.14022592       0.50410197       1.51169298
N        0.11899844       0.01278416       0.97573346
H        2.38005139      -0.20994483      -0.30645959
H        1.48201083      -1.69432118      -0.66325552
H        1.72213132      -0.49013678      -1.93107602
H       -0.99740701      -1.45839552      -0.99075663
H       -1.69415782       0.02017318      -1.09240643
H       -2.01788562      -0.10993541       1.26246647
H       -1.07155863       0.56291529       2.59725231
H       -1.32570123       1.51037852       1.14311869
H        0.29062068      -0.93478471       1.28793136
H        0.93922810       1.85359019      -0.26398997
16
Properties=species:S:1:pos:R:3 relative_energy_eV=0.00219399814523058 branch=left pbc="F F F"
C        1.54546102      -0.62448288      -0.86960139
C        0.25185473       0.06769941      -0.48311662
O        0.29948842       1.43651970      -0.85731329
N       -0.83897782      -0.49615429      -1.26491960
C       -1.13980631       0.50431418       1.51092053
N        0.11872326       0.01121896       0.97622065
H        2.37981837      -0.20874564      -0.30639030
H        1.48240726      -1.69379919      -0.66365443
H        1.72168497      -0.48946897      -1.93234899
H       -0.99598073      -1.45903562      -0.99181052
H       -1.69402189       0.01912997      -1.08928506
H       -2.01821832      -0.10799619       1.26179037
H       -1.07249758       0.56440614       2.59605758
H       -1.32232080       1.51031627       1.14168407
H        0.28818960      -0.93650308       1.28837242
H        0.93915785       1.85294603      -0.26404529
16
Properties=species:S:1:pos:R:3 relative_energy_eV=0.0023687091343163047 branch=left pbc="F F F"
C        1.54545654      -0.62399823      -0.86999544
C        0.25165150       0.06757187      -0.48216352
O        0.29773173       1.43652861      -0.85593467
N       -0.83870664      -0.49558083      -1.26450381
C       -1.13949873       0.50494310       1.51054586
N        0.11807756       0.00977004       0.97697557
H        2.37951917      -0.20823028      -0.30614682
H        1.48249586      -1.69341669      -0.66348682
H        1.72104154      -0.48940483      -1.93337865
H       -0.99306860      -1.45983337      -0.99599424
H       -1.69424036       0.01690654      -1.08549734
H       -2.01837684      -0.10598999       1.26175375
H       -1.07297732       0.56584705       2.59515925
H       -1.31902829       1.51081102       1.14051367
H        0.28630178      -0.93824186       1.28880713
H        0.93858310       1.85268262      -0.26409377
16
Properties=species:S:1:pos:R:3 relative_energy_eV=0.0025698166027723346 branch=left pbc="F F F"
C        1.54538667      -0.62309073      -0.87032535
C        0.25125082       0.06743107      -0.48109779
O        0.29576803       1.43672144      -0.85499177
N       -0.83836058      -0.49526500      -1.26368780
C       -1.13933110       0.50544324       1.50993601
N        0.11749643       0.00758663       0.97804702
H        2.37954667      -0.20785525      -0.30602539
H        1.48337563      -1.69271122      -0.66376324
H        1.72040254      -0.48893359      -1.93427712
H       -0.99160105      -1.46076110      -0.99708619
H       -1.69377620       0.01668464      -1.08229947
H       -2.01836847      -0.10461690       1.26103626
H       -1.07403685       0.56686252       2.59418426
H       -1.31543037       1.51129161       1.13833782
H        0.28464166      -0.94102634       1.28922631
H        0.93799816       1.85260374      -0.26465342
16
Properties=species:S:1:pos:R:3 relative_energy_eV=0.0027859197889483767 branch=left pbc="F F F"
C        1.54458234      -0.62245052      -0.87020383
C        0.25048264       0.06761514      -0.48060734
O        0.29466792       1.43739191      -0.85487570
N       -0.83840188      -0.49434647      -1.26329030
C       -1.13913160       0.50671608       1.50990807
N        0.11686303       0.00591002       0.97877670
H        2.37923509      -0.20820067      -0.30588945
H        1.48342328      -1.69199559      -0.66312636
H        1.71983420      -0.48959965      -1.93441330
H       -0.98677508      -1.46206314      -1.00374146
H       -1.69454288       0.01373828      -1.07683380
H       -2.01880521      -0.10270545       1.26141893
H       -1.07392459       0.56798615       2.59408949
H       -1.31233800       1.51292784       1.13679084
H        0.28283769      -0.94361266       1.28910458
H        0.93695502       1.85305347      -0.26454692
16
Properties=species:S:1:pos:R:3 relative_energy_eV=0.0030258000570029253 branch=left pbc="F F F"
C        1.54400982      -0.62171659      -0.86996740
C        0.25002178       0.06771214      -0.48066254
O        0.29395191       1.43793807      -0.85497172
N       -0.83865298      -0.49363021      -1.26310105
C       -1.13891906       0.50770282       1.50967017
N        0.11665111       0.00398916       0.97904559
H        2.37920506      -0.20851800      -0.30600599
H        1.48392888      -1.69101959      -0.66276397
H        1.71960058      -0.48997042      -1.93396107
H       -0.98315778      -1.46336767      -1.00713107
H       -1.69520806       0.01216966      -1.07126689
H       -2.01950450      -0.10125667       1.26122375
H       -1.07399802       0.56868212       2.59423770
H       -1.30966120       1.51435768       1.13470844
H        0.28065029      -0.94672504       1.28811056
H        0.93604413       1.85401724      -0.26460437
16
Properties=species:S:1:pos:R:3 relative_energy_eV=0.0032760122830950422 branch=left pbc="F F F"
C        1.54320742      -0.62151842      -0.86932486
C        0.24966230       0.06793572      -0.48109380
O        0.29405424       1.43836101      -0.85530021
N       -0.83932399      -0.49248758      -1.26338499
C       -1.13847523       0.50904130       1.50994662
N        0.11660264       0.00285289       0.97887456
H        2.37899056      -0.20919177      -0.30613970
H        1.48359918      -1.69031852      -0.66159654
H        1.71932074      -0.49101332      -1.93280966
H       -0.97715615      -1.46476609      -1.01506937
H       -1.69725063       0.00822657      -1.06415248
H       -2.02046759      -0.09913762       1.26180883
H       -1.07320397       0.56968401       2.59508741
H       -1.30754083       1.51611173       1.13349035
H        0.27815640      -0.94908723       1.28641513
H        0.93478685       1.85567197      -0.26419115
16
Properties=species:S:1:pos:R:3 relative_energy_eV=0.0035969845193903893 branch=left pbc="F F F"
C        1.54292382      -0.62159788      -0.86843071
C        0.24988647       0.06816959      -0.48149949
O        0.29452503       1.43836125      -0.85547638
N       -0.84029219      -0.49108219      -1.26393198
C       -1.13774898       0.50998896       1.51012195
N        0.11676517       0.00159297       0.97841837
H        2.37920263      -0.20965633      -0.30637300
H        1.48346577      -1.68988159      -0.66026662
H        1.71898767      -0.49157133      -1.93121090
H       -0.97168091      -1.46618937      -1.02197595
H       -1.69984430       0.00417797      -1.05593493
H       -2.02151597      -0.09654218       1.26188816
H       -1.07262885       0.57093409       2.59588580
H       -1.30515781       1.51707655       1.13202139
H        0.27477846      -0.95186037       1.28341396
H        0.93329590       1.85844451      -0.26408953
16
Properties=species:S:1:pos:R:3 relative_energy_eV=0.003972259792135446 branch=left pbc="F F F"
C        1.54275834      -0.62225637      -0.86725147
C        0.25021039       0.06850169      -0.48133426
O        0.29530408       1.43810557      -0.85556683
N       -0.84134938      -0.48939276      -1.26440689
C       -1.13678882       0.51084918       1.51066840
N        0.11686506       0.00093346       0.97823683
H        2.37956437      -0.21012496      -0.30645349
H        1.48282373      -1.69022851      -0.65837557
H        1.71820053      -0.49206487      -1.92961416
H       -0.96556165      -1.46744848      -1.03205452
H       -1.70328796      -0.00143950      -1.04775976
H       -2.02224661      -0.09326361       1.26228245
H       -1.07186881       0.57273091       2.59666287
H       -1.30274832       1.51744727       1.13134908
H        0.27159263      -0.95378059       1.28024551
H        0.93149432       1.86179619      -0.26406804
16
Properties=species:S:1:pos:R:3 relative_energy_eV=0.004327342268879875 branch=left pbc="F F F"
C        1.54314826      -0.62291311      -0.86634506
C        0.25071598       0.06883543      -0.48063033
O        0.29583481       1.43782856      -0.85555881
N       -0.84202228      -0.48800108      -1.26447351
C       -1.13595620       0.51094637       1.51088147
N        0.11683348       0.00027378       0.97836983
H        2.38033709      -0.21009143      -0.30640338
H        1.48270400      -1.69105626      -0.65701466
H        1.71744560      -0.49169366      -1.92872425
H       -0.96261346      -1.46821604      -1.03769303
H       -1.70568832      -0.00521368      -1.04197100
H       -2.02250773      -0.09061886       1.26197946
H       -1.07180530       0.57429492       2.59664361
H       -1.30052111       1.51672881       1.13067030
H        0.26898289      -0.95557418       1.27735773
H        0.93007419       1.86483502      -0.26452823
16
Properties=species:S:1:pos:R:3 relative_energy_eV=0.004597216875481536 branch=left pbc="F F F"
C        1.54342989      -0.62349874      -0.86575032
C        0.25085473       0.06909817      -0.47966128
O        0.29608288       1.43776766      -0.85564600
N       -0.84223437      -0.48716881      -1.26399114
C       -1.13541184       0.51089478       1.51109437
N        0.11677345       0.00003253       0.97893053
H        2.38097287      -0.20997254      -0.30621312
H        1.48257760      -1.69208194      -0.65606186
H        1.71673822      -0.49124309      -1.92853062
H       -0.96123439      -1.46847787      -1.04195470
H       -1.70716336      -0.00783709      -1.03915415
H       -2.02234136      -0.08891140       1.26175615
H       -1.07187179       0.57547519       2.59636789
H       -1.29903945       1.51594178       1.13054565
H        0.26769296      -0.95640018       1.27579603
H        0.92913583       1.86674613      -0.26496728
16
Properties=species:S:1:pos:R:3 relative_energy_eV=0.004811810353203327 branch=left pbc="F F F"
C        1.54389981      -0.62377495      -0.86556622
C        0.25099811       0.06936981      -0.47887542
O        0.29615357       1.43804852      -0.85594196
N       -0.84209121      -0.48667709      -1.26318078
C       -1.13511450       0.51055097       1.51088422
N        0.11674506      -0.00029991       0.97944006
H        2.38161291      -0.20955434      -0.30594225
H        1.48293419      -1.69297443      -0.65568311
H        1.71654290      -0.49054932      -1.92887761
H       -0.96197643      -1.46843035      -1.04202095
H       -1.70748661      -0.00880426      -1.03762440
H       -2.02203214      -0.08820666       1.26105755
H       -1.07221662       0.57613421       2.59563936
H       -1.29806830       1.51513602       1.13028778
H        0.26641638      -0.95753578       1.27438117
H        0.92864476       1.86793215      -0.26541729
16
Properties=species:S:1:pos:R:3 relative_energy_eV=0.005116589325552923 branch=left pbc="F F F"
C        1.54412173      -0.62411181      -0.86555259
C        0.25082886       0.06991043      -0.47837481
O        0.29652163       1.43897652      -0.85691083
N       -0.84164940      -0.48615085      -1.26181899
C       -1.13482872       0.51074295       1.51065260
N        0.11694975      -0.00020774       0.98004427
H        2.38182701      -0.20917676      -0.30531059
H        1.48300908      -1.69403445      -0.65497406
H        1.71682888      -0.49053762      -1.92965552
H       -0.96183091      -1.46821862      -1.04409127
H       -1.70793501      -0.01120647      -1.03503077
H       -2.02129391      -0.08796818       1.26061007
H       -1.07194859       0.57690171       2.59485408
H       -1.29775111       1.51528881       1.13091498
H        0.26406445      -0.95863024       1.27248073
H        0.92804816       1.86878691      -0.26527715
16
Properties=species:S:1:pos:R:3 relative_energy_eV=0.005682012544639292 branch=left pbc="F F F"
C        1.54417913      -0.62437035      -0.86603440
C        0.25082835       0.07124368      -0.47954148
O        0.29800025       1.44095675      -0.85900679
N       -0.84116878      -0.48486738      -1.26101730
C       -1.13463064       0.51200147       1.51008809
N        0.11727465       0.00044732       0.97951494
H        2.38095445      -0.20887714      -0.30411655
H        1.48257764      -1.69461414      -0.65361698
H        1.71876763      -0.49229767      -1.93071630
H       -0.95920482      -1.46821404      -1.04777205
H       -1.70867539      -0.01665289      -1.02760903
H       -2.02038069      -0.08845106       1.26075149
H       -1.07012558       0.57760658       2.59401159
H       -1.29891271       1.51764151       1.13296572
H        0.25822719      -0.96048241       1.26826680
H        0.92725121       1.86929436      -0.26360760
16
Properties=species:S:1:pos:R:3 relative_energy_eV=0.006518794125440763 branch=left pbc="F F F"
C        1.54331070      -0.62483397      -0.86654535
C        0.25070816       0.07296135      -0.48217961
O        0.30058260       1.44293573      -0.86130969
N       -0.84128639      -0.48298989      -1.26184114
C       -1.13455407       0.51485428       1.51021866
N        0.11752945       0.00228417       0.97795255
H        2.37853163      -0.20953256      -0.30276068
H        1.48049586      -1.69430829      -0.65123012
H        1.72130752      -0.49653453      -1.93112747
H       -0.95088986      -1.46877085      -1.05956547
H       -1.71092690      -0.02618244      -1.01695091
H       -2.01966343      -0.08876089       1.26298394
H       -1.06626589       0.57842882       2.59432779
H       -1.30157579       1.52241066       1.13701672
H        0.25150419      -0.96077854       1.26387343
H        0.92615408       1.86918148      -0.26030248
16
Properties=species:S:1:pos:R:3 relative_energy_eV=0.007439597644406604 branch=left pbc="F F F"
C        1.54221616      -0.62519755      -0.86698129
C        0.25087261       0.07443965      -0.48523095
O        0.30331869       1.44400585      -0.86279916
N       -0.84211747      -0.48108546      -1.26428263
C       -1.13458778       0.51786241       1.51070300
N        0.11735329       0.00436780       0.97570272
H        2.37576284      -0.21064029      -0.30173979
H        1.47795482      -1.69316331      -0.64893020
H        1.72365050      -0.50126466      -1.93082387
H       -0.94104852      -1.46994422      -1.07228800
H       -1.71357812      -0.03528423      -1.00669391
H       -2.01929910      -0.08874974       1.26600317
H       -1.06219889       0.57898769       2.59525152
H       -1.30448407       1.52727588       1.14114208
H        0.24592002      -0.96006468       1.26036659
H        0.92522684       1.86881937      -0.25683911
16
Properties=species:S:1:pos:R:3 relative_energy_eV=0.008192348754164414 branch=left pbc="F F F"
C        1.54106093      -0.62554706      -0.86702965
C        0.25075843       0.07513038      -0.48710236
O        0.30527964       1.44390629      -0.86319088
N       -0.84323211      -0.47997871      -1.26670292
C       -1.13446723       0.52030108       1.51161838
N        0.11699528       0.00636619       0.97417643
H        2.37362385      -0.21187130      -0.30116866
H        1.47561383      -1.69208972      -0.64716824
H        1.72472842      -0.50497763      -1.93018883
H       -0.93228555      -1.47132300      -1.08472654
H       -1.71626421      -0.04171972      -1.00034438
H       -2.01860915      -0.08829675       1.26882594
H       -1.05926118       0.57951479       2.59646047
H       -1.30658383       1.53068780       1.14447903
H        0.24311284      -0.95823357       1.25902453
H        0.92449188       1.86849540      -0.25440217
16
Properties=species:S:1:pos:R:3 relative_energy_eV=0.008770371165155666 branch=left pbc="F F F"
C        1.54029568      -0.62576659      -0.86698308
C        0.25058530       0.07556979      -0.48842739
O        0.30666797       1.44353087      -0.86315160
N       -0.84438186      -0.47905987      -1.26929874
C       -1.13427382       0.52191246       1.51236923
N        0.11603534       0.00767032       0.97268277
H        2.37235182      -0.21270146      -0.30077922
H        1.47384743      -1.69130347      -0.64598814
H        1.72540431      -0.50757303      -1.92971375
H       -0.92567277      -1.47301867      -1.09302302
H       -1.71831854      -0.04549013      -0.99596588
H       -2.01783893      -0.08750867       1.27108111
H       -1.05737006       0.57974666       2.59727093
H       -1.30803570       1.53254094       1.14678001
H        0.24154301      -0.95648147       1.25837801
H        0.92412267       1.86829678      -0.25267106
16
Properties=species:S:1:pos:R:3 relative_energy_eV=0.009278264760723687 branch=left pbc="F F F"
C        1.53939818      -0.62613153      -0.86665065
C        0.24962687       0.07556833      -0.48871321
O        0.30750405       1.44297617      -0.86295674
N       -0.84545509      -0.47870857      -1.27061499
C       -1.13373399       0.52325746       1.51346712
N        0.11513121       0.00924905       0.97205181
H        2.37168997      -0.21333580      -0.30052940
H        1.47215990      -1.69126444      -0.64497141
H        1.72551326      -0.50945471      -1.92944248
H       -0.91956971      -1.47467108      -1.10218519
H       -1.72043381      -0.04788625      -0.99394815
H       -2.01638688      -0.08628674       1.27306104
H       -1.05613962       0.57996004       2.59812572
H       -1.30910709       1.53339965       1.14862505
H        0.24111628      -0.95420895       1.25880148
H        0.92364830       1.86790181      -0.25155986
16
Properties=species:S:1:pos:R:3 relative_energy_eV=0.009809146820771275 branch=left pbc="F F F"
C        1.53882845      -0.62657108      -0.86637989
C        0.24847392       0.07604920      -0.48947327
O        0.30806511       1.44336777      -0.86339313
N       -0.84620837      -0.47779148      -1.27208883
C       -1.13328997       0.52407070       1.51427619
N        0.11343164       0.00997383       0.97073674
H        2.37166758      -0.21332358      -0.30034440
H        1.47056309      -1.69191219      -0.64406787
H        1.72621137      -0.51086536      -1.92951551
H       -0.91431820      -1.47640659      -1.10754869
H       -1.72188480      -0.04948194      -0.99149019
H       -2.01577976      -0.08431934       1.27509600
H       -1.05493702       0.57950403       2.59861600
H       -1.31020293       1.53326739       1.14960690
H        0.24079284      -0.95233516       1.25877506
H        0.92354890       1.86713824      -0.25024496
16
Properties=species:S:1:pos:R:3 relative_energy_eV=0.010502736638954957 branch=left pbc="F F F"
C        1.53788710      -0.62741955      -0.86587505
C        0.24648011       0.07649305      -0.48984769
O        0.30821381       1.44438300      -0.86434420
N       -0.84652645      -0.47704947      -1.27184553
C       -1.13270869       0.52485488       1.51558631
N        0.11206501       0.01138822       0.97002261
H        2.37185441      -0.21308097      -0.30053834
H        1.46845154      -1.69359925      -0.64292593
H        1.72699071      -0.51208541      -1.92956799
H       -0.90815517      -1.47731371      -1.11539143
H       -1.72351036      -0.05146329      -0.99023866
H       -2.01575150      -0.08144134       1.27752564
H       -1.05338623       0.57862818       2.59959992
H       -1.31147409       1.53271730       1.15004634
H        0.24139201      -0.95005853       1.25937293
H        0.92313964       1.86541132      -0.24901878
16
Properties=species:S:1:pos:R:3 relative_energy_eV=0.011508468927786453 branch=left pbc="F F F"
C        1.53699692      -0.62862479      -0.86543790
C        0.24486085       0.07786680      -0.49145367
O        0.30815417       1.44679924      -0.86619508
N       -0.84598562      -0.47516408      -1.27247723
C       -1.13290205       0.52523567       1.51680963
N        0.11017584       0.01202467       0.96836715
H        2.37193310      -0.21260314      -0.30120818
H        1.46568264      -1.69579209      -0.64145159
H        1.72840129      -0.51340332      -1.92929639
H       -0.90161221      -1.47704475      -1.12153705
H       -1.72457238      -0.05528519      -0.98789479
H       -2.01894180      -0.07739422       1.28108917
H       -1.05066884       0.57692056       2.60092387
H       -1.31295453       1.53199169       1.14963338
H        0.24330900      -0.94796965       1.25979754
H        0.92308545       1.86280701      -0.24710869
16
Properties=species:S:1:pos:R:3 relative_energy_eV=0.012844283017329872 branch=left pbc="F F F"
C        1.53569053      -0.63007391      -0.86486463
C        0.24375914       0.07920259      -0.49294195
O        0.30803578       1.44903509      -0.86769098
N       -0.84486306      -0.47316649      -1.27346710
C       -1.13376763       0.52560510       1.51846351
N        0.10894111       0.01320996       0.96729349
H        2.37125294      -0.21282271      -0.30238760
H        1.46229903      -1.69767846      -0.63965079
H        1.72910500      -0.51496295      -1.92826732
H       -0.89448553      -1.47511986      -1.13104908
H       -1.72578078      -0.06151218      -0.98665577
H       -2.02428114      -0.07317134       1.28549859
H       -1.04714261       0.57542900       2.60298553
H       -1.31413462       1.53199492       1.14925999
H        0.24751790      -0.94550731       1.26140256
H        0.92281577       1.85990296      -0.24536831
16
Properties=species:S:1:pos:R:3 relative_energy_eV=0.014373009116752655 branch=left pbc="F F F"
C        1.53436050      -0.63132960      -0.86432485
C        0.24387575       0.08061837      -0.49449305
O        0.30819078       1.45049923      -0.86830714
N       -0.84355411      -0.47075112      -1.27708684
C       -1.13549842       0.52586317       1.52001392
N        0.10751588       0.01379579       0.96614926
H        2.36984909      -0.21400539      -0.30350140
H        1.45880599      -1.69833006      -0.63772991
H        1.72868616      -0.51683661      -1.92674741
H       -0.88797461      -1.47272030      -1.14128641
H       -1.72691924      -0.06972647      -0.98562580
H       -2.03119891      -0.06954678       1.29052959
H       -1.04332215       0.57475607       2.60503675
H       -1.31454339       1.53283169       1.14964558
H        0.25376320      -0.94276820       1.26393788
H        0.92292532       1.85801457      -0.24365007
16
Properties=species:S:1:pos:R:3 relative_energy_eV=0.015971464470567298 branch=left pbc="F F F"
C        1.53281112      -0.63214529      -0.86370359
C        0.24433951       0.08127001      -0.49477469
O        0.30882912       1.45041611      -0.86745502
N       -0.84268499      -0.46900219      -1.28186275
C       -1.13733555       0.52622955       1.52165495
N        0.10614193       0.01470154       0.96587096
H        2.36808036      -0.21621074      -0.30412585
H        1.45556888      -1.69778978      -0.63585617
H        1.72666710      -0.51886789      -1.92525253
H       -0.88210014      -1.47082134      -1.15449227
H       -1.72852954      -0.07835963      -0.98617627
H       -2.03705120      -0.06707662       1.29543032
H       -1.04012491       0.57548567       2.60671609
H       -1.31400733       1.53435796       1.15140705
H        0.26131634      -0.93946229       1.26774972
H        0.92304112       1.85763929      -0.24256986
16
Properties=species:S:1:pos:R:3 relative_energy_eV=0.017706603503029328 branch=left pbc="F F F"
C        1.53121408      -0.63243208      -0.86307683
C        0.24465391       0.08147055      -0.49421719
O        0.31008818       1.44948919      -0.86562882
N       -0.84226987      -0.46761433      -1.28812346
C       -1.13920510       0.52656923       1.52305852
N        0.10386897       0.01506343       0.96569837
H        2.36648130      -0.21909837      -0.30384782
H        1.45258382      -1.69638386      -0.63396637
H        1.72339251      -0.52108374      -1.92434517
H       -0.87685551      -1.47040528      -1.16901871
H       -1.73052538      -0.08696048      -0.98734675
H       -2.04168894      -0.06541117       1.30040956
H       -1.03761242       0.57747431       2.60753996
H       -1.31259568       1.53612151       1.15465399
H        0.26978570      -0.93549250       1.27237861
H        0.92364625       1.85905794      -0.24160778
16
Properties=species:S:1:pos:R:3 relative_energy_eV=0.019604610597525607 branch=left pbc="F F F"
C        1.52954161      -0.63223486      -0.86244351
C        0.24385107       0.08092457      -0.49266466
O        0.31198440       1.44842201      -0.86325308
N       -0.84232615      -0.46713481      -1.29350332
C       -1.14057300       0.52682718       1.52423952
N        0.10096206       0.01542372       0.96577069
H        2.36557416      -0.22214296      -0.30261644
H        1.44996473      -1.69483467      -0.63213285
H        1.71939956      -0.52323280      -1.92443273
H       -0.87216091      -1.47167670      -1.18486126
H       -1.73295707      -0.09432445      -0.98949941
H       -2.04430087      -0.06436619       1.30501847
H       -1.03602463       0.58036610       2.60744875
H       -1.31064090       1.53776072       1.15896824
H        0.27818817      -0.93119931       1.27742519
H        0.92447959       1.86178678      -0.24090352
16
Properties=species:S:1:pos:R:3 relative_energy_eV=0.02143448547940352 branch=left pbc="F F F"
C        1.52829073      -0.63185870      -0.86194381
C        0.24210317       0.08025601      -0.49133289
O        0.31384462       1.44839772      -0.86156474
N       -0.84244377      -0.46718867      -1.29695307
C       -1.14129034       0.52689708       1.52483344
N        0.09781605       0.01501763       0.96535020
H        2.36565425      -0.22444778      -0.30075532
H        1.44804539      -1.69389165      -0.63060305
H        1.71585781      -0.52488766      -1.92543240
H       -0.86878914      -1.47425196      -1.19773803
H       -1.73515311      -0.09938044      -0.99138880
H       -2.04533583      -0.06375256       1.30863858
H       -1.03533169       0.58318654       2.60673373
H       -1.30878577       1.53885534       1.16311725
H        0.28479330      -0.92753141       1.28165857
H        0.92568616       1.86494484      -0.24005961
16
Properties=species:S:1:pos:R:3 relative_energy_eV=0.023057285325194243 branch=left pbc="F F F"
C        1.52748241      -0.63167317      -0.86152353
C        0.23993578       0.07951868      -0.49040105
O        0.31516829       1.44958872      -0.86075610
N       -0.84253988      -0.46785519      -1.29731429
C       -1.14115675       0.52690096       1.52518322
N        0.09537476       0.01459989       0.96471940
H        2.36636703      -0.22583978      -0.29885768
H        1.44682584      -1.69391926      -0.62946367
H        1.71301100      -0.52586045      -1.92670658
H       -0.86656844      -1.47714447      -1.20808117
H       -1.73700949      -0.10209710      -0.99343077
H       -2.04493660      -0.06356201       1.31089611
H       -1.03541770       0.58553007       2.60618477
H       -1.30741323       1.53957617       1.16638514
H        0.28914010      -0.92492442       1.28512342
H        0.92669870       1.86752569      -0.23939714
16
Properties=species:S:1:pos:R:3 relative_energy_eV=0.02468017061255523 branch=left pbc="F F F"
C        1.52711876      -0.63205996      -0.86102132
C        0.23807133       0.07915566      -0.49025434
O        0.31534745       1.45190810      -0.86093442
N       -0.84239983      -0.46880517      -1.29557719
C       -1.14027190       0.52713201       1.52561034
N        0.09380826       0.01381684       0.96386407
H        2.36725642      -0.22662124      -0.29709732
H        1.44608808      -1.69502184      -0.62855878
H        1.71020322      -0.52624189      -1.92765108
H       -0.86507441      -1.48004911      -1.21756834
H       -1.73870382      -0.10351638      -0.99579486
H       -2.04331995      -0.06385987       1.31205750
H       -1.03617436       0.58765661       2.60654712
H       -1.30647133       1.54027811       1.16898588
H        0.29191431      -0.92286369       1.28869735
H        0.92756961       1.86945615      -0.23874455
16
Properties=species:S:1:pos:R:3 relative_energy_eV=0.0269951218560891 branch=left pbc="F F F"
C        1.52670298      -0.63359219      -0.85992414
C        0.23694399       0.07875899      -0.49002361
O        0.31346433       1.45452986      -0.86144936
N       -0.84218454      -0.47033065      -1.29130481
C       -1.13795560       0.52831762       1.52731497
N        0.09431205       0.01411225       0.96427210
H        2.36766572      -0.22736466      -0.29579732
H        1.44569203      -1.69775108      -0.62775786
H        1.70585776      -0.52592062      -1.92736454
H       -0.86333443      -1.48254095      -1.23254033
H       -1.74085988      -0.10434473      -1.00090327
H       -2.03845926      -0.06519796       1.31171584
H       -1.03815426       0.59038798       2.60926217
H       -1.30586274       1.54162210       1.17144256
H        0.29384099      -0.92054151       1.29463034
H        0.92729269       1.87021989      -0.23901270
16
Properties=species:S:1:pos:R:3 relative_energy_eV=0.0319014509786939 branch=left pbc="F F F"
C        1.52553558      -0.63732274      -0.85731624
C        0.23723356       0.07816892      -0.48889644
O        0.30702157       1.45521203      -0.86180647
N       -0.84103470      -0.47141171      -1.28858704
C       -1.13341422       0.53185430       1.53213072
N        0.09888654       0.01639853       0.96835779
H        2.36650909      -0.22871313      -0.29564989
H        1.44575368      -1.70305889      -0.62704448
H        1.69769211      -0.52452016      -1.92419612
H       -0.86062495      -1.48331297      -1.25869449
H       -1.74376029      -0.10587790      -1.01050969
H       -2.02681715      -0.06850594       1.30891906
H       -1.04237463       0.59476135       2.61679097
H       -1.30559461       1.54435783       1.17424202
H        0.29528368      -0.91665255       1.30606778
H        0.92466658       1.86898737      -0.24124745
16
Properties=species:S:1:pos:R:3 relative_energy_eV=0.03752689566317713 branch=left pbc="F F F"
C        1.52403738      -0.64062518      -0.85474019
C        0.23844034       0.07726919      -0.48725274
O        0.30076147       1.45315937      -0.86080616
N       -0.83948266      -0.47012086      -1.29260083
C       -1.12963705       0.53539520       1.53717226
N        0.10397461       0.01956326       0.97360396
H        2.36448754      -0.23004221      -0.29667069
H        1.44613096      -1.70730987      -0.62678199
H        1.69069670      -0.52310917      -1.92026478
H       -0.85855222      -1.48192402      -1.27863370
H       -1.74518612      -0.10805915      -1.01772016
H       -2.01579774      -0.07155257       1.30578807
H       -1.04607496       0.59818686       2.62409015
H       -1.30565603       1.54675969       1.17591459
H        0.29593827      -0.91369873       1.31605550
H        0.92088129       1.86647257      -0.24459327
16
Properties=species:S:1:pos:R:3 relative_energy_eV=0.04562192664707254 branch=left pbc="F F F"
C        1.52151357      -0.64357623      -0.85187189
C        0.23910870       0.07529267      -0.48405622
O        0.29369244       1.44667781      -0.85884024
N       -0.83692157      -0.46530309      -1.30572593
C       -1.12635300       0.53942652       1.54286495
N        0.11002429       0.02362295       0.98131632
H        2.36176504      -0.23159660      -0.29870394
H        1.44673307      -1.71060199      -0.62686385
H        1.68423621      -0.52171315      -1.91575948
H       -0.85669526      -1.47844132      -1.29421345
H       -1.74505234      -0.11157966      -1.02291134
H       -2.00420909      -0.07448131       1.30231556
H       -1.04952393       0.60113315       2.63135580
H       -1.30589457       1.54883697       1.17702610
H        0.29622055      -0.91059862       1.32533772
H        0.91631764       1.86326628      -0.24871013
16
Properties=species:S:1:pos:R:3 relative_energy_eV=0.050158404706962756 branch=left pbc="F F F"
C        1.52061960      -0.64426442      -0.85090925
C        0.23913501       0.07427700      -0.48339388
O        0.29202143       1.44448218      -0.85739174
N       -0.83543057      -0.46145980      -1.31536221
C       -1.12555810       0.54050898       1.54462088
N        0.11107291       0.02463071       0.98332402
H        2.36090205      -0.23205449      -0.29939898
H        1.44697250      -1.71136579      -0.62691138
H        1.68244514      -0.52135610      -1.91434740
H       -0.85656905      -1.47707523      -1.29496731
H       -1.74398237      -0.11375914      -1.02231665
H       -2.00108393      -0.07521681       1.30148321
H       -1.05044114       0.60188923       2.63338980
H       -1.30595598       1.54934781       1.17726334
H        0.29640389      -0.91011785       1.32799061
H        0.91441036       1.86189810      -0.25051309
16
Properties=species:S:1:pos:R:3 relative_energy_eV=0.0660697290495591 branch=left pbc="F F F"
C        1.51380075      -0.64431960      -0.84882196
C        0.23066995       0.06444174      -0.46658242
O        0.28884891       1.42864861      -0.85574360
N       -0.84146362      -0.46896439      -1.28824280
C       -1.12153022       0.54491494       1.54972481
N        0.12668363       0.03980206       1.00403611
H        2.35995614      -0.23384551      -0.30244695
H        1.44677842      -1.71074684      -0.62783387
H        1.68119011      -0.52043806      -1.91449322
H       -0.84980598      -1.47355796      -1.33528462
H       -1.74704946      -0.10813020      -1.04567450
H       -1.98829135      -0.07727943       1.29627281
H       -1.05232053       0.60305646       2.63558485
H       -1.30662072       1.54992752       1.17739639
H        0.29489918      -0.90319256       1.33011249
H        0.90921650       1.86004760      -0.25544361
16
Properties=species:S:1:pos:R:3 relative_energy_eV=0.07216295008220186 branch=left pbc="F F F"
C        1.51260655      -0.64418540      -0.84856790
C        0.22860941       0.06238467      -0.46339239
O        0.28885986       1.42621964      -0.85541793
N       -0.84287513      -0.47081404      -1.28161636
C       -1.12079395       0.54553423       1.55041187
N        0.12953087       0.04270070       1.00771300
H        2.36002832      -0.23409234      -0.30287204
H        1.44668125      -1.71047660      -0.62799320
H        1.68128825      -0.52032442      -1.91486418
H       -0.84854658      -1.47319438      -1.34276305
H       -1.74765639      -0.10677952      -1.05020015
H       -1.98640611      -0.07755211       1.29542175
H       -1.05252384       0.60315375       2.63559327
H       -1.30674178       1.54995799       1.17738879
H        0.29458676      -0.90198461       1.33004585
H        0.90831421       1.85981682      -0.25632742
16
Properties=species:S:1:pos:R:3 relative_energy_eV=0.10251738333499816 branch=left pbc="F F F"
C        1.51099953      -0.64348753      -0.84699355
C        0.22326281       0.05845487      -0.46621757
O        0.28614454       1.41958866      -0.85206642
N       -0.83031709      -0.44542397      -1.34579469
C       -1.12125418       0.54570909       1.55211655
N        0.12307136       0.03738843       1.00591992
H        2.35992214      -0.23419056      -0.30319877
H        1.44725950      -1.71026149      -0.62782388
H        1.68008808      -0.52052219      -1.91358673
H       -0.85270244      -1.46857524      -1.30687463
H       -1.73858175      -0.11932590      -1.02794323
H       -1.98652848      -0.07714494       1.29697757
H       -1.05274007       0.60330901       2.63651275
H       -1.30660355       1.54948251       1.17757477
H        0.29584895      -0.90338058       1.33185691
H        0.90709238       1.85874421      -0.25789913
16
Properties=species:S:1:pos:R:3 relative_energy_eV=0.0867552945164789 branch=left pbc="F F F"
C        1.51219879      -0.64377119      -0.84925675
C        0.22512861       0.06024405      -0.45764941
O        0.28938619       1.42434717      -0.85702536
N       -0.84835775      -0.48010350      -1.25375196
C       -1.11948681       0.54594968       1.55048967
N        0.13551447       0.04802645       1.01323346
H        2.36042465      -0.23437415      -0.30321932
H        1.44622154      -1.71014426      -0.62816402
H        1.68211266      -0.52023455      -1.91595629
H       -0.84573489      -1.47457293      -1.36251708
H       -1.75070857      -0.10133717      -1.06250474
H       -1.98443448      -0.07792069       1.29397514
H       -1.05257825       0.60312063       2.63484450
H       -1.30699161       1.55015411       1.17728773
H        0.29370520      -0.89975320       1.32881993
H        0.90856192       1.86073389      -0.25604560
16
Properties=species:S:1:pos:R:3 relative_energy_eV=0.13124654454441043 branch=left pbc="F F F"
C        1.51425150      -0.64458168      -0.85148121
C        0.23259475       0.06541306      -0.45174107
O        0.29323952       1.43298289      -0.86195748
N       -0.86652000      -0.51605996      -1.16222455
C       -1.11846807       0.54586823       1.54822003
N        0.14582594       0.05665249       1.01732202
H        2.36056165      -0.23434183      -0.30291039
H        1.44532954      -1.71039311      -0.62845051
H        1.68391905      -0.51992526      -1.91796328
H       -0.83960149      -1.48240965      -1.41538811
H       -1.76476046      -0.08296908      -1.09491676
H       -1.98366775      -0.07862036       1.29144686
H       -1.05235881       0.60292249       2.63345747
H       -1.30726147       1.55088009       1.17702127
H        0.29173751      -0.89732335       1.32609491
H        0.91014024       1.86226937      -0.25396923
16
Properties=species:S:1:pos:R:3 relative_energy_eV=0.13581685525423381 branch=left pbc="F F F"
C        1.51442796      -0.64470637      -0.85171382
C        0.23351008       0.06605995      -0.45123663
O        0.29363674       1.43396000      -0.86240509
N       -0.86760020      -0.51942676      -1.15377347
C       -1.11838932       0.54584294       1.54797275
N        0.14669774       0.05738275       1.01759097
H        2.36055854      -0.23432263      -0.30286193
H        1.44525750      -1.71042902      -0.62847753
H        1.68407926      -0.51989571      -1.91813046
H       -0.83910062      -1.48345555      -1.42023710
H       -1.76666717      -0.08102475      -1.09780414
H       -1.98364120      -0.07868770       1.29122558
H       -1.05234071       0.60290505       2.63334804
H       -1.30728431       1.55095372       1.17699756
H        0.29155727      -0.89715347       1.32586174
H        0.91026006       1.86236187      -0.25379652
16
Properties=species:S:1:pos:R:3 relative_energy_eV=0.14033007327270752 branch=left pbc="F F F"
C        1.51452448      -0.64482015      -0.85184071
C        0.23291800       0.06570144      -0.45193467
O        0.29387993       1.43452485      -0.86255165
N       -0.86491395      -0.51699338      -1.14676391
C       -1.11848872       0.54583425       1.54775066
N        0.14713497       0.05772195       1.01749295
H        2.36058200      -0.23431391      -0.30282581
H        1.44523192      -1.71044833      -0.62848776
H        1.68415704      -0.51986660      -1.91820070
H       -0.83901011      -1.48790087      -1.42401233
H       -1.76953764      -0.07949693      -1.09950379
H       -1.98361169      -0.07870348       1.29112544
H       -1.05232187       0.60289893       2.63334956
H       -1.30727592       1.55098026       1.17699697
H        0.29147151      -0.89711828       1.32576669
H        0.91022168       1.86236459      -0.25380098
16
Properties=species:S:1:pos:R:3 relative_energy_eV=0.15738008873086073 branch=ts pbc="F F F"
C        1.51521702      -0.64497302      -0.85208890
C        0.23314370       0.06590641      -0.45306217
O        0.29439419       1.43593786      -0.86329964
N       -0.87115037      -0.52567630      -1.12916566
C       -1.11873452       0.54587785       1.54696394
N        0.14800830       0.05842685       1.01617048
H        2.36054607      -0.23416951      -0.30244539
H        1.44561621      -1.71053696      -0.62915704
H        1.68699637      -0.51907591      -1.91849904
H       -0.80812703      -1.44083725      -1.52743249
H       -1.74440235      -0.04091589      -1.17718323
H       -1.98297553      -0.07785511       1.28771200
H       -1.05115700       0.60185793       2.63259596
H       -1.30635015       1.55141450       1.17690246
H        0.28880442      -0.89777888       1.32234082
H        0.90930534       1.86358600      -0.25295330
16
Properties=species:S:1:pos:R:3 relative_energy_eV=0.14089908582536737 branch=right pbc="F F F"
C        1.51590956      -0.64512590      -0.85233710
C        0.23336941       0.06611137      -0.45418967
O        0.29490846       1.43735088      -0.86404764
N       -0.87738678      -0.53435922      -1.11156742
C       -1.11898033       0.54592146       1.54617722
N        0.14888164       0.05913175       1.01484800
H        2.36051013      -0.23402511      -0.30206496
H        1.44600050      -1.71062559      -0.62982633
H        1.68983571      -0.51828522      -1.91879738
H       -0.77724395      -1.39377363      -1.63085266
H       -1.71926706      -0.00233484      -1.25486267
H       -1.98233937      -0.07700675       1.28429856
H       -1.04999212       0.60081692       2.63184237
H       -1.30542438       1.55184873       1.17680795
H        0.28613733      -0.89843947       1.31891496
H        0.90838900       1.86480741      -0.25210561
16
Properties=species:S:1:pos:R:3 relative_energy_eV=0.1363412761620566 branch=right pbc="F F F"
C        1.51612595      -0.64507417      -0.85231614
C        0.23410541       0.06660713      -0.45408239
O        0.29500610       1.43765315      -0.86439717
N       -0.88280717      -0.54048877      -1.11120035
C       -1.11898761       0.54594877       1.54600841
N        0.14893223       0.05920431       1.01425586
H        2.36048419      -0.23403022      -0.30208408
H        1.44603782      -1.71061245      -0.62984321
H        1.68987892      -0.51828315      -1.91873407
H       -0.77658278      -1.38812387      -1.62962911
H       -1.71567135      -0.00278685      -1.25539116
H       -1.98233810      -0.07696111       1.28427646
H       -1.04996627       0.60077639       2.63180287
H       -1.30539922       1.55183811       1.17680769
H        0.28610048      -0.89850248       1.31883165
H        0.90838913       1.86484801      -0.25206762
16
Properties=species:S:1:pos:R:3 relative_energy_eV=0.13203954278105812 branch=right pbc="F F F"
C        1.51623419      -0.64503500      -0.85243556
C        0.23307759       0.06597387      -0.45481770
O        0.29487719       1.43757449      -0.86510289
N       -0.88672299      -0.54417654      -1.10427867
C       -1.11901085       0.54597726       1.54575488
N        0.14897976       0.05917678       1.01327370
H        2.36051502      -0.23400971      -0.30208257
H        1.44612542      -1.71056626      -0.62986259
H        1.69001394      -0.51828275      -1.91869444
H       -0.77511097      -1.38445640      -1.63153912
H       -1.71247941      -0.00233378      -1.25724033
H       -1.98231323      -0.07687052       1.28423374
H       -1.04987959       0.60070064       2.63166870
H       -1.30536099       1.55185940       1.17679541
H        0.28604356      -0.89840677       1.31860162
H        0.90831909       1.86488807      -0.25203654
16
Properties=species:S:1:pos:R:3 relative_energy_eV=0.08702296548835875 branch=right pbc="F F F"
C        1.51621384      -0.64498087      -0.85413651
C        0.22309805       0.05963061      -0.46008660
O        0.29330776       1.43642410      -0.87322382
N       -0.92544647      -0.58860459      -1.02349105
C       -1.11885817       0.54609441       1.54297356
N        0.14957149       0.05942681       1.00365126
H        2.36042309      -0.23358632      -0.30206113
H        1.44728006      -1.71008322      -0.63016432
H        1.69182126      -0.51834355      -1.91878483
H       -0.75808200      -1.34431393      -1.65580064
H       -1.68192811       0.00709989      -1.27991440
H       -1.98211110      -0.07582453       1.28371527
H       -1.04866820       0.59981170       2.62990413
H       -1.30499126       1.55225293       1.17654747
H        0.28537113      -0.89710079       1.31577848
H        0.90630635       1.86411007      -0.25266927
16
Properties=species:S:1:pos:R:3 relative_energy_eV=0.09737404649968084 branch=right pbc="F F F"
C        1.51496853      -0.64504729      -0.85599717
C        0.21612125       0.05374944      -0.45966003
O        0.29070151       1.43338166      -0.88204639
N       -0.96466851      -0.63441379      -0.94372170
C       -1.11840391       0.54620164       1.54043624
N        0.15086554       0.06084869       0.99684953
H        2.35931983      -0.23300747      -0.30224528
H        1.44865108      -1.70978909      -0.63057306
H        1.69402989      -0.51851274      -1.91973197
H       -0.74031684      -1.30291459      -1.68227282
H       -1.65163240       0.01822861      -1.30381874
H       -1.98190709      -0.07465508       1.28317653
H       -1.04698957       0.59884772       2.62769430
H       -1.30471524       1.55281886       1.17615947
H        0.28476359      -0.89530513       1.31255596
H        0.90252009       1.86158118      -0.25456733
16
Properties=species:S:1:pos:R:3 relative_energy_eV=0.06985499813345086 branch=right pbc="F F F"
C        1.51444471      -0.64522094      -0.85505741
C        0.22239745       0.05729528      -0.45427415
O        0.29107299       1.43288044      -0.87726706
N       -0.93946671      -0.60594395      -0.99627557
C       -1.11840658       0.54622289       1.54228790
N        0.15093056       0.06117131       1.00406156
H        2.35898456      -0.23319174      -0.30232621
H        1.44803298      -1.71014308      -0.63044231
H        1.69305293      -0.51851823      -1.91996147
H       -0.75112385      -1.32699298      -1.66681758
H       -1.67031777       0.01222698      -1.28940810
H       -1.98197007      -0.07523093       1.28345937
H       -1.04752683       0.59935877       2.62859480
H       -1.30499215       1.55265610       1.17625987
H        0.28527875      -0.89587780       1.31417988
H        0.90291676       1.86132057      -0.25477595
16
Properties=species:S:1:pos:R:3 relative_energy_eV=0.06215967998468841 branch=right pbc="F F F"
C        1.51350600      -0.64549187      -0.85506604
C        0.22265144       0.05623322      -0.44988128
O        0.28938983       1.42950009      -0.87854718
N       -0.94298263      -0.61073723      -0.98961705
C       -1.11837813       0.54661052       1.54240418
N        0.15229997       0.06256723       1.00673928
H        2.35760697      -0.23305588      -0.30271777
H        1.44847324      -1.71041991      -0.63064959
H        1.69340785      -0.51859858      -1.92067386
H       -0.74846663      -1.32028732      -1.67160224
H       -1.66629378       0.01456553      -1.29264796
H       -1.98170519      -0.07492644       1.28331121
H       -1.04678586       0.59920765       2.62807303
H       -1.30501830       1.55283347       1.17608552
H        0.28543921      -0.89519283       1.31376909
H        0.90016375       1.85920503      -0.25674181
16
Properties=species:S:1:pos:R:3 relative_energy_eV=0.04106575999685447 branch=right pbc="F F F"
C        1.50773087      -0.64849179      -0.85460715
C        0.22329949       0.04823012      -0.42564558
O        0.27612432       1.40509659      -0.88569881
N       -0.95968000      -0.63466672      -0.95521048
C       -1.11842298       0.54966545       1.54487668
N        0.16185240       0.07191062       1.02543254
H        2.34887877      -0.23205068      -0.30509608
H        1.45167266      -1.71315162      -0.63208243
H        1.69379691      -0.51893580      -1.92334957
H       -0.73131890      -1.27969323      -1.70280864
H       -1.64234915       0.02978567      -1.31055818
H       -1.97917545      -0.07313264       1.28211881
H       -1.04236818       0.59886079       2.62632332
H       -1.30509803       1.55425591       1.17487914
H        0.28694768      -0.89166368       1.31400082
H        0.88141738       1.84599357      -0.27033692
16
Properties=species:S:1:pos:R:3 relative_energy_eV=0.0345527800545824 branch=right pbc="F F F"
C        1.50773192      -0.64947253      -0.85375776
C        0.22409222       0.04791428      -0.42629904
O        0.27424053       1.40334979      -0.88455544
N       -0.95204048      -0.62727373      -0.96902145
C       -1.11829938       0.55016736       1.54615843
N        0.16236273       0.07152205       1.02751382
H        2.34861895      -0.23200606      -0.30508652
H        1.45198588      -1.71421147      -0.63216106
H        1.69225298      -0.51885437      -1.92233923
H       -0.73238107      -1.28336971      -1.70112868
H       -1.64608779       0.02978923      -1.30646830
H       -1.97845314      -0.07329812       1.28201418
H       -1.04272283       0.59949856       2.62788773
H       -1.30505578       1.55443034       1.17492477
H        0.28736032      -0.89173861       1.31648012
H        0.87970273       1.84556559      -0.27192412
16
Properties=species:S:1:pos:R:3 relative_energy_eV=0.027249636068518157 branch=right pbc="F F F"
C        1.50697336      -0.65227806      -0.85213179
C        0.22407465       0.04418350      -0.42522983
O        0.26700663       1.39600006      -0.88551655
N       -0.94739004      -0.62412515      -0.97624132
C       -1.11756053       0.55158392       1.54898287
N        0.16461905       0.07198681       1.03179503
H        2.34696243      -0.23163188      -0.30519473
H        1.45357912      -1.71735288      -0.63256257
H        1.68879892      -0.51877009      -1.92013119
H       -0.72758653      -1.27643276      -1.70906030
H       -1.64334737       0.03433412      -1.30468792
H       -1.97614558      -0.07314795       1.28154344
H       -1.04286203       0.60095452       2.63116406
H       -1.30479998       1.55523217       1.17490516
H        0.28847049      -0.89131962       1.32233029
H        0.87251522       1.84279590      -0.27772721
16
Properties=species:S:1:pos:R:3 relative_energy_eV=0.015151513140153838 branch=right pbc="F F F"
C        1.50601222      -0.65906427      -0.84798415
C        0.22217781       0.03439479      -0.42435708
O        0.24963643       1.38137702      -0.88986827
N       -0.94259369      -0.62378149      -0.98353977
C       -1.11491190       0.55461624       1.55509597
N        0.16821501       0.07113455       1.03734089
H        2.34401854      -0.23088523      -0.30485258
H        1.45772457      -1.72553659      -0.63332378
H        1.67993968      -0.51873944      -1.91445782
H       -0.71358426      -1.25480929      -1.73169103
H       -1.63250308       0.04636116      -1.30179596
H       -1.97011300      -0.07257462       1.28078120
H       -1.04384551       0.60492667       2.63941757
H       -1.30376425       1.55699888       1.17543907
H        0.29126174      -0.89003297       1.33749734
H        0.85563751       1.83762718      -0.29146424
16
Properties=species:S:1:pos:R:3 relative_energy_eV=0.0067096487000526395 branch=right pbc="F F F"
C        1.50550237      -0.66501375      -0.84391468
C        0.21937381       0.02522211      -0.42299559
O        0.23430357       1.37049906      -0.89577885
N       -0.94393597      -0.63053233      -0.98311158
C       -1.11176534       0.55687135       1.55991686
N        0.16924590       0.06896737       1.03915959
H        2.34222904      -0.23053863      -0.30388304
H        1.46183349      -1.73331347      -0.63374086
H        1.67167881      -0.51910929      -1.90960971
H       -0.69913795      -1.23046573      -1.75550648
H       -1.61909851       0.05793331      -1.29995291
H       -1.96427448      -0.07164071       1.28081863
H       -1.04511044       0.60893243       2.64632249
H       -1.30218602       1.55827144       1.17670817
H        0.29424419      -0.88850166       1.35189280
H        0.84040534       1.83443108      -0.30408752
16
Properties=species:S:1:pos:R:3 relative_energy_eV=0.0008988150875666179 branch=right pbc="F F F"
C        1.50559092      -0.66907937      -0.84030501
C        0.21626802       0.01849414      -0.42166450
O        0.22386753       1.36497338      -0.90176589
N       -0.94836322      -0.64077951      -0.98076828
C       -1.10891246       0.55793855       1.56278152
N        0.16693523       0.06539227       1.03741794
H        2.34217849      -0.23096725      -0.30222722
H        1.46526647      -1.73933135      -0.63357384
H        1.66500844      -0.52007290      -1.90620581
H       -0.68777180      -1.20919735      -1.77558392
H       -1.60729963       0.06612065      -1.29726237
H       -1.95976090      -0.07046627       1.28210568
H       -1.04649674       0.61252779       2.65059994
H       -1.29996744       1.55874120       1.17883164
H        0.29739075      -0.88691518       1.36362495
H        0.82937416       1.83463376      -0.31376757
16
Properties=species:S:1:pos:R:3 relative_energy_eV=-0.002627100939207594 branch=right pbc="F F F"
C        1.50608306      -0.66978737      -0.83848915
C        0.21461312       0.01667757      -0.42117944
O        0.22224013       1.36578943      -0.90472236
N       -0.95101659      -0.64665215      -0.98190570
C       -1.10787627       0.55751756       1.56294847
N        0.16270152       0.06228533       1.03427269
H        2.34369872      -0.23211652      -0.30061883
H        1.46662577      -1.74103989      -0.63283054
H        1.66240696      -0.52133009      -1.90531366
H       -0.68480020      -1.20138384      -1.78348367
H       -1.60366117       0.06691248      -1.29341148
H       -1.95882527      -0.06965703       1.28420495
H       -1.04726515       0.61429622       2.65071052
H       -1.29793852       1.55842319       1.18085718
H        0.29969821      -0.88605999       1.36819890
H        0.82662348       1.83813764      -0.31700060
16
Properties=species:S:1:pos:R:3 relative_energy_eV=-0.0059650925650203135 branch=right pbc="F F F"
C        1.50622421      -0.66973257      -0.83666059
C        0.21338694       0.01530304      -0.41913451
O        0.22253953       1.36587521      -0.90750554
N       -0.95307911      -0.65259761      -0.98435098
C       -1.10801268       0.55672201       1.56249400
N        0.15766923       0.05954482       1.03269969
H        2.34549370      -0.23418321      -0.29868417
H        1.46784674      -1.74133848      -0.63148356
H        1.66065724      -0.52346498      -1.90511788
H       -0.68327704      -1.19324850      -1.79264687
H       -1.60142856       0.06542063      -1.28811446
H       -1.95990579      -0.06864551       1.28762659
H       -1.04721084       0.61582261       2.64884421
H       -1.29504427       1.55806678       1.18338418
H        0.30310798      -0.88495996       1.37126632
H        0.82434053       1.84342825      -0.32037915
16
Properties=species:S:1:pos:R:3 relative_energy_eV=-0.009027059117215686 branch=right pbc="F F F"
C        1.50619071      -0.66987582      -0.83468856
C        0.21256511       0.01324041      -0.41702262
O        0.22281827       1.36366020      -0.90993472
N       -0.95305207      -0.65785577      -0.98785703
C       -1.10926117       0.55595158       1.56229269
N        0.15348768       0.05769397       1.03278952
H        2.34701445      -0.23682171      -0.29669264
H        1.46910498      -1.74110766      -0.62960916
H        1.65902845      -0.52623892      -1.90447231
H       -0.68176812      -1.18290591      -1.80467062
H       -1.60029984       0.06315340      -1.28157437
H       -1.96295827      -0.06760785       1.29183544
H       -1.04635567       0.61727241       2.64678493
H       -1.29163317       1.55825358       1.18586407
H        0.30753810      -0.88402613       1.37428429
H        0.82088840       1.84922677      -0.32509164
16
Properties=species:S:1:pos:R:3 relative_energy_eV=-0.01332815444584412 branch=right pbc="F F F"
C        1.50637346      -0.67080782      -0.83154455
C        0.21223410       0.00941624      -0.41491911
O        0.22254057       1.35825574      -0.91344009
N       -0.95024475      -0.66454802      -0.99382440
C       -1.11213896       0.55492854       1.56239175
N        0.14877423       0.05534288       1.03376143
H        2.34897714      -0.24112028      -0.29374469
H        1.47088667      -1.74073623      -0.62607430
H        1.65670365      -0.53095986      -1.90248976
H       -0.67911343      -1.16465745      -1.82597735
H       -1.60042524       0.05902907      -1.27006210
H       -1.97001360      -0.06604190       1.29877021
H       -1.04429324       0.61929865       2.64467581
H       -1.28633266       1.55932003       1.18916182
H        0.31499744      -0.88266253       1.37906456
H        0.81438249       1.85795544      -0.33351198
16
Properties=species:S:1:pos:R:3 relative_energy_eV=-0.017829568967499654 branch=right pbc="F F F"
C        1.50740249      -0.67258354      -0.82815159
C        0.21323900       0.00533566      -0.41461354
O        0.22224719       1.35221683      -0.91710434
N       -0.94409995      -0.67012899      -1.00084203
C       -1.11592730       0.55371464       1.56271818
N        0.14502376       0.05306931       1.03418038
H        2.35109788      -0.24579985      -0.29065729
H        1.47225188      -1.74060902      -0.62123298
H        1.65501811      -0.53653282      -1.89934697
H       -0.67647227      -1.14321947      -1.85075099
H       -1.60396545       0.05294149      -1.25526862
H       -1.98048874      -0.06411485       1.30678685
H       -1.04136809       0.62098498       2.64379482
H       -1.28092641       1.56109182       1.19194555
H        0.32336998      -0.88134273       1.38388143
H        0.80690583       1.86698906      -0.34310161
16
Properties=species:S:1:pos:R:3 relative_energy_eV=-0.022202386451681377 branch=right pbc="F F F"
C        1.50952969      -0.67503787      -0.82523360
C        0.21575028       0.00261064      -0.41642232
O        0.22230105       1.34791308      -0.92092890
N       -0.93589800      -0.67357047      -1.00691994
C       -1.11963428       0.55246339       1.56308074
N        0.14265542       0.05112600       1.03316941
H        2.35330086      -0.24962829      -0.28802401
H        1.47251592      -1.74120754      -0.61554458
H        1.65531286      -0.54199078      -1.89587017
H       -0.67453721      -1.12228452      -1.87393614
H       -1.61153466       0.04488537      -1.23903554
H       -1.99259426      -0.06161518       1.31443847
H       -1.03802750       0.62154413       2.64437017
H       -1.27697979       1.56278012       1.19340106
H        0.33060143      -0.88004225       1.38698845
H        0.80054614       1.87406665      -0.35129587
16
Properties=species:S:1:pos:R:3 relative_energy_eV=-0.026553871170108323 branch=right pbc="F F F"
C        1.51259149      -0.67775221      -0.82325058
C        0.21910604       0.00232091      -0.41990631
O        0.22307235       1.34701082      -0.92500601
N       -0.92768822      -0.67476918      -1.01063717
C       -1.12228472       0.55130504       1.56336917
N        0.14131995       0.05012199       1.03037087
H        2.35561138      -0.25169980      -0.28620749
H        1.47136034      -1.74279203      -0.60958923
H        1.65851331      -0.54663563      -1.89302574
H       -0.67359877      -1.10465108      -1.89156495
H       -1.62247245       0.03513052      -1.22302834
H       -2.00380384      -0.05827453       1.32055350
H       -1.03478461       0.62051221       2.64588289
H       -1.27560215       1.56349549       1.19322810
H        0.33509378      -0.87891723       1.38723926
H        0.79687410       1.87760717      -0.35619079
16
Properties=species:S:1:pos:R:3 relative_energy_eV=-0.03146834954350197 branch=right pbc="F F F"
C        1.51632516      -0.68091605      -0.82173341
C        0.22237703       0.00408997      -0.42418934
O        0.22381316       1.34872438      -0.93063389
N       -0.92079066      -0.67559182      -1.01172622
C       -1.12352105       0.55047655       1.56376175
N        0.14027309       0.05009643       1.02615956
H        2.35820594      -0.25200890      -0.28495597
H        1.46903516      -1.74583593      -0.60310378
H        1.66489954      -0.55098830      -1.89091643
H       -0.67231979      -1.08700048      -1.90617028
H       -1.63563366       0.02363222      -1.20594628
H       -2.01290457      -0.05342467       1.32540664
H       -1.03159183       0.61796774       2.64791901
H       -1.27686704       1.56277822       1.19179881
H        0.33690529      -0.87750602       1.38504999
H        0.79510225       1.87751915      -0.35848300
16
Properties=species:S:1:pos:R:3 relative_energy_eV=-0.03678639205463696 branch=right pbc="F F F"
C        1.51991597      -0.68350686      -0.82083644
C        0.22418408       0.00777887      -0.42894072
O        0.22552767       1.35335821      -0.93684154
N       -0.91632779      -0.67622757      -1.01166931
C       -1.12306308       0.55017692       1.56401591
N        0.13894628       0.05139549       1.02099978
H        2.36098903      -0.25061697      -0.28430875
H        1.46578679      -1.74930060      -0.59689903
H        1.67436068      -0.55492283      -1.88997078
H       -0.67137891      -1.07225243      -1.91460287
H       -1.64983626       0.01104185      -1.18873706
H       -2.01759578      -0.04761287       1.32828667
H       -1.02894259       0.61415280       2.64943107
H       -1.28089293       1.56048795       1.18960170
H        0.33538411      -0.87598886       1.38009040
H        0.79625078       1.87404935      -0.35738189
16
Properties=species:S:1:pos:R:3 relative_energy_eV=-0.04210946913190128 branch=right pbc="F F F"
C        1.52231286      -0.68653493      -0.81864461
C        0.22335095       0.00925397      -0.43146745
O        0.22492221       1.35487252      -0.94580552
N       -0.91536085      -0.68208088      -1.01131986
C       -1.12137467       0.55091718       1.56497148
N        0.13625935       0.05319458       1.01695942
H        2.36348477      -0.24929097      -0.28305339
H        1.46356650      -1.75360249      -0.59029595
H        1.68426848      -0.56049515      -1.88859112
H       -0.66625901      -1.04741928      -1.93062669
H       -1.66012661      -0.00103520      -1.16774229
H       -2.01819927      -0.04076449       1.33130795
H       -1.02622804       0.61091340       2.65035520
H       -1.28532011       1.55779682       1.18849205
H        0.33370339      -0.87324681       1.37676898
H        0.79430812       1.86953417      -0.35907109
16
Properties=species:S:1:pos:R:3 relative_energy_eV=-0.04655146976256219 branch=right pbc="F F F"
C        1.52382994      -0.68617819      -0.81836853
C        0.22076232       0.01394595      -0.43703154
O        0.23068863       1.36166570      -0.95084970
N       -0.91384102      -0.68336178      -1.01543320
C       -1.11907604       0.55226327       1.56435268
N        0.13373710       0.05681643       1.01141343
H        2.36580952      -0.24687687      -0.28264479
H        1.45979355      -1.75401226      -0.58485239
H        1.69864789      -0.56577281      -1.88867426
H       -0.66749541      -1.03680304      -1.92943164
H       -1.67576310      -0.01709930      -1.14672437
H       -2.01420496      -0.03544492       1.33109226
H       -1.02425013       0.60613309       2.64894402
H       -1.29301249       1.55466429       1.18687614
H        0.32708794      -0.87120532       1.36701782
H        0.80059434       1.86327822      -0.35344881
16
Properties=species:S:1:pos:R:3 relative_energy_eV=-0.051912162140069995 branch=right pbc="F F F"
C        1.52322834      -0.68809560      -0.81464025
C        0.21746252       0.00939627      -0.43638843
O        0.22857448       1.35505651      -0.95830777
N       -0.91404424      -0.69430255      -1.01945951
C       -1.11844781       0.55423634       1.56545243
N        0.13022041       0.05784352       1.01055598
H        2.36623494      -0.24854790      -0.27985891
H        1.46082176      -1.75504424      -0.57941609
H        1.70383049      -0.57363040      -1.88534299
H       -0.66025898      -1.00333533      -1.95555687
H       -1.67791761      -0.02648820      -1.12421226
H       -2.01284438      -0.03210837       1.33490905
H       -1.02149712       0.60637941       2.64824107
H       -1.29398941       1.55541014       1.18922108
H        0.32846417      -0.86788219       1.36855624
H        0.79347056       1.86312505      -0.36151572
16
Properties=species:S:1:pos:R:3 relative_energy_eV=-0.057516601715178695 branch=right pbc="F F F"
C        1.52099452      -0.68742922      -0.81289204
C        0.21525256       0.00498706      -0.43622547
O        0.22883317       1.34812923      -0.95986688
N       -0.91347265      -0.70026263      -1.02491522
C       -1.11874096       0.55668149       1.56513653
N        0.12937378       0.05910080       1.01060445
H        2.36410880      -0.25044889      -0.27766161
H        1.46241870      -1.75161153      -0.57713485
H        1.70666240      -0.57956531      -1.88255669
H       -0.65890826      -0.98401161      -1.96885712
H       -1.67776319      -0.03410530      -1.10998367
H       -2.00989272      -0.03416246       1.33539702
H       -1.01974237       0.60781787       2.64668352
H       -1.29462132       1.55911563       1.19197764
H        0.32809115      -0.86612644       1.36854183
H        0.79071451       1.86390379      -0.36601038
16
Properties=species:S:1:pos:R:3 relative_energy_eV=-0.06309553300889092 branch=right pbc="F F F"
C        1.52023435      -0.68730238      -0.81066841
C        0.21475005       0.00110321      -0.44033734
O        0.23148072       1.34153275      -0.96285815
N       -0.90753397      -0.70695095      -1.03334982
C       -1.11986260       0.56006643       1.56363888
N        0.12876486       0.06140297       1.00712710
H        2.36115205      -0.25244844      -0.27371295
H        1.46304985      -1.74715787      -0.57089333
H        1.71474699      -0.58977489      -1.87805222
H       -0.66040461      -0.95228440      -1.98826398
H       -1.68629564      -0.05303513      -1.08178482
H       -2.00904247      -0.03703149       1.33640922
H       -1.01586131       0.60864326       2.64534046
H       -1.29738782       1.56546603       1.19506283
H        0.32614974      -0.86390145       1.36531923
H        0.78936798       1.86368483      -0.37073968
16
Properties=species:S:1:pos:R:3 relative_energy_eV=-0.06659613206647919 branch=right pbc="F F F"
C        1.51997264      -0.68705093      -0.81098050
C        0.21584093       0.00052577      -0.44396628
O        0.23370958       1.33971822      -0.96352785
N       -0.90471786      -0.70912608      -1.03495100
C       -1.11966809       0.56315905       1.56147849
N        0.13062302       0.06411844       1.00391110
H        2.35703065      -0.25139710      -0.27093066
H        1.46301591      -1.74414369      -0.56739676
H        1.72139933      -0.59539098      -1.87621236
H       -0.66525209      -0.93477373      -1.99319838
H       -1.69120935      -0.06811509      -1.06613866
H       -2.00477320      -0.04171939       1.33317571
H       -1.01377142       0.60913946       2.64432168
H       -1.30173078       1.57109896       1.19652227
H        0.32063598      -0.86327366       1.36039494
H        0.79220290       1.85924327      -0.37026474
16
Properties=species:S:1:pos:R:3 relative_energy_eV=-0.06869875905067602 branch=right pbc="F F F"
C        1.52345436      -0.69024881      -0.80839644
C        0.21812515      -0.00019280      -0.45179194
O        0.23584942       1.33797928      -0.97193554
N       -0.89416670      -0.71743617      -1.04152151
C       -1.12020278       0.56685137       1.55867805
N        0.12940863       0.06667908       0.99592264
H        2.35410015      -0.25053843      -0.26380893
H        1.46225685      -1.74452346      -0.55561802
H        1.73421406      -0.60839761      -1.87182720
H       -0.67016019      -0.88650794      -2.02040514
H       -1.70767064      -0.09984039      -1.02410469
H       -2.00483746      -0.04381179       1.33414909
H       -1.00837549       0.60944148       2.64310365
H       -1.30728135       1.57807966       1.19941721
H        0.31597529      -0.86085652       1.35502455
H        0.79261888       1.85533557      -0.37464882
16
Properties=species:S:1:pos:R:3 relative_energy_eV=-0.07156896839660476 branch=right pbc="F F F"
C        1.52432516      -0.69026582      -0.81013908
C        0.21978885       0.00191190      -0.45167425
O        0.23561160       1.34160286      -0.96960298
N       -0.89468416      -0.71428154      -1.03802554
C       -1.11948740       0.56718520       1.55687033
N        0.13147785       0.06687248       0.99618530
H        2.35165142      -0.24763592      -0.26268445
H        1.46269572      -1.74561016      -0.55706706
H        1.73167585      -0.60552718      -1.87414696
H       -0.67669803      -0.89413689      -2.01036867
H       -1.70390035      -0.10031870      -1.03119220
H       -2.00054735      -0.04818485       1.32959604
H       -1.00993102       0.61105465       2.64177519
H       -1.30798823       1.57946649       1.19961336
H        0.31236173      -0.86272240       1.35437306
H        0.79695653       1.85260241      -0.37127510
16
Properties=species:S:1:pos:R:3 relative_energy_eV=-0.07299095724556537 branch=right pbc="F F F"
C        1.52562527      -0.69153303      -0.80938210
C        0.22061610       0.00222346      -0.45175287
O        0.23538841       1.34319195      -0.97088401
N       -0.89295979      -0.71569517      -1.03879129
C       -1.11944839       0.56711943       1.55573147
N        0.13078426       0.06632276       0.99611363
H        2.35133367      -0.24621081      -0.26002183
H        1.46336649      -1.74781664      -0.55503667
H        1.73084118      -0.60625075      -1.87490268
H       -0.68034676      -0.88679194      -2.01469638
H       -1.70412794      -0.10555771      -1.02598399
H       -1.99944495      -0.04913043       1.32913854
H       -1.01002960       0.61258299       2.63974553
H       -1.30755815       1.57975967       1.20060487
H        0.31163933      -0.86275522       1.35502584
H        0.79762903       1.85255399      -0.37267111
16
Properties=species:S:1:pos:R:3 relative_energy_eV=-0.07417398026154842 branch=right pbc="F F F"
C        1.52777950      -0.69337026      -0.80746533
C        0.22177198       0.00211459      -0.45206561
O        0.23548952       1.34443869      -0.97308490
N       -0.88901555      -0.71824546      -1.04249078
C       -1.11967112       0.56656234       1.55390492
N        0.12914709       0.06559609       0.99588810
H        2.35156087      -0.24451003      -0.25559589
H        1.46470214      -1.75096666      -0.55103196
H        1.72932286      -0.60800033      -1.87525460
H       -0.68642277      -0.87295270      -2.02442911
H       -1.70642975      -0.11517449      -1.01419557
H       -1.99911032      -0.04967202       1.32942635
H       -1.01012161       0.61512598       2.63609770
H       -1.30610649       1.57942752       1.20188584
H        0.31150393      -0.86277880       1.35646410
H        0.79890791       1.85441805      -0.37581629
16
Properties=species:S:1:pos:R:3 relative_energy_eV=-0.07454050165324588 branch=right pbc="F F F"
C        1.52803954      -0.69361171      -0.80672954
C        0.22190186       0.00168178      -0.45197096
O        0.23600581       1.34405227      -0.97303571
N       -0.88860634      -0.71925153      -1.04330045
C       -1.11954682       0.56638206       1.55326373
N        0.12925856       0.06556898       0.99611124
H        2.35157480      -0.24388231      -0.25463145
H        1.46538928      -1.75129486      -0.54994678
H        1.72882655      -0.60831018      -1.87488838
H       -0.68849645      -0.86818626      -2.02726159
H       -1.70702569      -0.11834701      -1.01021464
H       -1.99877804      -0.04956474       1.32905248
H       -1.01039484       0.61584128       2.63492327
H       -1.30574165       1.57878015       1.20144773
H        0.31116111      -0.86261813       1.35651452
H        0.79974050       1.85477272      -0.37709650
16
Properties=species:S:1:pos:R:3 relative_energy_eV=-0.07557059260034293 branch=right pbc="F F F"
C        1.52888479      -0.69399881      -0.80443853
C        0.22258465       0.00042870      -0.45202031
O        0.23816133       1.34250480      -0.97230760
N       -0.88713184      -0.72119275      -1.04610921
C       -1.11881257       0.56556357       1.55112781
N        0.13033203       0.06579564       0.99622348
H        2.35177887      -0.24161895      -0.25249173
H        1.46767527      -1.75153110      -0.54654312
H        1.72750240      -0.60867892      -1.87284376
H       -0.69591092      -0.85412652      -2.03439097
H       -1.71075553      -0.12911120      -0.99646370
H       -1.99833379      -0.04878010       1.32711213
H       -1.01171497       0.61768186       2.63186081
H       -1.30492783       1.57602599       1.19802276
H        0.30968586      -0.86264050       1.35599881
H        0.80429047       1.85569080      -0.38049992
16
Properties=species:S:1:pos:R:3 relative_energy_eV=-0.07626025671379466 branch=right pbc="F F F"
C        1.52919784      -0.69392349      -0.80300857
C        0.22305518      -0.00049633      -0.45184516
O        0.23970435       1.34121508      -0.97133131
N       -0.88693871      -0.72190510      -1.04677816
C       -1.11801695       0.56506891       1.54977512
N        0.13172346       0.06573812       0.99621400
H        2.35186281      -0.23982972      -0.25228647
H        1.46950291      -1.75100960      -0.54469732
H        1.72665686      -0.60807080      -1.87081298
H       -0.70077637      -0.84526691      -2.03727371
H       -1.71350200      -0.13586092      -0.98748046
H       -1.99820546      -0.04801477       1.32484813
H       -1.01312665       0.61851163       2.63079135
H       -1.30471394       1.57378344       1.19348501
H        0.30846341      -0.86313274       1.35530361
H        0.80842147       1.85520573      -0.38266615
16
Properties=species:S:1:pos:R:3 relative_energy_eV=-0.07703204777862993 branch=right pbc="F F F"
C        1.52957593      -0.69365469      -0.80153988
C        0.22368834      -0.00132528      -0.45137220
O        0.24115606       1.34021055      -0.97036794
N       -0.88664185      -0.72197758      -1.04677574
C       -1.11730659       0.56454792       1.54834995
N        0.13301807       0.06484148       0.99620055
H        2.35217315      -0.23765857      -0.25302370
H        1.47189234      -1.75024235      -0.54290960
H        1.72546516      -0.60658202      -1.86840517
H       -0.70610399      -0.83602412      -2.03880519
H       -1.71698765      -0.14275782      -0.97737683
H       -1.99864638      -0.04715609       1.32179664
H       -1.01524434       0.61926544       2.63037932
H       -1.30433593       1.57124170       1.18637078
H        0.30754792      -0.86460438       1.35479661
H        0.81405797       1.85388836      -0.38508067
16
Properties=species:S:1:pos:R:3 relative_energy_eV=-0.07775709025554534 branch=right pbc="F F F"
C        1.52973614      -0.69317892      -0.80046200
C        0.22406592      -0.00205027      -0.45024598
O        0.24182418       1.33955415      -0.96973608
N       -0.88657078      -0.72200060      -1.04563162
C       -1.11721593       0.56428930       1.54716528
N        0.13341358       0.06294283       0.99668660
H        2.35260811      -0.23569387      -0.25445984
H        1.47454945      -1.74946908      -0.54175777
H        1.72392670      -0.60461368      -1.86661197
H       -0.71018723      -0.82779486      -2.03900481
H       -1.71937703      -0.14761139      -0.96876825
H       -1.99930039      -0.04674639       1.31879529
H       -1.01768558       0.62010040       2.63036987
H       -1.30351562       1.56931186       1.17849781
H        0.30752921      -0.86689629       1.35508681
H        0.81950748       1.85186938      -0.38768643
16
Properties=species:S:1:pos:R:3 relative_energy_eV=-0.07856054839976423 branch=right pbc="F F F"
C        1.52986048      -0.69240050      -0.79965234
C        0.22421947      -0.00273471      -0.44836077
O        0.24194317       1.33926402      -0.96917733
N       -0.88619482      -0.72208095      -1.04384086
C       -1.11808517       0.56415821       1.54575687
N        0.13257599       0.05967210       0.99795071
H        2.35339099      -0.23365093      -0.25633609
H        1.47789677      -1.74867618      -0.54086048
H        1.72177633      -0.60220328      -1.86565972
H       -0.71395912      -0.81896812      -2.03843064
H       -1.72130249      -0.15165022      -0.95949043
H       -2.00035843      -0.04691336       1.31580432
H       -1.02085769       0.62154563       2.62993135
H       -1.30179401       1.56770920       1.16933183
H        0.30849979      -0.87029135       1.35633308
H        0.82569695       1.84923302      -0.39106266
16
Properties=species:S:1:pos:R:3 relative_energy_eV=-0.07919048642907 branch=right pbc="F F F"
C        1.52983315      -0.69151604      -0.79963744
C        0.22398864      -0.00333911      -0.44627305
O        0.24123792       1.33902645      -0.96850689
N       -0.88597176      -0.72245402      -1.04183565
C       -1.11961528       0.56418402       1.54445825
N        0.13091863       0.05646511       0.99966949
H        2.35411429      -0.23221633      -0.25786606
H        1.48076476      -1.74800288      -0.54073092
H        1.71983835      -0.60042714      -1.86620977
H       -0.71578611      -0.81246670      -2.03737141
H       -1.72153420      -0.15323991      -0.95296725
H       -2.00112920      -0.04786562       1.31397322
H       -1.02377345       0.62344981       2.62873312
H       -1.29977782       1.56706956       1.16268838
H        0.30981169      -0.87342648       1.35816024
H        0.83038858       1.84677184      -0.39404739
16
Properties=species:S:1:pos:R:3 relative_energy_eV=-0.07967021431068133 branch=right pbc="F F F"
C        1.52999561      -0.69073940      -0.80022761
C        0.22372036      -0.00383051      -0.44474763
O        0.24026521       1.33887322      -0.96746330
N       -0.88553863      -0.72287069      -1.04047896
C       -1.12126124       0.56415440       1.54308818
N        0.12929438       0.05405947       1.00117273
H        2.35470987      -0.23122058      -0.25871001
H        1.48276829      -1.74743735      -0.54088302
H        1.71876341      -0.59975588      -1.86776866
H       -0.71639396      -0.80773324      -2.03660828
H       -1.72144481      -0.15405278      -0.94778100
H       -2.00173216      -0.04919080       1.31333789
H       -1.02617959       0.62566014       2.62673368
H       -1.29807559       1.56694351       1.15907464
H        0.31057165      -0.87557420       1.35978381
H        0.83384541       1.84472729      -0.39628559
16
Properties=species:S:1:pos:R:3 relative_energy_eV=-0.08009996927467 branch=right pbc="F F F"
C        1.53022317      -0.68992097      -0.80139933
C        0.22348440      -0.00444930      -0.44333025
O        0.23878693       1.33847783      -0.96543150
N       -0.88565570      -0.72303172      -1.03894643
C       -1.12263717       0.56381443       1.54162061
N        0.12836246       0.05239278       1.00263488
H        2.35521698      -0.23028737      -0.25963244
H        1.48433312      -1.74676495      -0.54178189
H        1.71786707      -0.59930322      -1.86996315
H       -0.71605923      -0.80534276      -2.03504751
H       -1.72056092      -0.15345994      -0.94450516
H       -2.00220904      -0.05065505       1.31318729
H       -1.02877168       0.62830917       2.62430826
H       -1.29665644       1.56661290       1.15697582
H        0.31055178      -0.87708224       1.36142275
H        0.83703248       1.84270302      -0.39787510
16
Properties=species:S:1:pos:R:3 relative_energy_eV=-0.08053359494988399 branch=right pbc="F F F"
C        1.53103697      -0.68924315      -0.80270137
C        0.22372910      -0.00533380      -0.44250165
O        0.23729747       1.33798011      -0.96258548
N       -0.88516647      -0.72338844      -1.03785723
C       -1.12372558       0.56320893       1.53941775
N        0.12825741       0.05120567       1.00352133
H        2.35571793      -0.22875818      -0.26046939
H        1.48600177      -1.74593718      -0.54218808
H        1.71782542      -0.59965151      -1.87209146
H       -0.71649959      -0.79975735      -2.03495463
H       -1.72126128      -0.15552422      -0.93717824
H       -2.00305108      -0.05214549       1.31303981
H       -1.03186439       0.63180181       2.62119658
H       -1.29583501       1.56576816       1.15468748
H        0.30915189      -0.87820206       1.36268067
H        0.84169360       1.83998932      -0.39977925
16
Properties=species:S:1:pos:R:3 relative_energy_eV=-0.08084102226348477 branch=right pbc="F F F"
C        1.53147503      -0.68827657      -0.80451181
C        0.22395848      -0.00602107      -0.44109331
O        0.23533262       1.33785729      -0.95816126
N       -0.88630810      -0.72233190      -1.03558342
C       -1.12418447       0.56200038       1.53791513
N        0.12937794       0.05038582       1.00498903
H        2.35648489      -0.22744637      -0.26287128
H        1.48728252      -1.74502660      -0.54468221
H        1.71650842      -0.59827928      -1.87441816
H       -0.71574358      -0.80253142      -2.03074410
H       -1.71980182      -0.15257024      -0.93699880
H       -2.00415559      -0.05300546       1.31285830
H       -1.03549218       0.63498844       2.61919601
H       -1.29517859       1.56373527       1.15232037
H        0.30758564      -0.87917921       1.36433346
H        0.84616696       1.83771355      -0.40031113
16
Properties=species:S:1:pos:R:3 relative_energy_eV=-0.08103818552626763 branch=right pbc="F F F"
C        1.53220028      -0.68823931      -0.80484815
C        0.22467558      -0.00655460      -0.44121125
O        0.23480987       1.33778922      -0.95633423
N       -0.88566079      -0.72280291      -1.03526268
C       -1.12397950       0.56157867       1.53681514
N        0.13051357       0.05045044       1.00475547
H        2.35671736      -0.22622057      -0.26378931
H        1.48820462      -1.74466615      -0.54456297
H        1.71704201      -0.59874677      -1.87438681
H       -0.71709603      -0.79747760      -2.03228013
H       -1.72143467      -0.15587974      -0.93069110
H       -2.00490281      -0.05317257       1.31239216
H       -1.03712840       0.63686354       2.61836420
H       -1.29595687       1.56254359       1.15008781
H        0.30556764      -0.87948068       1.36449978
H        0.84973629       1.83602808      -0.40131110
16
Properties=species:S:1:pos:R:3 relative_energy_eV=-0.0811692999141087 branch=right pbc="F F F"
C        1.53224303      -0.68815920      -0.80499200
C        0.22498233      -0.00638659      -0.44109911
O        0.23472596       1.33843865      -0.95528500
N       -0.88568875      -0.72250455      -1.03490522
C       -1.12375110       0.56138712       1.53708035
N        0.13118018       0.05049355       1.00495934
H        2.35704807      -0.22604598      -0.26498607
H        1.48833294      -1.74466056      -0.54537237
H        1.71676155      -0.59822436      -1.87418633
H       -0.71737801      -0.79946129      -2.03151290
H       -1.72131058      -0.15516260      -0.93150738
H       -2.00535720      -0.05279903       1.31231183
H       -1.03758845       0.63715320       2.61907268
H       -1.29667304       1.56168761       1.14899063
H        0.30487155      -0.87964341       1.36464763
H        0.85090965       1.83590008      -0.40097925
16
Properties=species:S:1:pos:R:3 relative_energy_eV=-0.08132884175756772 branch=right pbc="F F F"
C        1.53213864      -0.68789302      -0.80540915
C        0.22533409      -0.00606628      -0.44055917
O        0.23432377       1.33953890      -0.95350766
N       -0.88563329      -0.72245056      -1.03405940
C       -1.12379499       0.56135172       1.53765337
N        0.13165823       0.05032845       1.00569142
H        2.35769829      -0.22586464      -0.26719111
H        1.48877941      -1.74463422      -0.54702958
H        1.71617347      -0.59748094      -1.87424491
H       -0.71767272      -0.80258627      -2.03051696
H       -1.72037717      -0.15366005      -0.93297809
H       -2.00578736      -0.05260398       1.31236537
H       -1.03836798       0.63803217       2.62017487
H       -1.29802022       1.56063547       1.14711846
H        0.30374101      -0.88028763       1.36523493
H        0.85311495       1.83565352      -0.40050557
16
Properties=species:S:1:pos:R:3 relative_energy_eV=-0.08145986408089811 branch=right pbc="F F F"
C        1.53210643      -0.68745126      -0.80609244
C        0.22558090      -0.00566353      -0.43993647
O        0.23403684       1.34084293      -0.95140907
N       -0.88519992      -0.72247157      -1.03339744
C       -1.12437170       0.56148666       1.53807219
N        0.13146573       0.04989959       1.00668074
H        2.35857478      -0.22575015      -0.26934954
H        1.48932040      -1.74450020      -0.54876646
H        1.71570576      -0.59705978      -1.87497428
H       -0.71789869      -0.80552556      -2.02969896
H       -1.71946185      -0.15241944      -0.93374813
H       -2.00609657      -0.05291026       1.31284946
H       -1.03920059       0.63943441       2.62073012
H       -1.29944363       1.55990484       1.14552248
H        0.30249594      -0.88111634       1.36588640
H        0.85569427       1.83531231      -0.40013178
16
Properties=species:S:1:pos:R:3 relative_energy_eV=-0.08157984183344524 branch=right pbc="F F F"
C        1.53212065      -0.68687395      -0.80697246
C        0.22571951      -0.00536987      -0.43910068
O        0.23373934       1.34186576      -0.94908624
N       -0.88468896      -0.72267975      -1.03271048
C       -1.12530302       0.56181897       1.53829088
N        0.13076130       0.04932921       1.00784696
H        2.35958591      -0.22557815      -0.27138748
H        1.49010190      -1.74421120      -0.55048550
H        1.71518965      -0.59688147      -1.87620359
H       -0.71811760      -0.80740027      -2.02934594
H       -1.71835551      -0.15174909      -0.93355491
H       -2.00599453      -0.05382476       1.31357626
H       -1.04013534       0.64147056       2.62073747
H       -1.30102265       1.55950626       1.14400930
H        0.30093568      -0.88215541       1.36659288
H        0.85877176       1.83474585      -0.39996963
16
Properties=species:S:1:pos:R:3 relative_energy_eV=-0.08162770724993607 branch=right pbc="F F F"
C        1.53229667      -0.68654565      -0.80740614
C        0.22576587      -0.00523188      -0.43875878
O        0.23400140       1.34226884      -0.94794496
N       -0.88422342      -0.72265467      -1.03271690
C       -1.12596451       0.56211433       1.53821967
N        0.13003861       0.04897754       1.00834330
H        2.36027091      -0.22548412      -0.27208986
H        1.49053887      -1.74397930      -0.55100501
H        1.71495325      -0.59697539      -1.87704886
H       -0.71838670      -0.80746190      -2.02959970
H       -1.71825936      -0.15235724      -0.93242785
H       -2.00572419      -0.05464895       1.31424540
H       -1.04046147       0.64277853       2.62034509
H       -1.30198115       1.55951990       1.14340018
H        0.29990585      -0.88271715       1.36667862
H        0.86053742       1.83440981      -0.39999738
16
Properties=species:S:1:pos:R:3 relative_energy_eV=-0.08168291617585055 branch=right pbc="F F F"
C        1.53253938      -0.68634548      -0.80759944
C        0.22581061      -0.00522524      -0.43854588
O        0.23447530       1.34223657      -0.94734082
N       -0.88394763      -0.72250547      -1.03286400
C       -1.12639544       0.56238391       1.53805929
N        0.12947283       0.04875525       1.00853251
H        2.36086377      -0.22537446      -0.27235479
H        1.49092320      -1.74376336      -0.55102614
H        1.71461451      -0.59698791      -1.87758514
H       -0.71864007      -0.80657098      -2.03010049
H       -1.71851001      -0.15351811      -0.93100990
H       -2.00533094      -0.05546265       1.31489938
H       -1.04055083       0.64387806       2.61991791
H       -1.30283839       1.55958788       1.14288138
H        0.29891280      -0.88314809       1.36648473
H        0.86190895       1.83407276      -0.40011175
16
Properties=species:S:1:pos:R:3 relative_energy_eV=-0.08172653628571425 branch=right pbc="F F F"
C        1.53288525      -0.68621506      -0.80762541
C        0.22591996      -0.00521023      -0.43844234
O        0.23531823       1.34212932      -0.94699270
N       -0.88367997      -0.72210383      -1.03321019
C       -1.12671471       0.56263794       1.53793340
N        0.12900376       0.04858972       1.00854439
H        2.36162632      -0.22532436      -0.27256118
H        1.49127751      -1.74357390      -0.55078808
H        1.71401938      -0.59678609      -1.87792321
H       -0.71880356      -0.80552613      -2.03063598
H       -1.71914679      -0.15498524      -0.92963966
H       -2.00497710      -0.05632541       1.31589891
H       -1.04039308       0.64501828       2.61960275
H       -1.30394911       1.55953418       1.14224046
H        0.29769940      -0.88358399       1.36601242
H        0.86322252       1.83373749      -0.40017675
16
Properties=species:S:1:pos:R:3 relative_energy_eV=-0.08179468907292176 branch=right pbc="F F F"
C        1.53326359      -0.68612185      -0.80754326
C        0.22611511      -0.00520563      -0.43827993
O        0.23637785       1.34194192      -0.94677205
N       -0.88348666      -0.72154574      -1.03353053
C       -1.12694541       0.56285356       1.53792698
N        0.12871232       0.04844174       1.00855100
H        2.36264577      -0.22534313      -0.27305840
H        1.49174210      -1.74341403      -0.55053881
H        1.71288277      -0.59617166      -1.87808283
H       -0.71864677      -0.80452958      -2.03104461
H       -1.71984189      -0.15633062      -0.92875003
H       -2.00470394      -0.05735092       1.31745848
H       -1.04006786       0.64652036       2.61950136
H       -1.30551775       1.55918296       1.14117836
H        0.29604952      -0.88418364       1.36540490
H        0.86472925       1.83326898      -0.40018377
16
Properties=species:S:1:pos:R:3 relative_energy_eV=-0.08186843589282944 branch=right pbc="F F F"
C        1.53353208      -0.68608204      -0.80738505
C        0.22635911      -0.00517473      -0.43806593
O        0.23742229       1.34183593      -0.94671696
N       -0.88331163      -0.72102301      -1.03376838
C       -1.12709312       0.56293913       1.53811647
N        0.12865031       0.04831958       1.00864852
H        2.36373223      -0.22550332      -0.27390181
H        1.49224022      -1.74335866      -0.55044108
H        1.71130611      -0.59521157      -1.87804879
H       -0.71796848      -0.80402234      -2.03112172
H       -1.72032866      -0.15692628      -0.92890775
H       -2.00468260      -0.05838626       1.31955513
H       -1.03957930       0.64826381       2.61966358
H       -1.30729589       1.55847894       1.13987988
H        0.29425349      -0.88487934       1.36484679
H        0.86607182       1.83274291      -0.40011606
16
Properties=species:S:1:pos:R:3 relative_energy_eV=-0.08193346820735314 branch=right pbc="F F F"
C        1.53354354      -0.68607998      -0.80724670
C        0.22656403      -0.00515886      -0.43774390
O        0.23805915       1.34178317      -0.94676091
N       -0.88316174      -0.72083620      -1.03377969
C       -1.12720313       0.56286142       1.53844929
N        0.12876198       0.04819852       1.00893901
H        2.36455873      -0.22574467      -0.27497942
H        1.49275502      -1.74341437      -0.55062529
H        1.70958593      -0.59417102      -1.87791564
H       -0.71680238      -0.80387791      -2.03087217
H       -1.72023575      -0.15647517      -0.93009087
H       -2.00487289      -0.05934830       1.32183370
H       -1.03908174       0.65013320       2.61994476
H       -1.30887285       1.55752674       1.13856635
H        0.29266576      -0.88557699       1.36457696
H        0.86704429       1.83219316      -0.40005862
16
Properties=species:S:1:pos:R:3 relative_energy_eV=-0.0819713535347546 branch=right pbc="F F F"
C        1.53331619      -0.68610237      -0.80718135
C        0.22665516      -0.00515845      -0.43742320
O        0.23822244       1.34180335      -0.94682017
N       -0.88296283      -0.72103769      -1.03369438
C       -1.12733054       0.56267043       1.53878315
N        0.12883683       0.04807901       1.00931616
H        2.36487334      -0.22596174      -0.27588745
H        1.49315872      -1.74354037      -0.55095741
H        1.70827580      -0.59348909      -1.87781086
H       -0.71555912      -0.80376997      -2.03054330
H       -1.71968107      -0.15543434      -0.93156446
H       -2.00513317      -0.06012394       1.32378233
H       -1.03865309       0.65179562       2.62011932
H       -1.30985909       1.55661218       1.13759788
H        0.29165734      -0.88609905       1.36459120
H        0.86749102       1.83176919      -0.40007058
16
Properties=species:S:1:pos:R:3 relative_energy_eV=-0.08200565920014924 branch=right pbc="F F F"
C        1.53300780      -0.68612885      -0.80718461
C        0.22664154      -0.00518660      -0.43716853
O        0.23809667       1.34181789      -0.94678535
N       -0.88272708      -0.72142404      -1.03363974
C       -1.12749132       0.56247147       1.53898465
N        0.12874751       0.04793631       1.00963323
H        2.36473649      -0.22601941      -0.27639157
H        1.49343524      -1.74365426      -0.55123107
H        1.70759777      -0.59332370      -1.87780168
H       -0.71468626      -0.80325033      -2.03042210
H       -1.71901424      -0.15461907      -0.93243531
H       -2.00527954      -0.06074875       1.32512735
H       -1.03834025       0.65314975       2.62007598
H       -1.31029050       1.55590635       1.13693163
H        0.29117715      -0.88641783       1.36471406
H        0.86769693       1.83150387      -0.40017008
16
Properties=species:S:1:pos:R:3 relative_energy_eV=-0.08203300966124516 branch=right pbc="F F F"
C        1.53272608      -0.68616945      -0.80719332
C        0.22658517      -0.00521852      -0.43700377
O        0.23800053       1.34184481      -0.94664293
N       -0.88241641      -0.72176801      -1.03375929
C       -1.12768651       0.56228899       1.53908764
N        0.12847470       0.04775333       1.00981750
H        2.36437248      -0.22591187      -0.27657633
H        1.49362432      -1.74374518      -0.55132741
H        1.70733472      -0.59354018      -1.87784215
H       -0.71417117      -0.80215039      -2.03060939
H       -1.71851136      -0.15440189      -0.93254058
H       -2.00531429      -0.06140604       1.32628279
H       -1.03798064       0.65449630       2.61988258
H       -1.31056722       1.55525655       1.13623928
H        0.29088105      -0.88665889       1.36473226
H        0.86795645       1.83134324      -0.40031000
16
Properties=species:S:1:pos:R:3 relative_energy_eV=-0.08207202981611772 branch=right pbc="F F F"
C        1.53244739      -0.68625310      -0.80716593
C        0.22650818      -0.00524682      -0.43688569
O        0.23806410       1.34190485      -0.94633678
N       -0.88195299      -0.72200368      -1.03416485
C       -1.12795562       0.56206718       1.53916759
N        0.12797547       0.04743933       1.00988675
H        2.36379923      -0.22558572      -0.27657871
H        1.49379259      -1.74384277      -0.55121455
H        1.70726248      -0.59410975      -1.87788566
H       -0.71381753      -0.80006186      -2.03121292
H       -1.71816405      -0.15488190      -0.93191142
H       -2.00528237      -0.06241359       1.32792597
H       -1.03733767       0.65648494       2.61957295
H       -1.31106081       1.55429519       1.13498754
H        0.29047697      -0.88699546       1.36452386
H        0.86855251       1.83121597      -0.40047127
16
Properties=species:S:1:pos:R:3 relative_energy_eV=-0.08213018942478811 branch=right pbc="F F F"
C        1.53220382      -0.68641824      -0.80705011
C        0.22642290      -0.00524124      -0.43686637
O        0.23845461       1.34208266      -0.94581396
N       -0.88130886      -0.72194793      -1.03505282
C       -1.12828725       0.56176534       1.53929428
N        0.12722697       0.04692795       1.00976296
H        2.36301267      -0.22497312      -0.27638610
H        1.49387080      -1.74397017      -0.55077253
H        1.70737924      -0.59511760      -1.87786570
H       -0.71357222      -0.79670861      -2.03239911
H       -1.71812183      -0.15628671      -0.93049868
H       -2.00523475      -0.06397780       1.33060928
H       -1.03613408       0.65954908       2.61921477
H       -1.31209076       1.55272585       1.13270879
H        0.28984438      -0.88755058       1.36391721
H        0.86964216       1.83115393      -0.40056499
16
Properties=species:S:1:pos:R:3 relative_energy_eV=-0.0821936919764994 branch=right pbc="F F F"
C        1.53209215      -0.68665423      -0.80682819
C        0.22635678      -0.00517538      -0.43699876
O        0.23917291       1.34242645      -0.94513027
N       -0.88066903      -0.72141409      -1.03638965
C       -1.12856828       0.56141070       1.53949635
N        0.12645185       0.04623119       1.00942538
H        2.36220849      -0.22414705      -0.27602481
H        1.49374165      -1.74410513      -0.54998827
H        1.70768264      -0.59640337      -1.87772066
H       -0.71346116      -0.79268123      -2.03403152
H       -1.71853587      -0.15840655      -0.92867812
H       -2.00523497      -0.06591949       1.33425733
H       -1.03439892       0.66339471       2.61895627
H       -1.31373192       1.55059917       1.12940245
H        0.28908568      -0.88834693       1.36293432
H        0.87111573       1.83120405      -0.40044489
16
Properties=species:S:1:pos:R:3 relative_energy_eV=-0.0822549038039142 branch=right pbc="F F F"
C        1.53216392      -0.68686290      -0.80657324
C        0.22632596      -0.00506800      -0.43726221
O        0.23989938       1.34287031      -0.94453330
N       -0.88036190      -0.72055299      -1.03771517
C       -1.12862574       0.56112092       1.53972272
N        0.12605058       0.04556833       1.00901554
H        2.36171817      -0.22345311      -0.27561234
H        1.49335396      -1.74418067      -0.54912081
H        1.70809849      -0.59749089      -1.87747212
H       -0.71348385      -0.78962118      -2.03550237
H       -1.71926443      -0.16022945      -0.92743497
H       -2.00527822      -0.06754900       1.33773987
H       -1.03269293       0.66668440       2.61890895
H       -1.31549041       1.54860538       1.12614338
H        0.28857712      -0.88917454       1.36198638
H        0.87231754       1.83134626      -0.40005333
16
Properties=species:S:1:pos:R:3 relative_energy_eV=-0.08229180397211167 branch=right pbc="F F F"
C        1.53232927      -0.68695656      -0.80637865
C        0.22631605      -0.00498066      -0.43752564
O        0.24028643       1.34326918      -0.94412641
N       -0.88043706      -0.71976018      -1.03864497
C       -1.12846292       0.56094749       1.53985911
N        0.12611338       0.04503337       1.00874176
H        2.36160688      -0.22308806      -0.27526844
H        1.49286125      -1.74414183      -0.54842569
H        1.70850211      -0.59813010      -1.87722863
H       -0.71361785      -0.78809733      -2.03645389
H       -1.71995892      -0.16107592      -0.92713384
H       -2.00526611      -0.06856933       1.34025069
H       -1.03150336       0.66878686       2.61893992
H       -1.31687670       1.54720416       1.12370863
H        0.28848707      -0.88987661       1.36145742
H        0.87292810       1.83144839      -0.39953437
16
Properties=species:S:1:pos:R:3 relative_energy_eV=-0.0823421107888862 branch=right pbc="F F F"
C        1.53248662      -0.68693283      -0.80625002
C        0.22629095      -0.00493465      -0.43774295
O        0.24033762       1.34363017      -0.94374843
N       -0.88074105      -0.71913961      -1.03932002
C       -1.12815828       0.56082041       1.53989903
N        0.12643369       0.04450119       1.00862360
H        2.36169080      -0.22297778      -0.27496609
H        1.49231304      -1.74397190      -0.54784313
H        1.70891022      -0.59853406      -1.87703250
H       -0.71380264      -0.78736156      -2.03711660
H       -1.72049243      -0.16105822      -0.92756289
H       -2.00507553      -0.06940875       1.34237102
H       -1.03061098       0.67045546       2.61887438
H       -1.31808385       1.54608189       1.12166440
H        0.28868545      -0.89057863       1.36130500
H        0.87312394       1.83142177      -0.39891773
16
Properties=species:S:1:pos:R:3 relative_energy_eV=-0.08239537108056538 branch=right pbc="F F F"
C        1.53257566      -0.68678152      -0.80618193
C        0.22622376      -0.00494332      -0.43787537
O        0.24006463       1.34397547      -0.94317783
N       -0.88118067      -0.71867823      -1.03991563
C       -1.12775600       0.56065594       1.53983124
N        0.12685333       0.04377610       1.00866470
H        2.36185181      -0.22303965      -0.27467959
H        1.49172260      -1.74362734      -0.54726065
H        1.70934322      -0.59888115      -1.87690711
H       -0.71404702      -0.78669191      -2.03772980
H       -1.72082383      -0.16026822      -0.92855407
H       -2.00454832      -0.07057865       1.34483355
H       -1.02974535       0.67259824       2.61853880
H       -1.31942742       1.54478674       1.11932920
H        0.28903130      -0.89145768       1.36146207
H        0.87316980       1.83116807      -0.39814050
16
Properties=species:S:1:pos:R:3 relative_energy_eV=-0.08244361642937292 branch=right pbc="F F F"
C        1.53252278      -0.68653710      -0.80618358
C        0.22610857      -0.00501373      -0.43786230
O        0.23958456       1.34423070      -0.94238207
N       -0.88159010      -0.71846557      -1.04039166
C       -1.12738907       0.56042375       1.53967976
N        0.12711012       0.04293970       1.00881993
H        2.36196701      -0.22323066      -0.27446426
H        1.49124776      -1.74316638      -0.54673559
H        1.70970773      -0.59918173      -1.87689261
H       -0.71430982      -0.78579185      -2.03828623
H       -1.72083025      -0.15891831      -0.92978897
H       -2.00363945      -0.07220839       1.34753973
H       -1.02889045       0.67536748       2.61788726
H       -1.32080295       1.54327835       1.11680456
H        0.28930608      -0.89238196       1.36180594
H        0.87320495       1.83066858      -0.39731278
16
Properties=species:S:1:pos:R:3 relative_energy_eV=-0.08247887604738935 branch=right pbc="F F F"
C        1.53236565      -0.68632313      -0.80622128
C        0.22599541      -0.00510793      -0.43771808
O        0.23918989       1.34432681      -0.94155727
N       -0.88179615      -0.71843447      -1.04066786
C       -1.12721954       0.56015424       1.53951511
N        0.12703198       0.04224820       1.00896608
H        2.36197716      -0.22342045      -0.27439280
H        1.49107240      -1.74277702      -0.54636690
H        1.70987366      -0.59934883      -1.87695786
H       -0.71457461      -0.78470545      -2.03869119
H       -1.72060841      -0.15768018      -0.93060589
H       -2.00263926      -0.07394869       1.34978279
H       -1.02818664       0.67815841       2.61714279
H       -1.32187552       1.54181737       1.11459938
H        0.28928783      -0.89304365       1.36206690
H        0.87341358       1.83009767      -0.39665678
16
Properties=species:S:1:pos:R:3 relative_energy_eV=-0.08250453281289083 branch=right pbc="F F F"
C        1.53221317      -0.68622012      -0.80624275
C        0.22592030      -0.00516861      -0.43756104
O        0.23907545       1.34434528      -0.94089540
N       -0.88185917      -0.71836269      -1.04078635
C       -1.12722289       0.55988873       1.53941338
N        0.12675096       0.04185396       1.00899784
H        2.36193764      -0.22355481      -0.27442501
H        1.49110748      -1.74256780      -0.54613175
H        1.70989866      -0.59935870      -1.87700502
H       -0.71483735      -0.78379984      -2.03892197
H       -1.72040447      -0.15688520      -0.93088206
H       -2.00183744      -0.07544741       1.35126705
H       -1.02762398       0.68040843       2.61657373
H       -1.32258535       1.54058636       1.11291929
H        0.28904202      -0.89335641       1.36208184
H        0.87373235       1.82965172      -0.39616463
16
Properties=species:S:1:pos:R:3 relative_energy_eV=-0.0825246744479955 branch=right pbc="F F F"
C        1.53210612      -0.68620437      -0.80623540
C        0.22587347      -0.00518013      -0.43744231
O        0.23917080       1.34438151      -0.94033872
N       -0.88194765      -0.71810216      -1.04081477
C       -1.12729849       0.55959683       1.53934945
N        0.12645538       0.04164496       1.00893681
H        2.36192761      -0.22368581      -0.27449857
H        1.49120286      -1.74248606      -0.54593916
H        1.70990050      -0.59921926      -1.87699278
H       -0.71517611      -0.78323031      -2.03902049
H       -1.72031870      -0.15623412      -0.93090541
H       -2.00117863      -0.07686678       1.35233183
H       -1.02707323       0.68235825       2.61615520
H       -1.32315358       1.53939110       1.11135793
H        0.28873438      -0.89346770       1.36190716
H        0.87408261       1.82931693      -0.39561356
16
Properties=species:S:1:pos:R:3 relative_energy_eV=-0.08254574979582685 branch=right pbc="F F F"
C        1.53204139      -0.68626427      -0.80620536
C        0.22583581      -0.00512635      -0.43739448
O        0.23943510       1.34450466      -0.93986824
N       -0.88220909      -0.71757192      -1.04074730
C       -1.12738367       0.55924365       1.53930448
N        0.12627108       0.04160178       1.00880002
H        2.36197842      -0.22390535      -0.27456116
H        1.49125113      -1.74251166      -0.54576880
H        1.70997679      -0.59891771      -1.87690017
H       -0.71562164      -0.78325015      -2.03895642
H       -1.72034932      -0.15533830      -0.93098091
H       -2.00058028      -0.07837270       1.35316305
H       -1.02643392       0.68415624       2.61584725
H       -1.32371004       1.53811567       1.10970877
H        0.28851278      -0.89343850       1.36159121
H        0.87429277       1.82908782      -0.39479472
16
Properties=species:S:1:pos:R:3 relative_energy_eV=-0.0825712482092058 branch=right pbc="F F F"
C        1.53202205      -0.68638532      -0.80617519
C        0.22580988      -0.00500114      -0.43744036
O        0.23979248       1.34473113      -0.93959551
N       -0.88269037      -0.71683210      -1.04054699
C       -1.12744325       0.55887230       1.53924417
N        0.12634479       0.04172808       1.00865828
H        2.36208388      -0.22423206      -0.27456472
H        1.49119836      -1.74265092      -0.54569790
H        1.71016386      -0.59849357      -1.87675249
H       -0.71611548      -0.78407998      -2.03867293
H       -1.72046043      -0.15405890      -0.93122943
H       -2.00012115      -0.07978095       1.35363868
H       -1.02582535       0.68549812       2.61565267
H       -1.32420723       1.53696989       1.10819222
H        0.28854368      -0.89329752       1.36124659
H        0.87421156       1.82902585      -0.39371983
16
Properties=species:S:1:pos:R:3 relative_energy_eV=-0.08259174212253129 branch=right pbc="F F F"
C        1.53201543      -0.68653496      -0.80617612
C        0.22580087      -0.00483698      -0.43755911
O        0.24017201       1.34501616      -0.93959291
N       -0.88329747      -0.71608992      -1.04022830
C       -1.12746147       0.55856075       1.53914746
N        0.12668816       0.04198795       1.00858383
H        2.36216576      -0.22462045      -0.27447140
H        1.49104304      -1.74287801      -0.54581061
H        1.71042050      -0.59808628      -1.87661460
H       -0.71650766      -0.78555196      -2.03820318
H       -1.72053032      -0.15249368      -0.93167151
H       -1.99984020      -0.08086977       1.35376394
H       -1.02539026       0.68616876       2.61553158
H       -1.32461827       1.53620371       1.10712240
H        0.28887383      -0.89311504       1.36099733
H        0.87377330       1.82915261      -0.39258151
16
Properties=species:S:1:pos:R:3 relative_energy_eV=-0.08261202016365132 branch=right pbc="F F F"
C        1.53198805      -0.68669046      -0.80622468
C        0.22582843      -0.00467279      -0.43768386
O        0.24058031       1.34530027      -0.93975869
N       -0.88389926      -0.71544356      -1.03982710
C       -1.12746578       0.55830656       1.53897254
N        0.12719226       0.04226545       1.00861365
H        2.36214832      -0.22499568      -0.27429509
H        1.49086116      -1.74315900      -0.54612778
H        1.71065453      -0.59778316      -1.87654429
H       -0.71679130      -0.78717173      -2.03762974
H       -1.72047533      -0.15077994      -0.93210760
H       -1.99962814      -0.08178975       1.35381533
H       -1.02515303       0.68652524       2.61534297
H       -1.32508657       1.53568941       1.10629975
H        0.28937449      -0.89298497       1.36086815
H        0.87317907       1.82939698      -0.39147627
16
Properties=species:S:1:pos:R:3 relative_energy_eV=-0.08263967893617519 branch=right pbc="F F F"
C        1.53190842      -0.68687805      -0.80633212
C        0.22592210      -0.00451662      -0.43777702
O        0.24117891       1.34558137      -0.93998028
N       -0.88449589      -0.71479452      -1.03930975
C       -1.12747792       0.55803707       1.53867628
N        0.12779849       0.04252125       1.00872940
H        2.36196506      -0.22537566      -0.27402327
H        1.49067882      -1.74351923      -0.54669353
H        1.71082304      -0.59758511      -1.87655327
H       -0.71704526      -0.78874254      -2.03693956
H       -1.72022648      -0.14872069      -0.93245267
H       -1.99927844      -0.08296369       1.35416589
H       -1.02500341       0.68712291       2.61493255
H       -1.32591772       1.53506929       1.10523457
H        0.28996705      -0.89295094       1.36079199
H        0.87251043       1.82972803      -0.39023185
16
Properties=species:S:1:pos:R:3 relative_energy_eV=-0.08267083401733544 branch=right pbc="F F F"
C        1.53176912      -0.68713503      -0.80651256
C        0.22614589      -0.00438651      -0.43778753
O        0.24215722       1.34582575      -0.94014642
N       -0.88505919      -0.71402142      -1.03862270
C       -1.12751820       0.55768131       1.53818917
N        0.12845566       0.04268826       1.00891832
H        2.36155580      -0.22575896      -0.27364920
H        1.49053738      -1.74399660      -0.54757892
H        1.71085174      -0.59748354      -1.87666548
H       -0.71739961      -0.78998765      -2.03610590
H       -1.71973235      -0.14616248      -0.93250287
H       -1.99857484      -0.08480256       1.35518266
H       -1.02489885       0.68852953       2.61412784
H       -1.32746654       1.53394184       1.10336386
H        0.29056771      -0.89305058       1.36071459
H        0.87191618       1.83013152      -0.38868743
16
Properties=species:S:1:pos:R:3 relative_energy_eV=-0.08271441358192533 branch=right pbc="F F F"
C        1.53160910      -0.68745847      -0.80673962
C        0.22652310      -0.00433696      -0.43767432
O        0.24351187       1.34592858      -0.94013675
N       -0.88544117      -0.71316388      -1.03786114
C       -1.12757728       0.55726013       1.53758855
N        0.12895900       0.04270814       1.00908885
H        2.36097838      -0.22609804      -0.27325073
H        1.49046711      -1.74452870      -0.54865645
H        1.71067607      -0.59748603      -1.87686817
H       -0.71788454      -0.79042112      -2.03528322
H       -1.71905174      -0.14351944      -0.93213531
H       -1.99746637      -0.08723152       1.35696487
H       -1.02482109       0.69088937       2.61300265
H       -1.32974306       1.53218652       1.10063004
H        0.29098717      -0.89325131       1.36060627
H        0.87158049       1.83053563      -0.38703799
16
Properties=species:S:1:pos:R:3 relative_energy_eV=-0.0827375286280585 branch=right pbc="F F F"
C        1.53153582      -0.68776033      -0.80692895
C        0.22694616      -0.00438933      -0.43748075
O        0.24478646       1.34582367      -0.93993568
N       -0.88551043      -0.71244455      -1.03729627
C       -1.12763195       0.55690212       1.53711745
N        0.12910645       0.04258173       1.00913489
H        2.36052906      -0.22633225      -0.27300943
H        1.49045604      -1.74493514      -0.54950211
H        1.71037846      -0.59753341      -1.87707828
H       -0.71840297      -0.78987739      -2.03476542
H       -1.71848823      -0.14174072      -0.93148386
H       -1.99633662      -0.08940915       1.35887652
H       -1.02479076       0.69341277       2.61202243
H       -1.33198114       1.53030254       1.09789203
H        0.29108042      -0.89340186       1.36050732
H        0.87163021       1.83081423      -0.38583230
16
Properties=species:S:1:pos:R:3 relative_energy_eV=-0.08274777277802059 branch=right pbc="F F F"
C        1.53157934      -0.68797405      -0.80703448
C        0.22725607      -0.00447602      -0.43733541
O        0.24556954       1.34563305      -0.93972972
N       -0.88541556      -0.71200152      -1.03705419
C       -1.12766085       0.55669342       1.53694350
N        0.12900858       0.04247826       1.00905736
H        2.36041949      -0.22653593      -0.27297264
H        1.49039857      -1.74514387      -0.54987911
H        1.71018537      -0.59755443      -1.87720805
H       -0.71877273      -0.78905737      -2.03460842
H       -1.71822998      -0.14103437      -0.93101912
H       -1.99562600      -0.09066174       1.36015598
H       -1.02477251       0.69508779       2.61157345
H       -1.33342562       1.52896967       1.09612566
H        0.29102381      -0.89337401       1.36048229
H        0.87176940       1.83096405      -0.38525947
16
Properties=species:S:1:pos:R:3 relative_energy_eV=-0.0827621219032153 branch=right pbc="F F F"
C        1.53168997      -0.68815436      -0.80710778
C        0.22747949      -0.00453817      -0.43726630
O        0.24603091       1.34546143      -0.93964940
N       -0.88533406      -0.71169932      -1.03695924
C       -1.12769558       0.55656070       1.53692182
N        0.12891271       0.04247827       1.00896225
H        2.36054635      -0.22682498      -0.27302455
H        1.49025211      -1.74528678      -0.55002782
H        1.71015577      -0.59754335      -1.87729491
H       -0.71904929      -0.78841522      -2.03457744
H       -1.71814684      -0.14073816      -0.93075752
H       -1.99526236      -0.09135737       1.36086782
H       -1.02479090       0.69604001       2.61146198
H       -1.33432010       1.52810380       1.09507854
H        0.29106848      -0.89318116       1.36056444
H        0.87177024       1.83110759      -0.38495426
16
Properties=species:S:1:pos:R:3 relative_energy_eV=-0.08277306770105497 branch=right pbc="F F F"
C        1.53187423      -0.68843986      -0.80722413
C        0.22776216      -0.00458541      -0.43724428
O        0.24657246       1.34526775      -0.93974494
N       -0.88529721      -0.71133870      -1.03684924
C       -1.12778245       0.55639235       1.53693441
N        0.12889580       0.04265170       1.00886111
H        2.36086579      -0.22742681      -0.27309763
H        1.48992132      -1.74553451      -0.55020704
H        1.71030006      -0.59754627      -1.87741362
H       -0.71941198      -0.78772017      -2.03453677
H       -1.71806436      -0.14034216      -0.93047291
H       -1.99495830      -0.09213289       1.36146905
H       -1.02489187       0.69689618       2.61145410
H       -1.33534903       1.52719708       1.09404341
H        0.29139039      -0.89272610       1.36082655
H        0.87147983       1.83140075      -0.38456041
16
Properties=species:S:1:pos:R:3 relative_energy_eV=-0.08280036476571695 branch=right pbc="F F F"
C        1.53216142      -0.68895921      -0.80743703
C        0.22820440      -0.00459971      -0.43727852
O        0.24742130       1.34503293      -0.94016256
N       -0.88531710      -0.71082792      -1.03666506
C       -1.12800773       0.55611172       1.53689703
N        0.12905210       0.04312813       1.00879347
H        2.36145963      -0.22864175      -0.27316408
H        1.48927339      -1.74603838      -0.55056324
H        1.71072947      -0.59763904      -1.87762115
H       -0.72002575      -0.78665556      -2.03445603
H       -1.71789852      -0.13964414      -0.92987661
H       -1.99461618      -0.09339216       1.36210642
H       -1.02517818       0.69794064       2.61142518
H       -1.33691748       1.52600811       1.09268618
H        0.29225836      -0.89180547       1.36143567
H        0.87070767       1.83199475      -0.38388203
16
Properties=species:S:1:pos:R:3 relative_energy_eV=-0.0828284914005053 branch=right pbc="F F F"
C        1.53249712      -0.68974441      -0.80774187
C        0.22880247      -0.00453789      -0.43738790
O        0.24863794       1.34482961      -0.94100424
N       -0.88539130      -0.71022198      -1.03642087
C       -1.12844163       0.55569871       1.53671354
N        0.12945300       0.04400914       1.00881894
H        2.36230665      -0.23059311      -0.27317896
H        1.48828301      -1.74686566      -0.55116613
H        1.71151300      -0.59794399      -1.87790580
H       -0.72093182      -0.78497375      -2.03438450
H       -1.71759997      -0.13870007      -0.92869382
H       -1.99421620      -0.09532154       1.36277279
H       -1.02569685       0.69922376       2.61120726
H       -1.33911963       1.52459668       1.09102438
H        0.29382617      -0.89035824       1.36246268
H        0.86938476       1.83291570      -0.38287784
16
Properties=species:S:1:pos:R:3 relative_energy_eV=-0.08286446511920076 branch=right pbc="F F F"
C        1.53272129      -0.69056168      -0.80800490
C        0.22936234      -0.00437403      -0.43753125
O        0.24987936       1.34478961      -0.94200274
N       -0.88543311      -0.70973122      -1.03625353
C       -1.12900934       0.55526128       1.53634050
N        0.12997282       0.04504061       1.00896277
H        2.36312733      -0.23272902      -0.27313269
H        1.48727269      -1.74778737      -0.55184975
H        1.71239700      -0.59847631      -1.87813200
H       -0.72190009      -0.78281023      -2.03444469
H       -1.71727003      -0.13801436      -0.92696949
H       -1.99382866      -0.09751885       1.36337520
H       -1.02629612       0.70053913       2.61067025
H       -1.34138599       1.52335998       1.08946638
H        0.29565914      -0.88881390       1.36359746
H        0.86803800       1.83383937      -0.38185385
16
Properties=species:S:1:pos:R:3 relative_energy_eV=-0.08288528517368832 branch=right pbc="F F F"
C        1.53273132      -0.69110291      -0.80808368
C        0.22968375      -0.00415936      -0.43762330
O        0.25071690       1.34494861      -0.94265632
N       -0.88536032      -0.70947559      -1.03627087
C       -1.12949591       0.55494317       1.53589822
N        0.13033760       0.04580447       1.00912588
H        2.36363532      -0.23424981      -0.27309361
H        1.48662398      -1.74844682      -0.55234168
H        1.71296309      -0.59905618      -1.87815609
H       -0.72258038      -0.78072488      -2.03468825
H       -1.71707449      -0.13799790      -0.92526469
H       -1.99351032      -0.09929532       1.36392622
H       -1.02669556       0.70166051       2.60993359
H       -1.34303223       1.52257394       1.08835234
H        0.29701473      -0.88776403       1.36435929
H        0.86734909       1.83435512      -0.38117939
16
Properties=species:S:1:pos:R:3 relative_energy_eV=-0.08290812288032612 branch=right pbc="F F F"
C        1.53260479      -0.69140018      -0.80799776
C        0.22983025      -0.00393233      -0.43763362
O        0.25121156       1.34521710      -0.94286000
N       -0.88518114      -0.70928484      -1.03640947
C       -1.12984368       0.55472019       1.53546452
N        0.13049053       0.04624483       1.00922050
H        2.36391348      -0.23517094      -0.27311867
H        1.48627379      -1.74884501      -0.55264066
H        1.71313845      -0.59954905      -1.87799778
H       -0.72299863      -0.77888904      -2.03502327
H       -1.71704799      -0.13844253      -0.92383299
H       -1.99318812      -0.10068101       1.36459403
H       -1.02685843       0.70274968       2.60913323
H       -1.34423465       1.52194673       1.08737330
H        0.29785147      -0.88716636       1.36471463
H        0.86734483       1.83449580      -0.38074832
16
Properties=species:S:1:pos:R:3 relative_energy_eV=-0.08292169643937086 branch=right pbc="F F F"
C        1.53242012      -0.69164480      -0.80780932
C        0.22994310      -0.00367379      -0.43757421
O        0.25164654       1.34555784      -0.94275412
N       -0.88492414      -0.70896187      -1.03658290
C       -1.13013235       0.55449467       1.53501210
N        0.13052091       0.04659072       1.00921841
H        2.36418460      -0.23597678      -0.27322886
H        1.48593489      -1.74918647      -0.55291226
H        1.71304626      -0.59998680      -1.87770761
H       -0.72331473      -0.77705221      -2.03538541
H       -1.71713300      -0.13904725      -0.92255218
H       -1.99274843      -0.10211970       1.36555522
H       -1.02689202       0.70408369       2.60825284
H       -1.34555565       1.52109742       1.08609606
H        0.29859843      -0.88663535       1.36488905
H        0.86771194       1.83447377      -0.38027912
16
Properties=species:S:1:pos:R:3 relative_energy_eV=-0.08294092805408582 branch=right pbc="F F F"
C        1.53223889      -0.69195639      -0.80757684
C        0.23010540      -0.00338691      -0.43745151
O        0.25215153       1.34591563      -0.94245715
N       -0.88463508      -0.70841275      -1.03670174
C       -1.13039729       0.55422507       1.53455213
N        0.13051514       0.04699560       1.00911276
H        2.36457177      -0.23695087      -0.27341064
H        1.48540746      -1.74960070      -0.55327063
H        1.71274220      -0.60034205      -1.87735262
H       -0.72357679      -0.77527310      -2.03567082
H       -1.71728016      -0.13952203      -0.92148283
H       -1.99216334      -0.10375800       1.36674945
H       -1.02690302       0.70563087       2.60736727
H       -1.34722972       1.51989143       1.08440137
H        0.29957757      -0.88589166       1.36504935
H        0.86818184       1.83444898      -0.37961987
16
Properties=species:S:1:pos:R:3 relative_energy_eV=-0.08296065954709775 branch=right pbc="F F F"
C        1.53212055      -0.69233706      -0.80740493
C        0.23031703      -0.00313845      -0.43729669
O        0.25267172       1.34618728      -0.94212740
N       -0.88442682      -0.70775849      -1.03667783
C       -1.13060873       0.55395344       1.53419956
N        0.13055510       0.04750663       1.00895020
H        2.36503041      -0.23805753      -0.27358604
H        1.48466051      -1.75008225      -0.55372048
H        1.71231863      -0.60052980      -1.87708392
H       -0.72369712      -0.77403353      -2.03574024
H       -1.71739582      -0.13955066      -0.92094155
H       -1.99156195      -0.10530488       1.36778282
H       -1.02697154       0.70693931       2.60673529
H       -1.34898208       1.51860223       1.08269239
H        0.30083045      -0.88490552       1.36529941
H        0.86844600       1.83452242      -0.37884291
16
Properties=species:S:1:pos:R:3 relative_energy_eV=-0.08297607642089133 branch=right pbc="F F F"
C        1.53205894      -0.69273213      -0.80735335
C        0.23053082      -0.00296449      -0.43714481
O        0.25310378       1.34633214      -0.94190760
N       -0.88435217      -0.70720930      -1.03650852
C       -1.13076607       0.55373539       1.53399705
N        0.13069476       0.04810811       1.00881950
H        2.36543546      -0.23914676      -0.27366890
H        1.48378880      -1.75057240      -0.55421210
H        1.71185663      -0.60054468      -1.87700289
H       -0.72361710      -0.77355062      -2.03557087
H       -1.71742048      -0.13911635      -0.92096639
H       -1.99107349      -0.10648559       1.36828131
H       -1.02715611       0.70763020       2.60646059
H       -1.35043473       1.51759671       1.08144231
H        0.30226177      -0.88377071       1.36568489
H        0.86839547       1.83470362      -0.37811253
16
Properties=species:S:1:pos:R:3 relative_energy_eV=-0.08298953984558466 branch=right pbc="F F F"
C        1.53198812      -0.69311783      -0.80741869
C        0.23071363      -0.00283871      -0.43699235
O        0.25344611       1.34640740      -0.94179490
N       -0.88439039      -0.70684125      -1.03624090
C       -1.13090396       0.55356583       1.53390021
N        0.13094569       0.04882213       1.00876947
H        2.36570808      -0.24020422      -0.27363095
H        1.48280586      -1.75105469      -0.55473585
H        1.71132667      -0.60045039      -1.87711185
H       -0.72330935      -0.77364271      -2.03522816
H       -1.71734660      -0.13836308      -0.92140542
H       -1.99067129      -0.10740138       1.36823249
H       -1.02745545       0.70776638       2.60644293
H       -1.35158012       1.51693668       1.08068315
H        0.30388850      -0.88250389       1.36623110
H        0.86814073       1.83493293      -0.37746258
16
Properties=species:S:1:pos:R:3 relative_energy_eV=-0.08299866800371092 branch=right pbc="F F F"
C        1.53184645      -0.69344308      -0.80758101
C        0.23082825      -0.00273435      -0.43684663
O        0.25370439       1.34646847      -0.94177973
N       -0.88449978      -0.70670717      -1.03595223
C       -1.13104284       0.55343737       1.53386324
N        0.13128526       0.04959557       1.00883585
H        2.36575761      -0.24113629      -0.27346290
H        1.48179613      -1.75146837      -0.55522957
H        1.71072688      -0.60030743      -1.87738749
H       -0.72280191      -0.77407786      -2.03481119
H       -1.71720740      -0.13753088      -0.92204206
H       -1.99033081      -0.10811820       1.36769397
H       -1.02784012       0.70747551       2.60655945
H       -1.35237427       1.51664673       1.08042315
H        0.30558560      -0.88121348       1.36691136
H        0.86787278       1.83512668      -0.37695649
16
Properties=species:S:1:pos:R:3 relative_energy_eV=-0.08301123728779203 branch=right pbc="F F F"
C        1.53162591      -0.69361063      -0.80776871
C        0.23084475      -0.00264113      -0.43674311
O        0.25390549       1.34656243      -0.94180977
N       -0.88460137      -0.70676792      -1.03578657
C       -1.13116599       0.55333734       1.53384545
N        0.13158900       0.05018689       1.00899517
H        2.36555007      -0.24170131      -0.27324264
H        1.48103773      -1.75167864      -0.55552774
H        1.71020832      -0.60021056      -1.87770541
H       -0.72230161      -0.77441494      -2.03453496
H       -1.71709471      -0.13702671      -0.92249156
H       -1.99005300      -0.10867766       1.36707292
H       -1.02815769       0.70717703       2.60663246
H       -1.35279334       1.51660239       1.08046388
H        0.30684428      -0.88029109       1.36753074
H        0.86786835       1.83516778      -0.37669245
16
Properties=species:S:1:pos:R:3 relative_energy_eV=-0.08302543958961905 branch=right pbc="F F F"
C        1.53138225      -0.69363783      -0.80790905
C        0.23080879      -0.00254102      -0.43669632
O        0.25413767       1.34669718      -0.94184289
N       -0.88463771      -0.70683063      -1.03577891
C       -1.13125998       0.55323051       1.53381006
N        0.13177100       0.05049152       1.00915922
H        2.36522938      -0.24192273      -0.27308260
H        1.48060841      -1.75169255      -0.55560459
H        1.70987772      -0.60019048      -1.87793002
H       -0.72200702      -0.77439858      -2.03447810
H       -1.71708798      -0.13696366      -0.92256713
H       -1.98980583      -0.10918601       1.36677407
H       -1.02833336       0.70721304       2.60655605
H       -1.35304903       1.51651176       1.08045776
H        0.30748886      -0.87983851       1.36796737
H        0.86818298       1.83507127      -0.37659722
16
Properties=species:S:1:pos:R:3 relative_energy_eV=-0.08302787514548982 branch=right pbc="F F F"
C        1.53114131      -0.69362068      -0.80800334
C        0.23078101      -0.00241655      -0.43668339
O        0.25449465       1.34686476      -0.94186142
N       -0.88462184      -0.70673921      -1.03585427
C       -1.13133651       0.55307237       1.53375490
N        0.13186306       0.05063084       1.00928101
H        2.36492239      -0.24203748      -0.27302279
H        1.48031465      -1.75162259      -0.55557702
H        1.70968211      -0.60020986      -1.87804836
H       -0.72190495      -0.77409669      -2.03455680
H       -1.71718002      -0.13711142      -0.92240711
H       -1.98952376      -0.10981655       1.36688921
H       -1.02841895       0.70764874       2.60635739
H       -1.35342778       1.51615985       1.08017251
H        0.30781846      -0.87961131       1.36830889
H        0.86870231       1.83491908      -0.37651168
16
Properties=species:S:1:pos:R:3 relative_energy_eV=-0.08302540165277605 branch=right pbc="F F F"
C        1.53091539      -0.69362674      -0.80807094
C        0.23079195      -0.00226056      -0.43668657
O        0.25499948       1.34704575      -0.94188854
N       -0.88458482      -0.70643881      -1.03593466
C       -1.13140593       0.55284899       1.53369423
N        0.13191342       0.05072624       1.00934899
H        2.36469344      -0.24220257      -0.27306463
H        1.47999736      -1.75155450      -0.55554251
H        1.70956824      -0.60022206      -1.87808504
H       -0.72193039      -0.77370337      -2.03466549
H       -1.71734533      -0.13725019      -0.92219811
H       -1.98919472      -0.11060154       1.36730957
H       -1.02849769       0.70833783       2.60611185
H       -1.35402338       1.51552069       1.07961908
H        0.30811089      -0.87938592       1.36865259
H        0.86929818       1.83478008      -0.37636207
16
Properties=species:S:1:pos:R:3 relative_energy_eV=-0.0830313697897509 branch=right pbc="F F F"
C        1.53076930      -0.69368578      -0.80810720
C        0.23084246      -0.00212097      -0.43669272
O        0.25549712       1.34717541      -0.94193160
N       -0.88457081      -0.70602436      -1.03595277
C       -1.13145944       0.55262202       1.53365919
N        0.13194266       0.05082683       1.00935303
H        2.36461767      -0.24243297      -0.27317935
H        1.47966335      -1.75155662      -0.55556587
H        1.70953350      -0.60020301      -1.87805808
H       -0.72201342      -0.77346362      -2.03470940
H       -1.71750300      -0.13719081      -0.92213105
H       -1.98891521      -0.11133045       1.36781374
H       -1.02859581       0.70896130       2.60594677
H       -1.35467920       1.51482128       1.07901099
H        0.30844945      -0.87910850       1.36895885
H        0.86972746       1.83472358      -0.37617677
