16
Properties=species:S:1:pos:R:3 pbc="F F F"
C        0.65362406      -0.58404797      -1.80189076
C       -0.64598948      -0.37549864      -0.99973433
C       -0.51235277       0.85206985      -0.35022679
C       -1.06043659       0.69764545       1.08527556
C        0.33281026      -0.52629092       0.25832662
C        0.91115048       0.05450858       1.55021703
H        1.05223418       0.26211174      -2.39496981
H        0.48945409      -1.28401454      -2.63657201
H       -1.12447632      -1.34381613      -0.85102420
H        0.13996751       1.70206294      -0.53404265
H       -1.98137657       0.07439943       1.02516215
H       -1.44745554       1.70636642       1.35018187
H        0.93301051      -0.43524627      -0.64369764
H       -0.58032786      -0.84704148       0.79087021
H        1.99935047       0.15147232       1.51646582
H        0.84081358      -0.10468078       2.63565894
