16
Properties=species:S:1:pos:R:3 pbc="F F F"
C        0.27323055       0.68885447      -0.90042770
C       -0.20373718      -0.60496395      -0.43472905
O       -1.25912956      -0.59853155      -1.85265813
N        0.19195607      -1.66435590      -0.89458710
C        0.35069897       0.70437360       1.57205797
N       -0.14311662      -0.61833647       1.21882047
H       -0.45444595       1.26733842      -0.33366167
H        1.21780693       0.67845717      -0.36631662
H        0.45527090       1.32093306      -1.76857914
H        1.04791309      -1.68272442      -0.34382366
H       -1.53670366      -1.39345825      -2.31777597
H       -0.33749417       1.54467748       1.41832656
H        0.80693868       0.86927673       2.54692958
H        1.15874684       0.84403358       0.85610881
H       -0.80864236      -0.71090065       1.97697152
H       -0.75929254      -0.64467332      -0.37665587
