16
Properties=species:S:1:pos:R:3 pbc="F F F"
C       -0.55078720      -0.85359344      -1.76702302
C        0.50612605      -0.18617008      -0.94612951
O        1.42390196      -0.85826547      -0.79173666
N        0.79078617       0.95166470      -1.63273205
C       -0.51373947       0.56723313       2.28847837
N        0.49655464      -0.17327883       1.54640966
H       -0.53858784      -1.93328849      -1.68443141
H       -1.49561411      -0.56267439      -1.31443044
H       -0.72935611      -0.69382415      -2.82882263
H        0.15271369       1.50696710      -2.17280122
H        1.48314722       1.54518101      -1.21521551
H       -1.04449822       1.12732017       1.52030998
H       -1.20564721      -0.08287828       2.83783771
H       -0.01421537       1.25894719       2.96475649
H        0.15467648      -0.94299688       0.98987118
H        1.08453932      -0.67034328       2.20565904
