16
Properties=species:S:1:pos:R:3 pbc="F F F"
C       -0.58925923      -1.20711673      -1.56915208
C        0.74543847      -0.50455455      -1.45717104
O        1.80644989      -1.07964335      -1.25695717
N        0.68771125       0.85258468      -1.68430056
C       -0.46123039       0.97658105       2.05505505
N        0.10150483      -0.25199139       1.51791144
H       -0.49047326      -2.17850061      -1.09257843
H       -1.38129359      -0.63392092      -1.08806461
H       -0.84487432      -1.34667318      -2.62471217
H       -0.18027190       1.33298349      -1.52456498
H        1.51691841       1.35274613      -1.41939524
H       -0.89112924       1.56016856       1.24012394
H       -1.26787841       0.76704075       2.75508367
H        0.25885647       1.62991880       2.56782520
H       -0.11990323      -1.04268036       2.11841307
H        1.10956908      -0.22669586       1.46238987
