16
Properties=species:S:1:pos:R:3 pbc="F F F"
O       -0.07956312       1.52905260      -1.66871456
C        0.48160067       0.47451502      -1.45395457
C       -0.38993602      -0.72490989      -1.26572938
O       -1.77049238      -0.55678303      -1.42394898
O       -1.28452621      -1.23757349       1.88528135
C       -0.18043021      -0.64945364       1.08218076
C        0.35968948       0.66723144       1.58389647
O        1.05847471       0.74638320       0.35312296
H        1.58229034       0.37705147      -1.37341224
H       -0.00593445      -1.46488026      -1.98288493
H       -0.17045369      -1.42101937       0.42632533
H       -1.77173068       0.41075790      -1.53164193
H        0.19317014      -1.64301404       0.73637029
H       -0.49994539       1.33045926       1.71797593
H        0.97235158       0.56589279       2.49033093
H        1.50543523       1.59629003       0.42480258
