5
Properties=species:S:1:pos:R:3:masses:R:1:forces:R:3 energy=-4047.1681839663966 pbc="F F F"
N       -1.26597846       0.00740969       0.02449337      14.00307400      -0.00073665      -0.00344748       0.00055068
N        1.17113005      -0.08887270      -0.12901888      14.00307400       0.00192352      -0.00102228       0.00084592
C       -0.04092704       0.01684963       0.01493116      12.00000000      -0.00543614       0.00354637      -0.00311725
H       -1.75675267       0.88988365       0.09289189       1.00782503       0.00058448       0.00195386       0.00122964
H        1.74793981      -0.20286655       0.69477161       1.00782503       0.00281401       0.00058891       0.00142320
