5
Properties=species:S:1:pos:R:3:forces:R:3 energy=-4043.2975688040906 pbc="F F F"
N       -1.30432664       0.00319847       0.02312120       0.00320379      -0.00224562       0.00139866
N        1.18569510       0.01862947      -0.13332528      -0.00011616      -0.00178220       0.00378819
C       -0.11251581      -0.13572945       0.01822572      -0.00376883       0.00294073      -0.00656922
H       -0.04643566       1.03916625       0.00966316       0.00084992      -0.00058354      -0.00010125
H        1.67137701      -0.07618673       0.75779820       0.00590128      -0.00010441       0.00190422
