12
Properties=species:S:1:pos:R:3 pbc="F F F"
C       -1.51740884      -2.03851251       0.76396016
O       -0.61063926      -2.70302075       0.61907633
O       -0.16237679       0.51583828       2.20806584
C        1.04127734       0.05811754      -1.00595889
C       -0.07312001       1.02665066      -1.20101820
O       -0.91645757       1.29974480      -0.37088981
H       -0.56094214       0.84526978       1.38076930
H        0.99105676      -0.41237824      -0.02921869
H       -0.91610146       0.31877278       2.77251292
H        1.99444044       0.57914280      -1.11254248
H       -0.10835953       1.52685454      -2.19146897
H        1.00953981      -0.70113334      -1.78951902
