16
Properties=species:S:1:pos:R:3 pbc="F F F"
O        2.66159879       1.08651955      -0.89409111
C        1.71688939       0.69669136      -1.46408049
C       -0.97518581      -0.57261730      -1.24987677
O       -1.72438629       0.20491241      -1.80165700
C       -0.22503682      -0.20613335       0.01220990
O        0.82373150      -1.13133436       0.24050624
C       -1.18469769      -0.04489768       1.17732728
O       -0.41841314       0.35993195       2.30449395
H        0.80448836       0.36581058      -1.96282364
H       -0.82711072      -1.60997016      -1.61236456
H        2.70889583       0.97000228      -1.13125306
H        0.25576936       0.77959036      -0.14759375
H        1.02064314      -1.05908919       1.18845773
H       -1.68431525      -0.99812859       1.38390361
H       -1.92737752       0.70839061       0.90424803
H       -1.02560414       0.45001219       3.05248052
