16
Properties=species:S:1:pos:R:3 pbc="F F F"
O        0.13657501      -2.89675528       1.43078274
C        0.43155070      -2.18245611       0.48539521
C       -0.38419604      -1.01695298       0.14575116
O       -1.44549093      -0.81132898       0.94824132
C       -0.04490917      -0.21016998      -0.87168877
O        1.40848826       1.50629315       1.80649011
C       -0.79196861       1.00185355      -1.27777002
O        0.15780572       2.06403521      -1.37735436
H        1.31553282      -2.36986667      -0.14742318
H        1.21177532       1.28564821       0.89004778
H       -1.41440390      -1.54476621       1.59504331
H        0.85212770      -0.44677637      -1.43708046
H        1.73936040       0.68411367       2.18528701
H       -1.57358993       1.23253131      -0.54915728
H       -1.28459156       0.82377763      -2.24439985
H       -0.31426751       2.88145257      -1.58201672
