12
Properties=species:S:1:pos:R:3 pbc="F F F"
C       -0.82789977      -0.27367072      -2.06840095
C        0.01771001       0.63268221      -1.30673506
O       -0.82129121      -0.32030628      -0.63034612
O        1.38844470      -0.14480618       1.53758445
C        0.72798551      -0.11953608       2.62491087
O       -0.46539442      -0.51722536       2.47754004
H       -1.74332123       0.09987057      -2.51510649
H       -0.38640581      -1.12925692      -2.56941524
H        1.08255307       0.44250336      -1.23555565
H       -0.27103715       1.67404776      -1.19115692
H        0.15200362      -0.56436198       1.30409343
H        1.14665172       0.22005556       3.57261622
