12
Properties=species:S:1:pos:R:3 pbc="F F F"
C       -0.46415611       0.42729486      -0.76826787
O       -1.23703402      -0.54751428      -1.13479164
O       -1.09685380      -0.15348328       1.39835455
C        0.89519997       0.44248883      -1.27372758
C       -0.02239377      -0.56010390       1.96006723
O        1.08913474      -0.73084953       1.44079690
H        1.47296702      -0.05658322      -0.46744463
H       -0.88753351       1.26905193      -0.24372164
H       -1.88230378      -0.65405101      -0.39826693
H        0.99784141      -0.12427111      -2.19267422
H       -0.13643977      -0.77030326       3.04136870
H        1.27155346       1.45832808      -1.36172750
