16
Properties=species:S:1:pos:R:3 pbc="F F F"
O       -0.80219592       0.75467840      -1.52840845
C        0.22093337       0.26552012      -1.17584624
C        0.90066890      -0.95772523      -1.72360336
O        0.01711024      -2.05523220      -1.65200859
O       -1.46766018       0.48108140       3.51295271
C       -1.14050289       0.04218360       2.43812573
C       -0.45350350       0.87583889       1.37453554
O        0.40045110       0.06880488       0.60179857
H        1.40536721       1.27314587      -0.82894479
H        1.21473588      -0.71262059      -2.74563120
H        1.78331816      -1.20716228      -1.13934597
H       -0.84829203      -1.75279926      -1.96157936
H       -1.33372774      -1.01168252       2.15003828
H       -1.23464927       1.30850646       0.72843451
H        0.07739241       1.69840595       1.85614729
H        1.26059761       0.92906737       0.09335017
