16
Properties=species:S:1:pos:R:3 pbc="F F F"
C        0.52837965       0.22970826      -1.64161268
C        0.41566217      -0.91460522      -0.88950701
O        0.56745680      -1.90528261      -0.31058932
N       -1.73762117      -1.00381777      -2.07001162
C        0.91218775       0.93097869       2.29536915
N       -0.17644746       0.46635089       1.43916049
H        1.27309167       0.17354684      -2.43342589
H       -0.63643207       0.02288858      -2.12965865
H        0.56176580       1.14340064      -1.06938178
H       -2.25438668      -1.33085112      -1.24536850
H       -1.57904176      -1.86013838      -2.60607843
H        0.59244932       1.37604739       3.24510446
H        1.58366689       0.10102611       2.51632421
H        1.49500691       1.67275635       1.74474341
H       -0.69017378      -0.29553928       1.87419767
H       -0.85640778       1.19337887       1.28058288
