16
Properties=species:S:1:pos:R:3 pbc="F F F"
O       -3.11771545       0.60703282      -0.01640725
C       -2.09723993       0.39392230      -0.63649641
C       -0.91265166      -0.35035907      -0.07550097
O       -1.37139797      -0.92647838       1.10905524
C        0.38911496       0.44926053      -0.01686708
O        0.55594007       0.88720345      -1.34830635
C        1.44363967      -0.49466825       0.48361685
O        2.40769048       0.52481656       0.51771266
H       -1.98731110       0.81482642      -1.64590562
H       -0.55214934      -1.32825164      -0.73952580
H       -2.26323835      -0.59772290       1.31489361
H        0.11500728       1.20639222       0.71345769
H        1.46542451       1.20775587      -1.28566807
H        1.60281171      -1.30963715      -0.22611421
H        1.26168543      -0.83630206       1.50252632
H        3.06038883      -0.24778998       0.34952781
