16
Properties=species:S:1:pos:R:3 pbc="F F F"
O       -1.46582093      -1.13014388      -1.43133694
C       -1.34324574      -1.00496177      -0.17281820
C       -1.31521143       0.20821937       0.51884758
O       -1.20726087       0.24933262       1.89145049
C        0.43059054       0.94889842      -0.60214143
O        0.26783455       0.44226566      -1.78783247
C        1.56004386       0.45363295       0.26158005
O        1.63915179      -0.95831562       0.32900388
H       -1.12730530      -1.89470892       0.42563163
H       -1.86465359       1.05797268       0.14058018
H       -0.70082016      -0.51749529       2.19331573
H        0.17128403       1.99373254      -0.45598127
H       -0.62161581      -0.28273687      -1.85029031
H        2.48222006       0.89053900      -0.15666271
H        1.45397502       0.82348241       1.27908690
H        1.64083205      -1.27968667      -0.58246071
