12
Properties=species:S:1:pos:R:3 pbc="F F F"
C       -0.13743305      -0.11089418      -0.97178513
O       -1.49319261       0.37689561      -0.99324771
O       -0.38820485       0.99165685       1.15768660
C       -0.02420667      -0.22816460       0.53541565
C        1.40111120      -0.36703272       1.03026215
O        2.20316828      -1.01736342       0.40313818
H        0.49152665       0.70440777      -1.33767050
H        0.15821780      -1.07371609      -1.39071738
H       -1.65305815       1.21154040       0.34602790
H       -0.63764328      -1.05494995       0.93118328
H        1.62187741       0.11458286       2.00475661
H       -1.61284274       0.41496828      -1.95711681
