12
Properties=species:S:1:pos:R:3 pbc="F F F"
O        1.06115468       0.89659713      -0.19012107
C        0.39312584       0.40062993      -1.30756384
C       -0.85026679      -0.59982432      -1.21990531
O       -1.83765955       0.11890110       0.10257018
C        0.94022633       0.14290158       2.00932997
O        0.07453387      -0.70815887       2.03647993
H        0.86863331       0.32746769      -2.31224660
H       -0.57934299      -1.29783632      -1.44108378
H       -1.50337307      -0.08154939      -2.08580298
H       -1.20516107      -0.35797371       0.72376344
H        0.72677627       1.19604499       2.26061811
H        1.88503030       0.02085127       1.55729711
