12
Properties=species:S:1:pos:R:3 pbc="F F F"
C        0.48839496       3.60565606      -0.26878416
O        1.62890993       3.74432437       0.13957509
O       -0.73089927      -3.29930124       1.42628789
C        0.07715695       2.53185413      -1.32290337
C       -0.16904096      -4.52932483       0.98175776
O        0.06881690      -5.61430586       1.46368257
H        0.22993867       2.95663115      -2.34059215
H       -0.28910963       4.27362638       0.20404552
H       -0.93575771      -3.18933907       2.38056826
H        0.68703468       1.61667096      -1.26604189
H       -0.08151222      -4.31545386      -0.10661090
H       -0.97382691       2.21926364      -1.29122016
