12
Properties=species:S:1:pos:R:3 pbc="F F F"
O        0.33989725      -0.23394572       1.40599244
C        1.21311818      -0.03641145       0.49203070
C        0.20800697       0.42311996      -0.44705103
O        0.84999911       1.23620112      -1.24607331
C       -1.16740103      -0.06572202      -0.60999149
O       -1.53293906      -1.24982090       0.00210555
H        1.65251961      -1.00792493       0.23780901
H        1.02261403       0.81029807      -0.13792209
H        1.67904541       0.67426230       1.15702830
H       -1.37220277      -0.09258514      -1.68643520
H       -1.77814777       0.78263276      -0.22887348
H       -1.01184254      -1.25489938       0.87397494
