12
Properties=species:S:1:pos:R:3 pbc="F F F"
O        0.33390959      -0.12783353       1.77198272
C        1.02284126      -0.17635418       0.69875692
C        0.15311643       0.58105228      -0.51484343
O        0.52746866       1.61536114      -1.05476854
C       -1.14697046      -0.11734217      -0.69863337
O       -1.31703986      -1.28708676       0.02752090
H        1.26316614      -1.11368988       0.15136807
H        1.40656574       1.04872377       0.01153072
H        2.01755878       0.35774050       0.71342684
H       -1.21158691      -0.33723206      -1.76696000
H       -1.90418480       0.64597357      -0.47731254
H       -1.04217574      -1.10410709       0.95052384
