12
Properties=species:S:1:pos:R:3 pbc="F F F"
C       -0.27655288      -2.46807830       0.13859593
O        0.20936329      -1.38319017       0.64038376
O       -0.06183247       1.56704248       1.21587918
C        0.79255490      -0.28827562      -0.16861809
C       -0.03264750       0.97727255      -0.06422911
O       -1.32037557       0.69480185      -0.56963224
H       -1.87011258       1.47219958      -0.39989314
H       -0.18488334      -2.41233810      -0.98864110
H       -0.40132530       0.92082378       1.85080603
H        1.78490678      -0.11641473       0.24369552
H        0.46743088       1.73089107      -0.68917448
H        0.86173085      -0.63795450      -1.19916524
