12
Properties=species:S:1:pos:R:3 pbc="F F F"
O        0.40836833      -1.31539970       1.19580840
C        1.04126313      -0.22890526       0.54792099
C        0.10823176       0.34351498      -0.52097219
O        0.70200632       1.07119123      -1.55488934
C       -1.29918869       0.18905964      -0.51811085
O       -2.04857405      -0.47904026       0.24133867
H        1.94391930      -0.68841824       0.17032387
H        1.17655355       1.41654724      -0.62081703
H        1.25885796       0.42687167       1.38782462
H       -0.84986017      -0.02524926      -0.33307535
H       -1.85079721       0.67483575      -1.36360025
H       -0.55560862      -1.31507024       1.27112877
