12
Properties=species:S:1:pos:R:3 pbc="F F F"
O        0.50917228      -1.64946837       0.81216592
C        1.00216388      -0.34693755       0.58968323
C        0.27587921       0.37968067      -0.60200139
O        0.90078759       0.60944009      -1.74676001
C       -1.22332795       0.32663551      -0.50667797
O       -1.93448262       0.11904208       0.50430247
H        2.03445566      -0.43313410       0.25759697
H        0.29557171       1.55499436      -0.60969345
H        0.94506882       0.27994237       1.47873084
H       -0.89518037       0.17407707      -0.32873464
H       -1.71496399       0.66863535      -1.45223871
H       -0.15997839      -1.61297086       1.50650792
