35
Properties=species:S:1:pos:R:3 pbc="F F F"
O       -7.83453608      -2.22475125      -2.38617090
P       -6.88331861      -1.22357110      -1.80147232
O       -7.03694928      -0.75480298      -0.37179425
O       -5.75644614      -0.65121643      -2.63296679
O       -2.52337397       0.29614368       0.38298525
C       -1.97521641      -0.44236082      -0.68842821
C       -0.90906523      -1.37653930      -0.16354687
O       -0.77107772      -2.51250189      -0.58266576
C        0.02587129      -0.91239763       0.95710946
O        0.15980969      -1.98970078       1.89103133
C        1.39056899      -0.51426007       0.36280277
O        1.11649366       0.51016574      -0.56549870
C        2.41322009      -0.07892280       1.42947519
O        2.67087991      -1.09622281       2.39535734
C        3.75273764       0.24757057       0.80249804
O        3.59443533       1.33148246      -0.09619974
P        4.99466172       2.08094342      -0.69699980
O        6.07242368       1.05138302      -0.80774941
O        4.50026388       2.98268150      -1.78784217
O        5.35773451       3.03949014       0.63110465
O       -4.96209476       1.16235347      -0.62897596
H       -4.99572563       0.74168695      -1.51293054
H       -2.70703197      -1.05424428      -1.22722843
H       -1.47520935       0.21421105      -1.41242408
H       -0.41110841      -0.06939068       1.48345911
H        0.18498171      -2.78967661       1.34126524
H        1.80450621      -1.40417279      -0.13718188
H        1.95921795       0.98291222      -0.71594239
H        2.02490151       0.83328950       1.90316279
H        1.82446996      -1.55215787       2.54430215
H        4.13710515      -0.63122515       0.28098407
H        4.46153508       0.50187942       1.59128243
H        4.92470367       3.88251675       0.45116578
H       -3.38760450       0.65150134       0.08460364
H       -5.68390561       0.65847763      -0.19898223
