12
Properties=species:S:1:pos:R:3 pbc="F F F"
O       -0.66951066       1.82417816      -2.02888005
C       -0.46307502       0.64244711      -2.20650341
C       -0.56348616      -0.39059154      -1.12429612
O       -1.21801992       0.25812779      -0.11230091
C       -0.92452855      -1.54945866       3.04928286
O        0.07791858      -1.04782467       3.06989827
H       -0.16476067       0.22895608      -3.19042668
H        0.40498992      -0.88500658      -0.95564971
H       -1.31454314      -1.14764738      -1.38880942
H       -0.87311393       1.06633417       0.32428195
H        2.85158106       0.69152611       2.45382651
H        3.00093950       0.15968307       1.98504151
