12
Properties=species:S:1:pos:R:3 pbc="F F F"
C       -0.23027496      -0.68638977      -1.27486070
O        0.24323210      -1.57714574      -0.54206624
O        0.87404872      -0.05237846       2.03948822
C        0.29655665       0.60864998      -1.39290604
C       -0.31302240      -0.20714130       1.43893265
O       -0.76840626       0.65397580       0.68851839
H       -0.34907429       0.28915400       0.29886306
H       -1.22862297      -0.83573322      -1.72944189
H        1.19668195       0.83263412       1.81414566
H        1.33391102       0.79394830      -1.12192047
H       -0.76193305      -1.13120853       1.77376055
H       -0.25773216       1.39577112      -1.89163999
