16
Properties=species:S:1:pos:R:3 pbc="F F F"
O        1.55996391      -0.49657362      -3.05125845
C        1.56977656      -1.24975070      -2.09706108
C        0.47960898      -1.17160988      -1.07455759
O       -0.50256772      -0.48249960      -1.66523711
O       -2.47082207       2.10110788       2.42888801
C       -1.90588367       1.17119148       1.90459241
C       -0.42026297       1.19986911       1.69110598
O       -0.06582398       0.32980003       0.63909092
H        2.36349770      -2.00404269      -1.97202222
H        0.04465388      -2.17848485      -0.98328539
H        0.98646645      -1.03020005      -0.10692116
H       -0.07284173       0.31999267      -1.82244542
H       -2.41750539       0.24186144       1.58541949
H       -0.09113298       2.19305037       1.37764957
H        0.08027946       0.90933049       2.62376341
H        0.86259359       0.14695792       0.52227862
