16
Properties=species:S:1:pos:R:3 pbc="F F F"
O        2.32689590      -0.20731310      -2.60303584
C        1.86164817      -1.31160192      -2.40576464
C        0.40237186      -1.47993577      -2.08274143
O       -0.27423993      -0.25607108      -2.16088522
O       -2.73895459       2.30369529       2.53776164
C       -2.06591651       1.34767123       2.23139035
C       -0.55704035       1.32592601       2.36589724
O       -0.04293981       0.07609003       1.85908843
H        2.50086189      -2.22058795      -2.46302652
H       -0.03297089      -2.22542834      -2.76401757
H        0.32612109      -1.93409828      -1.07935587
H        0.41308051       0.40528593      -2.46754918
H       -2.51035664       0.39947409       1.84094695
H       -0.16391627       2.22309053       1.82902103
H       -0.37052371       1.46719733       3.45523889
H        0.92589449       0.08657183       1.90703481
