12
Properties=species:S:1:pos:R:3 pbc="F F F"
O        1.71031521       0.51232064       0.22685730
C        1.44749964       0.03684523      -0.87686492
C        0.18125367      -0.49345302      -1.31175528
O       -0.04960779       1.05610377       2.34976624
C       -0.89811252      -0.52038739      -0.50695376
O       -2.06397068      -1.02340252      -0.93869761
H        2.24748108      -0.00261192      -1.63866313
H        0.10363574      -0.88217715      -2.31869495
H        0.33745567       1.46435545       3.12983425
H        0.69599352       0.95960658       1.72255801
H       -0.87310527      -0.14251062       0.51204736
H       -2.73218919      -0.96309972      -0.24466067
