12
Properties=species:S:1:pos:R:3 pbc="F F F"
O        1.08180537       1.62598551      -1.05908451
C        1.36526224       0.49721589      -0.69535027
C        0.38577324      -0.51694997      -0.31362577
O        0.63672162       0.05908818       1.72594989
C       -0.96362385      -0.17899198      -0.30356625
O       -1.88897390      -1.20434155      -0.29590744
H        2.40924756       0.15689809      -0.57457805
H        0.70188493      -1.51209014      -0.03234226
H       -0.60979408       0.14958572       0.88034487
H        0.88584595       0.99790109       1.72619513
H       -1.22783711       0.74848648      -0.79460042
H       -2.77631902      -0.82279074      -0.26343306
