16
Properties=species:S:1:pos:R:3 pbc="F F F"
O       -3.06336528      -0.72247525      -1.05544628
C       -2.03753648      -0.07407908      -0.99079315
C       -0.94654988      -0.45936991      -0.07099240
O       -1.42420766       0.29858674       1.48464895
C        0.33019360       0.16515301      -0.13171048
O        0.39640921       1.31510447      -0.94094238
C        1.58354258      -0.63643160      -0.04392814
O        2.47238422       0.02637424       0.86865933
H       -1.86907112       0.86120134      -1.55075573
H       -0.99768372      -1.48111373       0.27469624
H       -2.02028445       1.05604019       1.38333408
H       -0.22366330       0.62116804       1.14074090
H        1.07728748       1.88719248      -0.56956091
H        2.07085147      -0.72752930      -1.02982151
H        1.36124180      -1.64575000       0.31043357
H        3.29045283      -0.48406788       0.92148537
