16
Properties=species:S:1:pos:R:3 pbc="F F F"
C        1.53250668      -0.77251756      -1.32447530
C        0.49331825       0.29332175      -1.54091131
O        0.71573092       1.48666775      -1.38382031
N       -0.73067401      -0.16606661      -1.93953356
C       -1.25196681       0.31529894       1.97566032
N        0.17994919       0.28308298       1.70424154
H        2.51791109      -0.32242106      -1.37822881
H        1.39399275      -1.18678594      -0.32631824
H        1.45925027      -1.58095317      -2.05110290
H       -0.97636963      -1.13202612      -1.80907394
H       -1.48464570       0.49845323      -1.91768639
H       -1.54057541      -0.57852450       2.52824128
H       -1.59561920       1.18516000       2.55083564
H       -1.80976778       0.30038877       1.03958112
H        0.70381109       0.36623579       2.56581566
H        0.43842257       1.08382727       1.14083568
