16
Properties=species:S:1:pos:R:3 pbc="F F F"
C        1.38987557      -0.57251304      -0.76033588
C        0.26480570       0.36020566      -0.37676934
O        0.34129867       1.28083639      -1.53427455
N       -0.72762462      -0.50500177      -0.97813373
C       -1.10021277       0.53761735       1.52338838
N        0.16878325      -0.04350169       1.11241630
H        2.31658473      -0.25690916      -0.29679447
H        1.46828833      -1.63995612      -0.57407944
H        1.68585586      -0.59610121      -1.80328573
H       -0.71759472      -0.74603915      -1.95277782
H       -1.66490032      -0.15164780      -0.92332897
H       -1.97717976      -0.10355311       1.37035454
H       -1.02903716       0.70654295       2.59626323
H       -1.35156217       1.50089791       1.08591371
H        0.32569589      -0.99851051       1.39932547
H        0.66022961       1.33964665      -0.18564395
