12
Properties=species:S:1:pos:R:3 pbc="F F F"
C       -0.19971742      -0.29921588      -1.07480687
O       -1.53085994       0.17513271      -1.21056595
O       -0.47276063       1.20436901       1.20305058
C       -0.05241793      -0.16359408       0.38168147
C        1.31755675      -0.35444680       0.99054207
O        2.17126575      -0.99374921       0.42386660
H        0.35982619       0.81516575      -0.94466955
H        0.24678288      -1.21418676      -1.44014706
H       -1.29848802       1.24408439       0.71656002
H       -0.58695331      -0.97980911       0.88211139
H        1.60843089       0.09494246       1.96171897
H       -1.63334523       0.43323831      -2.13140883
