16
Properties=species:S:1:pos:R:3 pbc="F F F"
O       -0.82321080      -1.97106927      -0.68043076
C       -0.59173544      -0.66649912       0.03442502
C       -1.73875938       0.36078237      -0.36627185
O       -1.39480940       1.39663272      -1.26401971
C        2.72100567       0.02729786      -0.40845910
O        3.17528720       1.09116283      -0.76158981
C        0.97527107       0.09271082       0.23407876
O        1.16408905      -0.01917809       1.62346459
H       -2.55758277      -0.23132698      -0.81683821
H       -2.20438520       0.80212653       0.54700820
H       -1.01059557       2.08489325      -0.69199878
H        3.45300045      -0.82588472      -0.30363309
H       -1.69427647      -2.18406524      -0.28057843
H       -0.93306496      -0.84661794       1.08787512
H        1.10365246       1.15398066      -0.10461738
H        0.27104884      -0.22012594       2.01890926
