12
Properties=species:S:1:pos:R:3 pbc="F F F"
O        1.14596876      -0.33894252      -2.22888989
C        0.58225763       0.56893217      -1.65174753
C        0.51348308       0.45360474       1.11236208
O        0.98401317       0.85335918       2.11473654
C       -0.71795501      -0.49402148       1.07954162
O       -1.20042707      -0.70165913      -0.22908343
H        0.87390118       0.73858624      -0.44784672
H        0.79548806       0.68954940      -0.35425225
H       -0.31257821       1.09178090      -2.04497667
H       -1.48663854       0.01506581       1.65829059
H       -0.40647980      -1.40262734       1.59719757
H       -0.77561463      -1.47543204      -0.62191253
