16
Properties=species:S:1:pos:R:3 pbc="F F F"
O       -2.57765183       0.09492565       0.54170551
C       -1.72212178      -0.11788253      -0.48169872
C       -0.83722996       0.81162595      -0.86124709
O       -0.83312578       2.00599106      -0.17125732
C        0.76930622      -0.33190182       1.03970397
O        1.19256831       0.78838316       1.29838732
C        1.26958473      -1.39234401       0.06151072
O        2.07658146      -0.64809245      -0.83667311
H       -1.71682601      -1.05280281      -0.77265408
H       -0.12608238       0.69416161      -1.66618451
H       -2.40009379       1.01072566       0.82753919
H       -0.13588357      -0.84445392       1.46723562
H       -0.05881243       1.98326295       0.42609637
H        0.63895024      -1.83070882      -0.47708583
H        2.07647569      -1.71138668       0.35505840
H        2.54761202       0.51113669      -0.67359056
