16
Properties=species:S:1:pos:R:3 pbc="F F F"
C       -0.93554172       1.24868694      -0.61914455
C        0.22279194       0.49419347      -1.24263984
O       -0.42803315      -0.52921497      -1.92650945
N        1.37013207      -0.09040437      -0.81238954
C        0.09262331      -1.37202000       1.08654654
N       -0.07325413       0.07467565       0.91610609
H       -1.04982334       0.77561815       0.35690462
H       -0.33249752       2.15660376      -0.58214851
H       -1.81186368       1.29054296      -1.25586615
H        1.56619653       0.42149573       0.04619715
H        1.90525163      -0.73559513      -1.36378008
H       -0.92951235      -1.71935608       0.89815655
H        0.72853698      -1.43048056       0.20453914
H        0.56688887      -1.77891404       1.97737812
H       -0.48400437       0.88893853       0.46467597
H       -0.40789108       0.30522996       1.85197393
