16
Properties=species:S:1:pos:R:3 pbc="F F F"
O        0.88025653      -0.50465408       0.91739152
C        0.32278741      -1.40892248       0.33970630
C       -0.83884501      -1.21045065      -0.60855336
O       -0.87746583      -2.31369091      -1.49507694
C       -0.76153975       0.10590354      -1.35847393
O       -1.87655445       0.09317117      -2.25368475
C        2.03783545       2.25481857       2.90026757
O        2.51577947       2.70474381       3.91173842
H        0.61464785      -2.46688283       0.48750387
H       -1.74579989      -1.19118428       0.01929854
H       -1.47894059      -2.05031413      -2.20601399
H       -0.80301278       0.94347193      -0.66004566
H        0.18217298       0.15215412      -1.90821518
H       -1.77456705       0.80984828      -2.88640971
H        1.97548616       1.17188989       2.69523848
H        1.62772178       2.91013950       2.10533062
