16
Properties=species:S:1:pos:R:3 pbc="F F F"
C        1.15669615       0.75802703      -1.10300353
C       -0.13996357       0.23686014      -1.19957414
C       -0.36917486      -0.94707837      -0.47503736
C       -1.65669054      -1.20406963       0.01211317
C       -0.28536979       0.33730303       1.23422837
C        1.06497561       0.68593603       1.23664380
H        2.01120200       0.09855235      -1.00556665
H        1.32994240       1.48531764      -1.88669689
H       -0.96888833       0.81510471      -1.59568683
H        0.40855180      -1.54697592      -0.01340000
H       -2.50457914      -0.86721312      -0.57497111
H       -1.89204321      -2.21448124       0.32167016
H       -0.70413074       0.31098859       0.23761391
H       -0.82916150       0.68063409       2.10808551
H        1.84274154       0.50702985       0.50561060
H        1.53589218       0.86406481       2.19797098
