16
Properties=species:S:1:pos:R:3 pbc="F F F"
O       -0.07529005      -0.76397407      -2.53878510
C       -0.44176148      -0.50970173      -1.20258313
C       -0.62028857       0.93766623      -0.81270176
O       -1.65793816       1.30865538       0.07231029
C        0.46314967       0.14659036      -0.27607510
O       -1.09183712      -0.47454504       2.63568760
C        1.56085832       0.12992826       0.45435644
O        2.33215468      -0.98475671       0.56467837
H       -2.46672605       1.38343882      -0.44670413
H       -0.39266676       1.67521423      -1.58211215
H        0.56685154      -1.48451846      -2.53127229
H       -1.16231991      -1.20856838      -0.78421822
H       -1.76373644       0.17341875       2.39669314
H       -0.47908285      -0.41130174       1.89316506
H        1.87357768       1.01562647       0.99912192
H        3.05714564      -0.81651424       1.17767526
