12
Properties=species:S:1:pos:R:3 pbc="F F F"
C        0.52626465      -1.06934553      -0.51720393
O        1.56983207      -0.86862510       0.16520838
O        0.86020107       1.28321519       1.57200597
C       -0.28805547      -0.98139485      -1.67504272
C       -0.38909423       1.11497876       1.23596173
O       -1.08092092       2.08315300       1.85596055
H        0.73116929      -0.32162202      -1.84277677
H       -2.02136982       1.98681690       1.63165180
H       -0.10662780      -1.68018720       0.15666051
H       -0.16534038      -1.85440239      -2.27425018
H        1.39176349       0.56555507       1.14064299
H       -1.10920428      -0.31168335      -1.56578073
