12
Properties=species:S:1:pos:R:3 pbc="F F F"
O       -0.09480043      -0.05356168      -2.64560384
C        0.33859857       0.21845925      -1.55175087
C       -1.99912317      -0.89572219       2.67926103
O       -2.93590101      -0.40426835       3.25002874
C        1.47061609       0.64087816      -0.71244451
O        2.41145858       0.77574182      -1.71791652
H       -1.20160817      -1.44922012       3.21152531
H       -1.87801442      -0.82081603       1.57756537
H       -0.60927328       0.03553819      -1.01100821
H        0.84608979       1.52029564      -0.67774518
H        1.60295673      -0.11049437       0.06336982
H        2.10123489       0.48735718      -2.59388134
