12
Properties=species:S:1:pos:R:3 pbc="F F F"
O        0.41391558       2.42331079      -3.09715406
C       -0.30408225       1.91292273      -2.37950199
C       -2.01618000      -1.05549535       2.84347137
O       -3.00805490      -0.41089830       2.59623000
C        1.88128294      -0.41052861      -1.11281841
O        2.82296298       0.22914449      -1.79923791
H       -1.65075393      -1.20755620       3.87728000
H       -1.40244237      -1.52904926       2.04607638
H       -2.75537848       1.48330619       1.17891818
H        1.71726118      -0.03041897      -0.11893663
H        1.46609880      -1.34098249      -1.46361275
H        2.88747980      -0.11991744      -2.70102792
