12
Properties=species:S:1:pos:R:3 pbc="F F F"
O       -0.85240822       1.25730039      -1.52471920
C        0.30408820       1.00796253      -1.25774367
C        0.85243748      -0.40252337      -1.38748101
O        2.02925279      -0.66652371      -1.28189760
C       -0.95465798      -0.32075461       1.37021444
O        0.31644091       0.26263374       1.07775141
H        1.03989302       1.78122284      -0.97248108
H        0.08226775      -1.16848393      -1.61178474
H       -1.70035660       0.27276517       0.85047368
H        1.01999914      -0.37114273       1.25393014
H       -1.02436599      -1.35117405       1.01944268
H       -1.15301880      -0.29093735       2.44206696
