16
Properties=species:S:1:pos:R:3 pbc="F F F"
O       -1.51830019       2.77114167      -5.74417889
C       -2.50750019      -1.33170257       2.38949287
C       -2.54906110      -1.50071524       1.10534072
O       -2.64754093      -0.54872995       0.11553831
C        1.64117809       0.83677326       0.80138565
O        1.97208412       1.87466611       0.27350889
C        2.28156049      -0.46425585       0.41148154
O        3.25604614      -0.29247071      -0.57267599
H       -2.50996396      -2.49651022       0.65433950
H       -2.31031394      -1.67780255       3.37869762
H       -2.79097514       0.31171079       0.53543122
H        0.85247861       0.79903461       1.58134207
H       -0.64726669       3.15902880      -5.55519115
H        1.47547359      -1.13967949       0.08137297
H        2.70354439      -0.92503481       1.31804400
H        3.24510333       0.66131705      -0.77156873
