12
Properties=species:S:1:pos:R:3 pbc="F F F"
O       -0.44383922      -0.62541646      -2.33598787
C       -0.46252986      -0.42933037      -1.14746039
C        0.42588292       0.51360433      -0.38670150
O        1.20687220       1.22583147      -1.31256670
C       -0.42857625      -0.39266549       1.32043160
O        0.32989952      -1.37475097       1.55995474
H       -1.04702174      -1.29219255      -0.22672786
H        0.95250638      -0.15633260       0.30668974
H       -0.34324379       1.08003424       0.15625757
H        1.72242365       1.80717539      -0.74380954
H       -1.21818530      -0.50704397       0.57198274
H       -0.69418850       0.15108699       2.23793747
