16
Properties=species:S:1:pos:R:3 pbc="F F F"
O        0.46398111       0.67978527      -1.97392801
C        0.27936922      -0.48242753      -2.25460016
C       -0.65269413      -1.41224957      -1.54193392
O       -1.49935847      -0.83389086      -0.60830662
O        1.77074085       1.21927348       3.16297798
C        0.69370796       1.18736057       2.62302399
C        0.53575367       0.89929988       1.15903071
O       -0.84178415       0.64105536       0.88987413
H        0.82951020      -0.95144053      -3.09657870
H       -1.22242803      -1.94592911      -2.31960115
H        0.01202142      -2.18907557      -1.11858894
H       -1.08136864       0.41033579      -0.21007460
H       -0.24488861       1.39413131       3.17735931
H        0.87418016       1.77411365       0.60012958
H        1.18950833       0.06838906       0.88967304
H       -1.10624796      -0.45873114       0.62154965
