16
Properties=species:S:1:pos:R:3 pbc="F F F"
O       -3.29406238       0.22083026      -0.29170242
C       -2.27760929       0.76908552       0.10130355
C       -1.06681239      -0.00548548       0.37112204
O       -1.05850394      -1.32115454       0.10831403
C        0.07297338       0.56968480       0.78333385
O        0.83037388      -0.27858944      -2.46406216
C        1.38843153      -0.08434382       0.94714846
O        2.35845597       0.56852913       0.12832078
H       -2.23399377       1.85752627       0.25902915
H        0.35466249      -1.02744282      -2.09204650
H       -2.00097000      -1.42348377      -0.13815190
H        0.04098173       1.64355297       0.93218684
H        1.41964074      -0.00388711      -1.74786381
H        1.19669921      -1.15418272       0.85036348
H        1.69260515       0.03050879       1.99217599
H        2.69298056      -0.32649820       0.18070654
