12
Properties=species:S:1:pos:R:3 pbc="F F F"
C       -0.64560589      -0.40425735      -1.73756818
C        0.31914404       0.58756411      -1.35378842
O       -0.49910894      -0.12625870      -0.15014984
O        0.78754655       0.10197920       1.45185392
C        0.59459525      -0.22709694       2.65533766
O       -0.64781652      -0.63380034       2.49609897
H       -1.64753268      -0.05665430      -1.91167680
H       -0.35587449      -1.02470677      -2.57242382
H        1.18099258       0.60193526      -2.00776883
H        0.08364659       1.63689219      -1.37599510
H       -0.73480866      -0.46800542       1.40351560
H        1.56482216       0.01240905       3.10256485
