12
Properties=species:S:1:pos:R:3 pbc="F F F"
O        2.38983478      -1.53588856      -2.65830485
C        1.60461734      -0.97944801      -1.99144893
C       -2.21787461      -0.75977803       2.74559958
O       -2.66721170      -0.83626228       3.86226372
C        1.67685073       0.45365220      -1.39231523
O        2.93492747       1.03106515      -1.50800994
H       -1.28205204      -1.27921563       2.45768060
H       -2.70974762      -0.17100994       1.94947268
H       -5.11909854       1.49168884       1.09094616
H        0.88557245       1.01563978      -1.89648247
H        1.42367509       0.36296489      -0.34063657
H        3.13249596       1.15056201      -2.44760443
