16
Properties=species:S:1:pos:R:3 pbc="F F F"
O       -2.30742532       0.51104150      -0.16420361
C       -1.08335137       0.15419034      -0.73608885
C       -1.11316301      -1.79150647       1.13947564
O       -1.93772849      -1.44308895       1.88213564
C        0.16253094       0.65234008      -0.11676102
O        0.60273361       1.74882823      -0.89403961
C        1.32814316      -0.33513438       0.21685069
O        2.54498701       0.18488407      -0.32931375
H       -1.22147046       0.26182101      -1.80018620
H       -1.52354876      -0.35927716      -0.46940910
H       -2.68432575       0.02329637       0.56322810
H       -0.16223286       1.06094356       0.84587010
H        1.55476708       1.61512451      -1.01983044
H        1.14624674      -1.34462485      -0.14350938
H        1.41788290      -0.36932949       1.30383895
H        3.21295132      -0.50554945      -0.30035050
