16
Properties=species:S:1:pos:R:3 pbc="F F F"
C        1.36484972      -0.82572374      -1.31533992
C        0.38825405       0.28648054      -1.58032791
O        1.03967215       1.21005205      -1.18436412
N       -0.81378578      -0.14582681      -2.13278091
C       -1.25923283       0.41367761       1.96979873
N        0.16703849       0.23053886       1.72958618
H        2.41607813      -0.58631387      -1.31727127
H        1.26656731      -1.29031090      -0.34401022
H        1.31855003      -1.66988815      -1.98679913
H       -0.74980650      -0.87067855      -1.62348790
H       -1.36800010       0.63758934      -1.95740668
H       -1.65864802      -0.45716713       2.48919625
H       -1.51839332       1.30055980       2.56286581
H       -1.79229180       0.48661073       1.02210656
H        0.67641612       0.24154087       2.60372136
H        0.52362337       1.00761014       1.18694567
