16
Properties=species:S:1:pos:R:3 pbc="F F F"
O        0.19630214      -1.29467372      -1.72137659
C       -0.64038133      -0.69340336      -0.78182512
C       -0.62008448       0.79649224      -0.55598991
O       -1.80552022       1.52272069      -0.29990964
C       -0.20111907      -0.13530392       0.54805807
O       -1.08322522      -0.28452843       1.62470523
C        1.22432777      -0.24517961       1.02669631
O        2.18942259      -0.29056692      -0.03336563
H       -2.37218710       1.45583400      -1.07806559
H        0.14246296       1.36077472      -1.09057638
H        1.10727716      -1.22420112      -1.38576997
H       -1.62137401      -1.14867089      -0.75583975
H       -1.74602665       0.41430682       1.53525944
H        1.33034441      -1.18151089       1.56970451
H        1.43632156       0.57180177       1.72199268
H        2.32459200       0.60531158      -0.36190176
