16
Properties=species:S:1:pos:R:3 pbc="F F F"
O       -0.07313279      -1.33377946      -1.80735465
C       -0.44122872      -0.63891016      -0.70676714
C       -0.54839109       0.80310404      -0.58257672
O       -1.63728392       1.66142483      -0.30623029
C       -0.24125539      -0.06988569       0.59380750
O       -1.09517163      -0.15517132       1.69664823
C        1.14481194      -0.35129665       1.10117358
O        2.13412574      -0.42108734       0.08357680
H       -2.25410778       1.63502699      -1.04685841
H        0.24522845       1.31286813      -1.12351444
H        0.82755413      -1.35861439      -1.44241856
H       -1.47782516      -0.95165771      -0.67971188
H       -1.65826211       0.61725940       1.56723272
H        1.25419057      -1.30728276       1.57649544
H        1.53287318       0.47190659       1.68149714
H        2.13366495       0.24039359      -0.61595066
