16
Properties=species:S:1:pos:R:3 pbc="F F F"
O        0.52310669      -0.80238090      -1.75857212
C       -0.50542972      -0.48885566      -0.93630330
C       -0.66642159       0.93389798      -0.46488570
O       -1.93993246       1.47086315      -0.17528058
C       -0.21689512      -0.09784624       0.52960378
O       -1.09445959      -0.46190099       1.54826891
C        1.20922853      -0.15364642       1.00859609
O        2.07969664      -0.73719843      -0.05219561
H       -2.48653181       1.36620648      -0.96353533
H        0.05229590       1.65812194      -0.84722518
H        1.44144524      -1.42400224      -0.55297091
H       -1.44061457      -1.04538116      -1.02198253
H       -1.86085283       0.12721333       1.47131876
H        1.29733032      -0.82332494       1.85731857
H        1.64669264       0.81228452       1.24614073
H        1.80668263      -0.17970091      -0.89883286
