12
Properties=species:S:1:pos:R:3 pbc="F F F"
C       -0.50609395       0.43636047      -1.88081922
O       -0.84333381      -0.72705088      -1.84841756
O        0.03367210       1.58657894       1.65294936
C        0.06248264       0.32421824       1.17444768
C        0.77311638      -0.76453756       0.88241178
O        0.76932052      -1.85606842       0.09461321
H       -1.22201721       1.25992776      -1.69048130
H        0.52850214       0.74217791      -2.13043531
H       -0.38040359       1.17273415       2.33276902
H       -0.95302472       0.07746950       0.89530426
H        1.79948381      -0.54410214       1.13348286
H       -0.00936534      -1.77406683      -0.48527143
