16
Properties=species:S:1:pos:R:3 pbc="F F F"
C        0.15611779       1.35283621      -1.87140709
C        0.76345821       0.27005216      -1.37470048
C        0.06387569      -0.87161125      -0.83498411
C        0.65001392      -1.91538232      -0.24581035
C       -0.56836109       1.10193171       1.50299855
C       -0.80113630      -0.09807025       2.09058930
H       -0.91778925       1.40967350      -1.96918200
H        0.71961101       2.22282060      -2.16750956
H        1.84670244       0.27306714      -1.27320621
H       -1.02452660      -0.83947655      -0.87367707
H        1.72728662      -2.00479799      -0.19583209
H        0.08282253      -2.70157929       0.23098471
H       -1.18975017       1.95077174       1.31753459
H        0.35319464       1.39184486       0.98418330
H       -0.52536047      -0.55955446       3.02044933
H       -1.33615223      -0.98250567       1.65957780
