8
Properties=species:S:1:pos:R:3 relative_energy_eV=0.0 branch=left pbc="F F F"
C        0.72576970      -0.49034228      -0.95377292
O       -0.03460550       0.70940009      -0.93184644
C       -1.15617989       0.81548599       2.86305633
O       -1.74907273       0.65612019       1.90975025
H        0.11192792      -1.37916619      -0.77446880
H        1.16288480      -0.57728812      -1.94660611
H       -0.61129349       0.68526274      -0.16166905
H        1.54294023      -0.47150646      -0.22608931
8
Properties=species:S:1:pos:R:3 relative_energy_eV=3.0821584005025215e-06 branch=left pbc="F F F"
C        0.72513120      -0.48926548      -0.95519050
O       -0.03382335       0.71145962      -0.92949047
C       -1.15570836       0.81391380       2.86531951
O       -1.74701311       0.65113145       1.91162540
H        0.11096776      -1.37772656      -0.77479699
H        1.15867549      -0.57543107      -1.94957947
H       -0.61052846       0.68597520      -0.15935897
H        1.54466985      -0.47209102      -0.23017468
8
Properties=species:S:1:pos:R:3 relative_energy_eV=1.7085806575778406e-05 branch=left pbc="F F F"
C        0.72341412      -0.48707903      -0.95790436
O       -0.03365570       0.71489014      -0.92565000
C       -1.15368074       0.81095855       2.86912674
O       -1.74273417       0.64122505       1.91538486
H        0.10894953      -1.37527449      -0.77671896
H        1.15204033      -0.57148639      -1.95489181
H       -0.60856022       0.68718175      -0.15417105
H        1.54659783      -0.47244966      -0.23682183
8
Properties=species:S:1:pos:R:3 relative_energy_eV=2.8328029657131992e-05 branch=left pbc="F F F"
C        0.72285402      -0.48584254      -0.95947073
O       -0.03290235       0.71675338      -0.92165170
C       -1.15275560       0.80947115       2.87160956
O       -1.74037526       0.63800269       1.91679757
H        0.10795791      -1.37389906      -0.77867469
H        1.14851465      -0.56824430      -1.95807951
H       -0.60921753       0.68537440      -0.15128745
H        1.54829511      -0.47364985      -0.24088952
8
Properties=species:S:1:pos:R:3 relative_energy_eV=9.66902780419332e-05 branch=left pbc="F F F"
C        0.71882942      -0.47795633      -0.96881982
O       -0.03075265       0.72785260      -0.90491583
C       -1.14424642       0.80279844       2.88069836
O       -1.73162119       0.60738235       1.93072362
H        0.10259609      -1.36513123      -0.78865473
H        1.12925410      -0.55088142      -1.97409169
H       -0.60603089       0.68223924      -0.13458850
H        1.55434232      -0.47833793      -0.26199843
8
Properties=species:S:1:pos:R:3 relative_energy_eV=0.00013090537049720297 branch=left pbc="F F F"
C        0.71821449      -0.47626327      -0.97081014
O       -0.03029663       0.72986877      -0.90071944
C       -1.14224144       0.80184993       2.88226751
O       -1.73043996       0.60215672       1.93359830
H        0.10162843      -1.36324804      -0.79171298
H        1.12605554      -0.54666620      -1.97732601
H       -0.60609053       0.68001500      -0.13102875
H        1.55554081      -0.47974725      -0.26591559
8
Properties=species:S:1:pos:R:3 relative_energy_eV=0.0001707635929051321 branch=left pbc="F F F"
C        0.72018496      -0.47833375      -0.96887183
O       -0.03031456       0.72785768      -0.90427008
C       -1.14501325       0.80448578       2.87994116
O       -1.73555080       0.61175629       1.93094054
H        0.10381981      -1.36511476      -0.78970977
H        1.13183493      -0.55166680      -1.97405917
H       -0.60766391       0.67882115      -0.13543439
H        1.55507355      -0.47983991      -0.26018339
8
Properties=species:S:1:pos:R:3 relative_energy_eV=0.00029898539196437923 branch=left pbc="F F F"
C        0.71631421      -0.47176766      -0.97591008
O       -0.02792424       0.73597071      -0.89227798
C       -1.13840250       0.79931987       2.88636736
O       -1.72693784       0.58339953       1.94305198
H        0.09896357      -1.35768860      -0.79668367
H        1.11533153      -0.53786098      -1.98559473
H       -0.60354306       0.67884722      -0.12300099
H        1.55856894      -0.48225451      -0.27759931
8
Properties=species:S:1:pos:R:3 relative_energy_eV=0.000401920347030682 branch=left pbc="F F F"
C        0.71114301      -0.46728881      -0.98172283
O       -0.03081351       0.74128254      -0.88583656
C       -1.13004243       0.79150639       2.89423946
O       -1.71749897       0.55948628       1.95105488
H        0.09439474      -1.35475082      -0.80297860
H        1.10197997      -0.52642719      -1.99619101
H       -0.59678344       0.68599374      -0.10928208
H        1.55999115      -0.48183658      -0.29093116
8
Properties=species:S:1:pos:R:3 relative_energy_eV=0.0006310668077276205 branch=left pbc="F F F"
C        0.70185949      -0.45808610      -0.99104800
O       -0.03469039       0.75238038      -0.87779148
C       -1.11797442       0.78003573       2.90396043
O       -1.69734538       0.51159599       1.96636393
H        0.08531977      -1.34556765      -0.80936601
H        1.07827652      -0.51127139      -2.01185166
H       -0.58380556       0.69749759      -0.08891259
H        1.56073037      -0.47861900      -0.31300346
8
Properties=species:S:1:pos:R:3 relative_energy_eV=0.0009816486654017353 branch=left pbc="F F F"
C        0.69667608      -0.45123010      -0.99757861
O       -0.03044666       0.76281114      -0.86728424
C       -1.11224021       0.77206981       2.91144973
O       -1.68494272       0.47728970       1.97690038
H        0.07877702      -1.33654935      -0.80973758
H        1.05657229      -0.50154272      -2.02453713
H       -0.57800100       0.70319949      -0.07713024
H        1.56597555      -0.47808248      -0.33373190
8
Properties=species:S:1:pos:R:3 relative_energy_eV=0.001257288315173355 branch=left pbc="F F F"
C        0.69259846      -0.44419058      -1.00394056
O       -0.02475783       0.77326162      -0.85551348
C       -1.10748460       0.76618765       2.91715624
O       -1.67454179       0.44444729       1.98822778
H        0.07276702      -1.32668437      -0.81067129
H        1.03611919      -0.49154234      -2.03624031
H       -0.57374608       0.70530068      -0.06695929
H        1.57141588      -0.47881454      -0.35370932
8
Properties=species:S:1:pos:R:3 relative_energy_eV=0.0014740937849637703 branch=left pbc="F F F"
C        0.69109268      -0.43902258      -1.00815115
O       -0.01858267       0.78086076      -0.84406414
C       -1.10430968       0.76420449       2.91875910
O       -1.67076590       0.42302522       1.99673796
H        0.06909451      -1.31904800      -0.81235948
H        1.02282331      -0.48315312      -2.04407015
H       -0.57337032       0.70237306      -0.06101679
H        1.57638823      -0.48127455      -0.36748597
8
Properties=species:S:1:pos:R:3 relative_energy_eV=0.0016001481271814555 branch=left pbc="F F F"
C        0.69156008      -0.43673106      -1.00970346
O       -0.01448986       0.78417503      -0.83652374
C       -1.10270192       0.76515627       2.91729367
O       -1.67256255       0.41536455       2.00086480
H        0.06807495      -1.31550968      -0.81437489
H        1.01835370      -0.47814420      -2.04708987
H       -0.57528009       0.69767509      -0.05921094
H        1.57941576      -0.48402083      -0.37290627
8
Properties=species:S:1:pos:R:3 relative_energy_eV=0.0016635590327496175 branch=left pbc="F F F"
C        0.69269351      -0.43616117      -1.00990596
O       -0.01230400       0.78484914      -0.83236785
C       -1.10189939       0.76717874       2.91495983
O       -1.67645351       0.41509150       2.00257889
H        0.06837820      -1.31464920      -0.81659847
H        1.01884414      -0.47532306      -2.04749248
H       -0.57767710       0.69326605      -0.05924372
H        1.58078816      -0.48628688      -0.37358088
8
Properties=species:S:1:pos:R:3 relative_energy_eV=0.0016943423815973802 branch=left pbc="F F F"
C        0.69353241      -0.43613025      -1.00987945
O       -0.01187306       0.78447476      -0.83044483
C       -1.10105208       0.76897391       2.91302031
O       -1.67981859       0.41634881       2.00370287
H        0.06893480      -1.31488369      -0.81912750
H        1.02086417      -0.47329135      -2.04711249
H       -0.57912034       0.69026676      -0.05921653
H        1.58090266      -0.48779389      -0.37259293
8
Properties=species:S:1:pos:R:3 relative_energy_eV=0.001705165273961029 branch=left pbc="F F F"
C        0.69412142      -0.43628815      -1.00981805
O       -0.01206845       0.78378814      -0.82963325
C       -1.10029974       0.77040962       2.91159504
O       -1.68248998       0.41789308       2.00455932
H        0.06947127      -1.31548826      -0.82145755
H        1.02313702      -0.47179269      -2.04656080
H       -0.58003039       0.68822576      -0.05910135
H        1.58052878      -0.48878246      -0.37123383
8
Properties=species:S:1:pos:R:3 relative_energy_eV=0.0017185523274747538 branch=left pbc="F F F"
C        0.69429206      -0.43638338      -1.00995321
O       -0.01304800       0.78303338      -0.82963562
C       -1.09931050       0.77134554       2.91073961
O       -1.68412569       0.41858314       2.00558378
H        0.06981307      -1.31616870      -0.82388574
H        1.02519132      -0.47036039      -2.04612809
H       -0.58008349       0.68718420      -0.05845406
H        1.57964115      -0.48926878      -0.36991708
8
Properties=species:S:1:pos:R:3 relative_energy_eV=0.0017396945067957859 branch=left pbc="F F F"
C        0.69401642      -0.43636115      -1.01065176
O       -0.01579529       0.78168544      -0.83074117
C       -1.09712268       0.77240370       2.91018761
O       -1.68577566       0.41823921       2.00822236
H        0.07014273      -1.31740198      -0.82875919
H        1.02858582      -0.46760338      -2.04571967
H       -0.57893105       0.68653906      -0.05632767
H        1.57724959      -0.48953590      -0.36786083
8
Properties=species:S:1:pos:R:3 relative_energy_eV=0.0018083465174640878 branch=left pbc="F F F"
C        0.69230501      -0.43564572      -1.01252517
O       -0.02155032       0.78025968      -0.83405959
C       -1.09314403       0.77213234       2.91133290
O       -1.68466250       0.41373542       2.01284300
H        0.06962111      -1.31845989      -0.83558464
H        1.03162360      -0.46369459      -2.04608619
H       -0.57461578       0.68807642      -0.05149153
H        1.57279274      -0.48843864      -0.36607910
8
Properties=species:S:1:pos:R:3 relative_energy_eV=0.0018565331347417668 branch=left pbc="F F F"
C        0.69103893      -0.43495988      -1.01394619
O       -0.02405614       0.78022914      -0.83619205
C       -1.09194713       0.77097620       2.91364464
O       -1.68239014       0.40985884       2.01546210
H        0.06878859      -1.31827959      -0.83760027
H        1.03125190      -0.46260906      -2.04719773
H       -0.57132422       0.68999263      -0.04901440
H        1.57100803      -0.48724322      -0.36680648
8
Properties=species:S:1:pos:R:3 relative_energy_eV=0.0019096627565886592 branch=left pbc="F F F"
C        0.68745358      -0.43286742      -1.01684540
O       -0.02868548       0.78169153      -0.83956665
C       -1.09029001       0.76651785       2.91941825
O       -1.67269583       0.39852505       2.01893142
H        0.06594738      -1.31628903      -0.83838715
H        1.02594237      -0.46153930      -2.05039995
H       -0.56390635       0.69575270      -0.04395721
H        1.56860422      -0.48382623      -0.37084397
8
Properties=species:S:1:pos:R:3 relative_energy_eV=0.0019625447121143225 branch=left pbc="F F F"
C        0.68576724      -0.43179667      -1.01881229
O       -0.03026050       0.78262551      -0.84144315
C       -1.09075621       0.76409976       2.92402313
O       -1.66798309       0.39301340       2.02157991
H        0.06444839      -1.31515293      -0.83827349
H        1.02262133      -0.46159929      -2.05283519
H       -0.55938617       0.69885967      -0.04186635
H        1.56791890      -0.48208426      -0.37402338
8
Properties=species:S:1:pos:R:3 relative_energy_eV=0.002013483504015312 branch=left pbc="F F F"
C        0.68733899      -0.43285634      -1.01736229
O       -0.02917866       0.78214068      -0.84346405
C       -1.09124364       0.76581881       2.92139643
O       -1.67419060       0.39719523       2.02044325
H        0.06578454      -1.31601417      -0.83585085
H        1.02602069      -0.46513974      -2.05137535
H       -0.56059377       0.69893460      -0.04450333
H        1.56843233      -0.48211387      -0.37093456
8
Properties=species:S:1:pos:R:3 relative_energy_eV=0.002241085408059007 branch=left pbc="F F F"
C        0.68449405      -0.43054347      -1.01727156
O       -0.02762126       0.78746859      -0.84408972
C       -1.09139248       0.76073059       2.92269474
O       -1.66087235       0.38303553       2.01829429
H        0.06288599      -1.31146041      -0.82732639
H        1.01481982      -0.46825220      -2.05353875
H       -0.55984084       0.70623777      -0.04265543
H        1.56989705      -0.47925111      -0.37775834
8
Properties=species:S:1:pos:R:3 relative_energy_eV=0.0021966997055642423 branch=left pbc="F F F"
C        0.67990716      -0.42824915      -1.02131378
O       -0.03582019       0.78754371      -0.84649478
C       -1.08911299       0.75547655       2.93088157
O       -1.64947840       0.37230956       2.02252496
H        0.05985764      -1.30990602      -0.83213738
H        1.00957773      -0.46448830      -2.05745249
H       -0.54902302       0.71117633      -0.03599084
H        1.56646210      -0.47589731      -0.38166865
8
Properties=species:S:1:pos:R:3 relative_energy_eV=0.002384119143243879 branch=left pbc="F F F"
C        0.68142510      -0.42841977      -1.02356789
O       -0.03256577       0.78542568      -0.84443485
C       -1.09077318       0.75618456       2.93645142
O       -1.65347249       0.37967240       2.02506169
H        0.05933347      -1.30978082      -0.83617487
H        1.01116764      -0.46145740      -2.05870416
H       -0.55080039       0.70405329      -0.03622591
H        1.56805557      -0.47771265      -0.38405663
8
Properties=species:S:1:pos:R:3 relative_energy_eV=0.00675658520685829 branch=left pbc="F F F"
C        0.67055184      -0.42051239      -1.02603089
O       -0.03820177       0.79977710      -0.84798711
C       -1.09323782       0.74561250       2.93776194
O       -1.61277384       0.32982217       2.02960938
H        0.05062851      -1.30114288      -0.82082950
H        0.98592254      -0.46654872      -2.06859304
H       -0.53553457       0.72810586      -0.02815487
H        1.56501538      -0.46714802      -0.39742839
8
Properties=species:S:1:pos:R:3 relative_energy_eV=0.004099179557670141 branch=left pbc="F F F"
C        0.66861072      -0.42127623      -1.02484987
O       -0.03649825       0.80335705      -0.85893330
C       -1.09450475       0.73475283       2.94820913
O       -1.61043970       0.32663150       2.02074538
H        0.05013053      -1.29721874      -0.80080804
H        0.97312235      -0.48415939      -2.06967359
H       -0.52809544       0.74584696      -0.03138013
H        1.57004501      -0.45996819      -0.40496257
8
Properties=species:S:1:pos:R:3 relative_energy_eV=0.0062198131818149704 branch=left pbc="F F F"
C        0.64883467      -0.40776035      -1.04344320
O       -0.04935007       0.81368531      -0.84958029
C       -1.09301022       0.71023697       2.98770865
O       -1.53767132       0.26627962       2.04051217
H        0.03353702      -1.28367859      -0.81712640
H        0.92924836      -0.45756826      -2.09247373
H       -0.50325950       0.75995096      -0.00133528
H        1.56404178      -0.45317968      -0.44591619
8
Properties=species:S:1:pos:R:3 relative_energy_eV=0.008010545683646342 branch=left pbc="F F F"
C        0.64249589      -0.40375704      -1.04574692
O       -0.05271940       0.82046669      -0.85155119
C       -1.09346984       0.70184934       2.99357731
O       -1.51541855       0.24220510       2.04159323
H        0.02886062      -1.27928221      -0.80942780
H        0.91370774      -0.45961178      -2.09836176
H       -0.49386918       0.77339531       0.00396842
H        1.56278363      -0.44729926      -0.45570624
8
Properties=species:S:1:pos:R:3 relative_energy_eV=0.010108501822287508 branch=left pbc="F F F"
C        0.62408883      -0.38958182      -1.06039786
O       -0.06634347       0.83252957      -0.83864660
C       -1.09150581       0.68669864       3.01288667
O       -1.44387900       0.17562031       2.06277241
H        0.01282663      -1.26785068      -0.82705110
H        0.87874613      -0.43050659      -2.11770372
H       -0.47476562       0.78307938       0.03185952
H        1.55320342      -0.44202247      -0.48537542
8
Properties=species:S:1:pos:R:3 relative_energy_eV=0.011254401713813422 branch=left pbc="F F F"
C        0.61835868      -0.38530516      -1.06470056
O       -0.07077224       0.83631547      -0.83488291
C       -1.09058502       0.68171258       3.01869242
O       -1.42195298       0.15526488       2.06850438
H        0.00799876      -1.26451909      -0.83186822
H        0.86782633      -0.42202475      -2.12358120
H       -0.46874504       0.78668130       0.04043486
H        1.55024269      -0.44015883      -0.49425525
8
Properties=species:S:1:pos:R:3 relative_energy_eV=0.012365899449832796 branch=left pbc="F F F"
C        0.62312589      -0.39009836      -1.06102260
O       -0.06795210       0.83217323      -0.84019685
C       -1.08996153       0.68252459       3.01853924
O       -1.44314453       0.17750718       2.05950545
H        0.01308048      -1.26844506      -0.82544268
H        0.87553965      -0.43203600      -2.11864434
H       -0.47199768       0.78707568       0.03327042
H        1.55368097      -0.44073491      -0.48766486
8
Properties=species:S:1:pos:R:3 relative_energy_eV=0.013132618341842317 branch=left pbc="F F F"
C        0.60640372      -0.37546018      -1.07475389
O       -0.07978621       0.84369444      -0.82315609
C       -1.08870426       0.67419168       3.02850193
O       -1.37340755       0.11045018       2.08480587
H       -0.00306100      -1.25701707      -0.84857105
H        0.84683664      -0.39775611      -2.13587003
H       -0.45891014       0.78839039       0.06014202
H        1.54300005      -0.43852687      -0.51275590
8
Properties=species:S:1:pos:R:3 relative_energy_eV=0.013570074963354273 branch=left pbc="F F F"
C        0.60327160      -0.37269432      -1.07756573
O       -0.08205393       0.84561928      -0.81954635
C       -1.08836748       0.67272016       3.03069679
O       -1.36016598       0.09809808       2.08994161
H       -0.00613921      -1.25489166      -0.85388811
H        0.84157853      -0.39048639      -2.13917177
H       -0.45668758       0.78801948       0.06553909
H        1.54093533      -0.43841817      -0.51766287
8
Properties=species:S:1:pos:R:3 relative_energy_eV=0.014669710533780744 branch=left pbc="F F F"
C        0.61314931      -0.38227475      -1.06819460
O       -0.07543373       0.83930383      -0.83259095
C       -1.08819376       0.67463713       3.02664866
O       -1.40433638       0.14105538       2.06929288
H        0.00447515      -1.26261376      -0.83380421
H        0.85690533      -0.41661402      -2.12879930
H       -0.46242337       0.79212964       0.04816614
H        1.54822871      -0.43765701      -0.50237550
8
Properties=species:S:1:pos:R:3 relative_energy_eV=0.014334578084344685 branch=left pbc="F F F"
C        0.59764962      -0.36752237      -1.08226013
O       -0.08585447       0.84966608      -0.81312841
C       -1.08808704       0.67059704       3.03306448
O       -1.33597576       0.07452155       2.09929414
H       -0.01180047      -1.25087838      -0.86244197
H        0.83222007      -0.37803042      -2.14499367
H       -0.45293463       0.78762182       0.07474207
H        1.53715398      -0.43800881      -0.52593412
8
Properties=species:S:1:pos:R:3 relative_energy_eV=0.014595268486118584 branch=left pbc="F F F"
C        0.59533610      -0.36526106      -1.08434428
O       -0.08733446       0.85129661      -0.81014757
C       -1.08813504       0.67006778       3.03385308
O       -1.32561554       0.06436467       2.10386369
H       -0.01427332      -1.24906870      -0.86667262
H        0.82852002      -0.37224752      -2.14744619
H       -0.45161307       0.78688616       0.07869288
H        1.53548662      -0.43807142      -0.52945670
8
Properties=species:S:1:pos:R:3 relative_energy_eV=0.01598080078019848 branch=left pbc="F F F"
C        0.60629976      -0.37661072      -1.07413198
O       -0.08060366       0.84349666      -0.82499784
C       -1.08669590       0.67039915       3.03246935
O       -1.37639670       0.11574528       2.07840929
H       -0.00184414      -1.25856684      -0.84432142
H        0.84485723      -0.40164306      -2.13605562
H       -0.45732105       0.79228869       0.06006034
H        1.54407575      -0.43714265      -0.51308937
8
Properties=species:S:1:pos:R:3 relative_energy_eV=0.014992329349297506 branch=left pbc="F F F"
C        0.59179254      -0.36182396      -1.08767081
O       -0.08968702       0.85365053      -0.80540946
C       -1.08814331       0.66937845       3.03511224
O       -1.30968267       0.04884516       2.11117532
H       -0.01808002      -1.24633656      -0.87376927
H        0.82300175      -0.36290199      -2.15116421
H       -0.44971912       0.78550806       0.08491028
H        1.53288918      -0.43835319      -0.53484197
8
Properties=species:S:1:pos:R:3 relative_energy_eV=0.015181411840785586 branch=left pbc="F F F"
C        0.58988436      -0.35987909      -1.08953402
O       -0.09090164       0.85491021      -0.80273379
C       -1.08832163       0.66926611       3.03557283
O       -1.30081171       0.04005796       2.11566351
H       -0.02023441      -1.24472368      -0.87796555
H        0.82014836      -0.35754395      -2.15317689
H       -0.44879048       0.78449018       0.08830763
H        1.53139849      -0.43861123      -0.53779167
8
Properties=species:S:1:pos:R:3 relative_energy_eV=0.016715438607207034 branch=left pbc="F F F"
C        0.60117681      -0.37183296      -1.07843549
O       -0.08381506       0.84738403      -0.81846360
C       -1.08602267       0.66812932       3.03514826
O       -1.35441658       0.09490419       2.08594709
H       -0.00694858      -1.25505615      -0.85196467
H        0.83588405      -0.39004757      -2.14169292
H       -0.45432238       0.79139763       0.06877563
H        1.54083571      -0.43691201      -0.52097187
8
Properties=species:S:1:pos:R:3 relative_energy_eV=0.015432794509251835 branch=left pbc="F F F"
C        0.58737629      -0.35727360      -1.09184944
O       -0.09240062       0.85679806      -0.79936795
C       -1.08869992       0.66921712       3.03571094
O       -1.28909244       0.02806929       2.12152591
H       -0.02309270      -1.24253110      -0.88291502
H        0.81637816      -0.35093476      -2.15578222
H       -0.44755315       0.78342178       0.09249173
H        1.52945571      -0.43880028      -0.54147201
8
Properties=species:S:1:pos:R:3 relative_energy_eV=0.015569410221360158 branch=left pbc="F F F"
C        0.58576935      -0.35554452      -1.09339215
O       -0.09335402       0.85795592      -0.79716063
C       -1.08908143       0.66937665       3.03566223
O       -1.28137482       0.02009309       2.12574414
H       -0.02500063      -1.24101579      -0.88642070
H        0.81408109      -0.34644343      -2.15743652
H       -0.44679262       0.78254292       0.09521497
H        1.52812442      -0.43899833      -0.54386946
8
Properties=species:S:1:pos:R:3 relative_energy_eV=0.01722723620969191 branch=left pbc="F F F"
C        0.59693161      -0.36778612      -1.08265597
O       -0.08649367       0.85016978      -0.81199291
C       -1.08541294       0.66678958       3.03789018
O       -1.33551498       0.07741022       2.09371622
H       -0.01137870      -1.25204460      -0.86093513
H        0.82869295      -0.37817809      -2.14654231
H       -0.45247062       0.78920023       0.07694070
H        1.53801762      -0.43759452      -0.52807847
8
Properties=species:S:1:pos:R:3 relative_energy_eV=0.015747777723845502 branch=left pbc="F F F"
C        0.58376514      -0.35343868      -1.09534076
O       -0.09458509       0.85938649      -0.79454396
C       -1.08960833       0.66960433       3.03559058
O       -1.27179128       0.01003741       2.13113538
H       -0.02736742      -1.23912979      -0.89079256
H        0.81123504      -0.34092494      -2.15944903
H       -0.44576285       0.78166129       0.09854906
H        1.52648616      -0.43922958      -0.54680691
8
Properties=species:S:1:pos:R:3 relative_energy_eV=0.01586547452643572 branch=left pbc="F F F"
C        0.58229937      -0.35185523      -1.09677155
O       -0.09550506       0.86039317      -0.79268241
C       -1.09012889       0.66993030       3.03534308
O       -1.26463840       0.00241017       2.13544238
H       -0.02915539      -1.23766159      -0.89415583
H        0.80928287      -0.33679249      -2.16087596
H       -0.44497940       0.78095060       0.10096643
H        1.52519629      -0.43940839      -0.54892439
8
Properties=species:S:1:pos:R:3 relative_energy_eV=0.017537124982482055 branch=left pbc="F F F"
C        0.59339710      -0.36392231      -1.08597993
O       -0.08796623       0.85334367      -0.80631352
C       -1.08561360       0.66634375       3.03871422
O       -1.31877232       0.06068926       2.10080470
H       -0.01542625      -1.24881491      -0.86729287
H        0.82241507      -0.36878573      -2.15071618
H       -0.45136322       0.78714141       0.08320291
H        1.53570071      -0.43802872      -0.53407718
8
Properties=species:S:1:pos:R:3 relative_energy_eV=0.01601189924258506 branch=left pbc="F F F"
C        0.58063383      -0.35003482      -1.09826429
O       -0.09646642       0.86175791      -0.79091700
C       -1.09095372       0.67038649       3.03464629
O       -1.25649948      -0.00680865       2.14037902
H       -0.03120802      -1.23587423      -0.89726534
H        0.80700393      -0.33272523      -2.16241667
H       -0.44390637       0.78065554       0.10333887
H        1.52376765      -0.43939045      -0.55115921
8
Properties=species:S:1:pos:R:3 relative_energy_eV=0.01612295255472418 branch=left pbc="F F F"
C        0.57931973      -0.34858678      -1.09943938
O       -0.09731256       0.86272676      -0.78957837
C       -1.09165568       0.67085392       3.03396419
O       -1.25001349      -0.01414966       2.14454585
H       -0.03285614      -1.23444776      -0.89997083
H        0.80538630      -0.32936340      -2.16356702
H       -0.44302431       0.78032795       0.10523283
H        1.52252755      -0.43939445      -0.55284568
8
Properties=species:S:1:pos:R:3 relative_energy_eV=0.01789868599462352 branch=left pbc="F F F"
C        0.59041443      -0.36059606      -1.08908196
O       -0.08879611       0.85633389      -0.80178724
C       -1.08667604       0.66652267       3.03924193
O       -1.30385621       0.04439280       2.10834656
H       -0.01904100      -1.24535758      -0.87264341
H        0.81658017      -0.36112363      -2.15432926
H       -0.45027265       0.78628895       0.08842853
H        1.53401868      -0.43849460      -0.53983315
8
Properties=species:S:1:pos:R:3 relative_energy_eV=0.016250416779257648 branch=left pbc="F F F"
C        0.57774527      -0.34693344      -1.10089982
O       -0.09845478       0.86376254      -0.78831321
C       -1.09259016       0.67140885       3.03336525
O       -1.24252191      -0.02288796       2.14971567
H       -0.03478716      -1.23270614      -0.90319047
H        0.80352577      -0.32558906      -2.16485319
H       -0.44160382       0.78021468       0.10732764
H        1.52105823      -0.43930286      -0.55481034
8
Properties=species:S:1:pos:R:3 relative_energy_eV=0.01635521307707677 branch=left pbc="F F F"
C        0.57638879      -0.34552986      -1.10205387
O       -0.09960532       0.86453344      -0.78732360
C       -1.09333387       0.67195256       3.03256604
O       -1.23607834      -0.03031274       2.15425040
H       -0.03644254      -1.23132012      -0.90616440
H        0.80219869      -0.32220933      -2.16584763
H       -0.44037870       0.78005807       0.10915316
H        1.51962276      -0.43920538      -0.55623864
8
Properties=species:S:1:pos:R:3 relative_energy_eV=0.01806741422478808 branch=left pbc="F F F"
C        0.58867290      -0.35866643      -1.08990544
O       -0.08765779       0.86103860      -0.80496165
C       -1.09238034       0.66842916       3.03543429
O       -1.29410809       0.02435146       2.11650066
H       -0.02175957      -1.24115267      -0.86694804
H        0.81110259      -0.36522935      -2.15605273
H       -0.44552479       0.79502589       0.08735726
H        1.53402651      -0.43583007      -0.54308277
8
Properties=species:S:1:pos:R:3 relative_energy_eV=0.01649417635780992 branch=left pbc="F F F"
C        0.57497236      -0.34414500      -1.10312392
O       -0.10076162       0.86548385      -0.78741179
C       -1.09475082       0.67265237       3.03148096
O       -1.22963643      -0.03884664       2.15950537
H       -0.03823816      -1.22977919      -0.90818844
H        0.80081515      -0.31980824      -2.16667191
H       -0.43815710       0.78099433       0.11025797
H        1.51812812      -0.43858481      -0.55750686
8
Properties=species:S:1:pos:R:3 relative_energy_eV=0.01660307707697939 branch=left pbc="F F F"
C        0.57338428      -0.34236543      -1.10457457
O       -0.10248529       0.86551900      -0.78472412
C       -1.09415700       0.67284688       3.03129092
O       -1.22241067      -0.04472949       2.16351847
H       -0.04009597      -1.22835503      -0.91361321
H        0.79990876      -0.31382538      -2.16758507
H       -0.43791069       0.77797013       0.11313865
H        1.51613807      -0.43909401      -0.55910968
8
Properties=species:S:1:pos:R:3 relative_energy_eV=0.01815381472624722 branch=left pbc="F F F"
C        0.58666454      -0.35821664      -1.08931907
O       -0.09205715       0.86161123      -0.81840122
C       -1.09797045       0.66988745       3.03317249
O       -1.29111944       0.00688152       2.12644360
H       -0.02364459      -1.23743469      -0.86025739
H        0.80988754      -0.37499172      -2.15423882
H       -0.43048294       0.80916083       0.08250141
H        1.53109408      -0.42893116      -0.54155979
8
Properties=species:S:1:pos:R:3 relative_energy_eV=0.0167574483775752 branch=left pbc="F F F"
C        0.57284815      -0.34238229      -1.10483874
O       -0.10322615       0.86646347      -0.78808696
C       -1.09697183       0.67359828       3.03040451
O       -1.22055937      -0.05043015       2.16811673
H       -0.04065176      -1.22847181      -0.91250167
H        0.79955610      -0.31564869      -2.16815846
H       -0.43410170       0.78261880       0.11222165
H        1.51547810      -0.43778087      -0.55881578
8
Properties=species:S:1:pos:R:3 relative_energy_eV=0.016979347122287436 branch=left pbc="F F F"
C        0.56653961      -0.33554310      -1.11160172
O       -0.10943792       0.86777279      -0.77388270
C       -1.09355959       0.67491342       3.03043976
O       -1.19145256      -0.07353248       2.18365296
H       -0.04782265      -1.22557234      -0.93699522
H        0.79558888      -0.28810368      -2.17423868
H       -0.43565710       0.76979453       0.12681355
H        1.50817284      -0.44176248      -0.56584661
8
Properties=species:S:1:pos:R:3 relative_energy_eV=0.017241628409465193 branch=left pbc="F F F"
C        0.56234370      -0.33046127      -1.11657963
O       -0.11244051       0.86948363      -0.76299597
C       -1.09341398       0.67601744       3.02870199
O       -1.16773975      -0.09163049       2.19693083
H       -0.05325578      -1.22233410      -0.95412396
H        0.79212389      -0.26864867      -2.17880973
H       -0.43880206       0.76075785       0.13674470
H        1.50355597      -0.44521777      -0.57152685
8
Properties=species:S:1:pos:R:3 relative_energy_eV=0.017521649892842106 branch=left pbc="F F F"
C        0.55984103      -0.32631190      -1.12050160
O       -0.11194733       0.87224368      -0.75299062
C       -1.09535944       0.67728720       3.02610520
O       -1.14823452      -0.10629895       2.20742269
H       -0.05756660      -1.21858784      -0.96512782
H        0.78807961      -0.25467160      -2.18278687
H       -0.44382994       0.75295841       0.14332250
H        1.50138866      -0.44865240      -0.57710210
8
Properties=species:S:1:pos:R:3 relative_energy_eV=0.017814148030083743 branch=left pbc="F F F"
C        0.55743345      -0.32168793      -1.12577264
O       -0.11057585       0.87404347      -0.74103992
C       -1.09836056       0.67813846       3.02703543
O       -1.12752878      -0.11896988       2.22015133
H       -0.06212608      -1.21322436      -0.97956176
H        0.78333023      -0.23811424      -2.18744943
H       -0.44939205       0.74114256       0.15029892
H        1.49959107      -0.45336158      -0.58532047
8
Properties=species:S:1:pos:R:3 relative_energy_eV=0.018019570156866394 branch=left pbc="F F F"
C        0.55558187      -0.31816067      -1.13024732
O       -0.10972856       0.87447784      -0.73263260
C       -1.10103815       0.67840770       3.02983845
O       -1.11275914      -0.12663813       2.23059805
H       -0.06556825      -1.20903297      -0.99125979
H        0.78013175      -0.22510261      -2.19055176
H       -0.45228549       0.73095855       0.15491643
H        1.49803737      -0.45694327      -0.59231989
8
Properties=species:S:1:pos:R:3 relative_energy_eV=0.01860307401511818 branch=left pbc="F F F"
C        0.55242296      -0.31343417      -1.13769865
O       -0.11050538       0.87159841      -0.72196613
C       -1.10468151       0.67766650       3.04064901
O       -1.09364985      -0.13321471       2.24844056
H       -0.06991345      -1.20247893      -1.01404511
H        0.77655767      -0.20464477      -2.19545056
H       -0.45307487       0.71472639       0.16241118
H        1.49521574      -0.46225243      -0.60399851
8
Properties=species:S:1:pos:R:3 relative_energy_eV=0.018959680633088283 branch=left pbc="F F F"
C        0.55489277      -0.31632887      -1.12867082
O       -0.10877183       0.88014028      -0.73076875
C       -1.10575041       0.67955838       3.01418861
O       -1.09715572      -0.14177563       2.23605532
H       -0.06833450      -1.20657738      -0.98731694
H        0.77890209      -0.22626126      -2.19148586
H       -0.45832254       0.73519768       0.15517407
H        1.49691162      -0.45598667      -0.58883427
8
Properties=species:S:1:pos:R:3 relative_energy_eV=0.019492973392516433 branch=left pbc="F F F"
C        0.56030747      -0.31950838      -1.12667240
O       -0.09623588       0.88248858      -0.73268789
C       -1.10835955       0.68166451       3.02130848
O       -1.11854653      -0.13000225       2.22384347
H       -0.06448180      -1.20575714      -0.96945807
H        0.77445270      -0.24152230      -2.19110083
H       -0.46117236       0.73726282       0.14635009
H        1.50640746      -0.45665932      -0.59324161
8
Properties=species:S:1:pos:R:3 relative_energy_eV=0.019202341464733763 branch=left pbc="F F F"
C        0.55420915      -0.31104174      -1.13535257
O       -0.09830015       0.88393512      -0.72248750
C       -1.12156799       0.68221441       3.01987007
O       -1.07550223      -0.15838293       2.25959860
H       -0.07320908      -1.19484851      -0.99490024
H        0.76890622      -0.21566119      -2.19585275
H       -0.46149423       0.72360179       0.15310647
H        1.49932986      -0.46185045      -0.60564078
8
Properties=species:S:1:pos:R:3 relative_energy_eV=0.019724323877198913 branch=left pbc="F F F"
C        0.55311305      -0.30973306      -1.13591976
O       -0.09572467       0.88783560      -0.72587097
C       -1.13212037       0.68412852       3.01439171
O       -1.06324346      -0.17370662       2.27434140
H       -0.07561839      -1.19264434      -0.99348748
H        0.76652967      -0.21681011      -2.19784500
H       -0.45940796       0.72999513       0.15042854
H        1.49884380      -0.46109848      -0.60769737
8
Properties=species:S:1:pos:R:3 relative_energy_eV=0.02009889074088278 branch=left pbc="F F F"
C        0.54975992      -0.30682981      -1.13959475
O       -0.09955254       0.88769560      -0.72431018
C       -1.13643681       0.68409059       3.01292240
O       -1.04597741      -0.18608634       2.28975291
H       -0.07970628      -1.19146958      -1.00485132
H        0.76671172      -0.20558977      -2.19964387
H       -0.45658357       0.72777053       0.15432596
H        1.49415667      -0.46161454      -0.61026008
8
Properties=species:S:1:pos:R:3 relative_energy_eV=0.02040715628027101 branch=left pbc="F F F"
C        0.54525072      -0.30340631      -1.14328432
O       -0.10761367       0.88650616      -0.72116762
C       -1.13772943       0.68311757       3.00995454
O       -1.02531398      -0.19880260       2.30506541
H       -0.08388518      -1.19051566      -1.02158544
H        0.76840130      -0.19091232      -2.20184587
H       -0.45390645       0.72416276       0.16165698
H        1.48716839      -0.46218292      -0.61045254
8
Properties=species:S:1:pos:R:3 relative_energy_eV=0.02060076730140281 branch=left pbc="F F F"
C        0.54163304      -0.30026852      -1.14598965
O       -0.11493572       0.88456572      -0.71592417
C       -1.13423601       0.68184446       3.00708283
O       -1.00959803      -0.20613199       2.31209207
H       -0.08736647      -1.18965008      -1.03585650
H        0.77022729      -0.17656434      -2.20202081
H       -0.45442401       0.71730760       0.16901905
H        1.48107155      -0.46313621      -0.61006154
8
Properties=species:S:1:pos:R:3 relative_energy_eV=0.02076830951773445 branch=left pbc="F F F"
C        0.53817000      -0.29766336      -1.15001301
O       -0.12396395       0.88162419      -0.71117352
C       -1.13039125       0.68045202       3.00910613
O       -0.99784216      -0.21043085       2.31938335
H       -0.08993427      -1.18955834      -1.05247551
H        0.77271257      -0.16263162      -2.20390905
H       -0.45135937       0.71032431       0.17735013
H        1.47498000      -0.46414978      -0.60992706
8
Properties=species:S:1:pos:R:3 relative_energy_eV=0.02104683477227809 branch=left pbc="F F F"
C        0.53392890      -0.29390312      -1.15305264
O       -0.13461942       0.87782398      -0.70147828
C       -1.12057814       0.67830924       3.00706987
O       -0.98103465      -0.21503006       2.32196294
H       -0.09363003      -1.18766801      -1.07272965
H        0.77527807      -0.14279322      -2.20328075
H       -0.45433882       0.69732718       0.18882654
H        1.46736552      -0.46609956      -0.60897627
8
Properties=species:S:1:pos:R:3 relative_energy_eV=0.0220880602419129 branch=left pbc="F F F"
C        0.52863328      -0.28819346      -1.16106268
O       -0.14753099       0.87229192      -0.68412785
C       -1.10838122       0.67484264       3.01433330
O       -0.96031568      -0.21551606       2.32809820
H       -0.09978434      -1.18548632      -1.10555342
H        0.77903135      -0.11149953      -2.20709376
H       -0.45715106       0.67151290       0.20639421
H        1.45786983      -0.46998593      -0.61264570
8
Properties=species:S:1:pos:R:3 relative_energy_eV=0.023239199212184758 branch=left pbc="F F F"
C        0.52917537      -0.28736177      -1.16296276
O       -0.14351679       0.87353648      -0.67748021
C       -1.10809170       0.67429345       3.01852017
O       -0.95830320      -0.21193373       2.32818454
H       -0.10210656      -1.18542217      -1.10928734
H        0.77869028      -0.10611173      -2.21101814
H       -0.46295171       0.66234143       0.20918141
H        1.45947539      -0.47137590      -0.61679525
8
Properties=species:S:1:pos:R:3 relative_energy_eV=0.024506926145477337 branch=left pbc="F F F"
C        0.51869838      -0.27731031      -1.18400467
O       -0.16558286       0.85319834      -0.65097458
C       -1.09363974       0.66763385       3.05796332
O       -0.92793239      -0.20509565       2.35430555
H       -0.10887925      -1.17709804      -1.18263366
H        0.77969789      -0.04335767      -2.21643187
H       -0.45409669       0.61426128       0.23797061
H        1.44410528      -0.48426625      -0.63785119
8
Properties=species:S:1:pos:R:3 relative_energy_eV=0.025192599036927277 branch=left pbc="F F F"
C        0.51322172      -0.27364197      -1.18894628
O       -0.18065591       0.84490774      -0.64410454
C       -1.08327966       0.66531318       3.06375285
O       -0.91498360      -0.20742932       2.35962780
H       -0.11024896      -1.17395115      -1.20863936
H        0.78199741      -0.02221160      -2.21425187
H       -0.44865641       0.60197305       0.24943392
H        1.43497589      -0.48699455      -0.63852864
8
Properties=species:S:1:pos:R:3 relative_energy_eV=0.029025413177805603 branch=left pbc="F F F"
C        0.52013896      -0.28396665      -1.16035247
O       -0.17534731       0.86784197      -0.66928636
C       -1.07425878       0.67272670       2.99806120
O       -0.94470140      -0.22217938       2.30842028
H       -0.10253141      -1.19120747      -1.13199860
H        0.78904364      -0.08396132      -2.20429899
H       -0.46116490       0.65747842       0.23134825
H        1.44119214      -0.46876632      -0.59355057
8
Properties=species:S:1:pos:R:3 relative_energy_eV=0.026601685283822007 branch=left pbc="F F F"
C        0.51480145      -0.27208032      -1.20021806
O       -0.17166918       0.84175965      -0.63481964
C       -1.09315922       0.66419517       3.09588751
O       -0.91634669      -0.19406165       2.37719325
H       -0.10915606      -1.17545491      -1.22917746
H        0.77469036      -0.00286073      -2.22622242
H       -0.44606186       0.58552579       0.25414477
H        1.43927156      -0.49905779      -0.65844378
8
Properties=species:S:1:pos:R:3 relative_energy_eV=0.028182726931845536 branch=left pbc="F F F"
C        0.50534591      -0.26106425      -1.22472303
O       -0.18739990       0.81783215      -0.61028847
C       -1.09101610       0.65688203       3.14731951
O       -0.88239456      -0.18568381       2.41857999
H       -0.11531006      -1.15986612      -1.30627746
H        0.76977442       0.06199078      -2.23010396
H       -0.43379756       0.53447793       0.27627339
H        1.42716779      -0.51660404      -0.69243469
8
Properties=species:S:1:pos:R:3 relative_energy_eV=0.029302300232302514 branch=left pbc="F F F"
C        0.50815242      -0.26633983      -1.22011434
O       -0.18824881       0.82032959      -0.61956434
C       -1.08454765       0.66039521       3.14635682
O       -0.90717821      -0.18108229       2.40132824
H       -0.10917939      -1.17008918      -1.29105959
H        0.77081806       0.04690898      -2.23039657
H       -0.42803891       0.55235084       0.27482179
H        1.43059253      -0.51450851      -0.68302698
8
Properties=species:S:1:pos:R:3 relative_energy_eV=0.03017903271393152 branch=left pbc="F F F"
C        0.49333626      -0.24727005      -1.24719270
O       -0.20796454       0.79372334      -0.58377208
C       -1.08729456       0.64783052       3.18368435
O       -0.83144308      -0.18645629       2.46234100
H       -0.12455389      -1.13860065      -1.38471907
H        0.76633545       0.13077605      -2.22801228
H       -0.42636304       0.48041368       0.29838454
H        1.41031689      -0.53245252      -0.72236728
8
Properties=species:S:1:pos:R:3 relative_energy_eV=0.03108964569400996 branch=left pbc="F F F"
C        0.50353059      -0.25208259      -1.24736711
O       -0.17787539       0.80653088      -0.58858602
C       -1.11200851       0.65106409       3.19878127
O       -0.85653416      -0.17174456       2.46643127
H       -0.12066107      -1.14874292      -1.35770740
H        0.75806830       0.10974224      -2.24493572
H       -0.42887626       0.48916692       0.28387965
H        1.42672614      -0.53596980      -0.73214989
8
Properties=species:S:1:pos:R:3 relative_energy_eV=0.031513916465883085 branch=left pbc="F F F"
C        0.49673352      -0.24722762      -1.25523868
O       -0.19473609       0.79037745      -0.57615536
C       -1.09294215       0.64882313       3.21959674
O       -0.84823764      -0.16712297       2.46694706
H       -0.12286000      -1.14105102      -1.39551431
H        0.75955766       0.14063783      -2.23885220
H       -0.42272561       0.46406751       0.29911010
H        1.41757966      -0.54054038      -0.74154662
8
Properties=species:S:1:pos:R:3 relative_energy_eV=0.03165214178716269 branch=left pbc="F F F"
C        0.47905012      -0.22899086      -1.27350237
O       -0.22668925       0.76645697      -0.54759616
C       -1.08615906       0.63622769       3.22538489
O       -0.76400609      -0.18772224       2.51675386
H       -0.13856662      -1.10909871      -1.47723771
H        0.76188748       0.21303544      -2.22597533
H       -0.42434353       0.40827405       0.32254640
H        1.39119586      -0.55021900      -0.76202563
8
Properties=species:S:1:pos:R:3 relative_energy_eV=0.03185535494048963 branch=left pbc="F F F"
C        0.47395186      -0.22375405      -1.27806720
O       -0.23577691       0.76088544      -0.54009497
C       -1.08555947       0.63237863       3.22316957
O       -0.73743841      -0.19563964       2.53213263
H       -0.14337127      -1.09990173      -1.49875831
H        0.76299184       0.23218766      -2.22219440
H       -0.42577379       0.39409316       0.32856153
H        1.38334496      -0.55228626      -0.76640058
8
Properties=species:S:1:pos:R:3 relative_energy_eV=0.031928958837852406 branch=left pbc="F F F"
C        0.47199207      -0.22188512      -1.27939358
O       -0.23952919       0.75918786      -0.53752617
C       -1.08506919       0.63096768       3.22086502
O       -0.72723626      -0.19925211       2.53732564
H       -0.14523340      -1.09663102      -1.50607115
H        0.76377586       0.23860829      -2.22063671
H       -0.42655734       0.38954851       0.33084127
H        1.38022622      -0.55258093      -0.76705595
8
Properties=species:S:1:pos:R:3 relative_energy_eV=0.03195650447923981 branch=left pbc="F F F"
C        0.47110767      -0.22109702      -1.27976984
O       -0.24138251       0.75863869      -0.53647045
C       -1.08465683       0.63037354       3.21904523
O       -0.72259762      -0.20118336       2.53921940
H       -0.14613400      -1.09523581      -1.50889098
H        0.76432288       0.24106183      -2.21988082
H       -0.42704891       0.38783227       0.33187592
H        1.37875808      -0.55242698      -0.76678005
8
Properties=species:S:1:pos:R:3 relative_energy_eV=0.031967845858162036 branch=left pbc="F F F"
C        0.47068696      -0.22072280      -1.27983435
O       -0.24234831       0.75848931      -0.53596695
C       -1.08436120       0.63010387       3.21772111
O       -0.72026608      -0.20227933       2.53989060
H       -0.14665225      -1.09453630      -1.50999643
H        0.76467925       0.24204534      -2.21949181
H       -0.42739490       0.38705287       0.33236735
H        1.37802529      -0.55218981      -0.76634110
8
Properties=species:S:1:pos:R:3 relative_energy_eV=0.031969115683750715 branch=left pbc="F F F"
C        0.47047501      -0.22049364      -1.27979537
O       -0.24287278       0.75848203      -0.53564050
C       -1.08417443       0.62995637       3.21669122
O       -0.71883212      -0.20298052       2.54013489
H       -0.14705118      -1.09404663      -1.51043371
H        0.76490507       0.24250115      -2.21926667
H       -0.42771932       0.38650635       0.33260126
H        1.37763849      -0.55196196      -0.76594270
8
Properties=species:S:1:pos:R:3 relative_energy_eV=0.03198077112847386 branch=left pbc="F F F"
C        0.47038494      -0.22028695      -1.27970962
O       -0.24308396       0.75854581      -0.53531469
C       -1.08414286       0.62984142       3.21576724
O       -0.71761047      -0.20350932       2.54029961
H       -0.14750108      -1.09350298      -1.51056489
H        0.76501399       0.24279472      -2.21911818
H       -0.42817167       0.38584612       0.33265595
H        1.37747987      -0.55176568      -0.76566699
8
Properties=species:S:1:pos:R:3 relative_energy_eV=0.031982917629648 branch=left pbc="F F F"
C        0.47044881      -0.22004003      -1.27960746
O       -0.24276299       0.75869041      -0.53487535
C       -1.08451115       0.62971161       3.21496063
O       -0.71623782      -0.20389542       2.54070427
H       -0.14813264      -1.09271232      -1.51045081
H        0.76489550       0.24309409      -2.21904496
H       -0.42899844       0.38481781       0.33244044
H        1.37766747      -0.55170303      -0.76577833
8
Properties=species:S:1:pos:R:3 relative_energy_eV=0.03199124956245214 branch=left pbc="F F F"
C        0.47062909      -0.21987085      -1.27961961
O       -0.24200875       0.75881405      -0.53455126
C       -1.08529340       0.62959851       3.21480808
O       -0.71522237      -0.20397988       2.54148951
H       -0.14865201      -1.09203059      -1.51031149
H        0.76457665       0.24334457      -2.21912101
H       -0.42979060       0.38395230       0.33205552
H        1.37813013      -0.55186497      -0.76640129
8
Properties=species:S:1:pos:R:3 relative_energy_eV=0.03199652217426774 branch=left pbc="F F F"
C        0.47084579      -0.21974701      -1.27966308
O       -0.24095267       0.75899989      -0.53424949
C       -1.08627888       0.62949133       3.21488218
O       -0.71436316      -0.20393019       2.54242956
H       -0.14900784      -1.09154509      -1.51012083
H        0.76411147       0.24361217      -2.21921857
H       -0.43071428       0.38332468       0.33160293
H        1.37872831      -0.55224265      -0.76731426
8
Properties=species:S:1:pos:R:3 relative_energy_eV=0.03201552474547498 branch=left pbc="F F F"
C        0.47091493      -0.21950451      -1.28015098
O       -0.24005294       0.75919657      -0.53427227
C       -1.08858211       0.62910221       3.21484844
O       -0.71196390      -0.20457430       2.54567938
H       -0.14946396      -1.09090422      -1.51066789
H        0.76371013       0.24413740      -2.21956835
H       -0.43120673       0.38320844       0.33104301
H        1.37901331      -0.55269846      -0.76856290
8
Properties=species:S:1:pos:R:3 relative_energy_eV=0.032039873182839074 branch=left pbc="F F F"
C        0.47148405      -0.21911365      -1.28179036
O       -0.23692015       0.75983796      -0.53347730
C       -1.09306851       0.62895611       3.21799204
O       -0.71038569      -0.20392945       2.55028061
H       -0.14979066      -1.09011945      -1.51108551
H        0.76257518       0.24463728      -2.22161943
H       -0.43141646       0.38136383       0.32986078
H        1.37989099      -0.55366950      -0.77181241
8
Properties=species:S:1:pos:R:3 relative_energy_eV=0.032083791958029906 branch=left pbc="F F F"
C        0.47055115      -0.21793443      -1.28092224
O       -0.23799819       0.76137915      -0.53249904
C       -1.09404176       0.62811930       3.21029573
O       -0.70240477      -0.20820587       2.55243731
H       -0.15025674      -1.08909191      -1.51066761
H        0.76282920       0.24604315      -2.22044274
H       -0.43393261       0.38131482       0.32963975
H        1.37762248      -0.55366107      -0.76949274
8
Properties=species:S:1:pos:R:3 relative_energy_eV=0.03212589402755839 branch=left pbc="F F F"
C        0.46969709      -0.21746129      -1.28008106
O       -0.24086231       0.76150806      -0.53258233
C       -1.09241832       0.62801853       3.20579695
O       -0.69947633      -0.21088653       2.55141348
H       -0.15017941      -1.08887337      -1.51076463
H        0.76366134       0.24653187      -2.21921290
H       -0.43366236       0.38219449       0.33029130
H        1.37560907      -0.55306861      -0.76651241
8
Properties=species:S:1:pos:R:3 relative_energy_eV=0.03254961862330674 branch=left pbc="F F F"
C        0.46427842      -0.21651601      -1.27897887
O       -0.26202300       0.75766385      -0.54017571
C       -1.08802441       0.62604157       3.18893863
O       -0.68372337      -0.22650562       2.55943693
H       -0.15095680      -1.08803327      -1.51989616
H        0.77093967       0.24826141      -2.21337894
H       -0.42255860       0.39492710       0.33509515
H        1.36443694      -0.54787575      -0.75269273
8
Properties=species:S:1:pos:R:3 relative_energy_eV=0.0328947707757834 branch=left pbc="F F F"
C        0.46172954      -0.21606976      -1.27873211
O       -0.27028726       0.75665103      -0.54394735
C       -1.08784908       0.62468311       3.18122440
O       -0.67475166      -0.23394206       2.56594939
H       -0.15157372      -1.08789910      -1.52451616
H        0.77387462       0.24962032      -2.21081640
H       -0.41859690       0.40091101       0.33691500
H        1.35982335      -0.54599119      -0.74772852
8
Properties=species:S:1:pos:R:3 relative_energy_eV=0.033068182923670975 branch=left pbc="F F F"
C        0.46083178      -0.21626091      -1.28002613
O       -0.27322518       0.75596627      -0.54700940
C       -1.08936460       0.62423244       3.18271979
O       -0.67317611      -0.23574369       2.57132957
H       -0.15142242      -1.08866892      -1.52787698
H        0.77483413       0.25034460      -2.21100831
H       -0.41447658       0.40375891       0.33770830
H        1.35836788      -0.54566529      -0.74748862
8
Properties=species:S:1:pos:R:3 relative_energy_eV=0.03409170812483353 branch=left pbc="F F F"
C        0.46132703      -0.21477549      -1.28329707
O       -0.27459823       0.75624700      -0.54822876
C       -1.09469673       0.62182871       3.18373995
O       -0.66974052      -0.23505495       2.58131239
H       -0.15120810      -1.08551863      -1.52941406
H        0.77617954       0.24792483      -2.21524401
H       -0.41077471       0.40205354       0.33687830
H        1.35588064      -0.54474158      -0.74739854
8
Properties=species:S:1:pos:R:3 relative_energy_eV=0.03361616837082693 branch=left pbc="F F F"
C        0.46049128      -0.21506838      -1.27459688
O       -0.27589735       0.75566542      -0.54100225
C       -1.08084889       0.62455877       3.16679168
O       -0.66870030      -0.23953005       2.55719735
H       -0.15264398      -1.08523837      -1.52208006
H        0.77656504       0.24805217      -2.20635596
H       -0.42300092       0.40226913       0.33834390
H        1.35640401      -0.54274535      -0.73994953
8
Properties=species:S:1:pos:R:3 relative_energy_eV=0.03379214860069624 branch=left pbc="F F F"
C        0.45736828      -0.21531549      -1.27417449
O       -0.27920533       0.75792167      -0.54756480
C       -1.08389504       0.62256278       3.15947336
O       -0.65632546      -0.24793218       2.56966392
H       -0.15230026      -1.08887005      -1.52726402
H        0.77678295       0.25413039      -2.20274026
H       -0.42272656       0.40981276       0.33941295
H        1.35267036      -0.54434643      -0.73845843
8
Properties=species:S:1:pos:R:3 relative_energy_eV=0.03428000291114586 branch=left pbc="F F F"
C        0.45760909      -0.21429512      -1.27194472
O       -0.26992848       0.76234581      -0.54261164
C       -1.09146500       0.61995985       3.14750823
O       -0.64133517      -0.25120805       2.57727437
H       -0.15546468      -1.08694918      -1.52408618
H        0.77396362       0.25715838      -2.20094338
H       -0.43661930       0.40740998       0.33561724
H        1.35560888      -0.54645824      -0.74246571
8
Properties=species:S:1:pos:R:3 relative_energy_eV=0.0359050433999073 branch=left pbc="F F F"
C        0.45965664      -0.21268273      -1.27992310
O       -0.24814729       0.77016565      -0.53786166
C       -1.11929778       0.61594915       3.15936228
O       -0.62636831      -0.24798238       2.60960265
H       -0.15816680      -1.08370086      -1.52712036
H        0.76957150       0.25695570      -2.21162790
H       -0.44712945       0.39950894       0.32915641
H        1.36225045      -0.55025001      -0.76324015
8
Properties=species:S:1:pos:R:3 relative_energy_eV=0.03672039471712196 branch=left pbc="F F F"
C        0.46046911      -0.20958257      -1.27738544
O       -0.23840319       0.77653868      -0.53000537
C       -1.12810714       0.61112444       3.13891834
O       -0.60543451      -0.25158061       2.61867790
H       -0.16190754      -1.07800924      -1.52044749
H        0.76723569       0.25805034      -2.21078721
H       -0.46487538       0.39299790       0.32379975
H        1.36339192      -0.55157554      -0.76442228
8
Properties=species:S:1:pos:R:3 relative_energy_eV=0.03836980363212206 branch=left pbc="F F F"
C        0.45988318      -0.20378327      -1.27051005
O       -0.23847812       0.78494220      -0.52147456
C       -1.12418049       0.60771860       3.10549610
O       -0.58309146      -0.26093619       2.61192557
H       -0.16326664      -1.07193596      -1.50850975
H        0.76832723       0.25788323      -2.20571333
H       -0.48486357       0.38588149       0.32181791
H        1.35803880      -0.55180677      -0.75468369
8
Properties=species:S:1:pos:R:3 relative_energy_eV=0.03942580209695734 branch=left pbc="F F F"
C        0.45921773      -0.20017451      -1.26386958
O       -0.24190145       0.78919081      -0.51621741
C       -1.11705491       0.60596717       3.07968614
O       -0.56976720      -0.26793601       2.60201211
H       -0.16411414      -1.06839769      -1.49970769
H        0.76932918       0.25848474      -2.19998714
H       -0.49743867       0.38275267       0.32117312
H        1.35409839      -0.55192390      -0.74474133
8
Properties=species:S:1:pos:R:3 relative_energy_eV=0.04089479159574694 branch=left pbc="F F F"
C        0.46070919      -0.19637503      -1.24982406
O       -0.23355261       0.79435119      -0.49978480
C       -1.11373320       0.59999436       3.02752068
O       -0.54024375      -0.27531898       2.59067316
H       -0.17214768      -1.05864725      -1.48119097
H        0.76505799       0.26218401      -2.18819368
H       -0.53065486       0.37465155       0.31299990
H        1.35693385      -0.55287675      -0.73385192
8
Properties=species:S:1:pos:R:3 relative_energy_eV=0.04125860118983837 branch=left pbc="F F F"
C        0.46057218      -0.19594041      -1.24605262
O       -0.23304986       0.79485742      -0.49656224
C       -1.11063629       0.59926922       3.01530341
O       -0.53498539      -0.27748570       2.58516441
H       -0.17358310      -1.05738298      -1.47735579
H        0.76421533       0.26333833      -2.18437926
H       -0.53717435       0.37394384       0.31200265
H        1.35701043      -0.55263664      -0.72977222
8
Properties=species:S:1:pos:R:3 relative_energy_eV=0.041924874671167345 branch=left pbc="F F F"
C        0.46453888      -0.19931326      -1.25224168
O       -0.21497971       0.79267633      -0.49382727
C       -1.12960372       0.59811632       3.03564975
O       -0.53849936      -0.26716202       2.60404953
H       -0.17783249      -1.05542484      -1.48190976
H        0.75819449       0.26301838      -2.19186356
H       -0.53818825       0.37042323       0.30628843
H        1.36873913      -0.55437107      -0.74779707
8
Properties=species:S:1:pos:R:3 relative_energy_eV=0.04228752132985392 branch=left pbc="F F F"
C        0.46525767      -0.20059527      -1.25314595
O       -0.21101260       0.79165441      -0.49307565
C       -1.13299864       0.59804938       3.03891360
O       -0.53927112      -0.26515881       2.60687423
H       -0.17895208      -1.05540744      -1.48313833
H        0.75637608       0.26352780      -2.19254516
H       -0.53838507       0.37030509       0.30519160
H        1.37135473      -0.55441209      -0.75072596
8
Properties=species:S:1:pos:R:3 relative_energy_eV=0.042646744880585175 branch=left pbc="F F F"
C        0.46489715      -0.20045811      -1.24172076
O       -0.21011462       0.79273080      -0.48236847
C       -1.11577922       0.60062090       3.01264348
O       -0.53551157      -0.27018845       2.57537613
H       -0.18071888      -1.05415342      -1.47196011
H        0.75504288       0.26365502      -2.18145228
H       -0.55700626       0.36764341       0.30651004
H        1.37155945      -0.55188720      -0.73867956
8
Properties=species:S:1:pos:R:3 relative_energy_eV=0.04292596976210916 branch=left pbc="F F F"
C        0.46871147      -0.20245054      -1.26614940
O       -0.19949623       0.79047907      -0.49801198
C       -1.15725962       0.59640565       3.07537082
O       -0.54675496      -0.25405350       2.63979771
H       -0.17974882      -1.05441685      -1.49393792
H        0.75463737       0.26071143      -2.20762159
H       -0.52653386       0.36817193       0.30163552
H        1.37881366      -0.55688407      -0.77273483
8
Properties=species:S:1:pos:R:3 relative_energy_eV=0.043195426739657705 branch=left pbc="F F F"
C        0.46957651      -0.20259741      -1.27568144
O       -0.19824266       0.78978259      -0.50546019
C       -1.17267629       0.59426797       3.09800402
O       -0.54977249      -0.24909294       2.66606632
H       -0.17882897      -1.05455643      -1.50283148
H        0.75562359       0.25963358      -2.21769108
H       -0.51309413       0.36927241       0.30019436
H        1.37978347      -0.55874654      -0.78425225
8
Properties=species:S:1:pos:R:3 relative_energy_eV=0.044021712157700676 branch=left pbc="F F F"
C        0.46974828      -0.20091301      -1.29074306
O       -0.20037824       0.79001590      -0.51975296
C       -1.19546274       0.58991772       3.13057542
O       -0.55212070      -0.24347617       2.70924694
H       -0.17623414      -1.05451053      -1.51599127
H        0.75948446       0.25755854      -2.23360159
H       -0.49006042       0.37073192       0.29823557
H        1.37739259      -0.56136097      -0.79962092
8
Properties=species:S:1:pos:R:3 relative_energy_eV=0.04422687268197478 branch=left pbc="F F F"
C        0.46991989      -0.20059626      -1.29219908
O       -0.19983173       0.79042660      -0.52075745
C       -1.19778127       0.58961625       3.13423634
O       -0.55263416      -0.24262699       2.71299497
H       -0.17599485      -1.05431460      -1.51687439
H        0.75974113       0.25700839      -2.23542497
H       -0.48845206       0.37005269       0.29790581
H        1.37740215      -0.56160268      -0.80153310
8
Properties=species:S:1:pos:R:3 relative_energy_eV=0.044655782016889134 branch=left pbc="F F F"
C        0.46825119      -0.20136144      -1.30076284
O       -0.20970110       0.78665801      -0.53468043
C       -1.20897951       0.58614233       3.14684047
O       -0.55073366      -0.24343000       2.74185200
H       -0.17380675      -1.05702502      -1.52844600
H        0.76205878       0.26134000      -2.24097097
H       -0.46723626       0.37964530       0.29837877
H        1.37251645      -0.56400561      -0.80386296
8
Properties=species:S:1:pos:R:3 relative_energy_eV=0.04497150368479197 branch=left pbc="F F F"
C        0.46768025      -0.20190639      -1.30344704
O       -0.21309470       0.78527126      -0.53961462
C       -1.21238556       0.58503693       3.15034158
O       -0.54994795      -0.24392741       2.75116220
H       -0.17309153      -1.05822080      -1.53232440
H        0.76240841       0.26351943      -2.24229361
H       -0.46025350       0.38334315       0.29868195
H        1.37105375      -0.56515253      -0.80415806
8
Properties=species:S:1:pos:R:3 relative_energy_eV=0.050725422901450656 branch=left pbc="F F F"
C        0.47231424      -0.19586182      -1.28300988
O       -0.18297099       0.79860577      -0.50548137
C       -1.18780788       0.59319483       3.12306025
O       -0.55390397      -0.23998689       2.68207745
H       -0.18057408      -1.04882748      -1.49006259
H        0.76107437       0.25508141      -2.23343667
H       -0.52072218       0.34934054       0.29243291
H        1.38495946      -0.56358325      -0.80723184
8
Properties=species:S:1:pos:R:3 relative_energy_eV=0.04667258094923454 branch=left pbc="F F F"
C        0.46648871      -0.20072915      -1.29948185
O       -0.22069705       0.78179486      -0.53929724
C       -1.20628691       0.58415689       3.13779138
O       -0.54495154      -0.24841611       2.74625466
H       -0.17443482      -1.05684933      -1.52563543
H        0.76824901       0.26597264      -2.23830691
H       -0.46464404       0.38806951       0.29885708
H        1.36864578      -0.56603566      -0.80183371
8
Properties=species:S:1:pos:R:3 relative_energy_eV=0.04728924430855841 branch=left pbc="F F F"
C        0.46848771      -0.20455985      -1.30793829
O       -0.22039380       0.78058297      -0.55288688
C       -1.21767952       0.58321476       3.15476113
O       -0.54695893      -0.24682754       2.76936431
H       -0.17153369      -1.06109513      -1.53881374
H        0.76081361       0.27316498      -2.24330848
H       -0.44917067       0.39497525       0.30074332
H        1.36880450      -0.57149167      -0.80357343
8
Properties=species:S:1:pos:R:3 relative_energy_eV=0.04912390800745925 branch=left pbc="F F F"
C        0.46614131      -0.20782685      -1.31918276
O       -0.23439925       0.77437257      -0.56931056
C       -1.23196531       0.57911574       3.17099004
O       -0.54599285      -0.24752708       2.80570931
H       -0.16741316      -1.06605396      -1.56221243
H        0.76068857       0.27615447      -2.24888008
H       -0.41639845       0.41100723       0.30373609
H        1.36170844      -0.57127808      -0.80250180
8
Properties=species:S:1:pos:R:3 relative_energy_eV=0.0505173882620511 branch=left pbc="F F F"
C        0.46332630      -0.20986569      -1.32890752
O       -0.24581316       0.76970825      -0.58099259
C       -1.24475248       0.57559155       3.18626026
O       -0.54617996      -0.24697578       2.83604166
H       -0.16419707      -1.06976870      -1.58224855
H        0.76215123       0.27573713      -2.25457732
H       -0.38766192       0.42237955       0.30557138
H        1.35549646      -0.56884205      -0.80279962
8
Properties=species:S:1:pos:R:3 relative_energy_eV=0.051477869597874815 branch=left pbc="F F F"
C        0.45995205      -0.21083260      -1.33689129
O       -0.25720813       0.76513256      -0.58978432
C       -1.25526309       0.57226257       3.19859011
O       -0.54617670      -0.24658040       2.86164624
H       -0.16189910      -1.07241751      -1.59861663
H        0.76597842       0.27375324      -2.25944757
H       -0.36265779       0.43205893       0.30673001
H        1.34964379      -0.56541235      -0.80387897
8
Properties=species:S:1:pos:R:3 relative_energy_eV=0.052275770566666324 branch=left pbc="F F F"
C        0.45609992      -0.21104531      -1.34307059
O       -0.27040411       0.75965433      -0.59702309
C       -1.26307307       0.56884628       3.20650900
O       -0.54498580      -0.24735121       2.88365407
H       -0.16030026      -1.07425938      -1.61189859
H        0.77220946       0.27149108      -2.26288728
H       -0.34070108       0.44238625       0.30777789
H        1.34352446      -0.56175743      -0.80471391
8
Properties=species:S:1:pos:R:3 relative_energy_eV=0.05287092772505275 branch=left pbc="F F F"
C        0.45316141      -0.21085626      -1.34672954
O       -0.28112914       0.75488343      -0.60197821
C       -1.26745949       0.56629367       3.21044383
O       -0.54354244      -0.24859330       2.89835318
H       -0.15958364      -1.07520176      -1.61986869
H        0.77818199       0.27006856      -2.26479839
H       -0.32638486       0.45075447       0.30856571
H        1.33912574      -0.55938408      -0.80564045
8
Properties=species:S:1:pos:R:3 relative_energy_eV=0.05328476586691977 branch=left pbc="F F F"
C        0.45137054      -0.21059586      -1.34851133
O       -0.28847467       0.75133063      -0.60527717
C       -1.26941070       0.56469080       3.21211206
O       -0.54233376      -0.24984710       2.90693080
H       -0.15946987      -1.07555488      -1.62366090
H        0.78276264       0.26963367      -2.26567986
H       -0.31869226       0.45672123       0.30911181
H        1.33661766      -0.55841368      -0.80667800
8
Properties=species:S:1:pos:R:3 relative_energy_eV=0.053465164704903145 branch=left pbc="F F F"
C        0.45072787      -0.21045677      -1.34890434
O       -0.29172763       0.74964380      -0.60681474
C       -1.26968429       0.56406468       3.21227817
O       -0.54164831      -0.25066758       2.90995777
H       -0.15958245      -1.07557364      -1.62451487
H        0.78492159       0.26980566      -2.26576525
H       -0.31641126       0.45954740       0.30937913
H        1.33577406      -0.55839872      -0.80726851
8
Properties=species:S:1:pos:R:3 relative_energy_eV=0.05360188800295873 branch=left pbc="F F F"
C        0.45042850      -0.21036309      -1.34863037
O       -0.29437591       0.74824708      -0.60809470
C       -1.26903836       0.56367349       3.21137724
O       -0.54080844      -0.25173646       2.91122043
H       -0.15975827      -1.07537716      -1.62426664
H        0.78660719       0.27036013      -2.26525014
H       -0.31604852       0.46207681       0.30965224
H        1.33536340      -0.55891595      -0.80766069
8
Properties=species:S:1:pos:R:3 relative_energy_eV=0.0536656063677583 branch=left pbc="F F F"
C        0.45036532      -0.21031760      -1.34810593
O       -0.29574833       0.74770425      -0.60858403
C       -1.26808103       0.56353804       3.20993040
O       -0.54011770      -0.25256047       2.91090333
H       -0.15978149      -1.07514742      -1.62373604
H        0.78725909       0.27070870      -2.26447130
H       -0.31667282       0.46335712       0.30985428
H        1.33514654      -0.55931776      -0.80744334
8
Properties=species:S:1:pos:R:3 relative_energy_eV=0.05395161110936897 branch=left pbc="F F F"
C        0.44995100      -0.21002500      -1.34389743
O       -0.30267586       0.74696264      -0.60887377
C       -1.26035517       0.56309592       3.19658620
O       -0.53507459      -0.25786254       2.90387074
H       -0.15901623      -1.07347446      -1.62047039
H        0.78890381       0.27139688      -2.25806401
H       -0.32203049       0.46809428       0.31128046
H        1.33266712      -0.56022285      -0.80208444
8
Properties=species:S:1:pos:R:3 relative_energy_eV=0.05445865164074348 branch=left pbc="F F F"
C        0.44983528      -0.20966479      -1.34071964
O       -0.30843495       0.74695135      -0.60866240
C       -1.25423670       0.56286251       3.18557306
O       -0.53068577      -0.26226000       2.89766486
H       -0.15822247      -1.07187780      -1.61818209
H        0.78987689       0.27130489      -2.25289593
H       -0.32577082       0.47099720       0.31243912
H        1.33000813      -0.56034849      -0.79686962
8
Properties=species:S:1:pos:R:3 relative_energy_eV=0.05586905184281932 branch=left pbc="F F F"
C        0.45399053      -0.21093228      -1.34886502
O       -0.29977580       0.74792580      -0.61078323
C       -1.27036398       0.56448844       3.21596747
O       -0.53933456      -0.25367452       2.91327775
H       -0.15744244      -1.07016909      -1.62441262
H        0.78559076       0.26870302      -2.26376979
H       -0.31738397       0.46575229       0.30959902
H        1.33708905      -0.56412880      -0.81266625
8
Properties=species:S:1:pos:R:3 relative_energy_eV=0.05645142098546785 branch=left pbc="F F F"
C        0.44549638      -0.20610158      -1.32564567
O       -0.33089430       0.74891392      -0.60516466
C       -1.22704048       0.56142365       3.13357065
O       -0.51173848      -0.28043977       2.86841966
H       -0.15649289      -1.06878986      -1.61078747
H        0.79519077       0.27025738      -2.23631979
H       -0.33702838       0.47674525       0.31852307
H        1.31487696      -0.55404413      -0.76424844
8
Properties=species:S:1:pos:R:3 relative_energy_eV=0.057904081718334055 branch=left pbc="F F F"
C        0.43801407      -0.20200721      -1.30733126
O       -0.35479649       0.74875881      -0.60061615
C       -1.19232487       0.55852948       3.06728106
O       -0.49055811      -0.30101466       2.83340968
H       -0.15670212      -1.06884587      -1.59889515
H        0.80372291       0.27276566      -2.21463756
H       -0.35271791       0.48575000       0.32537567
H        1.29773208      -0.54597135      -0.72623889
8
Properties=species:S:1:pos:R:3 relative_energy_eV=0.05971517201032839 branch=left pbc="F F F"
C        0.43159231      -0.19824644      -1.29445425
O       -0.37169257       0.74744145      -0.59716952
C       -1.16791647       0.55637045       3.01962966
O       -0.47569010      -0.31523060       2.80873445
H       -0.15831189      -1.06992355      -1.58918191
H        0.81124097       0.27615417      -2.20049481
H       -0.36344709       0.49190690       0.33030640
H        1.28659437      -0.54050751      -0.69902262
8
Properties=species:S:1:pos:R:3 relative_energy_eV=0.061999948096854496 branch=left pbc="F F F"
C        0.42750218      -0.19586148      -1.28961429
O       -0.37874012       0.74568601      -0.59553572
C       -1.15863464       0.55585779       2.99991583
O       -0.46907174      -0.32115897       2.79819259
H       -0.16060003      -1.07131947      -1.58386650
H        0.81597916       0.27928465      -2.19603068
H       -0.36711464       0.49381433       0.33252195
H        1.28304938      -0.53833801      -0.68723577
8
Properties=species:S:1:pos:R:3 relative_energy_eV=0.0671583014072894 branch=left pbc="F F F"
C        0.42647131      -0.19560308      -1.29656190
O       -0.37481779       0.74355614      -0.59509779
C       -1.16919661       0.55802905       3.01391384
O       -0.47039698      -0.31805177       2.80383979
H       -0.16513678      -1.07325162      -1.58333925
H        0.81867844       0.28231130      -2.20380615
H       -0.35862565       0.48770520       0.33091197
H        1.28539360      -0.53673037      -0.69151311
8
Properties=species:S:1:pos:R:3 relative_energy_eV=0.06899317206261912 branch=left pbc="F F F"
C        0.41756745      -0.19488112      -1.27557920
O       -0.39935639       0.74029778      -0.59146874
C       -1.12112849       0.55157922       2.92646182
O       -0.44596396      -0.34290931       2.76173266
H       -0.16479145      -1.07504095      -1.56422744
H        0.83020297       0.28752661      -2.16723628
H       -0.38222932       0.50442849       0.33724066
H        1.25806872      -0.52303588      -0.64857603
8
Properties=species:S:1:pos:R:3 relative_energy_eV=0.07538231409398577 branch=left pbc="F F F"
C        0.41421853      -0.19720432      -1.26994714
O       -0.40983723       0.74226903      -0.58984996
C       -1.10347638       0.55026913       2.89122398
O       -0.43247305      -0.35539126       2.74281043
H       -0.16676859      -1.07756089      -1.55708706
H        0.83587955       0.28956028      -2.14964518
H       -0.38548468       0.50572825       0.33798610
H        1.24031137      -0.50970540      -0.62714371
8
Properties=species:S:1:pos:R:3 relative_energy_eV=0.08236862553258106 branch=left pbc="F F F"
C        0.41078806      -0.19829062      -1.25598986
O       -0.42504432       0.74687433      -0.58807547
C       -1.07692586       0.54768531       2.84358761
O       -0.41746199      -0.37077846       2.71771457
H       -0.16516302      -1.07874726      -1.55137033
H        0.83892407       0.28918559      -2.12703308
H       -0.39655581       0.51190510       0.34067257
H        1.22380838      -0.49986917      -0.60115853
8
Properties=species:S:1:pos:R:3 relative_energy_eV=0.09133412752908043 branch=left pbc="F F F"
C        0.40444200      -0.19743054      -1.23083447
O       -0.44816437       0.75612717      -0.58578571
C       -1.03869003       0.54500583       2.77768171
O       -0.39766329      -0.39221805       2.68074838
H       -0.16077486      -1.08014556      -1.54705002
H        0.84011392       0.28747738      -2.09718208
H       -0.41710713       0.52279043       0.34669313
H        1.21021328      -0.49364185      -0.56592343
8
Properties=species:S:1:pos:R:3 relative_energy_eV=0.10237162896737573 branch=left pbc="F F F"
C        0.39545899      -0.19384762      -1.19741881
O       -0.47701507       0.76270222      -0.58124645
C       -0.98793488       0.54040019       2.69164276
O       -0.37543611      -0.41712248       2.63393668
H       -0.15374401      -1.08051856      -1.53949150
H        0.84216400       0.28647907      -2.06210759
H       -0.45005712       0.54271998       0.35704482
H        1.19893369      -0.49284800      -0.52401234
8
Properties=species:S:1:pos:R:3 relative_energy_eV=0.11118819755392906 branch=left pbc="F F F"
C        0.38819123      -0.18977759      -1.17416419
O       -0.49701907       0.76467086      -0.57761992
C       -0.95064606       0.53610714       2.62916595
O       -0.36111661      -0.43349769       2.60120389
H       -0.14816503      -1.08036715      -1.53272211
H        0.84442700       0.28607884      -2.03819292
H       -0.47563822       0.55913403       0.36566775
H        1.19233624      -0.49438367      -0.49499085
8
Properties=species:S:1:pos:R:3 relative_energy_eV=0.12258645241672639 branch=left pbc="F F F"
C        0.38166291      -0.18457584      -1.15202082
O       -0.51345750       0.75988715      -0.56807418
C       -0.91710819       0.53488873       2.56929617
O       -0.34563965      -0.44983385       2.56403341
H       -0.14019760      -1.07672753      -1.52679779
H        0.84502180       0.28450624      -2.01974243
H       -0.50691974       0.58001545       0.37789362
H        1.18900742      -0.50019558      -0.46624035
8
Properties=species:S:1:pos:R:3 relative_energy_eV=0.13614491394946526 branch=left pbc="F F F"
C        0.37512536      -0.17832388      -1.12994926
O       -0.52967267       0.75022987      -0.56222684
C       -0.87453970       0.52769315       2.49730802
O       -0.33097302      -0.46603425       2.52915153
H       -0.13038434      -1.07084208      -1.51526652
H        0.84831667       0.28141783      -1.99653558
H       -0.53821518       0.60350452       0.38874817
H        1.17271232      -0.49968041      -0.43288185
8
Properties=species:S:1:pos:R:3 relative_energy_eV=0.15304638426732708 branch=left pbc="F F F"
C        0.37579752      -0.17690927      -1.11734496
O       -0.53744425       0.73873484      -0.55538516
C       -0.84825343       0.52602040       2.45189552
O       -0.31879242      -0.47931434       2.50256566
H       -0.12351320      -1.06421672      -1.50668269
H        0.84952031       0.28013642      -1.98338767
H       -0.56473646       0.62370040       0.39811548
H        1.15979137      -0.50018699      -0.41142848
8
Properties=species:S:1:pos:R:3 relative_energy_eV=0.17000493651903525 branch=left pbc="F F F"
C        0.37859628      -0.17915390      -1.10630815
O       -0.54752602       0.73033786      -0.55298379
C       -0.81855843       0.52090740       2.40482323
O       -0.30857752      -0.49165622       2.48126624
H       -0.12012920      -1.06056240      -1.49402377
H        0.85413601       0.28302954      -1.96614256
H       -0.58940328       0.64328623       0.40493468
H        1.14383159      -0.49822378      -0.39321816
8
Properties=species:S:1:pos:R:3 relative_energy_eV=0.19478296174293064 branch=left pbc="F F F"
C        0.38430688      -0.18645478      -1.09462338
O       -0.56354075       0.72586442      -0.55653114
C       -0.78162219       0.51545965       2.35338337
O       -0.29750467      -0.50794135       2.45891288
H       -0.12344673      -1.06361683      -1.47462218
H        0.86389700       0.29639448      -1.94131291
H       -0.62271629       0.66895028       0.41308182
H        1.13299615      -0.50069118      -0.37994071
8
Properties=species:S:1:pos:R:3 relative_energy_eV=0.2218632713193074 branch=left pbc="F F F"
C        0.38694879      -0.19179305      -1.08056537
O       -0.58110091       0.72691578      -0.56168654
C       -0.74891487       0.50770983       2.30769028
O       -0.29056031      -0.51882324       2.44373234
H       -0.12962596      -1.07086174      -1.45751954
H        0.87463021       0.31109085      -1.91797583
H       -0.64732730       0.68790711       0.41626394
H        1.12831975      -0.50418085      -0.37159152
8
Properties=species:S:1:pos:R:3 relative_energy_eV=0.29878799486959906 branch=left pbc="F F F"
C        0.38332868      -0.19382139      -1.05241062
O       -0.61367650       0.73559427      -0.57048074
C       -0.70829256       0.50126261       2.24390741
O       -0.27913167      -0.53538698       2.42127469
H       -0.14927014      -1.09247078      -1.42776669
H        0.89222818       0.34495859      -1.87204662
H       -0.68363434       0.71425442       0.41253978
H        1.15081774      -0.52642608      -0.37666938
8
Properties=species:S:1:pos:R:3 relative_energy_eV=0.34862414996950974 branch=left pbc="F F F"
C        0.37410924      -0.19121595      -1.03782688
O       -0.63051971       0.74009498      -0.57179424
C       -0.68805368       0.49536663       2.20386265
O       -0.27304977      -0.54131424       2.41009055
H       -0.15518162      -1.09977663      -1.41162166
H        0.89988257       0.35716291      -1.84395368
H       -0.69530237       0.72306948       0.40669401
H        1.16048472      -0.53542253      -0.37710291
8
Properties=species:S:1:pos:R:3 relative_energy_eV=0.44089012277800066 branch=left pbc="F F F"
C        0.34642051      -0.18342847      -1.03380006
O       -0.64527977       0.74317123      -0.57424271
C       -0.67290972       0.49514094       2.16078342
O       -0.26175262      -0.55182084       2.39518003
H       -0.15623238      -1.10122167      -1.38492033
H        0.90398218       0.36758320      -1.79520830
H       -0.70545030       0.73088585       0.39751255
H        1.18359149      -0.55234560      -0.38695673
8
Properties=species:S:1:pos:R:3 relative_energy_eV=0.5322527065118265 branch=left pbc="F F F"
C        0.32204645      -0.17386340      -1.02410369
O       -0.66033960       0.74256270      -0.58319564
C       -0.63598879       0.47906409       2.09205929
O       -0.25255816      -0.56048162       2.38352126
H       -0.14704309      -1.09479061      -1.36084769
H        0.90892646       0.36284597      -1.74924066
H       -0.70855306       0.73674029       0.38937751
H        1.16587917      -0.54411280      -0.36922250
8
Properties=species:S:1:pos:R:3 relative_energy_eV=0.6098743354823455 branch=left pbc="F F F"
C        0.30668099      -0.16525024      -1.00710530
O       -0.67574889       0.73985138      -0.59655676
C       -0.58387471       0.45085083       2.01151033
O       -0.24730946      -0.56550253       2.37472867
H       -0.13401398      -1.08598262      -1.34228037
H        0.91576209       0.35026299      -1.71297417
H       -0.70806657       0.74174368       0.38324659
H        1.11893992      -0.51800888      -0.33222108
8
Properties=species:S:1:pos:R:3 relative_energy_eV=0.7335745214941198 branch=left pbc="F F F"
C        0.29686329      -0.15858776      -0.98822411
O       -0.68883050       0.73546851      -0.61258702
C       -0.52735527       0.41639096       1.93655655
O       -0.24617982      -0.56525848       2.36662979
H       -0.12059785      -1.07617661      -1.32688664
H        0.92232014       0.33590388      -1.68267250
H       -0.70710763       0.74679858       0.37859364
H        1.06325701      -0.48657447      -0.29306173
8
Properties=species:S:1:pos:R:3 relative_energy_eV=0.9126582774579219 branch=left pbc="F F F"
C        0.29448631      -0.15501604      -0.94390302
O       -0.70048754       0.72561654      -0.62647734
C       -0.48292888       0.39842705       1.84878643
O       -0.22994772      -0.58554219       2.36517840
H       -0.10576025      -1.05383568      -1.30913759
H        0.92094780       0.31967647      -1.64514825
H       -0.69873922       0.74964299       0.34569848
H        0.99479885      -0.45100455      -0.25664910
8
Properties=species:S:1:pos:R:3 relative_energy_eV=1.0893719915311522 branch=left pbc="F F F"
C        0.29430062      -0.15157981      -0.91526043
O       -0.71830917       0.72563740      -0.63859804
C       -0.42551355       0.36403337       1.77448600
O       -0.22912068      -0.58707607       2.35859085
H       -0.09592154      -1.05175603      -1.30437393
H        0.93366945       0.30664876      -1.63417570
H       -0.69803617       0.75531579       0.34397932
H        0.93130037      -0.41325883      -0.20630001
8
Properties=species:S:1:pos:R:3 relative_energy_eV=1.2692234344458484 branch=left pbc="F F F"
C        0.29035693      -0.14420514      -0.89580502
O       -0.74229194       0.73287792      -0.64452277
C       -0.37453311       0.33564599       1.69951369
O       -0.22917551      -0.58911813       2.35306746
H       -0.08954915      -1.06096035      -1.30794433
H        0.95281009       0.29549007      -1.63743336
H       -0.69681167       0.75863150       0.35521270
H        0.88156369      -0.38039728      -0.14374027
8
Properties=species:S:1:pos:R:3 relative_energy_eV=1.4506328713323455 branch=left pbc="F F F"
C        0.26981719      -0.13170740      -0.91648578
O       -0.76288707       0.73839401      -0.67333041
C       -0.30956665       0.29884602       1.63299210
O       -0.23697341      -0.58550978       2.34481692
H       -0.07978361      -1.07373869      -1.30463470
H        0.97567823       0.28270574      -1.63268418
H       -0.70102295       0.76753210       0.39839427
H        0.83710755      -0.34855740      -0.07072009
8
Properties=species:S:1:pos:R:3 relative_energy_eV=1.7282801456449306 branch=left pbc="F F F"
C        0.25193208      -0.12077361      -0.93387384
O       -0.78125484       0.74330811      -0.69820091
C       -0.25267170       0.26669232       1.57234319
O       -0.24397118      -0.58216179       2.33761692
H       -0.07104436      -1.08473260      -1.30187653
H        0.99576995       0.27118983      -1.62867533
H       -0.70418795       0.77469033       0.43715156
H        0.79779729      -0.32024793      -0.00613691
8
Properties=species:S:1:pos:R:3 relative_energy_eV=1.9320871489708225 branch=left pbc="F F F"
C        0.22866238      -0.10814856      -0.96039634
O       -0.79695238       0.74624137      -0.74085041
C       -0.17745823       0.22379847       1.52231268
O       -0.25064976      -0.57967893       2.32599492
H       -0.06150451      -1.10061141      -1.29449425
H        1.02109190       0.26108348      -1.61905605
H       -0.71579943       0.79215986       0.48814206
H        0.74497931      -0.28687954       0.05669556
8
Properties=species:S:1:pos:R:3 relative_energy_eV=2.058297326968386 branch=left pbc="F F F"
C        0.21524980      -0.09671898      -0.97918105
O       -0.81519842       0.75198311      -0.77221566
C       -0.11337534       0.18314863       1.47493368
O       -0.25821567      -0.57073701       2.31055529
H       -0.05301140      -1.11798706      -1.28946118
H        1.04547612       0.25059328      -1.61319384
H       -0.72363528       0.80362263       0.53957524
H        0.69507945      -0.25593979       0.10733573
8
Properties=species:S:1:pos:R:3 relative_energy_eV=2.1486562157479057 branch=left pbc="F F F"
C        0.21537128      -0.09337456      -0.97650054
O       -0.82463042       0.75649324      -0.77319513
C       -0.09970500       0.16696600       1.45712710
O       -0.26044873      -0.55903135       2.29773959
H       -0.05106759      -1.12468283      -1.29105513
H        1.05399623       0.24684112      -1.61580818
H       -0.72193074       0.80151792       0.55691194
H        0.68078424      -0.24676470       0.12312860
8
Properties=species:S:1:pos:R:3 relative_energy_eV=2.2807865979193593 branch=left pbc="F F F"
C        0.23858239      -0.09597349      -0.93539730
O       -0.83467106       0.76581690      -0.71045584
C       -0.13535616       0.17159226       1.43592091
O       -0.26182083      -0.53821457       2.28894712
H       -0.05525537      -1.12384811      -1.30808725
H        1.04937454       0.24434639      -1.63747666
H       -0.70680039       0.77750403       0.52922121
H        0.69831617      -0.25325862       0.11567605
8
Properties=species:S:1:pos:R:3 relative_energy_eV=2.2633997944021758 branch=left pbc="F F F"
C        0.20396399      -0.08656247      -0.99058552
O       -0.82872859       0.75600490      -0.80979572
C       -0.07573118       0.16141616       1.44042557
O       -0.26098803      -0.56634370       2.29872877
H       -0.04869715      -1.13403803      -1.28489323
H        1.06490079       0.24590337      -1.60825425
H       -0.72295383       0.80843780       0.59263361
H        0.66060326      -0.23685316       0.14008901
8
Properties=species:S:1:pos:R:3 relative_energy_eV=2.328353401244385 branch=left pbc="F F F"
C        0.16955896      -0.08087024      -1.05326459
O       -0.81984168       0.74538794      -0.90810383
C       -0.01090310       0.14493138       1.46387584
O       -0.25953761      -0.59380236       2.30650856
H       -0.04186813      -1.14108833      -1.25954962
H        1.07752492       0.24837718      -1.57586858
H       -0.74666790       0.84634041       0.64355332
H        0.62410378      -0.22131106       0.16119713
8
Properties=species:S:1:pos:R:3 relative_energy_eV=2.341021620754873 branch=left pbc="F F F"
C        0.16398568      -0.08008043      -1.06207605
O       -0.81745499       0.74326123      -0.92074669
C       -0.00087838       0.14404042       1.46667784
O       -0.26005420      -0.59931433       2.30959152
H       -0.04084493      -1.14152208      -1.25594809
H        1.07904114       0.24883286      -1.57134731
H       -0.75077417       0.85208048       0.64888594
H        0.61934908      -0.21933321       0.16331107
8
Properties=species:S:1:pos:R:3 relative_energy_eV=2.349142970751018 branch=left pbc="F F F"
C        0.15730293      -0.07708656      -1.06457312
O       -0.81254870       0.73934620      -0.92582275
C        0.00337719       0.14276818       1.46989224
O       -0.26014268      -0.60087936       2.30998355
H       -0.04029577      -1.14167960      -1.25449066
H        1.08023617       0.24926509      -1.56984338
H       -0.75307627       0.85483292       0.65002775
H        0.61751636      -0.21860194       0.16317461
8
Properties=species:S:1:pos:R:3 relative_energy_eV=2.371523418850302 branch=ts pbc="F F F"
C        0.15138903      -0.07471185      -1.07214961
O       -0.80937330       0.73598133      -0.92974130
C        0.00112322       0.14299246       1.46081687
O       -0.25783576      -0.60292117       2.31122045
H       -0.04109660      -1.14808574      -1.23544737
H        1.09638775       0.25419056      -1.53671072
H       -0.74791204       0.90459498       0.74610018
H        0.60731171      -0.21203702       0.25590756
8
Properties=species:S:1:pos:R:3 relative_energy_eV=2.3027469019762066 branch=right pbc="F F F"
C        0.14547513      -0.07233714      -1.07972609
O       -0.80619791       0.73261645      -0.93365986
C       -0.00113075       0.14321675       1.45174149
O       -0.25552885      -0.60496297       2.31245735
H       -0.04189743      -1.15449188      -1.21640408
H        1.11253933       0.25911602      -1.50357805
H       -0.74274782       0.95435703       0.84217260
H        0.59710706      -0.20547210       0.34864051
8
Properties=species:S:1:pos:R:3 relative_energy_eV=2.234161055827826 branch=right pbc="F F F"
C        0.14094026      -0.06950923      -1.08397072
O       -0.80213100       0.72796450      -0.93923291
C       -0.01405063       0.14955771       1.43406684
O       -0.25270843      -0.60651895       2.31661888
H       -0.04199807      -1.15433391      -1.21538658
H        1.11259381       0.25907537      -1.50164957
H       -0.73520098       0.95152749       0.85767903
H        0.60017380      -0.20572084       0.35351890
8
Properties=species:S:1:pos:R:3 relative_energy_eV=2.1428628614812624 branch=right pbc="F F F"
C        0.12173405      -0.05821619      -1.10502138
O       -0.78544479       0.70832491      -0.96487478
C       -0.07334232       0.17309388       1.35705682
O       -0.23860526      -0.60871077       2.33029772
H       -0.04252344      -1.15362373      -1.21075021
H        1.11288972       0.25902376      -1.49298437
H       -0.70091026       0.93858742       0.92919712
H        0.61382106      -0.20643713       0.37872296
8
Properties=species:S:1:pos:R:3 relative_energy_eV=2.060160955851643 branch=right pbc="F F F"
C        0.13169276      -0.06567620      -1.10123602
O       -0.79523447       0.71806466      -0.95816073
C       -0.04738684       0.15703332       1.38542019
O       -0.24478329      -0.60784954       2.32531975
H       -0.04242877      -1.15388445      -1.21134072
H        1.11321057       0.25918859      -1.49450209
H       -0.71633090       0.95034377       0.90593844
H        0.60887969      -0.20517799       0.37020506
8
Properties=species:S:1:pos:R:3 relative_energy_eV=1.9893607101803354 branch=right pbc="F F F"
C        0.12792543      -0.06446743      -1.10877308
O       -0.79396318       0.71553028      -0.96666016
C       -0.05138400       0.14959148       1.37694992
O       -0.24351464      -0.60632238       2.32471050
H       -0.04262168      -1.15454446      -1.20926936
H        1.11462365       0.25955958      -1.49137385
H       -0.71398430       0.95646660       0.92025629
H        0.61053746      -0.20377152       0.37580360
8
Properties=species:S:1:pos:R:3 relative_energy_eV=1.6333668446341107 branch=right pbc="F F F"
C        0.11478398      -0.06588633      -1.16235083
O       -0.79781559       0.70966069      -1.02104305
C       -0.07767919       0.10940445       1.32212509
O       -0.23578761      -0.60103289       2.32256123
H       -0.04418826      -1.15930433      -1.19553081
H        1.12401662       0.26225758      -1.47131951
H       -0.69547751       0.99173526       1.01198208
H        0.61976623      -0.19479226       0.41521958
8
Properties=species:S:1:pos:R:3 relative_energy_eV=1.3925157249623226 branch=right pbc="F F F"
C        0.09625546      -0.06376983      -1.22489167
O       -0.80087436       0.70293151      -1.08376272
C       -0.09909750       0.06624647       1.29375543
O       -0.22926410      -0.59547481       2.30764369
H       -0.04603314      -1.16647112      -1.18025468
H        1.13638503       0.26562958      -1.45064485
H       -0.67558923       1.02828550       1.10291357
H        0.62583644      -0.18533513       0.45688493
8
Properties=species:S:1:pos:R:3 relative_energy_eV=1.2740852699862444 branch=right pbc="F F F"
C        0.09542780      -0.07161022      -1.27200076
O       -0.81155907       0.70594909      -1.12724164
C       -0.11559807       0.05704240       1.29887338
O       -0.22595956      -0.59642885       2.29264651
H       -0.04743898      -1.16914183      -1.17324249
H        1.14186323       0.26707453      -1.44052309
H       -0.65779787       1.04018948       1.15829302
H        0.62868106      -0.18103242       0.48483869
8
Properties=species:S:1:pos:R:3 relative_energy_eV=1.2091344392492829 branch=right pbc="F F F"
C        0.09594650      -0.07539382      -1.29872288
O       -0.81594540       0.70633330      -1.15467199
C       -0.12115353       0.07089523       1.31501680
O       -0.22531159      -0.60184590       2.28634764
H       -0.04831084      -1.16874878      -1.17542243
H        1.14186089       0.26664084      -1.44220480
H       -0.64520028       1.03277021       1.18213410
H        0.62573277      -0.17860888       0.50916716
8
Properties=species:S:1:pos:R:3 relative_energy_eV=1.1508169826520316 branch=right pbc="F F F"
C        0.09515380      -0.07859982      -1.33079647
O       -0.81963328       0.70533571      -1.19217882
C       -0.11564668       0.08866386       1.33756318
O       -0.22755193      -0.61326781       2.28802739
H       -0.04935538      -1.16735190      -1.18424590
H        1.14067601       0.26521051      -1.45164976
H       -0.63431172       1.02484323       1.20670164
H        0.61828766      -0.17279155       0.54822231
8
Properties=species:S:1:pos:R:3 relative_energy_eV=1.0934777093852972 branch=right pbc="F F F"
C        0.09346996      -0.07949705      -1.35752645
O       -0.82190119       0.70355971      -1.23240621
C       -0.09781296       0.10293482       1.37702910
O       -0.23437138      -0.62911009       2.29863662
H       -0.05032993      -1.16564910      -1.20107383
H        1.13847627       0.26257612      -1.47082823
H       -0.63168203       1.02200756       1.22034469
H        0.61176973      -0.16477975       0.58746789
8
Properties=species:S:1:pos:R:3 relative_energy_eV=1.0301209059489338 branch=right pbc="F F F"
C        0.09087979      -0.08041002      -1.39198437
O       -0.82704253       0.70250263      -1.29296730
C       -0.07683221       0.11370704       1.42630569
O       -0.24599940      -0.65244277       2.32716324
H       -0.05188059      -1.16500281      -1.22836301
H        1.13723005       0.25876890      -1.50221034
H       -0.63215552       1.02690962       1.24483972
H        0.61341884      -0.15199034       0.63885996
8
Properties=species:S:1:pos:R:3 relative_energy_eV=0.9748205475343639 branch=right pbc="F F F"
C        0.08644357      -0.07842679      -1.41945464
O       -0.83137944       0.70077110      -1.35430523
C       -0.06805791       0.11413357       1.47384825
O       -0.25852043      -0.67022219       2.36052871
H       -0.05360852      -1.16642074      -1.25657415
H        1.13776499       0.25506171      -1.53478699
H       -0.63395616       1.03716020       1.27513624
H        0.62893232      -0.14001461       0.67725140
8
Properties=species:S:1:pos:R:3 relative_energy_eV=0.9074739083416716 branch=right pbc="F F F"
C        0.08039680      -0.07769294      -1.46746620
O       -0.84048292       0.69889604      -1.45387235
C       -0.07131801       0.10332918       1.52048232
O       -0.27539742      -0.68889691       2.40921694
H       -0.05646089      -1.16950450      -1.29315537
H        1.14017032       0.25031099      -1.57594782
H       -0.62935163       1.05682086       1.34726086
H        0.66006213      -0.12122048       0.73512519
8
Properties=species:S:1:pos:R:3 relative_energy_eV=0.8619108819020767 branch=right pbc="F F F"
C        0.07557722      -0.07804814      -1.51564325
O       -0.84799903       0.69590920      -1.55354475
C       -0.07641699       0.09529474       1.56843606
O       -0.29218963      -0.70311623       2.45164962
H       -0.05945248      -1.17042246      -1.32833038
H        1.13996394       0.24565400      -1.61477489
H       -0.62155583       1.06998914       1.42183821
H        0.68969112      -0.10321800       0.79201293
8
Properties=species:S:1:pos:R:3 relative_energy_eV=0.8259445951598536 branch=right pbc="F F F"
C        0.07049484      -0.07895794      -1.56753457
O       -0.85410045       0.69173866      -1.65327127
C       -0.07811572       0.09110696       1.61753483
O       -0.30858346      -0.71725493       2.48995186
H       -0.06285203      -1.17017153      -1.36240374
H        1.13862791       0.24141908      -1.65199529
H       -0.61224054       1.07945018       1.49614895
H        0.71438770      -0.08528821       0.85321274
8
Properties=species:S:1:pos:R:3 relative_energy_eV=0.8007026739769572 branch=right pbc="F F F"
C        0.06564589      -0.08006932      -1.62003337
O       -0.85863517       0.68613769      -1.75301126
C       -0.07755497       0.08968896       1.66935829
O       -0.32509073      -0.73071154       2.52619294
H       -0.06700446      -1.16858502      -1.39687333
H        1.13596548       0.23755681      -1.68937868
H       -0.60238857       1.08560033       1.56930909
H        0.73668073      -0.06757562       0.91607982
8
Properties=species:S:1:pos:R:3 relative_energy_eV=0.7779529270028434 branch=right pbc="F F F"
C        0.06314430      -0.08147242      -1.65853476
O       -0.85732550       0.67781096      -1.82848975
C       -0.07521604       0.09197398       1.71175266
O       -0.33853375      -0.73553953       2.54968810
H       -0.07239129      -1.16359968      -1.42453806
H        1.13006530       0.23569855      -1.71886753
H       -0.59330005       1.08178105       1.62577042
H        0.75117519      -0.05461062       0.96486238
8
Properties=species:S:1:pos:R:3 relative_energy_eV=0.7615084910448786 branch=right pbc="F F F"
C        0.06345520      -0.08500050      -1.69328007
O       -0.85450807       0.66869832      -1.89580331
C       -0.06773989       0.09764876       1.74919725
O       -0.35149533      -0.73785399       2.56839424
H       -0.07999446      -1.15700525      -1.45017973
H        1.12301552       0.23590891      -1.74660462
H       -0.58517008       1.07321037       1.67661183
H        0.76005521      -0.04356433       1.01330786
8
Properties=species:S:1:pos:R:3 relative_energy_eV=0.7549798963118519 branch=right pbc="F F F"
C        0.06225443      -0.08737372      -1.72844126
O       -0.85256462       0.66063443      -1.95725694
C       -0.06019793       0.10048453       1.78285216
O       -0.36262500      -0.74223035       2.58585633
H       -0.08793212      -1.15346077      -1.47242126
H        1.11935754       0.23726772      -1.77167292
H       -0.57945251       1.07049398       1.72328059
H        0.76877826      -0.03377351       1.05944671
8
Properties=species:S:1:pos:R:3 relative_energy_eV=0.7482070638643563 branch=right pbc="F F F"
C        0.05995901      -0.09085246      -1.78438753
O       -0.85178284       0.64980991      -2.05666629
C       -0.05053517       0.10454769       1.84022146
O       -0.38008254      -0.75347337       2.61743880
H       -0.09947386      -1.14937548      -1.50902542
H        1.11503197       0.23851397      -1.81320988
H       -0.57175468       1.07077636       1.79559114
H        0.78625609      -0.01790432       1.13168111
8
Properties=species:S:1:pos:R:3 relative_energy_eV=0.7448157835451639 branch=right pbc="F F F"
C        0.05612017      -0.09349458      -1.84275941
O       -0.85026115       0.63840493      -2.15600214
C       -0.04308211       0.10724885       1.89785612
O       -0.39644578      -0.76549171       2.64880689
H       -0.11104876      -1.14581223      -1.54504759
H        1.11135239       0.23984917      -1.85404775
H       -0.56401287       1.07355373       1.86865562
H        0.80499603      -0.00221584       1.20418160
8
Properties=species:S:1:pos:R:3 relative_energy_eV=0.7419556768691109 branch=right pbc="F F F"
C        0.05519675      -0.09313220      -1.84364832
O       -0.84892352       0.63766712      -2.15193681
C       -0.04522312       0.10666669       1.89816292
O       -0.39431722      -0.76683435       2.64714348
H       -0.11198485      -1.14624401      -1.54377876
H        1.11209932       0.24079156      -1.85301470
H       -0.56523036       1.07681272       1.86553714
H        0.80600093      -0.00368522       1.20317839
8
Properties=species:S:1:pos:R:3 relative_energy_eV=0.739797854106655 branch=right pbc="F F F"
C        0.05493737      -0.09415351      -1.85265327
O       -0.84857271       0.63644320      -2.16327818
C       -0.04741887       0.10752627       1.90946728
O       -0.39366807      -0.77344179       2.65165464
H       -0.11463111      -1.14604249      -1.54923633
H        1.11205777       0.24144916      -1.85953982
H       -0.56626955       1.08335639       1.87077537
H        0.81118309      -0.00309491       1.21445365
8
Properties=species:S:1:pos:R:3 relative_energy_eV=0.7394992947811261 branch=right pbc="F F F"
C        0.05512928      -0.09456713      -1.85479399
O       -0.84858287       0.63638603      -2.16515003
C       -0.04821884       0.10741937       1.91027031
O       -0.39276339      -0.77508142       2.65199428
H       -0.11532582      -1.14602316      -1.55010535
H        1.11197404       0.24143838      -1.86045334
H       -0.56644505       1.08546808       1.87186263
H        0.81185056      -0.00299781       1.21801883
8
Properties=species:S:1:pos:R:3 relative_energy_eV=0.7392766230386769 branch=right pbc="F F F"
C        0.05548383      -0.09504106      -1.85561639
O       -0.84837526       0.63648328      -2.16555118
C       -0.04889409       0.10772214       1.91041219
O       -0.39175446      -0.77611941       2.65185702
H       -0.11602477      -1.14584455      -1.55110662
H        1.11165289       0.24119575      -1.86139329
H       -0.56675036       1.08649356       1.87170964
H        0.81228012      -0.00284740       1.22133197
8
Properties=species:S:1:pos:R:3 relative_energy_eV=0.7390912270002445 branch=right pbc="F F F"
C        0.05572856      -0.09536084      -1.85566293
O       -0.84802022       0.63674316      -2.16504140
C       -0.04926616       0.10806737       1.91039957
O       -0.39097802      -0.77649012       2.65156533
H       -0.11676750      -1.14579309      -1.55234138
H        1.11136471       0.24073178      -1.86256701
H       -0.56734256       1.08656717       1.87080596
H        0.81289911      -0.00242311       1.22448519
8
Properties=species:S:1:pos:R:3 relative_energy_eV=0.7388046610494712 branch=right pbc="F F F"
C        0.05589145      -0.09559305      -1.85456791
O       -0.84751694       0.63764017      -2.16229358
C       -0.04954066       0.10852731       1.90993306
O       -0.39010572      -0.77639751       2.65095327
H       -0.11778665      -1.14610602      -1.55416764
H        1.11121919       0.23968241      -1.86432160
H       -0.56888312       1.08577355       1.86777505
H        0.81434036      -0.00148454       1.22833267
8
Properties=species:S:1:pos:R:3 relative_energy_eV=0.7382704164274401 branch=right pbc="F F F"
C        0.05589073      -0.09574248      -1.85147160
O       -0.84682101       0.64015024      -2.15443856
C       -0.04976218       0.10915394       1.90835266
O       -0.38895264      -0.77558902       2.64971973
H       -0.11946042      -1.14729965      -1.55725717
H        1.11147418       0.23722841      -1.86730617
H       -0.57274000       1.08346087       1.85995763
H        0.81798924       0.00068001       1.23408677
8
Properties=species:S:1:pos:R:3 relative_energy_eV=0.7370400751296984 branch=right pbc="F F F"
C        0.05553572      -0.09590021      -1.84413032
O       -0.84571867       0.64695228      -2.13350106
C       -0.04993689       0.11018561       1.90397258
O       -0.38716010      -0.77318345       2.64705339
H       -0.12288387      -1.15066513      -1.56358709
H        1.11272144       0.23103479      -1.87342129
H       -0.58274821       1.07746303       1.84001923
H        0.82780847       0.00615542       1.24523784
8
Properties=species:S:1:pos:R:3 relative_energy_eV=0.7343576343992027 branch=right pbc="F F F"
C        0.05420642      -0.09651426      -1.83068914
O       -0.84358930       0.66362527      -2.08522662
C       -0.04963521       0.11226399       1.89534547
O       -0.38497489      -0.76750213       2.64247546
H       -0.13094136      -1.15874130      -1.57882603
H        1.11602587       0.21579138      -1.88833556
H       -0.60731484       1.06262840       1.79452920
H        0.85384116       0.02049099       1.27237043
8
Properties=species:S:1:pos:R:3 relative_energy_eV=0.7309243760282698 branch=right pbc="F F F"
C        0.05104344      -0.09837312      -1.82233701
O       -0.83969581       0.68902458      -2.02070727
C       -0.04731265       0.11587261       1.89008776
O       -0.38615924      -0.75944038       2.64047644
H       -0.14536655      -1.17049253      -1.60757208
H        1.12051042       0.19077195      -1.91723367
H       -0.64621245       1.03724371       1.73286772
H        0.90081063       0.04743553       1.32606118
8
Properties=species:S:1:pos:R:3 relative_energy_eV=0.7271156564738703 branch=right pbc="F F F"
C        0.04905876      -0.09962547      -1.82561233
O       -0.83719982       0.69888672      -1.99447644
C       -0.04469663       0.11762252       1.88897211
O       -0.39000580      -0.75506408       2.64080970
H       -0.15126018      -1.17400579      -1.61866186
H        1.12149831       0.17989907      -1.92839674
H       -0.66145101       1.02318387       1.71014295
H        0.92167413       0.06114551       1.34886563
8
Properties=species:S:1:pos:R:3 relative_energy_eV=0.7196701987813867 branch=right pbc="F F F"
C        0.04821227      -0.10218358      -1.80839036
O       -0.83287141       0.71973557      -1.89676978
C       -0.04195968       0.11905802       1.85680206
O       -0.39146087      -0.74077957       2.62492909
H       -0.15381768      -1.17824240      -1.61301482
H        1.12309087       0.16187953      -1.92022902
H       -0.68723192       0.99471609       1.63540247
H        0.94365616       0.07785870       1.34291332
8
Properties=species:S:1:pos:R:3 relative_energy_eV=0.7162671365704227 branch=right pbc="F F F"
C        0.04950955      -0.10218466      -1.79300763
O       -0.82943155       0.72175980      -1.84958789
C       -0.04254319       0.11814796       1.83462049
O       -0.38959978      -0.73405038       2.61257741
H       -0.15042021      -1.17581660      -1.59559298
H        1.12173342       0.16130262      -1.90143959
H       -0.68900051       0.98656091       1.60246698
H        0.93737003       0.07632272       1.31160616
8
Properties=species:S:1:pos:R:3 relative_energy_eV=0.7146506135932214 branch=right pbc="F F F"
C        0.05050086      -0.10282677      -1.76107777
O       -0.82371664       0.73741465      -1.75098634
C       -0.04355480       0.11846105       1.79802917
O       -0.38461362      -0.72122925       2.59252130
H       -0.15200122      -1.17902205      -1.58419022
H        1.12271248       0.14918690      -1.88799650
H       -0.71013102       0.96566507       1.52444027
H        0.94842172       0.08439277       1.29090302
8
Properties=species:S:1:pos:R:3 relative_energy_eV=0.7087547799810636 branch=right pbc="F F F"
C        0.05144711      -0.10194418      -1.75013230
O       -0.81971341       0.73362421      -1.73979746
C       -0.04562396       0.11753698       1.79210582
O       -0.38196877      -0.71981252       2.58849368
H       -0.15294224      -1.17695016      -1.57925061
H        1.12123595       0.15241184      -1.88397195
H       -0.70808318       0.96513346       1.51426115
H        0.94326629       0.08204273       1.27993461
8
Properties=species:S:1:pos:R:3 relative_energy_eV=0.7019389360075365 branch=right pbc="F F F"
C        0.05286154      -0.10075160      -1.70796529
O       -0.80629163       0.74047892      -1.64871832
C       -0.04914995       0.11702061       1.75648314
O       -0.37587464      -0.70581668       2.56954806
H       -0.16110143      -1.17798862      -1.57184463
H        1.11986119       0.14624709      -1.87831824
H       -0.72329209       0.94151772       1.43809531
H        0.95060481       0.09133492       1.26436287
8
Properties=species:S:1:pos:R:3 relative_energy_eV=0.6995298042356808 branch=right pbc="F F F"
C        0.05097563      -0.10242916      -1.71830512
O       -0.79733613       0.74297214      -1.65428178
C       -0.04772990       0.11943362       1.77172360
O       -0.38139543      -0.70456311       2.57908984
H       -0.17792533      -1.18046400      -1.60018897
H        1.11815492       0.13888848      -1.91153854
H       -0.73273454       0.92517136       1.43384482
H        0.97560851       0.11303302       1.32129897
8
Properties=species:S:1:pos:R:3 relative_energy_eV=0.6962664358416077 branch=right pbc="F F F"
C        0.05188444      -0.10326236      -1.70375127
O       -0.79233152       0.74873194      -1.61168099
C       -0.04755330       0.11961645       1.75339039
O       -0.38073148      -0.69728286       2.57077465
H       -0.18143236      -1.18171330      -1.59573149
H        1.11759791       0.13503975      -1.90815372
H       -0.73748754       0.91038098       1.40054135
H        0.97767158       0.12053176       1.31625389
8
Properties=species:S:1:pos:R:3 relative_energy_eV=0.6941427450519768 branch=right pbc="F F F"
C        0.05230780      -0.10554478      -1.70424629
O       -0.78606878       0.75298850      -1.58930292
C       -0.04553433       0.12042242       1.75082094
O       -0.38329318      -0.69423144       2.56990839
H       -0.18907635      -1.18224491      -1.60089868
H        1.11550885       0.13075428      -1.91639475
H       -0.74091220       0.89585575       1.37937701
H        0.98468590       0.13404254       1.33237907
8
Properties=species:S:1:pos:R:3 relative_energy_eV=0.691875090558824 branch=right pbc="F F F"
C        0.05215305      -0.10869502      -1.71122582
O       -0.77705284       0.75710632      -1.57355902
C       -0.04321954       0.12165727       1.75654286
O       -0.38710326      -0.69384116       2.57323146
H       -0.20136857      -1.18284254      -1.61310421
H        1.11226777       0.12559861      -1.93447026
H       -0.74274720       0.87837338       1.35854269
H        0.99468827       0.15468552       1.36568501
8
Properties=species:S:1:pos:R:3 relative_energy_eV=0.6901324285563533 branch=right pbc="F F F"
C        0.05055448      -0.11211280      -1.71948660
O       -0.76371346       0.76423429      -1.54765286
C       -0.04125894       0.12334228       1.76595624
O       -0.39156362      -0.69366149       2.57823022
H       -0.21939145      -1.18431358      -1.63368367
H        1.10816845       0.11558457      -1.96351906
H       -0.74848508       0.85308290       1.32353159
H        1.01330722       0.18588621       1.41826676
8
Properties=species:S:1:pos:R:3 relative_energy_eV=0.6891075109933809 branch=right pbc="F F F"
C        0.04834807      -0.11491003      -1.73837479
O       -0.75233783       0.76550535      -1.55740155
C       -0.03997693       0.12359148       1.78769926
O       -0.39623882      -0.70083522       2.59011423
H       -0.23504970      -1.18379718      -1.65334480
H        1.10282611       0.11089073      -1.99490046
H       -0.73758022       0.83538526       1.31342406
H        1.01762688       0.21621199       1.47442661
8
Properties=species:S:1:pos:R:3 relative_energy_eV=0.6877698896978472 branch=right pbc="F F F"
C        0.04721559      -0.11426183      -1.73222752
O       -0.74908332       0.76962225      -1.53451553
C       -0.04037922       0.12371114       1.78172558
O       -0.39595663      -0.69740021       2.58703013
H       -0.23737727      -1.18428704      -1.65563839
H        1.10228372       0.10511242      -1.99811842
H       -0.74275899       0.82616187       1.29296620
H        1.02367367       0.22338378       1.48042049
8
Properties=species:S:1:pos:R:3 relative_energy_eV=0.6870844178338302 branch=right pbc="F F F"
C        0.04645687      -0.11199244      -1.72598973
O       -0.75170899       0.77023382      -1.52821137
C       -0.04122360       0.12309862       1.77517667
O       -0.39437513      -0.69541253       2.58344054
H       -0.23152494      -1.18340692      -1.64997239
H        1.10273875       0.10313143      -1.99053098
H       -0.74341181       0.82800634       1.29076201
H        1.02066641       0.21838407       1.46696780
8
Properties=species:S:1:pos:R:3 relative_energy_eV=0.6865528319885925 branch=right pbc="F F F"
C        0.04417105      -0.11087824      -1.72937365
O       -0.74911529       0.77295537      -1.52319876
C       -0.04079523       0.12334552       1.77869865
O       -0.39596861      -0.69548293       2.58548084
H       -0.23291169      -1.18218519      -1.65602235
H        1.10053670       0.09603981      -1.99941846
H       -0.74323428       0.81950035       1.28197662
H        1.02493488       0.22874769       1.48349963
8
Properties=species:S:1:pos:R:3 relative_energy_eV=0.6863493499158722 branch=right pbc="F F F"
C        0.04314670      -0.11063123      -1.73232762
O       -0.74705836       0.77420813      -1.52240005
C       -0.04033817       0.12374985       1.78200076
O       -0.39676214      -0.69630201       2.58714871
H       -0.23451511      -1.18125146      -1.65986500
H        1.09879252       0.09246679      -2.00596953
H       -0.74177983       0.81433595       1.27763306
H        1.02613192       0.23546637       1.49542218
8
Properties=species:S:1:pos:R:3 relative_energy_eV=0.6862745034641193 branch=right pbc="F F F"
C        0.04281014      -0.11097805      -1.73406902
O       -0.74452425       0.77531721      -1.51939085
C       -0.03993071       0.12425772       1.78388602
O       -0.39729660      -0.69658121       2.58796589
H       -0.23721540      -1.18078877      -1.66301873
H        1.09737254       0.09017958      -2.01181648
H       -0.74121530       0.80922643       1.27220557
H        1.02761710       0.24140950       1.50588010
8
Properties=species:S:1:pos:R:3 relative_energy_eV=0.6862433255546421 branch=right pbc="F F F"
C        0.04289142      -0.11120903      -1.73429026
O       -0.74307885       0.77578254      -1.51714665
C       -0.03968075       0.12464052       1.78407191
O       -0.39740137      -0.69644240       2.58778737
H       -0.23862363      -1.18044765      -1.66380100
H        1.09661346       0.08930557      -2.01443418
H       -0.74114588       0.80652661       1.26924394
H        1.02804311       0.24388623       1.51021136
8
Properties=species:S:1:pos:R:3 relative_energy_eV=0.686220515444802 branch=right pbc="F F F"
C        0.04299070      -0.11134232      -1.73396578
O       -0.74187582       0.77618415      -1.51447422
C       -0.03952606       0.12493419       1.78367445
O       -0.39747070      -0.69612537       2.58729787
H       -0.23966946      -1.18018622      -1.66387424
H        1.09612159       0.08867325      -2.01621473
H       -0.74154651       0.80436063       1.26645039
H        1.02859378       0.24554407       1.51274873
8
Properties=species:S:1:pos:R:3 relative_energy_eV=0.6861961268232335 branch=right pbc="F F F"
C        0.04321813      -0.11133219      -1.73303515
O       -0.74089298       0.77642473      -1.51186305
C       -0.03950643       0.12518704       1.78255658
O       -0.39738275      -0.69575216       2.58628804
H       -0.24015121      -1.17983054      -1.66250988
H        1.09579639       0.08842136      -2.01711732
H       -0.74218787       0.80289633       1.26432639
H        1.02872421       0.24602780       1.51299686
8
Properties=species:S:1:pos:R:3 relative_energy_eV=0.6861547226035327 branch=right pbc="F F F"
C        0.04347278      -0.11119459      -1.73168663
O       -0.73944600       0.77692785      -1.50807740
C       -0.03960949       0.12540348       1.78097046
O       -0.39731292      -0.69543469       2.58483743
H       -0.24064147      -1.17933768      -1.65993838
H        1.09539856       0.08798717      -2.01863245
H       -0.74324518       0.80094948       1.26120928
H        1.02900123       0.24674136       1.51296014
8
Properties=species:S:1:pos:R:3 relative_energy_eV=0.6860759937062539 branch=right pbc="F F F"
C        0.04390904      -0.11076156      -1.72962418
O       -0.73744501       0.77780184      -1.50359911
C       -0.04002876       0.12545556       1.77850495
O       -0.39716123      -0.69546141       2.58250563
H       -0.24064787      -1.17851567      -1.65424184
H        1.09489592       0.08752789      -2.02096708
H       -0.74478390       0.79892246       1.25779365
H        1.02887930       0.24707326       1.51127043
8
Properties=species:S:1:pos:R:3 relative_energy_eV=0.6859171060887093 branch=right pbc="F F F"
C        0.04459176      -0.10985439      -1.72680348
O       -0.73347042       0.78008079      -1.49686310
C       -0.04093752       0.12515990       1.77512843
O       -0.39714417      -0.69642488       2.57884957
H       -0.24057276      -1.17699469      -1.64325834
H        1.09373799       0.08610118      -2.02743721
H       -0.74730374       0.79507761       1.25197678
H        1.02871639       0.24889682       1.51004974
8
Properties=species:S:1:pos:R:3 relative_energy_eV=0.685540984913132 branch=right pbc="F F F"
C        0.04613848      -0.10774108      -1.72229433
O       -0.72524655       0.78567073      -1.48724841
C       -0.04312532       0.12386587       1.76963294
O       -0.39727564      -0.70004904       2.57191636
H       -0.23945499      -1.17359180      -1.61815763
H        1.09096656       0.08267539      -2.04365898
H       -0.75193401       0.78817749       1.24300993
H        1.02754902       0.25303472       1.50844244
8
Properties=species:S:1:pos:R:3 relative_energy_eV=0.6848568136911126 branch=right pbc="F F F"
C        0.04958308      -0.10308629      -1.71528284
O       -0.70678112       0.79956626      -1.47194424
C       -0.04796407       0.12024620       1.76095586
O       -0.39805232      -0.71028005       2.55836086
H       -0.23638304      -1.16547121      -1.56235098
H        1.08369248       0.07329945      -2.08502031
H       -0.76124883       0.77308754       1.22634400
H        1.02477141       0.26468029       1.51057977
8
Properties=species:S:1:pos:R:3 relative_energy_eV=0.6839655554149431 branch=right pbc="F F F"
C        0.05182101      -0.10026354      -1.71461790
O       -0.69943123       0.80735557      -1.47719760
C       -0.05092487       0.11710453       1.75972478
O       -0.39840594      -0.71874844       2.55276663
H       -0.23022249      -1.15985866      -1.52876898
H        1.07903569       0.06801374      -2.10780443
H       -0.76488334       0.77111859       1.22920803
H        1.02062877       0.26732031       1.50833148
8
Properties=species:S:1:pos:R:3 relative_energy_eV=0.6812039533187999 branch=right pbc="F F F"
C        0.05707277      -0.09357283      -1.72435889
O       -0.68089860       0.83248320      -1.51399093
C       -0.05823937       0.10667590       1.77085603
O       -0.40099002      -0.74821892       2.54618099
H       -0.21026246      -1.14119502      -1.44647130
H        1.06166330       0.04547212      -2.18455265
H       -0.77170077       0.76771298       1.24913313
H        1.01097282       0.28268450       1.52484531
8
Properties=species:S:1:pos:R:3 relative_energy_eV=0.6818100841073829 branch=right pbc="F F F"
C        0.05644348      -0.09554701      -1.73747697
O       -0.70116994       0.82507100      -1.56701464
C       -0.05628067       0.10506733       1.78757288
O       -0.39984481      -0.75128065       2.56045348
H       -0.19737990      -1.14118057      -1.47212691
H        1.06342626       0.04879892      -2.16206629
H       -0.76276130       0.79713473       1.29737402
H        1.00518454       0.26397825       1.51492626
8
Properties=species:S:1:pos:R:3 relative_energy_eV=0.6789167108818219 branch=right pbc="F F F"
C        0.05852282      -0.09398997      -1.72775072
O       -0.68545317       0.83314757      -1.53579385
C       -0.05798111       0.10563691       1.77760331
O       -0.39983573      -0.75206002       2.54983148
H       -0.20396904      -1.13618371      -1.44910683
H        1.05879536       0.04055126      -2.19020193
H       -0.77201114       0.77605954       1.26710884
H        1.00954968       0.27888033       1.52995138
8
Properties=species:S:1:pos:R:3 relative_energy_eV=0.6782018439098465 branch=right pbc="F F F"
C        0.06303492      -0.09099585      -1.72633935
O       -0.67789487       0.84098735      -1.54140112
C       -0.06068102       0.10329826       1.77566811
O       -0.39904262      -0.76102063       2.54210594
H       -0.19716946      -1.12725920      -1.41272974
H        1.05257748       0.03252545      -2.21670872
H       -0.77959499       0.77478403       1.27164990
H        1.00638829       0.27972244       1.52939655
8
Properties=species:S:1:pos:R:3 relative_energy_eV=0.6774739085940382 branch=right pbc="F F F"
C        0.06504143      -0.09042123      -1.72844526
O       -0.67811085       0.84139858      -1.54907990
C       -0.06090399       0.10362306       1.77758147
O       -0.39836676      -0.76382592       2.54065667
H       -0.19427733      -1.12207733      -1.40629807
H        1.05067404       0.02847588      -2.22409194
H       -0.78311258       0.77722044       1.27957310
H        1.00667374       0.27764836       1.53174547
8
Properties=species:S:1:pos:R:3 relative_energy_eV=0.6768646352284122 branch=right pbc="F F F"
C        0.06825555      -0.08830080      -1.73295184
O       -0.67947988       0.84431267      -1.57442275
C       -0.06291242       0.10193915       1.78259595
O       -0.39716445      -0.77376607       2.53778904
H       -0.18250282      -1.11114596      -1.38138826
H        1.04709385       0.02104886      -2.24082712
H       -0.78789166       0.78756558       1.30398833
H        1.00221956       0.27038834       1.52685812
8
Properties=species:S:1:pos:R:3 relative_energy_eV=0.6764966502551033 branch=right pbc="F F F"
C        0.06933405      -0.08689736      -1.73840548
O       -0.67782225       0.84695688      -1.58669535
C       -0.06427761       0.10110022       1.78815324
O       -0.39748572      -0.78092059       2.53641117
H       -0.17678091      -1.10214673      -1.36706126
H        1.04379889       0.01263364      -2.25816129
H       -0.79020987       0.78860377       1.31420223
H        1.00106116       0.27271190       1.53319815
8
Properties=species:S:1:pos:R:3 relative_energy_eV=0.6762722683679385 branch=right pbc="F F F"
C        0.07100381      -0.08506970      -1.74345482
O       -0.67762813       0.84881273      -1.60365865
C       -0.06621589       0.09945569       1.79313636
O       -0.39754292      -0.78920331       2.53425364
H       -0.16848350      -1.09313729      -1.34756232
H        1.04127472       0.00613307      -2.27266595
H       -0.79220091       0.79435277       1.33077444
H        0.99741060       0.27069773       1.53081863
8
Properties=species:S:1:pos:R:3 relative_energy_eV=0.6762055128510838 branch=right pbc="F F F"
C        0.07092060      -0.08509801      -1.74413536
O       -0.67865617       0.84753234      -1.60622185
C       -0.06655160       0.09927581       1.79419293
O       -0.39763451      -0.79017517       2.53414540
H       -0.16713837      -1.09136223      -1.34731038
H        1.04187968       0.00540662      -2.27248954
H       -0.79157836       0.79643631       1.33488791
H        0.99637650       0.27002603       1.52857224
8
Properties=species:S:1:pos:R:3 relative_energy_eV=0.6761435681755756 branch=right pbc="F F F"
C        0.07169410      -0.08476846      -1.74450242
O       -0.67830538       0.84800218      -1.61013099
C       -0.06730035       0.09865667       1.79477567
O       -0.39766550      -0.79258696       2.53299811
H       -0.16499136      -1.08913517      -1.34127909
H        1.04150535       0.00392996      -2.27680600
H       -0.79255160       0.79857216       1.34015391
H        0.99523252       0.26937128       1.52643214
8
Properties=species:S:1:pos:R:3 relative_energy_eV=0.6759956899759345 branch=right pbc="F F F"
C        0.07297046      -0.08486886      -1.74464657
O       -0.67982755       0.84639057      -1.61514427
C       -0.06812930       0.09825465       1.79471780
O       -0.39752155      -0.79475211       2.53142491
H       -0.16281097      -1.08839374      -1.33754294
H        1.04312204       0.00470434      -2.27607496
H       -0.79359800       0.80505993       1.35081664
H        0.99341265       0.26564689       1.51809072
8
Properties=species:S:1:pos:R:3 relative_energy_eV=0.6757518214899392 branch=right pbc="F F F"
C        0.07429964      -0.08588556      -1.74295318
O       -0.68185564       0.84283476      -1.61423585
C       -0.06874782       0.09879610       1.79284635
O       -0.39703345      -0.79548577       2.52885610
H       -0.16321796      -1.09114947      -1.34063937
H        1.04723502       0.00786679      -2.26987542
H       -0.79431418       0.81321585       1.36128413
H        0.99125220       0.26184899       1.50635860
8
Properties=species:S:1:pos:R:3 relative_energy_eV=0.6754775421431987 branch=right pbc="F F F"
C        0.07511935      -0.08758401      -1.74238118
O       -0.68401903       0.83863532      -1.61103960
C       -0.06911328       0.10036391       1.79195647
O       -0.39619620      -0.79590146       2.52638098
H       -0.16550852      -1.09663399      -1.35048511
H        1.05241905       0.01164797      -2.26138532
H       -0.79420968       0.82197124       1.37174320
H        0.98912612       0.25954273       1.49685194
8
Properties=species:S:1:pos:R:3 relative_energy_eV=0.6751412021658325 branch=right pbc="F F F"
C        0.07586850      -0.08954380      -1.74360456
O       -0.68497512       0.83506586      -1.60818018
C       -0.06975825       0.10277931       1.79308518
O       -0.39477952      -0.79832346       2.52254705
H       -0.16742829      -1.10194318      -1.36118366
H        1.05703518       0.01317758      -2.25649424
H       -0.79451943       0.83146682       1.38471908
H        0.98617474       0.25936261       1.49075276
8
Properties=species:S:1:pos:R:3 relative_energy_eV=0.6746869349244662 branch=right pbc="F F F"
C        0.07695549      -0.09185706      -1.74688475
O       -0.68388333       0.83244424      -1.60703888
C       -0.07117599       0.10604226       1.79643630
O       -0.39268232      -0.80401567       2.51605605
H       -0.16760147      -1.10614440      -1.37014628
H        1.06028106       0.01143472      -2.25719420
H       -0.79623226       0.84298241       1.40355400
H        0.98195664       0.26115525       1.48685920
8
Properties=species:S:1:pos:R:3 relative_energy_eV=0.674012133135875 branch=right pbc="F F F"
C        0.07885199      -0.09526981      -1.75116511
O       -0.67823809       0.83099072      -1.60291472
C       -0.07379065       0.11077831       1.80097872
O       -0.38972868      -0.81369238       2.50419355
H       -0.16653910      -1.11058645      -1.37813555
H        1.06161414       0.00586664      -2.26457978
H       -0.80047611       0.85690997       1.42921489
H        0.97592433       0.26704474       1.48404944
8
Properties=species:S:1:pos:R:3 relative_energy_eV=0.6728841757212649 branch=right pbc="F F F"
C        0.08280606      -0.10108712      -1.75607979
O       -0.66359043       0.83118185      -1.59070963
C       -0.07889762       0.11808589       1.80648500
O       -0.38521406      -0.83085527       2.48107778
H       -0.16336794      -1.11655941      -1.38493717
H        1.05973190      -0.00626010      -2.28293892
H       -0.80985498       0.87679841       1.46900330
H        0.96600491       0.28073749       1.47974081
8
Properties=species:S:1:pos:R:3 relative_energy_eV=0.671388576884965 branch=right pbc="F F F"
C        0.08771716      -0.10861573      -1.75783500
O       -0.63597493       0.83595722      -1.55879529
C       -0.08524614       0.12636860       1.80866220
O       -0.38079118      -0.84918043       2.44933436
H       -0.16205802      -1.12434019      -1.39059963
H        1.05043438      -0.02445379      -2.31232281
H       -0.82295048       0.88812992       1.49996808
H        0.95648706       0.30817611       1.48322935
8
Properties=species:S:1:pos:R:3 relative_energy_eV=0.6701036532222133 branch=right pbc="F F F"
C        0.09635406      -0.11392675      -1.76064033
O       -0.60798690       0.84113978      -1.54981427
C       -0.09382566       0.13092317       1.81298105
O       -0.37641965      -0.87554332       2.41356883
H       -0.14820446      -1.12076687      -1.36950017
H        1.03618245      -0.04770568      -2.35352919
H       -0.84122294       0.91037854       1.55581742
H        0.94274099       0.32754277       1.47275777
8
Properties=species:S:1:pos:R:3 relative_energy_eV=0.6683289622878874 branch=right pbc="F F F"
C        0.10245689      -0.11668008      -1.75307346
O       -0.56036294       0.85980671      -1.50851997
C       -0.09932839       0.13010482       1.80612865
O       -0.37687284      -0.88615152       2.38213131
H       -0.14207723      -1.11378755      -1.33802021
H        1.00064418      -0.07587669      -2.40819721
H       -0.85901602       0.88486491       1.54286075
H        0.94217423       0.36976091       1.49833098
8
Properties=species:S:1:pos:R:3 relative_energy_eV=0.6673280942568454 branch=right pbc="F F F"
C        0.10656049      -0.11734169      -1.76042777
O       -0.54959535       0.86316039      -1.51742598
C       -0.10254949       0.13159719       1.81325708
O       -0.37508366      -0.90061940       2.37173819
H       -0.13592719      -1.10794176      -1.32486239
H        0.99225167      -0.08795637      -2.43382962
H       -0.86426183       0.89203136       1.56659266
H        0.93622325       0.37911174       1.50659858
8
Properties=species:S:1:pos:R:3 relative_energy_eV=0.6682129792670821 branch=right pbc="F F F"
C        0.10746589      -0.11794105      -1.75892664
O       -0.55543104       0.85792551      -1.52408058
C       -0.10260811       0.13233775       1.81030704
O       -0.37137248      -0.89913461       2.37093017
H       -0.13374119      -1.11315430      -1.33372253
H        0.99448219      -0.08085334      -2.41332611
H       -0.86318161       0.90604097       1.57924220
H        0.93200425       0.36682058       1.49121727
8
Properties=species:S:1:pos:R:3 relative_energy_eV=0.6666365931068867 branch=right pbc="F F F"
C        0.10981554      -0.11886437      -1.75814319
O       -0.53592710       0.86700475      -1.50574622
C       -0.10527440       0.13287890       1.81043573
O       -0.37102245      -0.90742343       2.35722665
H       -0.13151867      -1.10807075      -1.32027133
H        0.98175484      -0.09754489      -2.44500991
H       -0.87137184       0.89585468       1.57486422
H        0.93116198       0.38820655       1.50828473
8
Properties=species:S:1:pos:R:3 relative_energy_eV=0.6663544926886971 branch=right pbc="F F F"
C        0.11073617      -0.11705458      -1.76139600
O       -0.52764233       0.87288042      -1.51164121
C       -0.10575898       0.13085362       1.81388572
O       -0.37156549      -0.91140284       2.35585569
H       -0.12727256      -1.09940393      -1.30538357
H        0.97101351      -0.10725221      -2.46525139
H       -0.87428258       0.88701884       1.57090714
H        0.93239016       0.39640209       1.52466423
8
Properties=species:S:1:pos:R:3 relative_energy_eV=0.6658809653026765 branch=right pbc="F F F"
C        0.11415344      -0.11850253      -1.76519077
O       -0.50310322       0.88260495      -1.50132704
C       -0.10877796       0.13191362       1.81744795
O       -0.36877005      -0.92289622       2.33942696
H       -0.12192731      -1.09384939      -1.29379538
H        0.95029798      -0.12693297      -2.49880204
H       -0.88431603       0.88052705       1.57509673
H        0.93006104       0.41917683       1.54878406
8
Properties=species:S:1:pos:R:3 relative_energy_eV=0.6648016705194095 branch=right pbc="F F F"
C        0.11735899      -0.11884793      -1.77094157
O       -0.47055939       0.89702358      -1.49218081
C       -0.11123789       0.13227477       1.82272177
O       -0.36309251      -0.93519723       2.32176145
H       -0.11391501      -1.08352247      -1.27864503
H        0.91742524      -0.15377809      -2.54073436
H       -0.89689967       0.86651439       1.56833702
H        0.92853808       0.44757426       1.59132179
8
Properties=species:S:1:pos:R:3 relative_energy_eV=0.6636338956504915 branch=right pbc="F F F"
C        0.12071775      -0.11737123      -1.77641162
O       -0.44182297       0.91113989      -1.49595645
C       -0.11407913       0.13116846       1.82814110
O       -0.35562039      -0.94863964       2.30553861
H       -0.10055729      -1.06838141      -1.25176958
H        0.88404062      -0.17941458      -2.58090888
H       -0.90875010       0.85657565       1.56561110
H        0.92368934       0.46696404       1.62739580
8
Properties=species:S:1:pos:R:3 relative_energy_eV=0.6638629183889861 branch=right pbc="F F F"
C        0.11982480      -0.11782290      -1.78152832
O       -0.42572447       0.91715521      -1.49728433
C       -0.11428025       0.13185024       1.83322064
O       -0.35015946      -0.95226260       2.30048077
H       -0.09655530      -1.06439205      -1.25124392
H        0.86398683      -0.18899351      -2.59155827
H       -0.91171668       0.84852714       1.55516625
H        0.92224232       0.47797965       1.65438721
8
Properties=species:S:1:pos:R:3 relative_energy_eV=0.6635485027518371 branch=right pbc="F F F"
C        0.12542327      -0.11973769      -1.79039183
O       -0.36645314       0.94007214      -1.48526458
C       -0.12076591       0.13362628       1.84244337
O       -0.33841515      -0.97680747       2.26395296
H       -0.07836230      -1.04729433      -1.21852553
H        0.80608880      -0.23253310      -2.66049392
H       -0.93301346       0.83163576       1.55555856
H        0.91311561       0.52307945       1.71436067
8
Properties=species:S:1:pos:R:3 relative_energy_eV=0.6627565789449363 branch=right pbc="F F F"
C        0.12285289      -0.11792479      -1.77592232
O       -0.41103126       0.92171649      -1.48701801
C       -0.11778782       0.13196928       1.82854288
O       -0.34728539      -0.95870911       2.28470159
H       -0.08879123      -1.05974366      -1.23172215
H        0.85284827      -0.19871390      -2.60707353
H       -0.91871516       0.84856003       1.56123881
H        0.91552750       0.48488678       1.64889266
8
Properties=species:S:1:pos:R:3 relative_energy_eV=0.6623586820633136 branch=right pbc="F F F"
C        0.12394431      -0.11948887      -1.77913697
O       -0.39519044       0.92607808      -1.48203045
C       -0.11926313       0.13333597       1.83141857
O       -0.34450170      -0.96419913       2.27501643
H       -0.08617416      -1.05849752      -1.22995722
H        0.83888484      -0.20797477      -2.62116259
H       -0.92375790       0.84516586       1.56335511
H        0.91367595       0.49762148       1.66413698
8
Properties=species:S:1:pos:R:3 relative_energy_eV=0.6624886157715082 branch=right pbc="F F F"
C        0.12864346      -0.12221664      -1.78212713
O       -0.34469893       0.94150039      -1.46428478
C       -0.12481701       0.13593331       1.83417606
O       -0.33396889      -0.98088253       2.24067991
H       -0.07252289      -1.04941343      -1.20816177
H        0.79238700      -0.23901929      -2.66675069
H       -0.94189846       0.83380197       1.56606027
H        0.90449346       0.53233723       1.70204776
8
Properties=species:S:1:pos:R:3 relative_energy_eV=0.6619283816908137 branch=right pbc="F F F"
C        0.12636780      -0.12145855      -1.77936740
O       -0.37245123       0.93118652      -1.47193334
C       -0.12211001       0.13513477       1.83141874
O       -0.33999330      -0.97111891       2.25769915
H       -0.08080243      -1.05680324      -1.22238044
H        0.81996696      -0.21982446      -2.63825098
H       -0.93220258       0.84259005       1.56933829
H        0.90884256       0.51233487       1.67511577
8
Properties=species:S:1:pos:R:3 relative_energy_eV=0.6617394516115382 branch=right pbc="F F F"
C        0.12781010      -0.12257111      -1.77848378
O       -0.36215745       0.93278927      -1.46625757
C       -0.12368232       0.13621507       1.83046816
O       -0.33766416      -0.97417790       2.24848153
H       -0.07820149      -1.05665352      -1.21888901
H        0.81212777      -0.22461143      -2.64455904
H       -0.93637667       0.84300714       1.57438037
H        0.90576198       0.51804352       1.67649908
8
Properties=species:S:1:pos:R:3 relative_energy_eV=0.6618079328718522 branch=right pbc="F F F"
C        0.13790701      -0.12961622      -1.77433748
O       -0.28451417       0.94679072      -1.42938438
C       -0.13447157       0.14275630       1.82534262
O       -0.32103975      -0.99462173       2.18398515
H       -0.05899140      -1.05249716      -1.19032455
H        0.74984106      -0.26183148      -2.69550878
H       -0.96741809       0.83909817       1.60457465
H        0.88630463       0.56196230       1.69729222
8
Properties=species:S:1:pos:R:3 relative_energy_eV=0.6610753783443215 branch=right pbc="F F F"
C        0.13337709      -0.12709130      -1.77431980
O       -0.32541369       0.93628269      -1.44512351
C       -0.12941104       0.14049900       1.82582700
O       -0.32983580      -0.98259690       2.21439066
H       -0.07034836      -1.05837359      -1.20871738
H        0.78609674      -0.23897811      -2.66305964
H       -0.95191298       0.84556836       1.59708174
H        0.89506581       0.53673082       1.67556054
8
Properties=species:S:1:pos:R:3 relative_energy_eV=0.6608488771480552 branch=right pbc="F F F"
C        0.13603623      -0.12947734      -1.77364687
O       -0.30883091       0.93759676      -1.43707685
C       -0.13217997       0.14285488       1.82514597
O       -0.32600885      -0.98733356       2.19867572
H       -0.06676365      -1.05929741      -1.20560381
H        0.77454002      -0.24598987      -2.67209670
H       -0.95869539       0.84818212       1.61048333
H        0.88952027       0.54550538       1.67575878
8
Properties=species:S:1:pos:R:3 relative_energy_eV=0.6624940837828035 branch=right pbc="F F F"
C        0.14884797      -0.13976893      -1.77074760
O       -0.21816304       0.94894478      -1.39644978
C       -0.14540089       0.15297211       1.82176977
O       -0.30617030      -1.00848068       2.12061998
H       -0.04749597      -1.05893269      -1.18212738
H        0.70601151      -0.28604449      -2.72557387
H       -0.99467747       0.84882366       1.66216175
H        0.86466591       0.59452707       1.69198637
8
Properties=species:S:1:pos:R:3 relative_energy_eV=0.6605371502137132 branch=right pbc="F F F"
C        0.13870470      -0.13154117      -1.77356889
O       -0.29052696       0.93950844      -1.43026835
C       -0.13484143       0.14493925       1.82504168
O       -0.32212786      -0.99073203       2.18323833
H       -0.06321592      -1.05911061      -1.20110411
H        0.76083897      -0.25385164      -2.68281681
H       -0.96584070       0.84778091       1.62212079
H        0.88462695       0.55504779       1.67899684
8
Properties=species:S:1:pos:R:3 relative_energy_eV=0.6603571821779042 branch=right pbc="F F F"
C        0.14055164      -0.13322635      -1.77369476
O       -0.27840175       0.94047112      -1.42558366
C       -0.13671046       0.14664083       1.82529329
O       -0.31930645      -0.99332765       2.17243988
H       -0.06096660      -1.05964873      -1.19959709
H        0.75221718      -0.25906978      -2.68943594
H       -0.97062156       0.84881563       1.63185184
H        0.88085575       0.56138584       1.68036590
8
Properties=species:S:1:pos:R:3 relative_energy_eV=0.661682946523797 branch=right pbc="F F F"
C        0.15470709      -0.14479005      -1.77725800
O       -0.18455641       0.94995935      -1.39754218
C       -0.15117554       0.15824778       1.82926299
O       -0.29790493      -1.01433554       2.09129557
H       -0.04069096      -1.05885779      -1.18005250
H        0.68215652      -0.30222261      -2.74626320
H       -1.00751350       0.85377309       1.70575481
H        0.85259545       0.61026656       1.69644163
8
Properties=species:S:1:pos:R:3 relative_energy_eV=0.660040522437157 branch=right pbc="F F F"
C        0.14331646      -0.13561918      -1.77505041
O       -0.25937820       0.94235003      -1.42066047
C       -0.13947544       0.14912490       1.82692173
O       -0.31487290      -0.99678481       2.15662471
H       -0.05744379      -1.05959999      -1.19711610
H        0.73803503      -0.26792360      -2.70081068
H       -0.97783956       0.84910918       1.64683363
H        0.87527614       0.57138438       1.68489699
8
Properties=species:S:1:pos:R:3 relative_energy_eV=0.6598425708916693 branch=right pbc="F F F"
C        0.14535374      -0.13724136      -1.77635347
O       -0.24652756       0.94355406      -1.41872606
C       -0.14154826       0.15075739       1.82834101
O       -0.31184919      -0.99963323       2.14555520
H       -0.05444693      -1.05920672      -1.19461274
H        0.72839399      -0.27424383      -2.70902567
H       -0.98292459       0.85019318       1.65927799
H        0.87116653       0.57786140       1.68718308
8
Properties=species:S:1:pos:R:3 relative_energy_eV=0.6617718506759047 branch=right pbc="F F F"
C        0.15941988      -0.14928113      -1.78241815
O       -0.15174821       0.95267178      -1.39471617
C       -0.15576241       0.16307590       1.83539583
O       -0.28978473      -1.01736717       2.06527724
H       -0.03554092      -1.05885603      -1.18075048
H        0.65806117      -0.31852086      -2.76463897
H       -1.01989825       0.85376031       1.73830308
H        0.84287116       0.62655799       1.70518663
8
Properties=species:S:1:pos:R:3 relative_energy_eV=0.6596231659168552 branch=right pbc="F F F"
C        0.14755449      -0.13900426      -1.77832696
O       -0.23214439       0.94504363      -1.41760500
C       -0.14377013       0.15257963       1.83051696
O       -0.30842844      -1.00229191       2.13367085
H       -0.05118144      -1.05846771      -1.19225966
H        0.71739835      -0.28165792      -2.71828715
H       -0.98850971       0.85076174       1.67336047
H        0.86669900       0.58507768       1.69056979
8
Properties=species:S:1:pos:R:3 relative_energy_eV=0.6594826005002687 branch=right pbc="F F F"
C        0.14919030      -0.14037597      -1.77950185
O       -0.22129870       0.94611378      -1.41606991
C       -0.14542506       0.15399112       1.83183842
O       -0.30587573      -1.00417853       2.12462692
H       -0.04886528      -1.05816055      -1.19075172
H        0.70925165      -0.28703972      -2.72481644
H       -0.99273604       0.85116573       1.68359240
H        0.86337658       0.59052498       1.69272144
8
Properties=species:S:1:pos:R:3 relative_energy_eV=0.6606513927981723 branch=right pbc="F F F"
C        0.16180383      -0.15056880      -1.78810113
O       -0.13744946       0.95464589      -1.40501884
C       -0.15823940       0.16447378       1.84144226
O       -0.28644974      -1.01874833       2.05502875
H       -0.03020018      -1.05475078      -1.17651811
H        0.64559939      -0.32859546      -2.77527431
H       -1.02525703       0.85329068       1.76142339
H        0.83781028       0.63229378       1.70865694
8
Properties=species:S:1:pos:R:3 relative_energy_eV=0.6593090737251259 branch=right pbc="F F F"
C        0.15135846      -0.14216544      -1.78125790
O       -0.20657730       0.94765344      -1.41465913
C       -0.14762077       0.15584738       1.83381730
O       -0.30245546      -1.00637945       2.11268940
H       -0.04570732      -1.05750458      -1.18873831
H        0.69804635      -0.29446443      -2.73344205
H       -0.99834510       0.85120682       1.69750289
H        0.85891887       0.59784711       1.69572701
8
Properties=species:S:1:pos:R:3 relative_energy_eV=0.6592039170654971 branch=right pbc="F F F"
C        0.15293391      -0.14335417      -1.78239427
O       -0.19640778       0.94870601      -1.41404429
C       -0.14922001       0.15706571       1.83507592
O       -0.30009797      -1.00805433       2.10425061
H       -0.04321116      -1.05683462      -1.18668785
H        0.69023892      -0.29966230      -2.73945448
H       -1.00230946       0.85146710       1.70770437
H        0.85569127       0.60270743       1.69718916
8
Properties=species:S:1:pos:R:3 relative_energy_eV=0.6594695327221416 branch=right pbc="F F F"
C        0.16201824      -0.15045795      -1.78814335
O       -0.13509781       0.95521300      -1.40745661
C       -0.15844052       0.16435561       1.84163199
O       -0.28607232      -1.01722933       2.05426991
H       -0.02931122      -1.05356120      -1.17582638
H        0.64319799      -0.33007005      -2.77395939
H       -1.02563909       0.85114099       1.76407761
H        0.83696242       0.63264968       1.70704516
8
Properties=species:S:1:pos:R:3 relative_energy_eV=0.6590482999272353 branch=right pbc="F F F"
C        0.15551777      -0.14525508      -1.78406547
O       -0.17936532       0.95053251      -1.41309547
C       -0.15184055       0.15900548       1.83695692
O       -0.29621251      -1.01052121       2.09035235
H       -0.03903775      -1.05558786      -1.18317184
H        0.67703228      -0.30827831      -2.74886154
H       -1.00879700       0.85135837       1.72423792
H        0.85032078       0.61078692       1.69928624
8
Properties=species:S:1:pos:R:3 relative_energy_eV=0.6589827568386681 branch=right pbc="F F F"
C        0.15691561      -0.14626347      -1.78477847
O       -0.16990156       0.95160355      -1.41229041
C       -0.15325181       0.16003419       1.83779297
O       -0.29406433      -1.01179220       2.08272758
H       -0.03676019      -1.05488605      -1.18115144
H        0.66963626      -0.31297778      -2.75383537
H       -1.01234596       0.85104099       1.73274475
H        0.84738969       0.61528156       1.70042945
8
Properties=species:S:1:pos:R:3 relative_energy_eV=0.6589302566062543 branch=right pbc="F F F"
C        0.16279305      -0.15036804      -1.78741248
O       -0.13039628       0.95603734      -1.40926692
C       -0.15918286       0.16416923       1.84087006
O       -0.28512352      -1.01706664       2.05081903
H       -0.02698364      -1.05175149      -1.17206751
H        0.63863509      -0.33244298      -2.77384882
H       -1.02712560       0.84967382       1.76842639
H        0.83500145       0.63378949       1.70411918
8
Properties=species:S:1:pos:R:3 relative_energy_eV=0.6588242337074917 branch=right pbc="F F F"
C        0.16026166      -0.14848654      -1.78598358
O       -0.14687823       0.95436716      -1.41061073
C       -0.15661546       0.16227761       1.83928403
O       -0.28887831      -1.01456703       2.06448841
H       -0.03101887      -1.05278640      -1.17554941
H        0.65128767      -0.32428203      -2.76485648
H       -1.02076960       0.84949717       1.75238350
H        0.84022884       0.62602082       1.70248326
8
Properties=species:S:1:pos:R:3 relative_energy_eV=0.6587539699748959 branch=right pbc="F F F"
C        0.16116475      -0.14892982      -1.78590997
O       -0.14092000       0.95513419      -1.41042695
C       -0.15750884       0.16269576       1.83923750
O       -0.28751721      -1.01518724       2.05972167
H       -0.02924710      -1.05196069      -1.17338119
H        0.64636552      -0.32715653      -2.76702124
H       -1.02294736       0.84893382       1.75738243
H        0.83822794       0.62851126       1.70203671
8
Properties=species:S:1:pos:R:3 relative_energy_eV=0.6585172775166939 branch=right pbc="F F F"
C        0.16810017      -0.15232549      -1.78581474
O       -0.09054587       0.96268894      -1.40803234
C       -0.16439103       0.16603488       1.83977616
O       -0.27608171      -1.02037736       2.02177227
H       -0.01533680      -1.04465178      -1.15638784
H        0.60362323      -0.35181132      -2.78720389
H       -1.04047564       0.84115180       1.79214545
H        0.82272536       0.65133105       1.70538372
8
Properties=species:S:1:pos:R:3 relative_energy_eV=0.6583505721173424 branch=right pbc="F F F"
C        0.17016065      -0.15323466      -1.78383490
O       -0.07899426       0.96345302      -1.40678799
C       -0.16639027       0.16673426       1.83752722
O       -0.27324112      -1.02141257       2.01114626
H       -0.01161169      -1.04358824      -1.15170592
H        0.59472746      -0.35623609      -2.78697262
H       -1.04500715       0.84129073       1.80392763
H        0.81797408       0.65503427       1.69833909
8
Properties=species:S:1:pos:R:3 relative_energy_eV=0.6582073333729568 branch=right pbc="F F F"
C        0.17262416      -0.15317588      -1.78214542
O       -0.05917388       0.96787706      -1.40848320
C       -0.16879242       0.16669034       1.83607086
O       -0.26840358      -1.02323874       1.99787130
H       -0.00448977      -1.03764453      -1.13995352
H        0.57528125      -0.36642858      -2.79254637
H       -1.05124732       0.83470550       1.81132684
H        0.81181928       0.66325556       1.69949819
8
Properties=species:S:1:pos:R:3 relative_energy_eV=0.6594957536381116 branch=right pbc="F F F"
C        0.18346003      -0.15707419      -1.77776330
O        0.02104837       0.98067882      -1.40584473
C       -0.17945328       0.17040811       1.83247008
O       -0.24919292      -1.03086295       1.93827413
H        0.01892834      -1.02371634      -1.10832094
H        0.50501308      -0.40437262      -2.81578935
H       -1.07859289       0.81922152       1.85952549
H        0.78640699       0.69775839       1.69908703
8
Properties=species:S:1:pos:R:3 relative_energy_eV=0.6581591691556241 branch=right pbc="F F F"
C        0.17406391      -0.15369870      -1.78037247
O       -0.04653375       0.96987719      -1.40649974
C       -0.17018397       0.16719937       1.83456071
O       -0.26512387      -1.02395823       1.98902278
H       -0.00171858      -1.03601394      -1.13640541
H        0.56422811      -0.37155610      -2.79376757
H       -1.05523625       0.83125270       1.81550292
H        0.80812211       0.66893848       1.69959742
8
Properties=species:S:1:pos:R:3 relative_energy_eV=0.6581217316670518 branch=right pbc="F F F"
C        0.17489259      -0.15367297      -1.78028517
O       -0.04198993       0.97074845      -1.40794939
C       -0.17101392       0.16716008       1.83428069
O       -0.26375185      -1.02493049       1.98510700
H        0.00070182      -1.03413532      -1.13203000
H        0.55979271      -0.37423809      -2.79572335
H       -1.05726671       0.83099697       1.81968218
H        0.80625300       0.67011212       1.69855667
8
Properties=species:S:1:pos:R:3 relative_energy_eV=0.6580499242618316 branch=right pbc="F F F"
C        0.17662255      -0.15408133      -1.77911287
O       -0.02755768       0.97332028      -1.40774280
C       -0.17272050       0.16752062       1.83326241
O       -0.25989638      -1.02629489       1.97499826
H        0.00473111      -1.03122829      -1.12605138
H        0.54662434      -0.38085846      -2.79890122
H       -1.06210001       0.82733977       1.82566187
H        0.80191427       0.67632306       1.69952432
8
Properties=species:S:1:pos:R:3 relative_energy_eV=0.658535959269102 branch=right pbc="F F F"
C        0.18508406      -0.15568753      -1.77258461
O        0.04346823       0.98616810      -1.40704782
C       -0.18102215       0.16898080       1.82739383
O       -0.24050474      -1.03273463       1.92536765
H        0.02492901      -1.01605467      -1.09502119
H        0.48127153      -0.41338873      -2.81320545
H       -1.08599482       0.80855902       1.85324791
H        0.78038662       0.70619844       1.70348801
8
Properties=species:S:1:pos:R:3 relative_energy_eV=0.6579902021676389 branch=right pbc="F F F"
C        0.17786710      -0.15424055      -1.77769873
O       -0.01535765       0.97561013      -1.40732776
C       -0.17393400       0.16766339       1.83204600
O       -0.25633101      -1.02723039       1.96699951
H        0.00771812      -1.02866899      -1.12132700
H        0.53521621      -0.38613875      -2.80048436
H       -1.06604406       0.82339124       1.82821574
H        0.79848300       0.68165470       1.70121513
8
Properties=species:S:1:pos:R:3 relative_energy_eV=0.6579510749916153 branch=right pbc="F F F"
C        0.17874966      -0.15429581      -1.77700128
O       -0.00724980       0.97717283      -1.40774057
C       -0.17481870       0.16769681       1.83139270
O       -0.25387271      -1.02804622       1.96153735
H        0.01004308      -1.02661909      -1.11741843
H        0.52750591      -0.38987542      -2.80201165
H       -1.06881857       0.82101892       1.83059363
H        0.79607885       0.68498876       1.70228676
8
Properties=species:S:1:pos:R:3 relative_energy_eV=0.6592490890479894 branch=right pbc="F F F"
C        0.18869293      -0.15505177      -1.76867969
O        0.08659086       0.99501335      -1.41141613
C       -0.18475442       0.16826034       1.82382055
O       -0.22528525      -1.03689522       1.89886656
H        0.03579172      -1.00368875      -1.07440004
H        0.43861552      -0.43251516      -2.81875537
H       -1.10065872       0.79287076       1.85616705
H        0.76862509       0.72404730       1.71603526
8
Properties=species:S:1:pos:R:3 relative_energy_eV=0.6578998969671375 branch=right pbc="F F F"
C        0.17946303      -0.15424167      -1.77634232
O        0.00083545       0.97877960      -1.40837567
C       -0.17554973       0.16762719       1.83077833
O       -0.25105328      -1.02885360       1.95642458
H        0.01206973      -1.02441573      -1.11361250
H        0.51963760      -0.39347768      -2.80330657
H       -1.07163349       0.81829557       1.83152349
H        0.79384842       0.68832712       1.70454913
8
Properties=species:S:1:pos:R:3 relative_energy_eV=0.6578634023971972 branch=right pbc="F F F"
C        0.18001106      -0.15421262      -1.77591704
O        0.00755187       0.98011522      -1.40894357
C       -0.17612324       0.16758081       1.83040544
O       -0.24871216      -1.02951047       1.95230513
H        0.01362554      -1.02264637      -1.11069808
H        0.51310890      -0.39645331      -2.80450462
H       -1.07391364       0.81594533       1.83211310
H        0.79206940       0.69122221       1.70687812
8
Properties=species:S:1:pos:R:3 relative_energy_eV=0.6588463183634303 branch=right pbc="F F F"
C        0.18770479      -0.15399991      -1.76956416
O        0.10066953       0.99817970      -1.41558545
C       -0.18410599       0.16718989       1.82477745
O       -0.21619538      -1.03823058       1.89456566
H        0.03484311      -0.99874673      -1.07072686
H        0.42326746      -0.43727123      -2.82070379
H       -1.10571112       0.78385893       1.84098653
H        0.76714533       0.73106085       1.73788878
8
Properties=species:S:1:pos:R:3 relative_energy_eV=0.657789415253319 branch=right pbc="F F F"
C        0.18066861      -0.15410115      -1.77539855
O        0.01798821       0.98215275      -1.40999148
C       -0.17684202       0.16745447       1.82998208
O       -0.24462876      -1.03050983       1.94622961
H        0.01557668      -1.01986038      -1.10648386
H        0.50289921      -0.40088518      -2.80632663
H       -1.07751502       0.81201111       1.83156678
H        0.78947081       0.69577901       1.71206047
8
Properties=species:S:1:pos:R:3 relative_energy_eV=0.657725007667068 branch=right pbc="F F F"
C        0.18117923      -0.15403456      -1.77509297
O        0.02651016       0.98379107      -1.41086682
C       -0.17741341       0.16736215       1.82972602
O       -0.24131916      -1.03131496       1.94133143
H        0.01707129      -1.01764990      -1.10318286
H        0.49460470      -0.40446099      -2.80789466
H       -1.08040649       0.80876184       1.83108827
H        0.78739139       0.69958618       1.71652998
8
Properties=species:S:1:pos:R:3 relative_energy_eV=0.6589792422309984 branch=right pbc="F F F"
C        0.18709008      -0.15342690      -1.77059722
O        0.12024059       1.00128401      -1.41924099
C       -0.18384578       0.16658581       1.82608943
O       -0.20499588      -1.03981315       1.88653854
H        0.03350136      -0.99390640      -1.06708050
H        0.40399942      -0.44342233      -2.82440820
H       -1.11236863       0.77368875       1.82730256
H        0.76399652       0.74105117       1.76303446
8
Properties=species:S:1:pos:R:3 relative_energy_eV=0.6576470055015307 branch=right pbc="F F F"
C        0.18157712      -0.15392074      -1.77485497
O        0.03652297       0.98560093      -1.41189871
C       -0.17790577       0.16722960       1.82956424
O       -0.23696772      -1.03219514       1.93586331
H        0.01824283      -1.01512812      -1.09970667
H        0.48490161      -0.40836542      -2.80971323
H       -1.08382381       0.80468475       1.82901481
H        0.78507050       0.70413499       1.72336959
8
Properties=species:S:1:pos:R:3 relative_energy_eV=0.6575855612782107 branch=right pbc="F F F"
C        0.18189950      -0.15386288      -1.77476034
O        0.04470839       0.98701579      -1.41279349
C       -0.17830689       0.16714560       1.82953317
O       -0.23346350      -1.03291952       1.93141973
H        0.01910611      -1.01316104      -1.09708385
H        0.47703918      -0.41151478      -2.81126917
H       -1.08656644       0.80137392       1.82750442
H        0.78320135       0.70796376       1.72908788
8
Properties=species:S:1:pos:R:3 relative_energy_eV=0.6592081826847789 branch=right pbc="F F F"
C        0.18602669      -0.15329650      -1.77183570
O        0.14104321       1.00321848      -1.42053146
C       -0.18322225       0.16634538       1.82718608
O       -0.19232412      -1.04076723       1.87770865
H        0.02945378      -0.99056120      -1.06491986
H        0.38531212      -0.44777118      -2.82775006
H       -1.11907126       0.76293763       1.81016881
H        0.76039945       0.75193568       1.79161156
8
Properties=species:S:1:pos:R:3 relative_energy_eV=0.657498098628821 branch=right pbc="F F F"
C        0.18210094      -0.15379952      -1.77469458
O        0.05440268       0.98846569      -1.41364520
C       -0.17861861       0.16706448       1.82957199
O       -0.22886599      -1.03366113       1.92633630
H        0.01944916      -1.01104394      -1.09445147
H        0.46791393      -0.41483124      -2.81305822
H       -1.08978733       0.79726755       1.82433951
H        0.78102291       0.71257901       1.73723997
8
Properties=species:S:1:pos:R:3 relative_energy_eV=0.657429458081424 branch=right pbc="F F F"
C        0.18226017      -0.15380111      -1.77472852
O        0.06222704       0.98955965      -1.41423081
C       -0.17887115       0.16702936       1.82961857
O       -0.22523270      -1.03423354       1.92221007
H        0.01962089      -1.00946342      -1.09246083
H        0.46066988      -0.41740287      -2.81446524
H       -1.09234139       0.79398170       1.82194538
H        0.77928495       0.71637114       1.74374967
8
Properties=species:S:1:pos:R:3 relative_energy_eV=0.6586616273916661 branch=right pbc="F F F"
C        0.18454463      -0.15381687      -1.77332015
O        0.15175962       1.00161161      -1.41971608
C       -0.18199262       0.16682412       1.82903989
O       -0.18378203      -1.04042685       1.87388622
H        0.02196286      -0.99174064      -1.06949106
H        0.37819913      -0.44669975      -2.82993070
H       -1.12176065       0.75705355       1.79631909
H        0.75868663       0.75923595       1.81485076
8
Properties=species:S:1:pos:R:3 relative_energy_eV=0.6573240609977802 branch=right pbc="F F F"
C        0.18237812      -0.15386681      -1.77461975
O        0.07365373       0.99079919      -1.41450861
C       -0.17913362       0.16705494       1.82955014
O       -0.21957624      -1.03486700       1.91610986
H        0.01920401      -1.00752308      -1.08992605
H        0.45047977      -0.42061123      -2.81630456
H       -1.09600370       0.78915130       1.81750261
H        0.77661561       0.72190363       1.75383459
8
Properties=species:S:1:pos:R:3 relative_energy_eV=0.657250823580398 branch=right pbc="F F F"
C        0.18247713      -0.15397065      -1.77469363
O        0.08218702       0.99160250      -1.41487080
C       -0.17933322       0.16711996       1.82969238
O       -0.21544334      -1.03536283       1.91158428
H        0.01874889      -1.00622360      -1.08845459
H        0.44297820      -0.42297055      -2.81782200
H       -1.09867226       0.78561033       1.81462230
H        0.77467524       0.72623582       1.76158027
8
Properties=species:S:1:pos:R:3 relative_energy_eV=0.6578689994366869 branch=right pbc="F F F"
C        0.18366699      -0.15497834      -1.77323446
O        0.15837492       0.99858084      -1.41434594
C       -0.18131309       0.16782798       1.82825598
O       -0.17866718      -1.03888132       1.86950669
H        0.01517760      -0.99495201      -1.07264547
H        0.37677559      -0.44310840      -2.82898645
H       -1.12287600       0.75430608       1.78834201
H        0.75647872       0.76324637       1.82474558
8
Properties=species:S:1:pos:R:3 relative_energy_eV=0.6571269300438871 branch=right pbc="F F F"
C        0.18260848      -0.15425674      -1.77450067
O        0.09629589       0.99242965      -1.41462790
C       -0.17961249       0.16736199       1.82962340
O       -0.20838073      -1.03588590       1.90378900
H        0.01733775      -1.00456747      -1.08633911
H        0.43114183      -0.42623625      -2.82001036
H       -1.10299903       0.77984762       1.80943898
H        0.77122594       0.73334813       1.77426482
8
Properties=species:S:1:pos:R:3 relative_energy_eV=0.6570460023604028 branch=right pbc="F F F"
C        0.18269999      -0.15454243      -1.77439228
O        0.10556458       0.99283165      -1.41409001
C       -0.17981416       0.16758942       1.82945367
O       -0.20383631      -1.03613753       1.89850528
H        0.01626808      -1.00370055      -1.08499887
H        0.42361917      -0.42815213      -2.82122131
H       -1.10579989       0.77615863       1.80626553
H        0.76891616       0.73799398       1.78211612
8
Properties=species:S:1:pos:R:3 relative_energy_eV=0.6572080097657818 branch=right pbc="F F F"
C        0.18357500      -0.15632625      -1.77274351
O        0.16528896       0.99498524      -1.41075470
C       -0.18122467       0.16915531       1.82818750
O       -0.17455454      -1.03757818       1.86397746
H        0.00944546      -0.99826344      -1.07684306
H        0.37530502      -0.44063129      -2.82931185
H       -1.12393504       0.75272969       1.78726288
H        0.75371733       0.76797019       1.83186320
8
Properties=species:S:1:pos:R:3 relative_energy_eV=0.6568851173506118 branch=right pbc="F F F"
C        0.18292006      -0.15534731      -1.77368603
O        0.12437069       0.99284351      -1.41179125
C       -0.18022559       0.16828609       1.82864572
O       -0.19453221      -1.03617701       1.88714994
H        0.01328993      -1.00272215      -1.08274359
H        0.40928637      -0.43116946      -2.82320769
H       -1.11137551       0.76896309       1.80013472
H        0.76388383       0.74736436       1.79713624
8
Properties=species:S:1:pos:R:3 relative_energy_eV=0.6568106010354313 branch=right pbc="F F F"
C        0.18306594      -0.15583615      -1.77342972
O        0.13316730       0.99251787      -1.41074276
C       -0.18045741       0.16873983       1.82844632
O       -0.19024155      -1.03614713       1.88167543
H        0.01161387      -1.00256043      -1.08226160
H        0.40289553      -0.43241542      -2.82424722
H       -1.11388993       0.76580458       1.79804996
H        0.76146382       0.75193801       1.80414760
8
Properties=species:S:1:pos:R:3 relative_energy_eV=0.6567777956533973 branch=right pbc="F F F"
C        0.18421774      -0.15934616      -1.77007404
O        0.19173036       0.98977161      -1.40037352
C       -0.18211466       0.17193276       1.82493959
O       -0.16192484      -1.03487170       1.84371826
H        0.00030636      -1.00226341      -1.07742707
H        0.36152016      -0.43949564      -2.82919550
H       -1.13094046       0.74509500       1.78407624
H        0.74482281       0.78121898       1.84597384
8
Properties=species:S:1:pos:R:3 relative_energy_eV=0.6565218394389376 branch=right pbc="F F F"
C        0.18372864      -0.15807204      -1.77162863
O        0.16227641       0.98950720      -1.40450759
C       -0.18133679       0.17085043       1.82676075
O       -0.17620641      -1.03486737       1.86185705
H        0.00437575      -1.00385511      -1.08170399
H        0.38401284      -0.43465530      -2.82665976
H       -1.12208988       0.75615548       1.79300310
H        0.75285694       0.76697804       1.82451699
8
Properties=species:S:1:pos:R:3 relative_energy_eV=0.6563839350310445 branch=right pbc="F F F"
C        0.18412448      -0.15926228      -1.77051558
O        0.17283066       0.98756820      -1.40060757
C       -0.18183380       0.17198125       1.82550172
O       -0.17140037      -1.03388808       1.85358142
H        0.00126125      -1.00519395      -1.08163163
H        0.37832681      -0.43460642      -2.82670017
H       -1.12503628       0.75329136       1.79275296
H        0.74934473       0.77215130       1.82925673
8
Properties=species:S:1:pos:R:3 relative_energy_eV=0.6563507700884657 branch=right pbc="F F F"
C        0.18783263      -0.16894248      -1.76034914
O        0.26596746       0.97153329      -1.36977576
C       -0.18619027       0.18109996       1.81505007
O       -0.12941450      -1.02551066       1.78178256
H       -0.02459503      -1.01510070      -1.08019248
H        0.32599949      -0.43634091      -2.82917440
H       -1.15159214       0.72675577       1.79056023
H        0.71960962       0.81854765       1.87373643
8
Properties=species:S:1:pos:R:3 relative_energy_eV=0.65576616724411 branch=right pbc="F F F"
C        0.18659534      -0.16552226      -1.76319012
O        0.21961236       0.97548100      -1.37863578
C       -0.18452822       0.17792033       1.81765389
O       -0.15147650      -1.02704852       1.81333946
H       -0.01450807      -1.01377117      -1.08227809
H        0.35683134      -0.43183460      -2.82534428
H       -1.13848670       0.74176341       1.79708307
H        0.73357780       0.79505349       1.84300954
8
Properties=species:S:1:pos:R:3 relative_energy_eV=0.6553527045653027 branch=right pbc="F F F"
C        0.18853037      -0.16929043      -1.75867676
O        0.24644710       0.96808794      -1.36561917
C       -0.18662518       0.18170254       1.81302479
O       -0.14070921      -1.02334026       1.78899371
H       -0.02269218      -1.01856229      -1.08236161
H        0.34483068      -0.43069648      -2.82422734
H       -1.14640638       0.73613111       1.80328962
H        0.72424211       0.80800974       1.84721436
8
Properties=species:S:1:pos:R:3 relative_energy_eV=0.6568560932792025 branch=right pbc="F F F"
C        0.19510939      -0.18180375      -1.74477009
O        0.33415774       0.94383707      -1.32416152
C       -0.19385518       0.19450942       1.79894522
O       -0.10550353      -1.01191246       1.70883419
H       -0.04882445      -1.03417951      -1.08328673
H        0.30573720      -0.42769753      -2.82104179
H       -1.17219519       0.71906321       1.82730799
H        0.69299111       0.85022600       1.85980999
8
Properties=species:S:1:pos:R:3 relative_energy_eV=0.6627012883909629 branch=right pbc="F F F"
C        0.18883497      -0.17064389      -1.75532040
O        0.25551147       0.96188103      -1.36246535
C       -0.18840806       0.17726041       1.81022503
O       -0.14076977      -1.01435345       1.77907375
H       -0.02583421      -1.02130966      -1.08238270
H        0.34354852      -0.42976546      -2.82527201
H       -1.14931991       0.73364243       1.81343831
H        0.72405424       0.81533057       1.84434089
8
Properties=species:S:1:pos:R:3 relative_energy_eV=0.6594952705481774 branch=right pbc="F F F"
C        0.19570895      -0.17745112      -1.74932242
O        0.29493621       0.94764182      -1.33330594
C       -0.19231928       0.19528787       1.80526732
O       -0.12275056      -1.01635859       1.73524225
H       -0.03829112      -1.02982939      -1.08554124
H        0.32835088      -0.42591979      -2.81747888
H       -1.16070234       0.73095475       1.83131610
H        0.70268447       0.82771664       1.83546025
8
Properties=species:S:1:pos:R:3 relative_energy_eV=0.6545964740234922 branch=right pbc="F F F"
C        0.19141792      -0.17491190      -1.75305580
O        0.27666535       0.95736092      -1.35112569
C       -0.19001508       0.18594952       1.80719835
O       -0.13362692      -1.01604088       1.75895982
H       -0.03094943      -1.02492059      -1.08200038
H        0.33339479      -0.42809235      -2.82231617
H       -1.15541190       0.72948840       1.82119908
H        0.71614251       0.82320896       1.84277825
8
Properties=species:S:1:pos:R:3 relative_energy_eV=0.6542533391093457 branch=right pbc="F F F"
C        0.19356551      -0.17593395      -1.74905014
O        0.28123500       0.95455944      -1.34435872
C       -0.19221212       0.18763142       1.80385827
O       -0.13275833      -1.01525700       1.74941274
H       -0.02953779      -1.02666101      -1.08050079
H        0.33321273      -0.42863705      -2.81940422
H       -1.15760951       0.73319527       1.83364610
H        0.71172176       0.82314499       1.82803422
8
Properties=species:S:1:pos:R:3 relative_energy_eV=0.654104139487572 branch=right pbc="F F F"
C        0.19394582      -0.17677259      -1.75094296
O        0.28284148       0.95311432      -1.34565262
C       -0.19276882       0.18851621       1.80558626
O       -0.13401041      -1.01492834       1.74690095
H       -0.02966506      -1.02749838      -1.08174295
H        0.33351256      -0.42910270      -2.82059715
H       -1.15747482       0.73368261       1.84170384
H        0.71123650       0.82503100       1.82638209
8
Properties=species:S:1:pos:R:3 relative_energy_eV=0.6537047442288895 branch=right pbc="F F F"
C        0.19569942      -0.17894296      -1.75259028
O        0.28549524       0.95085710      -1.34720393
C       -0.19478353       0.19058917       1.80735908
O       -0.13978532      -1.01305002       1.73946845
H       -0.02620626      -1.02950013      -1.08204031
H        0.33496931      -0.43136207      -2.82159764
H       -1.15788512       0.73661312       1.86789559
H        0.71011352       0.82683792       1.81034650
8
Properties=species:S:1:pos:R:3 relative_energy_eV=0.6528110928784372 branch=right pbc="F F F"
C        0.20316385      -0.18675557      -1.75572364
O        0.29541961       0.94341301      -1.35190177
C       -0.20352602       0.19796128       1.81122080
O       -0.16129996      -1.00568985       1.71049966
H       -0.01112690      -1.03605414      -1.08024167
H        0.33950498      -0.44082439      -2.82407733
H       -1.15964540       0.74821835       1.96720430
H        0.70512716       0.83177351       1.74465710
8
Properties=species:S:1:pos:R:3 relative_energy_eV=0.6518330516510105 branch=right pbc="F F F"
C        0.20423138      -0.18721890      -1.75630816
O        0.29744215       0.94564620      -1.35704404
C       -0.20516409       0.19903206       1.81312462
O       -0.16572216      -1.00390412       1.70749025
H       -0.00522475      -1.03370776      -1.07595199
H        0.33615467      -0.44573505      -2.82586019
H       -1.15750158       0.74599485       1.98024182
H        0.70340172       0.83193492       1.73594513
8
Properties=species:S:1:pos:R:3 relative_energy_eV=0.6504921201894831 branch=right pbc="F F F"
C        0.21261460      -0.19465707      -1.75776606
O        0.31263257       0.94333744      -1.36926625
C       -0.21561857       0.20694054       1.81760585
O       -0.18701859      -0.99344829       1.67597865
H        0.01497158      -1.03532807      -1.06696476
H        0.33162492      -0.46173660      -2.83006167
H       -1.15310826       0.74988855       2.08006936
H        0.69151916       0.83704583       1.67204228
8
Properties=species:S:1:pos:R:3 relative_energy_eV=0.646866153708288 branch=right pbc="F F F"
C        0.21858968      -0.19972152      -1.75634983
O        0.33177052       0.94281327      -1.38000651
C       -0.22281624       0.21260365       1.81893630
O       -0.19126460      -0.98213883       1.65029489
H        0.02226954      -1.03569198      -1.06277325
H        0.32040689      -0.47427742      -2.83354441
H       -1.14381543       0.74472758       2.13309518
H        0.67247704       0.84372787       1.65198495
8
Properties=species:S:1:pos:R:3 relative_energy_eV=0.6448866247610567 branch=right pbc="F F F"
C        0.22784798      -0.20809411      -1.75989542
O        0.34880742       0.93407863      -1.38739774
C       -0.23127920       0.22191231       1.82160561
O       -0.20764687      -0.96626566       1.61495499
H        0.02973219      -1.04040013      -1.06427086
H        0.31975661      -0.48761852      -2.83627242
H       -1.13258560       0.74465057       2.22635446
H        0.65298485       0.85377982       1.60655861
8
Properties=species:S:1:pos:R:3 relative_energy_eV=0.6431887312191975 branch=right pbc="F F F"
C        0.23308615      -0.21253959      -1.76847273
O        0.35288844       0.91999828      -1.38491278
C       -0.23033613       0.22723969       1.82225122
O       -0.21254533      -0.95224679       1.59889826
H        0.01406279      -1.04546651      -1.08144634
H        0.32926251      -0.48931806      -2.83585060
H       -1.11634337       0.73843578       2.25698788
H        0.63754223       0.86594048       1.61418226
8
Properties=species:S:1:pos:R:3 relative_energy_eV=0.639427472974603 branch=right pbc="F F F"
C        0.23656278      -0.21628350      -1.77566856
O        0.37212243       0.92151301      -1.40681663
C       -0.23458755       0.22917531       1.83249179
O       -0.21800627      -0.95026849       1.58209389
H        0.02375865      -1.03997105      -1.07407769
H        0.31313135      -0.50322473      -2.84648128
H       -1.11165130       0.73203725       2.30169180
H        0.62628720       0.87906564       1.60840375
8
Properties=species:S:1:pos:R:3 relative_energy_eV=0.6378585733918953 branch=right pbc="F F F"
C        0.23840878      -0.21873051      -1.78047883
O        0.37784052       0.92529675      -1.42407935
C       -0.23680493       0.22905011       1.83870464
O       -0.22951333      -0.94797402       1.57690354
H        0.03345256      -1.03573980      -1.06687424
H        0.30616961      -0.51195014      -2.84956589
H       -1.10238497       0.72594848       2.33202303
H        0.62044907       0.88614267       1.59500418
8
Properties=species:S:1:pos:R:3 relative_energy_eV=0.6366350353027883 branch=right pbc="F F F"
C        0.24383449      -0.22405649      -1.78691412
O        0.39242996       0.92122458      -1.43856062
C       -0.24108440       0.23387871       1.84597111
O       -0.24186334      -0.93802577       1.55506228
H        0.03811059      -1.03506983      -1.06796935
H        0.29986670      -0.52439612      -2.85322654
H       -1.08666839       0.71750902       2.38844748
H        0.60299167       0.90097974       1.57882676
8
Properties=species:S:1:pos:R:3 relative_energy_eV=0.6346479939056735 branch=right pbc="F F F"
C        0.24977303      -0.22872943      -1.79586635
O        0.41017260       0.91985502      -1.46538521
C       -0.24533231       0.23799663       1.85656941
O       -0.25898186      -0.92586350       1.53044431
H        0.04757855      -1.02828507      -1.06339078
H        0.28674285      -0.54453929      -2.85732161
H       -1.05898965       0.69884591       2.45008992
H        0.57665404       0.92276402       1.56649721
8
Properties=species:S:1:pos:R:3 relative_energy_eV=0.6338362031547149 branch=right pbc="F F F"
C        0.25863869      -0.23572084      -1.80295218
O        0.42721578       0.91728304      -1.49256323
C       -0.25279115       0.24472992       1.86323412
O       -0.28499390      -0.90713612       1.49696280
H        0.06246548      -1.02339450      -1.05512210
H        0.27778005      -0.56754376      -2.85864500
H       -1.02533311       0.68150264       2.54264504
H        0.54463541       0.94232440       1.52807738
8
Properties=species:S:1:pos:R:3 relative_energy_eV=0.632068330301081 branch=right pbc="F F F"
C        0.25575254      -0.23270119      -1.79578362
O        0.41413134       0.91987490      -1.48226383
C       -0.25098955       0.24268882       1.85442879
O       -0.28249125      -0.90944581       1.50866762
H        0.06192960      -1.02479282      -1.05340252
H        0.28570160      -0.56022223      -2.85121977
H       -1.02740875       0.68513022       2.51460353
H        0.55099173       0.93151276       1.52660669
8
Properties=species:S:1:pos:R:3 relative_energy_eV=0.6310034486050426 branch=right pbc="F F F"
C        0.25810221      -0.23499122      -1.79956706
O        0.42608125       0.92025257      -1.49838801
C       -0.25375924       0.24533636       1.85906447
O       -0.28833432      -0.90263336       1.49389878
H        0.06842416      -1.02009957      -1.04875579
H        0.27581197      -0.57234557      -2.85523494
H       -1.01402342       0.67462623       2.54640524
H        0.53531463       0.94189946       1.52421414
8
Properties=species:S:1:pos:R:3 relative_energy_eV=0.6308193280519845 branch=right pbc="F F F"
C        0.26395606      -0.24173789      -1.80585236
O        0.44304169       0.91731640      -1.52573371
C       -0.26048051       0.25247158       1.86731118
O       -0.31192977      -0.88423288       1.46330906
H        0.08147061      -1.01493194      -1.04421770
H        0.26629476      -0.59416853      -2.85717172
H       -0.97624273       0.65307178       2.62526275
H        0.50150710       0.96425692       1.49872926
8
Properties=species:S:1:pos:R:3 relative_energy_eV=0.6298352975272792 branch=right pbc="F F F"
C        0.26093596      -0.23938490      -1.80343807
O        0.43587211       0.91771800      -1.51510785
C       -0.25827872       0.25013113       1.86455689
O       -0.30457527      -0.89044149       1.47478144
H        0.07717311      -1.01648333      -1.04589078
H        0.27086301      -0.58608351      -2.85610033
H       -0.98657205       0.65928815       2.59486750
H        0.51219907       0.95730122       1.50796800
8
Properties=species:S:1:pos:R:3 relative_energy_eV=0.6293707659415304 branch=right pbc="F F F"
C        0.26196996      -0.24093634      -1.80541166
O        0.43847858       0.91733605      -1.52235676
C       -0.26003341       0.25155215       1.86558822
O       -0.31243714      -0.88545291       1.46815370
H        0.08175758      -1.01436197      -1.04246649
H        0.26943508      -0.59186726      -2.85634679
H       -0.97384767       0.65257151       2.61443506
H        0.50229423       0.96320417       1.50004150
8
Properties=species:S:1:pos:R:3 relative_energy_eV=0.6288409837889049 branch=right pbc="F F F"
C        0.26654210      -0.24938996      -1.81378900
O        0.45097517       0.91081223      -1.54560946
C       -0.26648199       0.25994867       1.87268158
O       -0.34363524      -0.86334019       1.43964275
H        0.09229933      -1.01261526      -1.04192226
H        0.26781611      -0.61096422      -2.85858911
H       -0.92201397       0.62665931       2.69593245
H        0.46211563       0.99093542       1.47328978
8
Properties=species:S:1:pos:R:3 relative_energy_eV=0.628235106601096 branch=right pbc="F F F"
C        0.26506826      -0.24734391      -1.81174263
O        0.44643718       0.91177074      -1.53675915
C       -0.26466957       0.25791306       1.87071314
O       -0.33648918      -0.86882265       1.44886842
H        0.08847774      -1.01442051      -1.04356150
H        0.27018544      -0.60459496      -2.85875681
H       -0.93296918       0.63302111       2.67212107
H        0.47157650       0.98452295       1.48075423
8
Properties=species:S:1:pos:R:3 relative_energy_eV=0.6277625596494545 branch=right pbc="F F F"
C        0.26682357      -0.24966427      -1.81392676
O        0.44989754       0.90983654      -1.54105747
C       -0.26652000       0.26035577       1.87273945
O       -0.34581837      -0.86243281       1.44205546
H        0.09100747      -1.01472527      -1.04316400
H        0.27001642      -0.60930704      -2.86087249
H       -0.91678715       0.62524751       2.69303539
H        0.45899769       0.99273553       1.47282717
8
Properties=species:S:1:pos:R:3 relative_energy_eV=0.6268316906816835 branch=right pbc="F F F"
C        0.27326414      -0.25977423      -1.82130461
O        0.46176635       0.89943651      -1.55019182
C       -0.27311767       0.27046630       1.87935533
O       -0.37938972      -0.83790715       1.41681566
H        0.09439013      -1.02161041      -1.04858518
H        0.27476627      -0.62106845      -2.86737069
H       -0.85693811       0.59959692       2.76893097
H        0.41287576       1.02290698       1.44398707
8
Properties=species:S:1:pos:R:3 relative_energy_eV=0.6255362833526306 branch=right pbc="F F F"
C        0.27462955      -0.26192849      -1.82120506
O        0.46115925       0.89518595      -1.53957603
C       -0.27346861       0.27247348       1.87953746
O       -0.38277049      -0.83490998       1.41771680
H        0.08823461      -1.02955971      -1.05551706
H        0.28146805      -0.61505740      -2.87007774
H       -0.84880143       0.59999498       2.77008842
H        0.40716621       1.02584762       1.44066998
8
Properties=species:S:1:pos:R:3 relative_energy_eV=0.6234303064247797 branch=right pbc="F F F"
C        0.28350726      -0.27609669      -1.82603560
O        0.46895667       0.87488383      -1.51701075
C       -0.27989298       0.28637521       1.88510695
O       -0.42054634      -0.80662003       1.39900635
H        0.07492850      -1.05732291      -1.07859680
H        0.30421037      -0.60806116      -2.88221508
H       -0.77647728       0.58010136       2.83622057
H        0.35293093       1.05878717       1.40516123
8
Properties=species:S:1:pos:R:3 relative_energy_eV=0.6216895980314803 branch=right pbc="F F F"
C        0.28780941      -0.28397300      -1.82440428
O        0.46725545       0.85944328      -1.48190563
C       -0.28184339       0.29430373       1.88467648
O       -0.43705915      -0.79468255       1.39698290
H        0.05785629      -1.08384468      -1.10048252
H        0.32789743      -0.58996453      -2.88980394
H       -0.74225406       0.57946877       2.85147509
H        0.32795516       1.07129576       1.38509889
8
Properties=species:S:1:pos:R:3 relative_energy_eV=0.6204660745233923 branch=right pbc="F F F"
C        0.29129369      -0.29282054      -1.82124561
O        0.46384425       0.84163300      -1.44576684
C       -0.28481926       0.30366166       1.88128391
O       -0.45981645      -0.78019308       1.38999058
H        0.04369954      -1.10971474      -1.12130451
H        0.35513060      -0.57315352      -2.89396094
H       -0.69707392       0.57566924       2.87630161
H        0.29535871       1.08696480       1.35633891
8
Properties=species:S:1:pos:R:3 relative_energy_eV=0.6187942485039457 branch=right pbc="F F F"
C        0.29182866      -0.30416903      -1.80281651
O        0.44212976       0.80857012      -1.35392280
C       -0.28693325       0.31693986       1.86181367
O       -0.48930960      -0.76855968       1.38940812
H        0.01557863      -1.15926635      -1.15875627
H        0.41656999      -0.52643192      -2.88968803
H       -0.63667881       0.58783857       2.87560327
H        0.25443182       1.09712501       1.29999600
8
Properties=species:S:1:pos:R:3 relative_energy_eV=0.6160556958839152 branch=right pbc="F F F"
C        0.28739816      -0.29784650      -1.80172864
O        0.44130560       0.81979010      -1.38036816
C       -0.28492925       0.31067746       1.85999336
O       -0.47855237      -0.77968316       1.39053743
H        0.03025434      -1.13797942      -1.14037251
H        0.40010328      -0.53880022      -2.88076725
H       -0.65926508       0.58831474       2.86191845
H        0.27130252       1.08757364       1.31242470
8
Properties=species:S:1:pos:R:3 relative_energy_eV=0.614498655699208 branch=right pbc="F F F"
C        0.28801530      -0.30047302      -1.78820434
O        0.43526474       0.81459849      -1.35789279
C       -0.28851441       0.31268798       1.84578231
O       -0.49886792      -0.77811197       1.38079627
H        0.03691391      -1.14427067      -1.13365721
H        0.41346345      -0.53149654      -2.86439525
H       -0.62208637       0.58511301       2.87312079
H        0.24342856       1.09399947       1.26608772
8
Properties=species:S:1:pos:R:3 relative_energy_eV=0.6118481911835261 branch=right pbc="F F F"
C        0.28709218      -0.29693504      -1.77891563
O        0.43122873       0.81890270      -1.34594451
C       -0.28803750       0.30856068       1.83402915
O       -0.49192433      -0.78909304       1.38393405
H        0.03893257      -1.14395328      -1.12472182
H        0.41359303      -0.52442374      -2.85361743
H       -0.63128866       0.59537963       2.84874910
H        0.24802132       1.08360868       1.25812467
8
Properties=species:S:1:pos:R:3 relative_energy_eV=0.610177672780992 branch=right pbc="F F F"
C        0.28952448      -0.29376874      -1.76837611
O        0.43002974       0.82428411      -1.33832812
C       -0.28814328       0.30543436       1.82299930
O       -0.49205272      -0.79862534       1.38411157
H        0.04345143      -1.14362430      -1.11227546
H        0.41092782      -0.51949180      -2.84531975
H       -0.62853166       0.60055448       2.83531848
H        0.24241158       1.07728370       1.24350775
8
Properties=species:S:1:pos:R:3 relative_energy_eV=0.6094370752480245 branch=right pbc="F F F"
C        0.29295258      -0.28779261      -1.75935783
O        0.43376543       0.83697113      -1.34580852
C       -0.28888650       0.29932139       1.81506738
O       -0.48726134      -0.80938395       1.38432988
H        0.05580046      -1.13207430      -1.09141463
H        0.39457393      -0.52654005      -2.83677052
H       -0.63677651       0.60194245       2.82229992
H        0.24344943       1.06960236       1.23329198
8
Properties=species:S:1:pos:R:3 relative_energy_eV=0.6093060592074835 branch=right pbc="F F F"
C        0.29397804      -0.28770127      -1.75933977
O        0.43643962       0.83765022      -1.34804207
C       -0.28935492       0.29951676       1.81511091
O       -0.48828111      -0.80880803       1.38241575
H        0.05699254      -1.13049287      -1.09022803
H        0.39186761      -0.52910016      -2.83732106
H       -0.63359939       0.59952409       2.82614556
H        0.23957509       1.07145773       1.23289634
8
Properties=species:S:1:pos:R:3 relative_energy_eV=0.6092351047154807 branch=right pbc="F F F"
C        0.29454853      -0.28795399      -1.75890897
O        0.43818119       0.83710339      -1.34748524
C       -0.28981994       0.29992402       1.81525736
O       -0.48993557      -0.80808877       1.38129695
H        0.05736969      -1.13000194      -1.09026918
H        0.39142400      -0.52994007      -2.83731840
H       -0.62948192       0.59762266       2.82888029
H        0.23533150       1.07338118       1.23018482
8
Properties=species:S:1:pos:R:3 relative_energy_eV=0.6091332828218583 branch=right pbc="F F F"
C        0.29524182      -0.28826196      -1.75995899
O        0.44210613       0.83702261      -1.35012158
C       -0.29047177       0.30007239       1.81647919
O       -0.49046445      -0.80710765       1.38015124
H        0.05735496      -1.12853277      -1.09006624
H        0.38916995      -0.53191242      -2.83837426
H       -0.62579353       0.59470071       2.83305231
H        0.23047435       1.07606561       1.23047595
8
Properties=species:S:1:pos:R:3 relative_energy_eV=0.6087573545482883 branch=right pbc="F F F"
C        0.29779109      -0.28914744      -1.76139886
O        0.45557478       0.83563600      -1.35411368
C       -0.29308568       0.30068257       1.81820536
O       -0.49369828      -0.80453208       1.37718670
H        0.05630560      -1.12500658      -1.08937586
H        0.38420635      -0.53574237      -2.84002546
H       -0.60818458       0.58483849       2.84557120
H        0.20870814       1.08531812       1.22558819
8
Properties=species:S:1:pos:R:3 relative_energy_eV=0.6082411762781703 branch=right pbc="F F F"
C        0.30102697      -0.28950451      -1.76406444
O        0.47480108       0.83476268      -1.36124782
C       -0.29620525       0.30082384       1.82124527
O       -0.49577400      -0.80271110       1.37561443
H        0.05398496      -1.11975398      -1.08800372
H        0.37648914      -0.54018846      -2.84260389
H       -0.58784063       0.57229744       2.85899379
H        0.18113509       1.09632101       1.22170389
8
Properties=species:S:1:pos:R:3 relative_energy_eV=0.6074541634043271 branch=right pbc="F F F"
C        0.30454691      -0.28930371      -1.76508732
O        0.49739393       0.83224771      -1.36352750
C       -0.30019241       0.30085546       1.82166488
O       -0.49765277      -0.80228632       1.37578423
H        0.04866236      -1.11556949      -1.08718570
H        0.37111588      -0.54106989      -2.84321927
H       -0.56152164       0.55924909       2.87001788
H        0.14526505       1.10792430       1.21319023
8
Properties=species:S:1:pos:R:3 relative_energy_eV=0.6067594201249449 branch=right pbc="F F F"
C        0.30724188      -0.28868598      -1.76522718
O        0.51698928       0.82845470      -1.36059268
C       -0.30337184       0.30102836       1.82116194
O       -0.49739869      -0.80371074       1.37807527
H        0.04016314      -1.11479335      -1.08888585
H        0.36971723      -0.53715654      -2.84350678
H       -0.54036808       0.55088221       2.87404698
H        0.11464432       1.11602863       1.20656566
8
Properties=species:S:1:pos:R:3 relative_energy_eV=0.6067352707177633 branch=right pbc="F F F"
C        0.31106291      -0.29024637      -1.76249090
O        0.53784813       0.81911041      -1.34585565
C       -0.30835323       0.30354844       1.81708786
O       -0.50410696      -0.80188716       1.37660667
H        0.02806352      -1.12011406      -1.09502140
H        0.37575284      -0.52847588      -2.84247996
H       -0.50144425       0.54051931       2.88539500
H        0.06879420       1.12959281       1.18839568
8
Properties=species:S:1:pos:R:3 relative_energy_eV=0.6064576066792142 branch=right pbc="F F F"
C        0.30965420      -0.28930077      -1.76223036
O        0.53063285       0.82140546      -1.34697341
C       -0.30677647       0.30252585       1.81737785
O       -0.49985809      -0.80375340       1.37750145
H        0.03022781      -1.11941200      -1.09412202
H        0.37515396      -0.52918856      -2.84230730
H       -0.51719851       0.54680223       2.87728060
H        0.08578142       1.12296859       1.19511051
8
Properties=species:S:1:pos:R:3 relative_energy_eV=0.6064021145948573 branch=right pbc="F F F"
C        0.31063159      -0.28930450      -1.76272544
O        0.53675473       0.82073039      -1.34765926
C       -0.30772576       0.30245324       1.81823101
O       -0.49979445      -0.80380537       1.37737652
H        0.02836028      -1.11834601      -1.09451269
H        0.37343617      -0.52941101      -2.84315732
H       -0.51226637       0.54435854       2.87968230
H        0.07822096       1.12537218       1.19440217
8
Properties=species:S:1:pos:R:3 relative_energy_eV=0.6063158895340166 branch=right pbc="F F F"
C        0.31258838      -0.28939128      -1.76274214
O        0.54888323       0.81787023      -1.34563372
C       -0.31000112       0.30250985       1.81843284
O       -0.50049932      -0.80401214       1.37736769
H        0.02303731      -1.11701535      -1.09628568
H        0.37265037      -0.52780769      -2.84394142
H       -0.49994085       0.54031032       2.88392354
H        0.06089909       1.12958363       1.19051609
8
Properties=species:S:1:pos:R:3 relative_energy_eV=0.6062171769199267 branch=right pbc="F F F"
C        0.31392688      -0.28920118      -1.76283759
O        0.55719322       0.81586121      -1.34409477
C       -0.31148817       0.30216926       1.81862696
O       -0.50107127      -0.80477852       1.37816575
H        0.01871187      -1.11550983      -1.09775525
H        0.37267612      -0.52623605      -2.84439297
H       -0.49283790       0.53881969       2.88592779
H        0.05050630       1.13092305       1.18799721
8
Properties=species:S:1:pos:R:3 relative_energy_eV=0.6059775440708108 branch=right pbc="F F F"
C        0.31651500      -0.28814316      -1.76341622
O        0.57236587       0.81255139      -1.34139249
C       -0.31397021       0.30065903       1.81933703
O       -0.50310319      -0.80747481       1.38187731
H        0.00957447      -1.11170002      -1.10118269
H        0.37380369      -0.52269961      -2.84539081
H       -0.48237474       0.53868311       2.88836707
H        0.03480603       1.13017180       1.18343775
8
Properties=species:S:1:pos:R:3 relative_energy_eV=0.6057062999088885 branch=right pbc="F F F"
C        0.31912099      -0.28621414      -1.76475714
O        0.58684828       0.80998596      -1.33905398
C       -0.31603351       0.29832507       1.82070249
O       -0.50734435      -0.81138667       1.38853620
H       -0.00044190      -1.10734019      -1.10573291
H        0.37644777      -0.51866045      -2.84689235
H       -0.47401046       0.54107402       2.89030601
H        0.02302996       1.12626425       1.17852835
8
Properties=species:S:1:pos:R:3 relative_energy_eV=0.6054183246169487 branch=right pbc="F F F"
C        0.32115766      -0.28329230      -1.76709951
O        0.59807980       0.80910932      -1.33818801
C       -0.31733637       0.29521148       1.82299503
O       -0.51413980      -0.81637157       1.39838806
H       -0.00970024      -1.10256234      -1.11099806
H        0.38056134      -0.51498569      -2.84909750
H       -0.47018017       0.54655387       2.89147175
H        0.01917439       1.11838513       1.17416463
8
Properties=species:S:1:pos:R:3 relative_energy_eV=0.6051810743601891 branch=right pbc="F F F"
C        0.32129830      -0.28059952      -1.76980358
O        0.59937443       0.81108618      -1.34024420
C       -0.31719025       0.29263930       1.82554469
O       -0.52083031      -0.82014695       1.40746756
H       -0.01310352      -1.09941544      -1.11440460
H        0.38434505      -0.51391568      -2.85126105
H       -0.47471319       0.55340639       2.89128268
H        0.02843600       1.10899359       1.17305468
8
Properties=species:S:1:pos:R:3 relative_energy_eV=0.6049650260374619 branch=right pbc="F F F"
C        0.31946201      -0.27832340      -1.77296941
O        0.59009592       0.81622889      -1.34567411
C       -0.31567372       0.29070625       1.82848831
O       -0.52699733      -0.82251608       1.41546796
H       -0.01033165      -1.09816215      -1.11571356
H        0.38751908      -0.51558818      -2.85346928
H       -0.48874057       0.56188029       2.88963654
H        0.05228272       1.09782213       1.17586961
8
Properties=species:S:1:pos:R:3 relative_energy_eV=0.6048844358929273 branch=right pbc="F F F"
C        0.31714742      -0.27784303      -1.77431551
O        0.57752489       0.82087758      -1.35028672
C       -0.31408567       0.29053892       1.82973990
O       -0.52835903      -0.82239975       1.41741408
H       -0.00426911      -1.09942825      -1.11432685
H        0.38819914      -0.51821755      -2.85419435
H       -0.50278733       0.56694460       2.88710762
H        0.07424621       1.09157509       1.18049792
8
Properties=species:S:1:pos:R:3 relative_energy_eV=0.6048604131392494 branch=right pbc="F F F"
C        0.31690699      -0.27823497      -1.77372825
O        0.57601904       0.82106395      -1.35006180
C       -0.31425959       0.29103981       1.82917838
O       -0.52707875      -0.82193856       1.41598990
H       -0.00318036      -1.10024415      -1.11345615
H        0.38767749      -0.51839323      -2.85375229
H       -0.50355999       0.56654789       2.88641202
H        0.07509171       1.09220685       1.18105432
8
Properties=species:S:1:pos:R:3 relative_energy_eV=0.604852846355243 branch=right pbc="F F F"
C        0.31687616      -0.27841501      -1.77322491
O        0.57543660       0.82106821      -1.34977808
C       -0.31463966       0.29132359       1.82870332
O       -0.52650101      -0.82184481       1.41526215
H       -0.00271523      -1.10044226      -1.11286713
H        0.38749846      -0.51840801      -2.85335469
H       -0.50338458       0.56622802       2.88604125
H        0.07504580       1.09253786       1.18085421
8
Properties=species:S:1:pos:R:3 relative_energy_eV=0.6048556251735135 branch=right pbc="F F F"
C        0.31705493      -0.27840782      -1.77341695
O        0.57645248       0.82078882      -1.34972874
C       -0.31503422       0.29136631       1.82883079
O       -0.52664834      -0.82189679       1.41549122
H       -0.00345302      -1.10023577      -1.11327994
H        0.38765880      -0.51827724      -2.85353714
H       -0.50232751       0.56594392       2.88652209
H        0.07391343       1.09276618       1.18075479
