16
Properties=species:S:1:pos:R:3 pbc="F F F"
C       -1.32529833      -0.73158309      -1.58848045
C       -0.35344820       0.21596097      -0.91443343
O       -0.29405311       1.40183782      -1.69856466
N        1.00146444      -0.30870195      -0.75449715
C        1.00290719       0.62880195       2.56141742
N       -0.12564820       0.07500840       2.71202276
H       -0.97999900      -0.98071358      -2.59208735
H       -1.42653934      -1.65306084      -1.01435010
H       -2.31000068      -0.27630309      -1.67336676
H        1.35836119      -0.53746467      -1.67823542
H        0.41226403       1.94004116      -1.31877076
H        0.94304520      -1.19097212      -0.26010481
H        1.01676148       1.69519790       2.33710647
H        1.97486424       0.12649113       2.62223135
H       -0.71974458       0.46298720       0.08707015
H       -0.03697084      -0.92401807       2.91364437
