16
Properties=species:S:1:pos:R:3 pbc="F F F"
C       -1.20652173      -0.79123159      -1.34757636
C       -0.22123767       0.21463201      -0.82551513
O       -0.51921284       1.52098031      -1.20891145
N        1.09557415      -0.09620471      -0.71578452
C        0.98221503       0.37009581       1.81823171
N       -0.36233675       0.24617248       1.66740112
H       -1.08223770      -0.92559515      -2.42592469
H       -1.07553208      -1.75369828      -0.85268284
H       -2.22422334      -0.44379915      -1.18150007
H        1.26053101      -1.09667638      -0.79644510
H        0.32289750       1.99753054      -1.22410072
H        1.39509469       0.13706105       0.42598886
H        1.35690413       1.38941663       1.90957272
H        1.54380010      -0.37829171       2.37634071
H       -0.58317745       0.30152233       0.49590784
H       -0.68253647      -0.69191332       1.88500061
