16
Properties=species:S:1:pos:R:3 pbc="F F F"
O        1.13373606       0.01719064      -1.23515967
C        0.09265424      -0.61313541      -0.51902794
C       -1.17585299      -0.10869588      -1.17405463
O       -1.30466134       1.30073017      -1.08682187
C       -0.04813772       1.05445097       1.29819652
O        0.85073460       1.43924039       1.95370595
C        0.26564180      -0.32772784       0.96693327
O        1.42027981      -1.14974694       1.31286357
H       -1.26485617      -0.41176251      -2.22177392
H       -2.05765418      -0.51011171      -0.67519899
H       -0.53329694       1.68013237      -1.52591881
H       -0.85652938       0.95783213       1.41170170
H        1.95880032      -0.26774633      -0.82102166
H        0.13066320      -1.66590789      -0.81889195
H       -0.47223202      -1.03648138       1.34232896
H        1.82648397      -0.39529351       1.77309082
