16
Properties=species:S:1:pos:R:3 pbc="F F F"
O        0.81705182      -0.90308954      -1.46118386
C       -0.47535479      -0.52016741      -1.24603215
C       -1.19031756       0.17776292      -2.30022200
O       -0.73640575       0.89483999      -1.13027092
C       -0.08618546       0.41958186       2.02941403
O        0.06227988       1.63456029       1.39670869
C        0.81960071      -0.54515435       1.88989513
O        1.95364942      -0.39416308       1.13259766
H       -0.66375829       0.42791832      -3.21320339
H       -2.26703160       0.08486287      -2.37959440
H       -0.23622291       1.55244345       0.47420792
H       -0.94347785       0.31037578       2.68707042
H        1.25257238      -1.00962567      -0.59595814
H       -1.02242495      -1.12123271      -0.52141572
H        0.74143248      -1.52502747       2.33652654
H        2.00873344       0.55323270       0.92055243
