16
Properties=species:S:1:pos:R:3 pbc="F F F"
O        0.91736039      -0.92025909      -1.37785513
C       -0.27933142      -0.54316829      -1.08838020
C       -1.09034424       0.27408018      -1.95561747
O       -0.64281360       1.41734608      -1.25482326
C       -0.20423752       0.31729982       1.82103507
O       -0.05692056       1.39854193       1.08096540
C        0.69455929      -0.68164644       1.76778285
O        1.84050192      -0.48723109       0.97563506
H       -0.79173117       0.27153605      -3.00244931
H       -2.16089735       0.08871420      -1.85149283
H       -0.44247089       1.40664424      -0.12777546
H       -1.06705999       0.24682280       2.48423206
H        1.45502231      -1.00280180      -0.51989922
H       -0.63548819      -0.66491760      -0.08191251
H        0.68632347      -1.59495261       2.33356048
H        1.77747841       0.47403594       0.79701964
