16
Properties=species:S:1:pos:R:3 pbc="F F F"
O       -2.23995100      -0.87254374      -1.37645157
C       -0.92359280      -0.67362281      -1.03444532
C        0.06675557      -0.19709562      -1.79523219
O        1.25261737       0.06500301      -1.21127510
C        1.28407863       0.11096725       1.25416536
O        1.85233293      -0.94268464       1.64050269
C       -0.18134372       0.38398362       1.39123627
O       -0.25606491       1.80298191       1.38213847
H        1.67536166      -0.94614924      -0.67889116
H       -0.18656878       0.10770704      -2.80670514
H       -2.40646132      -0.51802788      -2.25935909
H       -0.78249551      -0.91433041       0.00950668
H        1.97225346       0.60444848       0.54726336
H       -0.59652094      -0.13627137       2.25452115
H       -0.58583669       0.00864704       0.44514700
H        0.05543608       2.11698736       2.23787858
