9
Properties=species:S:1:pos:R:3 pbc="F F F"
O       -0.06827332       1.02231515      -2.05931047
O        1.42907438      -0.48286771       1.74040849
C        0.05208898      -0.52083282      -0.22489062
C       -0.46139812       0.68228952      -0.97208549
C        0.39630125      -0.17628108       1.20051054
H        0.89896190      -0.96846364      -0.73623362
H       -0.77578474      -1.24636112      -0.18427705
H       -1.24537052       1.26616563      -0.43924192
H       -0.38137498       0.40726463       1.74280311
