16
Properties=species:S:1:pos:R:3 pbc="F F F"
O       -3.36912875       0.47459070       0.25796619
C       -2.49426791      -0.23470757      -0.19070394
C       -1.04829173       0.26005649      -0.27857877
O       -0.97342782       1.63605950       0.01875013
C       -0.33237043      -0.51475880       0.77164678
O       -0.08494026       0.09692280       1.92295942
C        1.89835553      -0.41210117      -0.70547777
O        1.55511458       0.06395807      -1.77482950
H       -2.69632908      -1.27216052      -0.52679247
H       -0.60798930       0.05546428      -1.25407569
H       -1.89042539       1.92954438       0.14110048
H       -0.28098899      -1.59120621       0.81327824
H       -0.20975626       1.05771167       1.75492024
H        1.91945350      -1.50841854      -0.52308443
H        2.37944401       0.18996532       0.09286208
H        6.23559099      -0.23078595      -0.51999997
