12
Properties=species:S:1:pos:R:3 pbc="F F F"
C        0.63757990       0.28980706      -1.12869154
O        1.39449734      -0.38693784      -0.46721565
O        0.20214973       0.72218911       2.93784783
C       -0.39585391      -0.24178095      -2.06506685
C       -0.38711982      -0.12443858       2.06312758
O       -1.37784439       0.17735751       1.45974142
H       -0.30624820       0.23497977      -3.04276170
H        0.66762123       1.39738650      -1.05060164
H        1.03798299       0.34747008       3.24596839
H       -0.31755883      -1.32036221      -2.16448610
H        0.12051806      -1.09304567       1.97805433
H       -1.38283183       0.01594650      -1.67711561
