12
Properties=species:S:1:pos:R:3 pbc="F F F"
C        0.10537574      -0.36500492      -0.51887054
O        0.53975386      -1.51488320      -0.51687481
O       -0.34241412       1.01071574       2.00584378
C       -0.37723784       0.09490669      -1.84718187
C        0.06033506      -0.26989078       2.02188553
O       -0.50855457      -1.30431404       2.20893169
H        0.25018184       0.72733542      -2.47096689
H        0.53892010       0.48483903       0.00786445
H        0.45056580       1.56925772       1.87517563
H       -0.71982388      -0.61573109      -2.58714723
H        1.23572480      -0.57430928       1.58259060
H       -1.23282678       0.75707872      -1.76125032
