18
Properties=species:S:1:pos:R:3 pbc="F F F"
O        0.16559050       1.07201484       1.83185813
C       -0.70997388       0.37068029       1.36656775
O       -1.80976679       0.03544244       2.05103173
C       -0.72870068      -0.21495930      -0.02604660
O        0.50144082       0.01770560      -0.70499241
P        1.84615185      -0.68595611      -0.09077654
O        1.56896691      -1.90635138       0.68614765
O        2.71037935      -0.86947481      -1.42694544
O        2.63088532       0.51329118       0.63487422
C       -1.80331820       0.42096027      -0.90788335
O       -1.80335653      -0.16047091      -2.18926177
H       -1.72346003       0.42901430       2.93465337
H       -0.91474521      -1.28636605       0.05538306
H        3.43971277      -0.23968448      -1.46832614
H        2.01930306       0.93176272       1.27234170
H       -2.78365891       0.23909468      -0.47279374
H       -1.63457207       1.50340397      -0.95040328
H       -0.90759164      -0.06677766      -2.53957404
