18
Properties=species:S:1:pos:R:3 pbc="F F F"
O        0.11402610       1.17258306       1.79351082
C       -0.76289165       0.39703882       1.49178325
O       -1.83281824      -0.23245272       1.98333341
C       -0.46492612      -0.22059495       0.14742221
O        0.65817813      -0.00830843      -0.68898553
P        1.98349632      -0.54875189       0.09979520
O        1.72695651      -1.68198366       1.00503685
O        2.97654878      -0.86056486      -1.11515908
O        2.64229404       0.78240032       0.71968397
C       -1.44583308       0.31960102      -0.66013843
O       -1.84876798      -0.89623776      -2.16580442
H       -1.73870036       0.19809121       2.84757970
H       -1.23234378      -0.89459390      -1.03486571
H        3.46827098      -0.07708924      -1.39046270
H        1.98431594       1.19256260       1.31132115
H       -2.51561351       0.32020170      -0.48166530
H       -1.40860536       1.26718650      -1.18507671
H       -2.30363226      -0.22903383      -2.67729413
