12
Properties=species:S:1:pos:R:3 pbc="F F F"
C        0.08547827      -0.47534398       0.20679254
O        1.37418595      -1.03413366       0.27982870
O        1.14003956       1.16251054       1.24497452
C       -0.24162044      -0.40646740      -1.28214277
C       -0.00369539       0.87124571       0.91510062
O       -1.24528454       1.38682027       1.03648043
H        0.39129105       0.32510466      -1.78036220
H       -1.85763856       0.76404079       0.61734764
H       -0.52005816      -1.22041914       0.74576332
H       -0.09248208      -1.38814694      -1.72329162
H        2.16823460       0.10333817       1.00044641
H       -1.29104301      -0.12301031      -1.37015090
