16
Properties=species:S:1:pos:R:3 pbc="F F F"
O       -1.72618090       2.09980547      -1.29642606
C       -1.80540633       0.75456003      -0.91483196
C       -1.42457042       0.26598142       0.45329349
O       -2.15864559      -0.75224132       1.07884882
C       -0.63528498      -0.11449128      -0.72880641
O        1.75815019       0.85220435       1.43796614
C        0.39591633      -0.71072897      -1.22214102
O        1.34422522      -1.25844678      -1.64277782
H       -2.92737144      -0.34735737       1.49548936
H       -0.96154319       0.98328124       1.12386628
H       -0.79557831       2.34990578      -1.35345467
H       -2.67756174       0.28139501      -1.34967831
H        2.07535757       0.84594821       2.34613125
H        3.94398412      -2.62639342      -0.00899174
H        1.49986810      -0.05895049       1.27451500
H        4.27113249      -2.66938771      -0.65533355
