12
Properties=species:S:1:pos:R:3 pbc="F F F"
C        0.06110029      -0.73426670      -1.18368515
O        0.64321256      -1.33417671      -0.16643151
O        0.77617518       0.92279674       1.17033657
C       -0.06656113       0.64246885      -1.15493747
C        0.31030191      -0.31794807       1.30853349
O       -1.03207829      -0.42807286       1.43084444
H       -1.42824051      -0.05967467       0.60687746
H       -0.30461214      -1.43821249      -2.00915561
H        0.26160472       1.19693848       0.33736755
H       -0.79787181       1.29866160      -1.57503597
H        0.89042014      -0.87082387       2.03107612
H        0.72163458       1.20680697      -0.69494480
