16
Properties=species:S:1:pos:R:3 pbc="F F F"
O        0.18696899       1.21671326       0.22251441
C        0.19521758       1.37590852      -1.17868733
C        1.41259868       1.02925766      -1.88712501
O        1.01589579       2.39403654      -1.66435994
C       -1.24541257      -1.10196392       0.95708533
O       -1.75810098       0.06546048       1.01485748
C       -0.46824125      -1.71809408       2.08853809
O       -0.14658570      -1.13683946       3.09529733
H        2.28736008       0.71076363      -1.33145469
H        1.34197690       0.68324564      -2.90980996
H        0.12847895      -0.97903956       0.18144771
H       -1.65891753      -1.83181434       0.25271244
H       -0.78866130       0.91271751       0.64450219
H       -0.78772354       1.26963534      -1.63062041
H       -0.15414071      -2.76163333       1.88047468
H        0.43929069      -0.12838182       0.26462307
