12
Properties=species:S:1:pos:R:3 pbc="F F F"
O        0.98909144      -0.47971088      -2.27771409
C        0.45927620       0.44270943      -1.68487000
C        0.54684164       0.49058979       1.20855663
O        1.04804714       0.78606041       2.26946769
C       -0.62891538      -0.43645331       1.05959796
O       -0.93853113      -0.56766822      -0.33600230
H        0.68352184       0.75630098      -0.55408381
H        0.72303758       0.75228694       0.06987361
H       -0.27928671       1.09508560      -2.21763160
H       -1.48460805       0.01957712       1.55614762
H       -0.39661862      -1.39065047       1.52792112
H       -0.72185901      -1.46812827      -0.62126231
