8
Properties=species:S:1:pos:R:3 relative_energy_eV=0.0 branch=left pbc="F F F"
O       -1.60502925      -0.30907113       1.11491432
C       -0.92046430       0.27000558       0.22253458
C        0.48508055       0.09900498      -0.08167693
O        1.19669149      -0.90628856       0.40278985
H       -0.94164619      -0.25237048      -0.87396677
H       -1.16769948       1.33311399      -0.05464035
H        0.92040424       0.72612391      -0.85659966
H        2.09283675      -0.90329424       0.03565406
8
Properties=species:S:1:pos:R:3 relative_energy_eV=1.4390489013749175e-06 branch=left pbc="F F F"
O       -1.60482086      -0.30919577       1.11500291
C       -0.92042404       0.27006965       0.22260866
C        0.48497576       0.09883792      -0.08197097
O        1.19660907      -0.90618875       0.40295028
H       -0.94171117      -0.25222381      -0.87404349
H       -1.16789716       1.33309753      -0.05464011
H        0.92077681       0.72602869      -0.85654553
H        2.09266540      -0.90320141       0.03564736
8
Properties=species:S:1:pos:R:3 relative_energy_eV=2.938121724582743e-06 branch=left pbc="F F F"
O       -1.60459795      -0.30933542       1.11520508
C       -0.92046584       0.27003687       0.22261915
C        0.48486235       0.09863499      -0.08226067
O        1.19654647      -0.90613759       0.40310967
H       -0.94181120      -0.25192599      -0.87397395
H       -1.16803364       1.33300907      -0.05488398
H        0.92116676       0.72608024      -0.85640348
H        2.09250687      -0.90313811       0.03559731
8
Properties=species:S:1:pos:R:3 relative_energy_eV=1.5205998352030292e-05 branch=left pbc="F F F"
O       -1.60438268      -0.30949560       1.11543811
C       -0.92059482       0.26990980       0.22251620
C        0.48479685       0.09845640      -0.08243945
O        1.19652377      -0.90620423       0.40317953
H       -0.94199458      -0.25144375      -0.87379502
H       -1.16809464       1.33292414      -0.05521779
H        0.92142481       0.72612942      -0.85633302
H        2.09249512      -0.90305212       0.03566057
8
Properties=species:S:1:pos:R:3 relative_energy_eV=3.349670805619098e-05 branch=left pbc="F F F"
O       -1.60392035      -0.30989865       1.11568265
C       -0.92088401       0.26968222       0.22214667
C        0.48482212       0.09818940      -0.08263573
O        1.19650054      -0.90662266       0.40297259
H       -0.94260847      -0.25018008      -0.87355406
H       -1.16832503       1.33303429      -0.05531410
H        0.92159848       0.72563653      -0.85680849
H        2.09299054      -0.90261698       0.03651960
8
Properties=species:S:1:pos:R:3 relative_energy_eV=0.00010924643629550701 branch=left pbc="F F F"
O       -1.60295911      -0.31076273       1.11561929
C       -0.92119050       0.26961287       0.22150880
C        0.48501647       0.09775176      -0.08314395
O        1.19637245      -0.90762366       0.40211104
H       -0.94406613      -0.24774770      -0.87371559
H       -1.16918653       1.33376004      -0.05400558
H        0.92167506       0.72352929      -0.85876060
H        2.09451213      -0.90129581       0.03939568
8
Properties=species:S:1:pos:R:3 relative_energy_eV=0.00022339424504025374 branch=left pbc="F F F"
O       -1.60195014      -0.31170433       1.11510962
C       -0.92115572       0.26994449       0.22111008
C        0.48523473       0.09727469      -0.08401628
O        1.19611818      -0.90866062       0.40095782
H       -0.94575880      -0.24548375      -0.87458566
H       -1.17035176       1.33487928      -0.05130824
H        0.92168902       0.72048677      -0.86154744
H        2.09634833      -0.89951245       0.04328916
8
Properties=species:S:1:pos:R:3 relative_energy_eV=0.00033172449002449866 branch=left pbc="F F F"
O       -1.60135918      -0.31230934       1.11454586
C       -0.92081702       0.27041773       0.22115450
C        0.48532325       0.09691930      -0.08490866
O        1.19582049      -0.90921603       0.40016064
H       -0.94693544      -0.24439795      -0.87568034
H       -1.17108546       1.33573613      -0.04878644
H        0.92170228       0.71821387      -0.86370264
H        2.09752493      -0.89813962       0.04622615
8
Properties=species:S:1:pos:R:3 relative_energy_eV=0.00040744966827332973 branch=left pbc="F F F"
O       -1.60107400      -0.31269074       1.11415949
C       -0.92037706       0.27077513       0.22144291
C        0.48529074       0.09664688      -0.08574465
O        1.19548866      -0.90942415       0.39973426
H       -0.94770206      -0.24403554      -0.87668891
H       -1.17120303       1.33620873      -0.04693177
H        0.92167427       0.71692742      -0.86516181
H        2.09807635      -0.89718364       0.04819954
8
Properties=species:S:1:pos:R:3 relative_energy_eV=0.0004855647111980943 branch=left pbc="F F F"
O       -1.60072138      -0.31326680       1.11395029
C       -0.91976606       0.27091589       0.22185219
C        0.48515617       0.09626486      -0.08697299
O        1.19487637      -0.90959363       0.39936816
H       -0.94879683      -0.24360933      -0.87786198
H       -1.17045220       1.33644561      -0.04509955
H        0.92147395       0.71607684      -0.86683788
H        2.09840387      -0.89600933       0.05061081
8
Properties=species:S:1:pos:R:3 relative_energy_eV=0.0006172701168907224 branch=left pbc="F F F"
O       -1.59994562      -0.31437886       1.11407457
C       -0.91909963       0.27053822       0.22210099
C        0.48491094       0.09566022      -0.08878987
O        1.19382298      -0.90997919       0.39887520
H       -0.95070489      -0.24235859      -0.87907247
H       -1.16832125       1.33641094      -0.04329978
H        0.92081976       0.71559615      -0.86920066
H        2.09869159      -0.89426479       0.05432105
8
Properties=species:S:1:pos:R:3 relative_energy_eV=0.000759820346502238 branch=left pbc="F F F"
O       -1.59870811      -0.31578406       1.11453272
C       -0.91872776       0.26969107       0.22183019
C        0.48467771       0.09505844      -0.09051374
O        1.19264024      -0.91056825       0.39827582
H       -0.95299145      -0.24037208      -0.87971419
H       -1.16558396       1.33615895      -0.04226285
H        0.91988026       0.71556806      -0.87149333
H        2.09898697      -0.89252804       0.05835441
8
Properties=species:S:1:pos:R:3 relative_energy_eV=0.0008963934042185429 branch=left pbc="F F F"
O       -1.59740385      -0.31694308       1.11500818
C       -0.91876527       0.26886636       0.22119607
C        0.48448525       0.09468992      -0.09156595
O        1.19175113      -0.91108451       0.39776345
H       -0.95463055      -0.23857464      -0.87969419
H       -1.16349163       1.33596905      -0.04203380
H        0.91901260       0.71574724      -0.87294253
H        2.09921624      -0.89144623       0.06127780
8
Properties=species:S:1:pos:R:3 relative_energy_eV=0.000995727759800502 branch=left pbc="F F F"
O       -1.59617318      -0.31774432       1.11530903
C       -0.91903675       0.26830714       0.22039148
C        0.48430138       0.09449255      -0.09209480
O        1.19115492      -0.91137988       0.39738447
H       -0.95561354      -0.23740101      -0.87931630
H       -1.16222572       1.33598008      -0.04216068
H        0.91837828       0.71593566      -0.87353918
H        2.09938852      -0.89096611       0.06303501
8
Properties=species:S:1:pos:R:3 relative_energy_eV=0.0011044666980524198 branch=left pbc="F F F"
O       -1.59487326      -0.31835164       1.11532378
C       -0.91950845       0.26797223       0.21937369
C        0.48389147       0.09414908      -0.09252702
O        1.19079184      -0.91141999       0.39711111
H       -0.95628439      -0.23678135      -0.87886272
H       -1.16113549       1.33640103      -0.04210781
H        0.91766248       0.71589525      -0.87356926
H        2.09962971      -0.89064051       0.06426727
8
Properties=species:S:1:pos:R:3 relative_energy_eV=0.001299009286412911 branch=left pbc="F F F"
O       -1.59375090      -0.31869290       1.11476257
C       -0.92017749       0.26776038       0.21794132
C        0.48297347       0.09286302      -0.09329035
O        1.19096409      -0.91106800       0.39703324
H       -0.95774980      -0.23676896      -0.87874264
H       -1.15909739       1.33757872      -0.04119991
H        0.91651015       0.71517451      -0.87287819
H        2.10050180      -0.88962268       0.06538298
8
Properties=species:S:1:pos:R:3 relative_energy_eV=0.0016600931458015111 branch=left pbc="F F F"
O       -1.59457779      -0.31831084       1.11343330
C       -0.92078013       0.26742780       0.21685576
C        0.48150367       0.08985662      -0.09440008
O        1.19265771      -0.91048886       0.39742933
H       -0.96067268      -0.23697791      -0.87977057
H       -1.15505423       1.33938685      -0.03886207
H        0.91448553       0.71307452      -0.87190549
H        2.10261186      -0.88674409       0.06622881
8
Properties=species:S:1:pos:R:3 relative_energy_eV=0.0023555436346214265 branch=left pbc="F F F"
O       -1.59914522      -0.31683803       1.11172086
C       -0.92113847       0.26616574       0.21661510
C        0.48011014       0.08461554      -0.09544532
O        1.19662674      -0.91030466       0.39835574
H       -0.96660087      -0.23590125      -0.88228737
H       -1.14798938       1.34093221      -0.03556019
H        0.91149935       0.70941129      -0.87125696
H        2.10681166      -0.88085679       0.06686711
8
Properties=species:S:1:pos:R:3 relative_energy_eV=0.0031238901583492407 branch=left pbc="F F F"
O       -1.60493756      -0.31519031       1.11095015
C       -0.92125718       0.26413953       0.21721593
C        0.47966731       0.08017457      -0.09551833
O        1.20104763      -0.91111748       0.39909827
H       -0.97264483      -0.23303110      -0.88466356
H       -1.14154589       1.34102861      -0.03384823
H        0.90893781       0.70630031      -0.87152949
H        2.11090669      -0.87508011       0.06730421
8
Properties=species:S:1:pos:R:3 relative_energy_eV=0.003963596783250978 branch=left pbc="F F F"
O       -1.61084199      -0.31366082       1.11132372
C       -0.92140050       0.26122774       0.21775659
C        0.48059421       0.07690904      -0.09454833
O        1.20502836      -0.91294149       0.39944487
H       -0.97936657      -0.22826870      -0.88604982
H       -1.13610292       1.33947835      -0.03430255
H        0.90736890       0.70440013      -0.87240236
H        2.11489449      -0.86992028       0.06778683
8
Properties=species:S:1:pos:R:3 relative_energy_eV=0.00434755977767054 branch=left pbc="F F F"
O       -1.61321695      -0.31309371       1.11173180
C       -0.92156607       0.25967492       0.21788971
C        0.48124472       0.07613297      -0.09373821
O        1.20674403      -0.91410568       0.39939013
H       -0.98216622      -0.22558261      -0.88604538
H       -1.13418731       1.33829954      -0.03523287
H        0.90698345       0.70396495      -0.87305798
H        2.11633834      -0.86806639       0.06807173
8
Properties=species:S:1:pos:R:3 relative_energy_eV=0.005450811305308889 branch=left pbc="F F F"
O       -1.61850540      -0.31175245       1.11155166
C       -0.92298627       0.25605200       0.21684583
C        0.48367989       0.07545464      -0.09153380
O        1.20870647      -0.91629702       0.39936398
H       -0.98682817      -0.22026213      -0.88295027
H       -1.13053944       1.33481326      -0.03622596
H        0.90780655       0.70370016      -0.87612542
H        2.11884036      -0.86448448       0.06808293
8
Properties=species:S:1:pos:R:3 relative_energy_eV=0.006476619131717598 branch=left pbc="F F F"
O       -1.62066759      -0.31086597       1.11061251
C       -0.92395692       0.25431495       0.21567672
C        0.48463616       0.07569876      -0.09104823
O        1.20960774      -0.91712128       0.39948786
H       -0.98886042      -0.21887330      -0.88047209
H       -1.12891851       1.33321370      -0.03558947
H        0.90918381       0.70380286      -0.87771933
H        2.11914971      -0.86294575       0.06806098
8
Properties=species:S:1:pos:R:3 relative_energy_eV=0.007844838533856091 branch=left pbc="F F F"
O       -1.61560551      -0.30933098       1.11161217
C       -0.92353199       0.25208128       0.21146465
C        0.48669054       0.07840290      -0.09278854
O        1.20697840      -0.91602437       0.39701601
H       -1.00038365      -0.21935357      -0.87783579
H       -1.13003092       1.32815357      -0.03817512
H        0.91766679       0.70806020      -0.87259934
H        2.11839032      -0.86476506       0.07031491
8
Properties=species:S:1:pos:R:3 relative_energy_eV=0.009806957341425004 branch=left pbc="F F F"
O       -1.62363842      -0.30753679       1.11344747
C       -0.92250706       0.25022573       0.21705374
C        0.48408341       0.07828831      -0.08823148
O        1.21008977      -0.91423546       0.39303394
H       -0.99385869      -0.20673055      -0.87953138
H       -1.12609859       1.32065854      -0.04182839
H        0.90860395       0.69936317      -0.87502856
H        2.12349960      -0.86280900       0.07009361
8
Properties=species:S:1:pos:R:3 relative_energy_eV=0.014472990689682774 branch=left pbc="F F F"
O       -1.61637530      -0.30794153       1.12074174
C       -0.91965347       0.24817837       0.21684181
C        0.48540158       0.08261970      -0.08729428
O        1.20919814      -0.91365600       0.38633547
H       -1.00735360      -0.19873599      -0.88196012
H       -1.12879360       1.31218646      -0.05504303
H        0.91246167       0.70203533      -0.86528454
H        2.12528858      -0.86746236       0.07467190
8
Properties=species:S:1:pos:R:3 relative_energy_eV=0.022413831524318084 branch=left pbc="F F F"
O       -1.60630065      -0.31305787       1.13276384
C       -0.91664031       0.24674458       0.21812151
C        0.48921410       0.08583096      -0.08208177
O        1.20833464      -0.91764341       0.37986504
H       -1.02410778      -0.18681718      -0.88653017
H       -1.13389357       1.30729879      -0.07781420
H        0.91406471       0.70847227      -0.85534011
H        2.12950285      -0.87360416       0.08002480
8
Properties=species:S:1:pos:R:3 relative_energy_eV=0.03421920904838771 branch=left pbc="F F F"
O       -1.57832425      -0.31961738       1.14696255
C       -0.91496954       0.24397058       0.21050800
C        0.49776760       0.09221947      -0.08117943
O        1.20245594      -0.92559175       0.37444682
H       -1.06199637      -0.18490188      -0.88835474
H       -1.14623705       1.30522548      -0.10608192
H        0.93311124       0.73111313      -0.83642986
H        2.12836645      -0.88519364       0.08913753
8
Properties=species:S:1:pos:R:3 relative_energy_eV=0.04335942742363841 branch=left pbc="F F F"
O       -1.55640345      -0.32208316       1.15543708
C       -0.91562794       0.24065337       0.20236788
C        0.50416490       0.09514218      -0.08145898
O        1.19683662      -0.93215273       0.37298438
H       -1.08761713      -0.18621266      -0.88840613
H       -1.15574167       1.30488457      -0.12225153
H        0.94823590       0.74963421      -0.82440023
H        2.12632680      -0.89264175       0.09473650
8
Properties=species:S:1:pos:R:3 relative_energy_eV=0.05037471688774531 branch=left pbc="F F F"
O       -1.53461617      -0.32112348       1.15949531
C       -0.91617419       0.23720976       0.18998839
C        0.51001987       0.09764438      -0.08569404
O        1.19032429      -0.93660277       0.37313698
H       -1.11130979      -0.19265889      -0.88499611
H       -1.16501051       1.30372811      -0.13001745
H        0.96594663       0.76799156      -0.81239797
H        2.12099392      -0.89896461       0.09949385
8
Properties=species:S:1:pos:R:3 relative_energy_eV=0.05775968873876991 branch=left pbc="F F F"
O       -1.51255478      -0.31573881       1.16236553
C       -0.91533568       0.23340216       0.17556297
C        0.51501702       0.09815757      -0.09345869
O        1.18195484      -0.93888765       0.37437268
H       -1.13214203      -0.20057882      -0.88228480
H       -1.17476215       1.29933566      -0.13192427
H        0.98375885       0.78593028      -0.79914562
H        2.11423797      -0.90439633       0.10352120
8
Properties=species:S:1:pos:R:3 relative_energy_eV=0.06547447099183046 branch=left pbc="F F F"
O       -1.49361601      -0.30756734       1.16485724
C       -0.91269235       0.22989578       0.16281830
C        0.51783674       0.09864743      -0.10403299
O        1.17463663      -0.93886399       0.37560231
H       -1.14862785      -0.20858765      -0.88231468
H       -1.18333346       1.29231285      -0.12940593
H        0.99939700       0.80026171      -0.78551982
H        2.10657335      -0.90887470       0.10700458
8
Properties=species:S:1:pos:R:3 relative_energy_eV=0.07615078374874429 branch=left pbc="F F F"
O       -1.47608784      -0.29829704       1.16796524
C       -0.90683999       0.22801650       0.15035985
C        0.51960957       0.10010038      -0.11833846
O        1.16570696      -0.93454469       0.37569780
H       -1.16655420      -0.22042808      -0.88491018
H       -1.19133779       1.28317275      -0.12329375
H        1.01778135       0.81311702      -0.76919868
H        2.09789600      -0.91391275       0.11072720
8
Properties=species:S:1:pos:R:3 relative_energy_eV=0.08172927895247994 branch=left pbc="F F F"
O       -1.47052436      -0.29536384       1.17037013
C       -0.90447793       0.22790412       0.14626681
C        0.51995042       0.10239879      -0.12531073
O        1.16229784      -0.93137652       0.37502611
H       -1.17427714      -0.22705146      -0.88748161
H       -1.19355155       1.27992279      -0.12007327
H        1.02653882       0.81707452      -0.76218859
H        2.09421796      -0.91628430       0.11240017
8
Properties=species:S:1:pos:R:3 relative_energy_eV=0.09004387546610815 branch=left pbc="F F F"
O       -1.46822580      -0.29887228       1.17039170
C       -0.90010145       0.23236388       0.14177619
C        0.51947332       0.10815740      -0.13235418
O        1.15771876      -0.92416069       0.37221191
H       -1.18864409      -0.24196833      -0.88562308
H       -1.19356132       1.28097100      -0.11642851
H        1.04301519       0.82081631      -0.75556198
H        2.09049944      -0.92008318       0.11459698
8
Properties=species:S:1:pos:R:3 relative_energy_eV=0.10690060714114225 branch=left pbc="F F F"
O       -1.46685331      -0.30539145       1.17536410
C       -0.90607468       0.23440765       0.13839702
C        0.51959002       0.12037190      -0.14065224
O        1.15250589      -0.91522320       0.36809328
H       -1.20481982      -0.26268329      -0.88720571
H       -1.18971950       1.28664963      -0.11188421
H        1.06801110       0.82457525      -0.75024374
H        2.08753437      -0.92548238       0.11714055
8
Properties=species:S:1:pos:R:3 relative_energy_eV=0.1360135823379096 branch=left pbc="F F F"
O       -1.46411424      -0.31970932       1.16567590
C       -0.91827689       0.23802434       0.13308829
C        0.52151627       0.13628664      -0.14305099
O        1.14615510      -0.90618168       0.36335800
H       -1.23030885      -0.29229548      -0.87165857
H       -1.18318309       1.30073963      -0.10789471
H        1.10406664       0.83213504      -0.75018179
H        2.08431910      -0.93177510       0.11967293
8
Properties=species:S:1:pos:R:3 relative_energy_eV=0.15308645156619605 branch=left pbc="F F F"
O       -1.46077719      -0.32011716       1.16876825
C       -0.93181241       0.23153702       0.13170440
C        0.52307109       0.14109979      -0.14304283
O        1.14393946      -0.90285986       0.36121049
H       -1.23395150      -0.29929526      -0.87357354
H       -1.18004078       1.30555893      -0.10553192
H        1.11664425       0.83531493      -0.75106755
H        2.08310114      -0.93401433       0.12054176
8
Properties=species:S:1:pos:R:3 relative_energy_eV=0.28259180789245875 branch=left pbc="F F F"
O       -1.45380380      -0.33578026       1.12731324
C       -0.94834321       0.21753937       0.10997083
C        0.54632334       0.16011062      -0.13577180
O        1.13559782      -0.90296187       0.36048816
H       -1.25957943      -0.31912810      -0.81498166
H       -1.17688469       1.33225760      -0.10368572
H        1.14001540       0.84041517      -0.75476126
H        2.07684863      -0.93522851       0.12043731
8
Properties=species:S:1:pos:R:3 relative_energy_eV=0.3779233651202958 branch=left pbc="F F F"
O       -1.44893063      -0.33370627       1.12033107
C       -0.95901950       0.20423766       0.10328081
C        0.55086265       0.16325649      -0.13261522
O        1.13251919      -0.90286359       0.36012058
H       -1.25946537      -0.31838045      -0.80397961
H       -1.17605716       1.33800066      -0.10204693
H        1.14442448       0.84204141      -0.75618869
H        2.07584041      -0.93536193       0.12010712
8
Properties=species:S:1:pos:R:3 relative_energy_eV=0.4277511658701769 branch=left pbc="F F F"
O       -1.46400066      -0.37658348       1.04935692
C       -0.90347555       0.25922782       0.09797001
C        0.55736694       0.17376265      -0.13111408
O        1.13569798      -0.90746448       0.36384079
H       -1.30946418      -0.35078024      -0.72366540
H       -1.18006681       1.35213667      -0.11165733
H        1.15211322       0.84141728      -0.75626023
H        2.07200313      -0.93449228       0.12053847
8
Properties=species:S:1:pos:R:3 relative_energy_eV=0.5814479649097848 branch=left pbc="F F F"
O       -1.48563845      -0.42585258       0.98158506
C       -0.83371325       0.33086796       0.09701504
C        0.56353687       0.18026557      -0.13160275
O        1.13773555      -0.91042620       0.36783277
H       -1.36338477      -0.38748629      -0.64796312
H       -1.18553417       1.36371537      -0.12319096
H        1.15670013       0.83943153      -0.75520555
H        2.07047214      -0.93329142       0.12053867
8
Properties=species:S:1:pos:R:3 relative_energy_eV=0.6039306846396357 branch=left pbc="F F F"
O       -1.48885800      -0.43194598       0.97633678
C       -0.82428006       0.34044138       0.09620873
C        0.56283518       0.18089270      -0.13164375
O        1.13859332      -0.91095946       0.36827879
H       -1.36909163      -0.39158037      -0.64135520
H       -1.18614003       1.36432827      -0.12433674
H        1.15706525       0.83922432      -0.75511549
H        2.07005004      -0.93317695       0.12063603
8
Properties=species:S:1:pos:R:3 relative_energy_eV=0.6692066218074615 branch=ts pbc="F F F"
O       -1.49144326      -0.43573867       0.96691439
C       -0.81232834       0.35192015       0.10192766
C        0.55937268       0.17994587      -0.13351874
O        1.13899403      -0.91104912       0.36876137
H       -1.42420057      -0.44564399      -0.51782037
H       -1.19372408       1.35250889      -0.14929477
H        1.15363480       0.83864439      -0.75761729
H        2.06969172      -0.93058820       0.12065075
8
Properties=species:S:1:pos:R:3 relative_energy_eV=0.6150688013858598 branch=right pbc="F F F"
O       -1.49402852      -0.43953137       0.95749199
C       -0.80037661       0.36339891       0.10764660
C        0.55591019       0.17899903      -0.13539374
O        1.13939475      -0.91113878       0.36924396
H       -1.47930950      -0.49970761      -0.39428554
H       -1.20130812       1.34068951      -0.17425280
H        1.15020436       0.83806447      -0.76011909
H        2.06933341      -0.92799945       0.12066547
8
Properties=species:S:1:pos:R:3 relative_energy_eV=0.5887466078829675 branch=right pbc="F F F"
O       -1.49713619      -0.44312787       0.94900321
C       -0.78896543       0.36956276       0.11036381
C        0.54924693       0.17902738      -0.13790658
O        1.14042532      -0.91302540       0.37074670
H       -1.47970267      -0.49972963      -0.38593084
H       -1.20352979       1.33963078      -0.17579064
H        1.14999707       0.83816759      -0.76013543
H        2.06948470      -0.92773090       0.12064664
8
Properties=species:S:1:pos:R:3 relative_energy_eV=0.3521138029127542 branch=right pbc="F F F"
O       -1.52153859      -0.47229621       0.86603160
C       -0.70784823       0.42192730       0.13640136
C        0.51020077       0.17592710      -0.16034880
O        1.14520666      -0.92596923       0.38209401
H       -1.48312039      -0.50091767      -0.30541991
H       -1.22106671       1.33093962      -0.18833991
H        1.14702822       0.83812152      -0.75946778
H        2.07095821      -0.92495769       0.12004630
8
Properties=species:S:1:pos:R:3 relative_energy_eV=0.43658205311749043 branch=right pbc="F F F"
O       -1.54484977      -0.50002793       0.78185324
C       -0.63090788       0.47880391       0.16547425
C        0.47770973       0.17238878      -0.18385078
O        1.15103889      -0.93958587       0.39318728
H       -1.49093733      -0.50702858      -0.22582098
H       -1.23796233       1.32248599      -0.20042838
H        1.14379987       0.83808187      -0.75903765
H        2.07192878      -0.92234343       0.11961991
8
Properties=species:S:1:pos:R:3 relative_energy_eV=0.15987120183126535 branch=right pbc="F F F"
O       -1.53238083      -0.48464198       0.82924836
C       -0.67785935       0.45808861       0.15840995
C        0.50486131       0.16991804      -0.17694694
O        1.14895239      -0.93354508       0.38773955
H       -1.49139977      -0.50792110      -0.27241395
H       -1.22931169       1.32629714      -0.19479636
H        1.14543950       0.83822727      -0.76006834
H        2.07151839      -0.92364816       0.11982463
8
Properties=species:S:1:pos:R:3 relative_energy_eV=-0.053725411179584626 branch=right pbc="F F F"
O       -1.53302328      -0.48320095       0.81112482
C       -0.66849883       0.47768504       0.17964151
C        0.50944085       0.16281393      -0.18555164
O        1.15057062      -0.93561603       0.38852025
H       -1.50533936      -0.52072634      -0.26110800
H       -1.23266433       1.32666518      -0.19826551
H        1.14640967       0.83869717      -0.76293838
H        2.07292464      -0.92354325       0.11957384
8
Properties=species:S:1:pos:R:3 relative_energy_eV=-0.560175429199262 branch=right pbc="F F F"
O       -1.53456204      -0.47711027       0.74910893
C       -0.63259916       0.54174164       0.24752351
C        0.52177549       0.14327481      -0.21056061
O        1.15555036      -0.94154754       0.38964744
H       -1.55603163      -0.56827566      -0.22236286
H       -1.24145188       1.32885718      -0.20848678
H        1.14978894       0.83923867      -0.77263183
H        2.07734995      -0.92340409       0.11875912
8
Properties=species:S:1:pos:R:3 relative_energy_eV=-0.9230403046494757 branch=right pbc="F F F"
O       -1.51317677      -0.44122417       0.71775836
C       -0.63291952       0.56455941       0.29178478
C        0.55152107       0.13972442      -0.20049051
O        1.15373048      -0.93377999       0.37524928
H       -1.62584164      -0.63974658      -0.21806526
H       -1.23184042       1.34303453      -0.20748254
H        1.15655621       0.83643094      -0.78563082
H        2.08179070      -0.92622382       0.11787363
8
Properties=species:S:1:pos:R:3 relative_energy_eV=-1.1710579468954165 branch=right pbc="F F F"
O       -1.49532725      -0.41265242       0.70955582
C       -0.65654927       0.56775537       0.28959638
C        0.58498420       0.16423533      -0.17051501
O        1.15895208      -0.93175342       0.35717095
H       -1.69212828      -0.70898384      -0.21867646
H       -1.20857796       1.36292545      -0.19840607
H        1.16557991       0.83226023      -0.79548907
H        2.08288673      -0.93101196       0.11776038
8
Properties=species:S:1:pos:R:3 relative_energy_eV=-1.3818897927230864 branch=right pbc="F F F"
O       -1.50257326      -0.41377847       0.69008163
C       -0.66432957       0.58639773       0.27173679
C        0.61684726       0.19757046      -0.14137464
O        1.16239454      -0.93804658       0.34312265
H       -1.75547412      -0.77290806      -0.19224593
H       -1.18631402       1.38862651      -0.19194862
H        1.17802481       0.83083489      -0.80406871
H        2.09124459      -0.93592173       0.11569377
8
Properties=species:S:1:pos:R:3 relative_energy_eV=-1.6052937931053748 branch=right pbc="F F F"
O       -1.52046218      -0.42568987       0.68021929
C       -0.67692881       0.56619865       0.22210883
C        0.64356109       0.24003252      -0.09761458
O        1.16335664      -0.94114815       0.32572942
H       -1.80642928      -0.82387864      -0.15612369
H       -1.16440153       1.43308910      -0.18752318
H        1.19891617       0.83623230      -0.80893987
H        2.10220821      -0.94206117       0.11314069
8
Properties=species:S:1:pos:R:3 relative_energy_eV=-1.7150794626832067 branch=right pbc="F F F"
O       -1.53443123      -0.43366555       0.67375890
C       -0.68004183       0.54533149       0.17579831
C        0.64888245       0.26027643      -0.07613184
O        1.16895230      -0.93935555       0.31370499
H       -1.83534046      -0.85346976      -0.12384276
H       -1.14904953       1.46338848      -0.18279069
H        1.21541822       0.84589503      -0.80191879
H        2.10543044      -0.94562583       0.11241878
8
Properties=species:S:1:pos:R:3 relative_energy_eV=-1.799477757472232 branch=right pbc="F F F"
O       -1.53787116      -0.42730862       0.66930625
C       -0.67868399       0.52863725       0.13482714
C        0.64493837       0.26745135      -0.07149896
O        1.16900340      -0.93419551       0.30589521
H       -1.86547238      -0.88650315      -0.09688963
H       -1.13346861       1.48333308      -0.17644740
H        1.22929384       0.85836010      -0.78481160
H        2.11208094      -0.94699975       0.11061586
8
Properties=species:S:1:pos:R:3 relative_energy_eV=-1.89612029043019 branch=right pbc="F F F"
O       -1.53767281      -0.40897638       0.65915543
C       -0.66836503       0.51551769       0.07961265
C        0.62400937       0.26279904      -0.09011496
O        1.17665826      -0.92734502       0.29879715
H       -1.90769781      -0.93427792      -0.05329324
H       -1.10893662       1.49775827      -0.16698993
H        1.24763800       0.88244664      -0.74510126
H        2.11418711      -0.94514753       0.10893099
8
Properties=species:S:1:pos:R:3 relative_energy_eV=-1.9242802950748228 branch=right pbc="F F F"
O       -1.53425864      -0.39845075       0.65743258
C       -0.66459504       0.51724273       0.07511418
C        0.61580553       0.25286658      -0.10802324
O        1.17387954      -0.92639323       0.30126212
H       -1.91528307      -0.94321885      -0.04643412
H       -1.10138783       1.49111848      -0.16644957
H        1.24956403       0.89070310      -0.72920730
H        2.11609596      -0.94109327       0.10730217
8
Properties=species:S:1:pos:R:3 relative_energy_eV=-1.945405905475127 branch=right pbc="F F F"
O       -1.53379869      -0.39038079       0.65830659
C       -0.66315892       0.51897675       0.07779941
C        0.60995477       0.23972041      -0.13117126
O        1.17424909      -0.92842718       0.30511046
H       -1.91462730      -0.94242056      -0.04392328
H       -1.09390385       1.48020746      -0.16867212
H        1.24898596       0.89929944      -0.71241507
H        2.11211941      -0.93420074       0.10596212
8
Properties=species:S:1:pos:R:3 relative_energy_eV=-1.958078545943863 branch=right pbc="F F F"
O       -1.53744801      -0.38545782       0.65980338
C       -0.66516433       0.51417621       0.07336914
C        0.61032100       0.23144422      -0.14370894
O        1.17307425      -0.93051075       0.30502759
H       -1.91954356      -0.94688043      -0.03786619
H       -1.08430243       1.47933524      -0.17107089
H        1.25187391       0.90899109      -0.69841431
H        2.11100964      -0.92832298       0.10385707
8
Properties=species:S:1:pos:R:3 relative_energy_eV=-1.972202365857811 branch=right pbc="F F F"
O       -1.54845637      -0.38204894       0.66174097
C       -0.66995123       0.50374877       0.05929976
C        0.61035875       0.21987002      -0.15864554
O        1.17339128      -0.93499463       0.30169665
H       -1.92639104      -0.95239476      -0.02291929
H       -1.06731854       1.48182897      -0.17581548
H        1.25833150       0.92620437      -0.67465400
H        2.10985610      -0.91943899       0.10029378
8
Properties=species:S:1:pos:R:3 relative_energy_eV=-1.9775610200567826 branch=right pbc="F F F"
O       -1.55518872      -0.37939027       0.66064844
C       -0.67552596       0.49698545       0.04819528
C        0.61352927       0.21950977      -0.15794594
O        1.17528692      -0.93859454       0.29519364
H       -1.93602928      -0.96174411      -0.01139426
H       -1.05691409       1.48834845      -0.17919088
H        1.26279782       0.93420363      -0.66266252
H        2.11186451      -0.91654358       0.09815309
8
Properties=species:S:1:pos:R:3 relative_energy_eV=-1.9811063474635375 branch=right pbc="F F F"
O       -1.56085834      -0.37823947       0.65925543
C       -0.67902337       0.49470026       0.04197360
C        0.61353206       0.21882498      -0.15469335
O        1.17674024      -0.94172255       0.28882704
H       -1.93783832      -0.96358870      -0.00349745
H       -1.05203156       1.49028852      -0.18337747
H        1.26378141       0.93796243      -0.65402586
H        2.11551833      -0.91545068       0.09653493
8
Properties=species:S:1:pos:R:3 relative_energy_eV=-1.9850183707785618 branch=right pbc="F F F"
O       -1.56559907      -0.37288658       0.65650257
C       -0.68238200       0.49358546       0.03632340
C        0.61339597       0.21957457      -0.14811820
O        1.18002731      -0.94573137       0.27892144
H       -1.94155688      -0.96909087       0.00571303
H       -1.04827874       1.49224683      -0.18946086
H        1.26362898       0.94051788      -0.64370843
H        2.12058490      -0.91544113       0.09482392
8
Properties=species:S:1:pos:R:3 relative_energy_eV=-1.9901966253155479 branch=right pbc="F F F"
O       -1.57283665      -0.36192277       0.65401517
C       -0.68462691       0.49346626       0.03241981
C        0.61186514       0.21818890      -0.14092494
O        1.18409681      -0.95281536       0.26386059
H       -1.94187116      -0.97402116       0.01699749
H       -1.04584402       1.49102753      -0.20110717
H        1.26060544       0.94365998      -0.62625580
H        2.12843182      -0.91480861       0.09199174
8
Properties=species:S:1:pos:R:3 relative_energy_eV=-1.995078978154197 branch=right pbc="F F F"
O       -1.58267520      -0.34642922       0.65363749
C       -0.68508553       0.49324493       0.03040118
C        0.61023238       0.21391625      -0.13605828
O        1.18851016      -0.96219767       0.24633875
H       -1.93950618      -0.97949768       0.02868552
H       -1.04392112       1.48736307      -0.21667617
H        1.25661752       0.94906064      -0.60378769
H        2.13564845      -0.91268554       0.08845610
8
Properties=species:S:1:pos:R:3 relative_energy_eV=-1.9987232734938516 branch=right pbc="F F F"
O       -1.59430327      -0.33144236       0.65615337
C       -0.68396377       0.49279770       0.03165313
C        0.60940415       0.20860474      -0.13379921
O        1.19140697      -0.97210728       0.23046739
H       -1.93302662      -0.98288121       0.03734492
H       -1.04304795       1.48202214      -0.23297335
H        1.25298873       0.95539038      -0.58285471
H        2.14036222      -0.90960935       0.08500536
8
Properties=species:S:1:pos:R:3 relative_energy_eV=-2.000647048043902 branch=right pbc="F F F"
O       -1.60258528      -0.32349097       0.65940359
C       -0.68263812       0.49253846       0.03479716
C        0.60962480       0.20581909      -0.13320092
O        1.19186975      -0.97790504       0.22212084
H       -1.92684182      -0.98480540       0.04048189
H       -1.04265098       1.47830679      -0.24275403
H        1.25231686       0.95988078      -0.57302935
H        2.14072526      -0.90756896       0.08317773
8
Properties=species:S:1:pos:R:3 relative_energy_eV=-2.0018829559439837 branch=right pbc="F F F"
O       -1.60705041      -0.32167702       0.66204538
C       -0.68163342       0.49294476       0.03911025
C        0.61026627       0.20632870      -0.13259501
O        1.19021441      -0.97991108       0.21964110
H       -1.92152576      -0.98579262       0.03955138
H       -1.04274678       1.47639174      -0.24668277
H        1.25366965       0.96159630      -0.57283570
H        2.13862650      -0.90710604       0.08276229
8
Properties=species:S:1:pos:R:3 relative_energy_eV=-2.00278244243691 branch=right pbc="F F F"
O       -1.60917051      -0.32269425       0.66342573
C       -0.68129595       0.49386326       0.04287219
C        0.61055223       0.20880844      -0.13137235
O        1.18743409      -0.97962613       0.21949189
H       -1.91753997      -0.98783024       0.03786953
H       -1.04221522       1.47609083      -0.24741356
H        1.25639919       0.96195057      -0.57690018
H        2.13565662      -0.90778773       0.08302367
8
Properties=species:S:1:pos:R:3 relative_energy_eV=-2.003387800380551 branch=right pbc="F F F"
O       -1.61029516      -0.32357764       0.66335614
C       -0.68162932       0.49488516       0.04502829
C        0.61022969       0.21152883      -0.12971395
O        1.18492555      -0.97892733       0.21880845
H       -1.91431672      -0.99056850       0.03763256
H       -1.04105947       1.47671089      -0.24764168
H        1.25848445       0.96162703      -0.57972867
H        2.13348144      -0.90890369       0.08325577
8
Properties=species:S:1:pos:R:3 relative_energy_eV=-2.0041519697770127 branch=right pbc="F F F"
O       -1.61249576      -0.32275393       0.66224377
C       -0.68256591       0.49627098       0.04634664
C        0.60915660       0.21432168      -0.12750147
O        1.18178332      -0.97863712       0.21567836
H       -1.90934474      -0.99598693       0.03991737
H       -1.03828375       1.47808222      -0.24923096
H        1.26055040       0.96181278      -0.57957860
H        2.13102029      -0.91033494       0.08312181
8
Properties=species:S:1:pos:R:3 relative_energy_eV=-2.005461373163598 branch=right pbc="F F F"
O       -1.61706030      -0.31901267       0.65958660
C       -0.68428691       0.49871095       0.04730939
C        0.60697259       0.21765153      -0.12456512
O        1.17652673      -0.97928747       0.20853879
H       -1.89882307      -1.00627545       0.04592748
H       -1.03297642       1.48083670      -0.25321613
H        1.26256092       0.96269180      -0.57500316
H        2.12690692      -0.91254066       0.08241908
8
Properties=species:S:1:pos:R:3 relative_energy_eV=-2.0081233745868303 branch=right pbc="F F F"
O       -1.62686923      -0.30905795       0.65348162
C       -0.68749511       0.50386808       0.04761687
C        0.60238703       0.22189947      -0.12061746
O        1.16583864      -0.98209098       0.19358188
H       -1.87455603      -1.02772700       0.05968561
H       -1.02240919       1.48708716      -0.26154938
H        1.26483994       0.96544872      -0.56180642
H        2.11808438      -0.91665280       0.08060426
8
Properties=species:S:1:pos:R:3 relative_energy_eV=-2.0129853978023675 branch=right pbc="F F F"
O       -1.64814901      -0.28661818       0.63709923
C       -0.69427472       0.51726540       0.04777076
C        0.59155628       0.22953048      -0.11469820
O        1.13955847      -0.98935241       0.16238525
H       -1.81088833      -1.07530390       0.09076121
H       -1.00044459       1.50345935      -0.27722968
H        1.26741182       0.97088016      -0.53189178
H        2.09505044      -0.92708625       0.07680026
8
Properties=species:S:1:pos:R:3 relative_energy_eV=-2.021594997970169 branch=right pbc="F F F"
O       -1.65191297      -0.28217853       0.62168142
C       -0.69795830       0.52826959       0.04791105
C        0.58387405       0.23323508      -0.11658631
O        1.12001627      -0.98933988       0.15513925
H       -1.76322431      -1.09644638       0.10427260
H       -0.99165583       1.51766479      -0.27440033
H        1.26527242       0.96816435      -0.52380026
H        2.07540897      -0.93659440       0.07677968
8
Properties=species:S:1:pos:R:3 relative_energy_eV=-2.0390326208762417 branch=right pbc="F F F"
O       -1.66513797      -0.26830933       0.59229573
C       -0.70423009       0.54602847       0.04416386
C        0.57173930       0.23604005      -0.12096400
O        1.08638689      -0.99826015       0.13846846
H       -1.67584077      -1.13447134       0.13457473
H       -0.97765335       1.54387740      -0.27192905
H        1.26117062       0.96991150      -0.50067244
H        2.04338555      -0.95204204       0.07505993
8
Properties=species:S:1:pos:R:3 relative_energy_eV=-2.0685919909465156 branch=right pbc="F F F"
O       -1.66658915      -0.26620074       0.55499618
C       -0.70874624       0.56510430       0.03707705
C        0.56053028       0.23437681      -0.13481602
O        1.05118226      -1.00632554       0.14033467
H       -1.58102984      -1.15617618       0.15780805
H       -0.97468246       1.57537743      -0.25015956
H        1.25163092       0.96698016      -0.49033192
H        2.00752427      -0.97036177       0.07608890
8
Properties=species:S:1:pos:R:3 relative_energy_eV=-2.1024035707805524 branch=right pbc="F F F"
O       -1.66860441      -0.26670595       0.51619358
C       -0.71110874       0.58244658       0.03065226
C        0.55073004       0.23197000      -0.14996618
O        1.01722688      -1.01909923       0.14844191
H       -1.48331660      -1.16542584       0.17695397
H       -0.98250384       1.60347199      -0.22120983
H        1.24451791       0.96624528      -0.48808216
H        1.97287866      -0.99012842       0.07801392
8
Properties=species:S:1:pos:R:3 relative_energy_eV=-2.1040813495937982 branch=right pbc="F F F"
O       -1.65571747      -0.28412129       0.47581490
C       -0.70978146       0.59257983       0.02059637
C        0.54877891       0.22725496      -0.16936116
O        0.99410472      -1.03033349       0.18351761
H       -1.40991840      -1.13776877       0.17759304
H       -1.01689250       1.62408951      -0.16494215
H        1.24114539       0.96262870      -0.51659523
H        1.94810059      -1.01155512       0.08437419
8
Properties=species:S:1:pos:R:3 relative_energy_eV=-2.1301869112230634 branch=right pbc="F F F"
O       -1.66338273      -0.28138898       0.43531906
C       -0.71342451       0.60940831       0.01588067
C        0.54037146       0.23034990      -0.17688858
O        0.96010860      -1.04356765       0.18544017
H       -1.31305251      -1.14956446       0.19945307
H       -1.02732462       1.64842567      -0.13662940
H        1.24173647       0.96370692      -0.51787006
H        1.91478748      -1.03459546       0.08629276
8
Properties=species:S:1:pos:R:3 relative_energy_eV=-2.1631710767323966 branch=right pbc="F F F"
O       -1.67683805      -0.26851963       0.46002233
C       -0.71522356       0.59706125       0.01975869
C        0.54853051       0.23653791      -0.15447435
O        0.98659915      -1.03769302       0.15844581
H       -1.38427075      -1.15684519       0.20095383
H       -1.01571527       1.62431936      -0.17030350
H        1.25400468       0.97010206      -0.50558114
H        1.94273305      -1.02218843       0.08217593
8
Properties=species:S:1:pos:R:3 relative_energy_eV=-2.185963185804212 branch=right pbc="F F F"
O       -1.68887438      -0.26192774       0.44457267
C       -0.71655512       0.59765632       0.01799302
C        0.55421888       0.24915005      -0.14156880
O        0.98569757      -1.03691485       0.14448547
H       -1.38464971      -1.16539562       0.21657062
H       -1.02319526       1.62145353      -0.16444760
H        1.26888164       0.97183006      -0.50888956
H        1.94429614      -1.03307747       0.08228181
8
Properties=species:S:1:pos:R:3 relative_energy_eV=-2.208175491932707 branch=right pbc="F F F"
O       -1.70140894      -0.25666190       0.41579020
C       -0.71456254       0.59867239       0.01606423
C        0.56295493       0.26266785      -0.13310428
O        0.98334473      -1.03248328       0.13337625
H       -1.38324180      -1.16875536       0.23768322
H       -1.04156926       1.61659284      -0.14438188
H        1.29076957       0.97344519      -0.51827841
H        1.94353305      -1.05070346       0.08384832
8
Properties=species:S:1:pos:R:3 relative_energy_eV=-2.2206137352332007 branch=right pbc="F F F"
O       -1.70614747      -0.25506076       0.39264636
C       -0.71218818       0.59857519       0.01319030
C        0.56893110       0.26829479      -0.13641307
O        0.98206921      -1.02882756       0.12929462
H       -1.38410335      -1.16684934       0.25401264
H       -1.05400475       1.61398614      -0.12673903
H        1.30294008       0.97413871      -0.51977040
H        1.94232310      -1.06148292       0.08477629
8
Properties=species:S:1:pos:R:3 relative_energy_eV=-2.230000076187025 branch=right pbc="F F F"
O       -1.70949416      -0.25375325       0.36619587
C       -0.71078129       0.59974123       0.00727628
C        0.57104187       0.26772065      -0.14824080
O        0.97858721      -1.02825518       0.12427050
H       -1.37742342      -1.16412705       0.27639372
H       -1.06086447       1.61406688      -0.11048090
H        1.31067819       0.97714766      -0.50871295
H        1.93807578      -1.06976673       0.08429601
8
Properties=species:S:1:pos:R:3 relative_energy_eV=-2.2358224900108326 branch=right pbc="F F F"
O       -1.71242476      -0.25358852       0.35003303
C       -0.71006273       0.59995887       0.00400354
C        0.57142242       0.26652139      -0.15707211
O        0.97717513      -1.02956671       0.11518233
H       -1.37598363      -1.16074062       0.29487076
H       -1.06066050       1.61282550      -0.10652872
H        1.31350309       0.97941078      -0.49172598
H        1.93685066      -1.07204651       0.08223491
8
Properties=species:S:1:pos:R:3 relative_energy_eV=-2.2409310602861297 branch=right pbc="F F F"
O       -1.71821087      -0.25293530       0.32551303
C       -0.71179485       0.59973339      -0.00464899
C        0.56877213       0.26376502      -0.16618456
O        0.97232974      -1.03420592       0.09722831
H       -1.36638654      -1.16009573       0.32685363
H       -1.05520913       1.61605562      -0.10432789
H        1.31791694       0.98548928      -0.46148186
H        1.93240221      -1.07503222       0.07804615
8
Properties=species:S:1:pos:R:3 relative_energy_eV=-2.246522765943155 branch=right pbc="F F F"
O       -1.72378316      -0.25534266       0.31521525
C       -0.71243974       0.59724991      -0.00528711
C        0.56687786       0.26178853      -0.16684657
O        0.97292937      -1.03955826       0.07162622
H       -1.37000709      -1.15255963       0.35113842
H       -1.04606665       1.61268552      -0.11869372
H        1.31857020       0.98917314      -0.42794730
H        1.93373883      -1.07066243       0.07179265
8
Properties=species:S:1:pos:R:3 relative_energy_eV=-2.250263884465312 branch=right pbc="F F F"
O       -1.72930230      -0.25727982       0.29913070
C       -0.71461966       0.59738210      -0.00821561
C        0.56562211       0.26325349      -0.16046628
O        0.96846754      -1.04592045       0.04841608
H       -1.35890358      -1.14985237       0.37530553
H       -1.04193919       1.61596117      -0.12580637
H        1.32076287       0.99174544      -0.40429997
H        1.92973180      -1.07251548       0.06693381
8
Properties=species:S:1:pos:R:3 relative_energy_eV=-2.253144562129819 branch=right pbc="F F F"
O       -1.72946025      -0.26146909       0.29505420
C       -0.71671730       0.59657912      -0.00962343
C        0.56386740       0.26374721      -0.14751231
O        0.96594819      -1.04887407       0.03172500
H       -1.35447484      -1.14819396       0.38624050
H       -1.03755798       1.61942298      -0.13538261
H        1.32226440       0.99330573      -0.39263090
H        1.92594997      -1.07174385       0.06312745
8
Properties=species:S:1:pos:R:3 relative_energy_eV=-2.2538327808533722 branch=right pbc="F F F"
O       -1.72852064      -0.26299298       0.29324010
C       -0.71603336       0.59950534      -0.00584855
C        0.56460034       0.26573904      -0.14016089
O        0.96254846      -1.04930302       0.02930825
H       -1.34561253      -1.14611137       0.38475156
H       -1.04211488       1.61894358      -0.13551124
H        1.32266997       0.99157655      -0.39772173
H        1.92228223      -1.07458309       0.06294040
8
Properties=species:S:1:pos:R:3 relative_energy_eV=-2.2541288511365565 branch=right pbc="F F F"
O       -1.72607889      -0.26376075       0.29234168
C       -0.71587540       0.59993985      -0.00641000
C        0.56490938       0.26671610      -0.13913984
O        0.96039553      -1.04807414       0.03157319
H       -1.34383093      -1.14703932       0.38365340
H       -1.04356673       1.61951714      -0.13272541
H        1.32381711       0.99161802      -0.40153572
H        1.92004952      -1.07614287       0.06324060
8
Properties=species:S:1:pos:R:3 relative_energy_eV=-2.254365266475361 branch=right pbc="F F F"
O       -1.72373052      -0.26450554       0.29003099
C       -0.71540062       0.60041390      -0.00705271
C        0.56549672       0.26813353      -0.13913654
O        0.95749392      -1.04772392       0.03276390
H       -1.34090097      -1.14726727       0.38454158
H       -1.04521377       1.61947626      -0.13026046
H        1.32499228       0.99227322      -0.40287180
H        1.91708254      -1.07802614       0.06298294
8
Properties=species:S:1:pos:R:3 relative_energy_eV=-2.254540855551568 branch=right pbc="F F F"
O       -1.72176082      -0.26524474       0.28798565
C       -0.71466510       0.60080422      -0.00775254
C        0.56612088       0.26920236      -0.13962755
O        0.95475618      -1.04792486       0.03257062
H       -1.33842548      -1.14702753       0.38670732
H       -1.04632048       1.61883055      -0.12962767
H        1.32596734       0.99367294      -0.40129680
H        1.91414705      -1.07953892       0.06203888
8
Properties=species:S:1:pos:R:3 relative_energy_eV=-2.254664190026233 branch=right pbc="F F F"
O       -1.72081305      -0.26568376       0.28700489
C       -0.71414000       0.60095827      -0.00839859
C        0.56664043       0.26984176      -0.13974776
O        0.95315424      -1.04832213       0.03112089
H       -1.33706904      -1.14671493       0.38913572
H       -1.04681476       1.61822686      -0.13095755
H        1.32648749       0.99504992      -0.39793691
H        1.91237429      -1.08058197       0.06077723
8
Properties=species:S:1:pos:R:3 relative_energy_eV=-2.2548091753851622 branch=right pbc="F F F"
O       -1.72001497      -0.26595235       0.28715377
C       -0.71365155       0.60108804      -0.00912089
C        0.56717950       0.27037684      -0.13960909
O        0.95187641      -1.04862325       0.02917189
H       -1.33586439      -1.14637697       0.39159886
H       -1.04751837       1.61742228      -0.13406021
H        1.32696752       0.99683291      -0.39304654
H        1.91084544      -1.08199351       0.05891013
8
Properties=species:S:1:pos:R:3 relative_energy_eV=-2.2549928418402487 branch=right pbc="F F F"
O       -1.71904501      -0.26613052       0.28887638
C       -0.71341555       0.60137633      -0.00986033
C        0.56770569       0.27119022      -0.13897486
O        0.95074173      -1.04849729       0.02749660
H       -1.33428645      -1.14629177       0.39330699
H       -1.04889379       1.61670235      -0.13878002
H        1.32753088       0.99874821      -0.38750251
H        1.90948208      -1.08432355       0.05643567
8
Properties=species:S:1:pos:R:3 relative_energy_eV=-2.2551764123090834 branch=right pbc="F F F"
O       -1.71789559      -0.26624798       0.29202378
C       -0.71367897       0.60198011      -0.01034835
C        0.56787184       0.27219221      -0.13811834
O        0.94977075      -1.04774020       0.02729605
H       -1.33189306      -1.14653237       0.39326249
H       -1.05106141       1.61633300      -0.14377094
H        1.32833633       1.00026685      -0.38321071
H        1.90836968      -1.08747763       0.05386396
8
Properties=species:S:1:pos:R:3 relative_energy_eV=-2.255286342533509 branch=right pbc="F F F"
O       -1.71688427      -0.26646576       0.29486254
C       -0.71436326       0.60267852      -0.01030599
C        0.56762770       0.27317721      -0.13746683
O        0.94918901      -1.04670016       0.02914282
H       -1.32963862      -1.14701539       0.39123031
H       -1.05303486       1.61665049      -0.14604146
H        1.32907180       1.00035342      -0.38292703
H        1.90785208      -1.08990435       0.05250357
8
Properties=species:S:1:pos:R:3 relative_energy_eV=-2.255329909427928 branch=right pbc="F F F"
O       -1.71646353      -0.26672142       0.29562037
C       -0.71494653       0.60315652      -0.01017078
C        0.56718560       0.27359509      -0.13743067
O        0.94882138      -1.04613764       0.03095506
H       -1.32807752      -1.14721509       0.38982774
H       -1.05402083       1.61712451      -0.14577358
H        1.32973192       0.99982926      -0.38415086
H        1.90758909      -1.09085726       0.05212062
8
Properties=species:S:1:pos:R:3 relative_energy_eV=-2.255351685316782 branch=right pbc="F F F"
O       -1.71621013      -0.26701868       0.29559311
C       -0.71530063       0.60342727      -0.01010771
C        0.56694342       0.27389787      -0.13746601
O        0.94855779      -1.04587848       0.03234753
H       -1.32728185      -1.14724424       0.38902979
H       -1.05453249       1.61752335      -0.14498039
H        1.33020504       0.99913296      -0.38529178
H        1.90743843      -1.09106608       0.05187336
8
Properties=species:S:1:pos:R:3 relative_energy_eV=-2.2553829991957173 branch=right pbc="F F F"
O       -1.71612666      -0.26735469       0.29478683
C       -0.71561930       0.60372090      -0.01030129
C        0.56666102       0.27402798      -0.13761502
O        0.94812958      -1.04581303       0.03344070
H       -1.32627230      -1.14701983       0.38922316
H       -1.05507606       1.61783702      -0.14425413
H        1.33101618       0.99848565      -0.38532520
H        1.90710711      -1.09111003       0.05104287
8
Properties=species:S:1:pos:R:3 relative_energy_eV=-2.255424303825748 branch=right pbc="F F F"
O       -1.71600913      -0.26774301       0.29380459
C       -0.71589617       0.60402359      -0.01075531
C        0.56652654       0.27422863      -0.13751274
O        0.94764989      -1.04577862       0.03480253
H       -1.32541286      -1.14663619       0.38988480
H       -1.05590182       1.61805935      -0.14406394
H        1.33212763       0.99758452      -0.38431273
H        1.90673547      -1.09096430       0.04915072
8
Properties=species:S:1:pos:R:3 relative_energy_eV=-2.2554710532767785 branch=right pbc="F F F"
O       -1.71609086      -0.26793075       0.29261081
C       -0.71603291       0.60425613      -0.01154025
C        0.56650705       0.27420263      -0.13709516
O        0.94723838      -1.04584413       0.03598256
H       -1.32482524      -1.14609844       0.39151410
H       -1.05684960       1.61795404      -0.14499921
H        1.33351047       0.99684013      -0.38140359
H        1.90636224      -1.09060563       0.04592866
8
Properties=species:S:1:pos:R:3 relative_energy_eV=-2.255520807015273 branch=right pbc="F F F"
O       -1.71622113      -0.26778812       0.29221869
C       -0.71595980       0.60427106      -0.01225920
C        0.56672938       0.27409441      -0.13615774
O        0.94722704      -1.04581222       0.03737006
H       -1.32519312      -1.14577836       0.39281062
H       -1.05760447       1.61753159      -0.14701686
H        1.33451846       0.99626507      -0.37810357
H        1.90632314      -1.09000945       0.04213591
8
Properties=species:S:1:pos:R:3 relative_energy_eV=-2.2555693842368782 branch=right pbc="F F F"
O       -1.71645906      -0.26734619       0.29245925
C       -0.71576737       0.60411403      -0.01271889
C        0.56699068       0.27385145      -0.13493511
O        0.94753264      -1.04566586       0.03908664
H       -1.32612238      -1.14576334       0.39352892
H       -1.05793768       1.61691692      -0.14952717
H        1.33504815       0.99602280      -0.37521070
H        1.90653449      -1.08935583       0.03831498
8
Properties=species:S:1:pos:R:3 relative_energy_eV=-2.2556259576958837 branch=right pbc="F F F"
O       -1.71669310      -0.26674969       0.29337950
C       -0.71555501       0.60383427      -0.01281392
C        0.56725751       0.27364660      -0.13337512
O        0.94811637      -1.04528134       0.04202342
H       -1.32752151      -1.14608932       0.39315274
H       -1.05789324       1.61624386      -0.15219968
H        1.33510596       0.99587380      -0.37340950
H        1.90700248      -1.08870419       0.03424047
8
Properties=species:S:1:pos:R:3 relative_energy_eV=-2.255697843210328 branch=right pbc="F F F"
O       -1.71702004      -0.26612372       0.29437664
C       -0.71541874       0.60349565      -0.01262966
C        0.56743163       0.27349857      -0.13141091
O        0.94886650      -1.04463766       0.04676546
H       -1.32902688      -1.14664163       0.39205263
H       -1.05747376       1.61557792      -0.15491713
H        1.33488881       0.99584801      -0.37238700
H        1.90757191      -1.08824316       0.02914790
8
Properties=species:S:1:pos:R:3 relative_energy_eV=-2.2557986182791865 branch=right pbc="F F F"
O       -1.71747037      -0.26566461       0.29490208
C       -0.71543212       0.60312929      -0.01225726
C        0.56752571       0.27353647      -0.12887068
O        0.94978834      -1.04363976       0.05403772
H       -1.33048433      -1.14724841       0.39049572
H       -1.05672475       1.61499527      -0.15758397
H        1.33446488       0.99595678      -0.37190049
H        1.90815202      -1.08829102       0.02217478
8
Properties=species:S:1:pos:R:3 relative_energy_eV=-2.2559453619232954 branch=right pbc="F F F"
O       -1.71824146      -0.26558214       0.29380349
C       -0.71565013       0.60275600      -0.01197736
C        0.56756030       0.27380871      -0.12559627
O        0.95093270      -1.04225604       0.06400814
H       -1.33159313      -1.14757677       0.38958845
H       -1.05566014       1.61454845      -0.16020200
H        1.33395823       0.99650497      -0.37087468
H        1.90851294      -1.08942917       0.01224816
8
Properties=species:S:1:pos:R:3 relative_energy_eV=-2.256122246760242 branch=right pbc="F F F"
O       -1.71935982      -0.26608664       0.29023657
C       -0.71603310       0.60242106      -0.01216468
C        0.56765863       0.27433702      -0.12201915
O        0.95231785      -1.04065780       0.07476837
H       -1.33204465      -1.14718321       0.39062397
H       -1.05455441       1.61433282      -0.16238499
H        1.33345658       0.99778559      -0.36832142
H        1.90837816      -1.09217482       0.00025927
8
Properties=species:S:1:pos:R:3 relative_energy_eV=-2.2562786756179776 branch=right pbc="F F F"
O       -1.72043783      -0.26699921       0.28512320
C       -0.71637419       0.60225696      -0.01316756
C        0.56793476       0.27487821      -0.11947463
O        0.95352037      -1.03942115       0.08176547
H       -1.33166313      -1.14594214       0.39413846
H       -1.05418688       1.61432987      -0.16372482
H        1.33335357       0.99950195      -0.36381532
H        1.90767251      -1.09583048      -0.00984685
8
Properties=species:S:1:pos:R:3 relative_energy_eV=-2.256350296407618 branch=right pbc="F F F"
O       -1.72100758      -0.26759363       0.28138872
C       -0.71651585       0.60227537      -0.01476672
C        0.56839422       0.27518699      -0.11760899
O        0.95417115      -1.03851379       0.08636989
H       -1.33132645      -1.14463479       0.39788038
H       -1.05511272       1.61407892      -0.16585785
H        1.33412919       1.00045464      -0.35786538
H        1.90708717      -1.09847969      -0.01854208
8
Properties=species:S:1:pos:R:3 relative_energy_eV=-2.2563444414900005 branch=right pbc="F F F"
O       -1.72115050      -0.26780937       0.27975970
C       -0.71634828       0.60221923      -0.01556550
C        0.56866331       0.27508151      -0.11804620
O        0.95447878      -1.03882296       0.08338919
H       -1.33116228      -1.14388881       0.40040766
H       -1.05543344       1.61409539      -0.16556718
H        1.33423831       1.00110432      -0.35563354
H        1.90653323      -1.09920529      -0.01774617
8
Properties=species:S:1:pos:R:3 relative_energy_eV=-2.2563685649938634 branch=right pbc="F F F"
O       -1.72113225      -0.26763779       0.28023131
C       -0.71636908       0.60222049      -0.01561436
C        0.56869719       0.27510969      -0.11723838
O        0.95446579      -1.03850668       0.08589833
H       -1.33144189      -1.14407859       0.39986536
H       -1.05564356       1.61386248      -0.16675806
H        1.33450893       1.00079114      -0.35501976
H        1.90673400      -1.09898670      -0.02036649
