8
Properties=species:S:1:pos:R:3 relative_energy_eV=4.876885430987386 branch=ts pbc="F F F"
O       -1.69876202      -0.66363984       0.82897699
C       -0.96022575       0.02117427       0.05103665
C        0.41894467       0.09969125      -0.17604433
O        1.33959183      -0.24930898       0.76837281
H       -1.49007577       0.33663741      -0.86517304
H       -0.50848979       0.62142498       0.22575822
H        0.78275215       0.41901759      -1.14523816
H        2.11626467      -0.58499634       0.31231009
