8
Properties=species:S:1:pos:R:3 relative_energy_eV=3.836171237572671 branch=ts pbc="F F F"
O       -1.60302228      -1.17047892       0.26849672
C       -0.91677901      -0.20731482      -0.20151320
C        0.39075846       0.25340396      -0.00733736
O        1.39987174      -0.55798085       0.42235780
H       -1.54626826       0.63872095      -0.52963860
H        0.61672070       1.30013191      -0.17156187
H       -0.34784959      -0.23411194      -0.72173003
H        2.00656588      -0.02236967       0.94092336
