16
Properties=species:S:1:pos:R:3 relative_energy_eV=1.8660397935091169 branch=ts pbc="F F F"
O       -2.17859693       1.47210402      -0.25794808
C       -1.32438457       0.45215070      -0.21628510
C       -0.17529837       0.42061022      -1.16062714
O        0.73678794      -0.57039732      -0.79834855
P        1.97704660      -0.08876165       0.28800968
O        1.72881744      -0.82971461       1.57113463
O        2.11963350       1.39655617       0.16529908
O        3.23213583      -0.84024425      -0.49420419
C       -1.65572774      -0.57129250       0.73184389
O       -2.72796454      -0.44130441       1.42183677
H       -0.55241662       0.19299066      -2.16688595
H        0.28999340       1.41148427      -1.18948841
H        3.39143599      -1.64850568       0.00703043
H       -1.19020401      -1.55531890       0.57452058
H       -0.73853280       0.13937013       1.06050515
H       -2.84749949       1.19389989       0.43770176
