35
Properties=species:S:1:pos:R:3 relative_energy_eV=0.0 branch=left pbc="F F F"
O       -4.47018333       2.57939499       0.13093211
P       -3.13026591       3.09444895      -0.31336130
O       -2.51150004       4.39054724       0.14016565
O       -3.13999406       3.06438389      -1.98539148
O       -1.97216125       1.92939382       0.00156860
C       -2.27461584       0.59837383      -0.39107810
C       -1.75504807      -0.32652964       0.67686880
O       -2.44849257      -1.17664071       1.21813780
C       -0.31068385      -0.19128915       1.14910380
O       -0.30262975      -0.44417495       2.55455334
C        0.57983083      -1.20693096       0.40085085
O        0.43371571      -0.90609085      -0.96907628
C        2.05178594      -1.18025003       0.85269261
O        2.21087228      -1.46722863       2.24055643
C        2.86504739      -2.22689162       0.11949879
O        2.87203015      -1.92855838      -1.26717550
P        3.87634159      -2.86182780      -2.26545526
O        3.93926792      -4.24957460      -1.71341165
O        3.49072518      -2.46957378      -3.66055191
O        5.34147793      -2.12448590      -1.91713149
O       -4.83256236       5.06895718       1.86543855
H       -2.47165462       3.70036294      -2.26680940
H       -3.34650197       0.43251255      -0.50649402
H       -1.75905597       0.35996857      -1.32652294
H        0.05305173       0.81778545       0.97097587
H       -1.05928213      -1.04405035       2.68690337
H        0.19408487      -2.21261352       0.62947407
H        1.20525157      -1.29378889      -1.42574483
H        2.45638409      -0.19057973       0.60138961
H        1.43418481      -1.09136521       2.68824618
H        2.43965922      -3.21612198       0.29613317
H        3.88148067      -2.22745411       0.51440026
H        5.43356236      -1.43658358      -2.58661329
H       -3.95953233       5.15785351       1.44180833
H       -5.09062766       4.21050316       1.49127285
35
Properties=species:S:1:pos:R:3 relative_energy_eV=0.0005712694037356414 branch=left pbc="F F F"
O       -4.45603347       2.58112891       0.16565310
P       -3.12477967       3.08938749      -0.31180880
O       -2.48993238       4.38452895       0.12219457
O       -3.17351997       3.05572376      -1.98328784
O       -1.96522084       1.91990052      -0.02138294
C       -2.28450866       0.58906254      -0.39960691
C       -1.76364493      -0.33454226       0.66906664
O       -2.45574233      -1.18543289       1.21112051
C       -0.31981675      -0.19774399       1.14081805
O       -0.31140305      -0.45176402       2.54623992
C        0.57229854      -1.21253250       0.39434017
O        0.42883766      -0.91415028      -0.97622418
C        2.04291443      -1.18009803       0.85125554
O        2.19744792      -1.46684202       2.23968870
C        2.86307875      -2.22471016       0.12347650
O        2.87001862      -1.93468932      -1.26483708
P        3.89434849      -2.85559925      -2.25466395
O        3.98188213      -4.23808185      -1.69241766
O        3.50320161      -2.48347211      -3.65362278
O        5.34476053      -2.08682600      -1.90847778
O       -4.77998723       5.08761393       1.87923703
H       -2.52512054       3.70479595      -2.28074571
H       -3.35892023       0.43201356      -0.50348425
H       -1.78126581       0.33964054      -1.33881451
H        0.04356690       0.81148185       0.96232233
H       -1.07005631      -1.04925417       2.67804104
H        0.18798142      -2.21902063       0.62180544
H        1.20320276      -1.30211426      -1.42776277
H        2.44456845      -0.18849570       0.60169555
H        1.41508992      -1.09734491       2.68333081
H        2.44146409      -3.21435222       0.30664540
H        3.87893690      -2.21776617       0.51970410
H        5.43102046      -1.40288895      -2.58299140
H       -3.91424332       5.16944314       1.43895766
H       -5.04646302       4.22488321       1.52068875
35
Properties=species:S:1:pos:R:3 relative_energy_eV=0.0010985663466271944 branch=left pbc="F F F"
O       -4.45053894       2.58418399       0.17920994
P       -3.12238676       3.08924845      -0.31079358
O       -2.47979396       4.38270001       0.11693337
O       -3.18441242       3.05706329      -1.98203527
O       -1.96472632       1.91548884      -0.02949799
C       -2.29518449       0.58518086      -0.39746069
C       -1.76900024      -0.33820348       0.66836290
O       -2.45755454      -1.19183738       1.21068514
C       -0.32400808      -0.19806853       1.13635484
O       -0.31466990      -0.44808669       2.54275499
C        0.57014992      -1.21252653       0.39057025
O        0.43015130      -0.91135570      -0.97989888
C        2.04013926      -1.18148093       0.85054734
O        2.19105114      -1.46741131       2.23976573
C        2.86502661      -2.22448445       0.12396572
O        2.87194278      -1.93821370      -1.26540897
P        3.90394278      -2.85569788      -2.25115924
O        3.99790553      -4.23684257      -1.68682293
O        3.51674247      -2.48600724      -3.65201968
O        5.35058079      -2.08216274      -1.90312637
O       -4.76666826       5.09191556       1.87866279
H       -2.54917635       3.71766905      -2.28239470
H       -3.37163230       0.43584396      -0.49061974
H       -1.80240635       0.32692640      -1.33972796
H        0.03850214       0.81085525       0.95579642
H       -1.06573459      -1.05501958       2.67507056
H        0.18375442      -2.21827648       0.61759463
H        1.20200201      -1.30282053      -1.43273909
H        2.44197469      -0.18964726       0.60285035
H        1.40541598      -1.10141689       2.68134448
H        2.44978621      -3.21653854       0.30813209
H        3.88074305      -2.21126664       0.52052563
H        5.43379814      -1.40089307      -2.58046871
H       -3.90096073       5.17560872       1.43970384
H       -5.03079435       4.22745639       1.52149591
35
Properties=species:S:1:pos:R:3 relative_energy_eV=0.0016522276273462921 branch=left pbc="F F F"
O       -4.43453813       2.58926710       0.19509117
P       -3.11414574       3.08665691      -0.32327797
O       -2.45579765       4.37687711       0.09050662
O       -3.21217833       3.05185353      -1.99316885
O       -1.95694233       1.90628404      -0.06522248
C       -2.30679130       0.57448534      -0.40847757
C       -1.77952010      -0.34548749       0.66096125
O       -2.46741355      -1.20215839       1.19951305
C       -0.33670665      -0.20201810       1.13457368
O       -0.33015513      -0.45027500       2.54115914
C        0.56218253      -1.21444493       0.39067916
O        0.42407491      -0.91211523      -0.97927531
C        2.03108271      -1.18198323       0.85254557
O        2.17813487      -1.47000752       2.24117034
C        2.86272155      -2.22173121       0.13014895
O        2.86744443      -1.94014436      -1.25935320
P        3.91421261      -2.84321123      -2.24142348
O        4.03158021      -4.22076752      -1.67246287
O        3.52038854      -2.48583473      -3.64360607
O        5.34633813      -2.03999760      -1.90025037
O       -4.70285369       5.08937024       1.90894207
H       -2.56856492       3.69790174      -2.30838916
H       -3.38611622       0.43561633      -0.48733892
H       -1.83011847       0.29767927      -1.35437146
H        0.02129183       0.80869051       0.95633855
H       -1.07808270      -1.06078340       2.67326949
H        0.17875617      -2.22185021       0.61461430
H        1.19622683      -1.30471970      -1.43003303
H        2.43272593      -0.19006122       0.60587492
H        1.39427409      -1.09954151       2.68155843
H        2.45497637      -3.21615593       0.31759967
H        3.87815291      -2.19842948       0.52720876
H        5.41096221      -1.36244218      -2.58365680
H       -3.84774908       5.17564489       1.44978913
H       -4.97389355       4.22571699       1.55491574
35
Properties=species:S:1:pos:R:3 relative_energy_eV=0.0026696186541812494 branch=left pbc="F F F"
O       -4.42655908       2.59639547       0.21086303
P       -3.11417319       3.08332833      -0.33624808
O       -2.43823283       4.36966126       0.05990701
O       -3.25422810       3.04750595      -2.00264109
O       -1.95686354       1.89713633      -0.10217687
C       -2.32205084       0.56469974      -0.42276800
C       -1.78943851      -0.35427717       0.64606978
O       -2.47492530      -1.22071088       1.17206913
C       -0.34919058      -0.20654789       1.12974402
O       -0.34762888      -0.45724389       2.53639932
C        0.55552640      -1.21744134       0.39039933
O        0.42500639      -0.91405218      -0.98016411
C        2.02266705      -1.18388423       0.85959403
O        2.16614591      -1.47376935       2.24888404
C        2.85810835      -2.22209231       0.13784725
O        2.85861126      -1.94870292      -1.25336964
P        3.92749631      -2.82997714      -2.23156888
O        4.08311473      -4.19860163      -1.65104518
O        3.52067068      -2.49571561      -3.63561668
O        5.33700512      -1.98576664      -1.89736374
O       -4.61961129       5.09682706       1.94521202
H       -2.60052920       3.67344137      -2.33639564
H       -3.40361099       0.43197729      -0.48331633
H       -1.86390926       0.27316436      -1.37382780
H        0.01048196       0.80422469       0.95445764
H       -1.09020089      -1.07426849       2.66574881
H        0.16930858      -2.22435093       0.61194111
H        1.19811049      -1.30795626      -1.42911792
H        2.42465996      -0.19099169       0.61769242
H        1.38632798      -1.09496079       2.68903838
H        2.45651750      -3.21739545       0.33296194
H        3.87407252      -2.19357009       0.53217049
H        5.38853089      -1.31066838      -2.58410784
H       -3.77931347       5.17929324       1.45934947
H       -4.90793855       4.23717574       1.59553016
35
Properties=species:S:1:pos:R:3 relative_energy_eV=0.0035028451529797167 branch=left pbc="F F F"
O       -4.41231390       2.59916276       0.23481080
P       -3.10956713       3.07869395      -0.34071201
O       -2.41961417       4.36343409       0.03525026
O       -3.28607816       3.03637706      -2.00308210
O       -1.95197877       1.88914620      -0.12704985
C       -2.32906725       0.55740930      -0.43510348
C       -1.79608633      -0.36080313       0.63379412
O       -2.47829887      -1.23213772       1.15626919
C       -0.35953044      -0.20942798       1.12346662
O       -0.36796348      -0.45871650       2.52993391
C        0.54930988      -1.21985482       0.39049634
O        0.42173573      -0.91797724      -0.98043933
C        2.01457204      -1.18297251       0.86389758
O        2.15444916      -1.47197434       2.25397759
C        2.85221319      -2.22170539       0.14515248
O        2.85351409      -1.95184653      -1.24653999
P        3.93764805      -2.81833764      -2.22189115
O        4.12911113      -4.17864772      -1.63244122
O        3.51591365      -2.50293721      -3.62595786
O        5.32847532      -1.94120364      -1.89689735
O       -4.55222146       5.10239825       1.96975844
H       -2.62481993       3.64320457      -2.35720434
H       -3.41190872       0.43111902      -0.48831981
H       -1.87985790       0.25595044      -1.38745740
H        0.00057814       0.80071073       0.94727322
H       -1.10538407      -1.08454429       2.64917602
H        0.16768635      -2.22850055       0.61100860
H        1.19899861      -1.30948714      -1.42403712
H        2.41380505      -0.18926717       0.62069391
H        1.37334490      -1.09298923       2.69152832
H        2.44767924      -3.21597717       0.34184172
H        3.86832403      -2.19134264       0.53917279
H        5.36128614      -1.26623114      -2.58479495
H       -3.72246187       5.17532347       1.46386636
H       -4.85753608       4.24583882       1.62671075
35
Properties=species:S:1:pos:R:3 relative_energy_eV=0.004366370718344115 branch=left pbc="F F F"
O       -4.40051945       2.59701627       0.27443295
P       -3.11136747       3.07155897      -0.33448895
O       -2.41174926       4.35768596       0.01893853
O       -3.32298147       3.02070773      -1.99286738
O       -1.95073356       1.88160570      -0.14254859
C       -2.32841917       0.55127280      -0.45327663
C       -1.79963882      -0.36901979       0.61559871
O       -2.48343775      -1.24276872       1.13162602
C       -0.36613271      -0.21419032       1.11304258
O       -0.37995960      -0.46277838       2.51993134
C        0.54610234      -1.22521198       0.38675601
O        0.42185474      -0.93199485      -0.98647536
C        2.00965324      -1.18574515       0.86537727
O        2.14321586      -1.46886004       2.25687441
C        2.84844507      -2.22848122       0.15472352
O        2.85375102      -1.96068345      -1.23728618
P        3.95346899      -2.81104545      -2.20989519
O        4.17724386      -4.16196543      -1.60999482
O        3.51792589      -2.51714257      -3.61451033
O        5.32490038      -1.89682834      -1.90035530
O       -4.49880035       5.13354354       1.98121576
H       -2.67581875       3.63409859      -2.36058293
H       -3.41067876       0.42362826      -0.50975131
H       -1.87577934       0.25063225      -1.40389279
H       -0.00722502       0.79673336       0.93969699
H       -1.11511076      -1.09127188       2.63663492
H        0.16214019      -2.23158319       0.61503504
H        1.20401300      -1.31944645      -1.42561375
H        2.41243924      -0.19356466       0.62049746
H        1.35681023      -1.09366708       2.68823551
H        2.44078890      -3.22165690       0.35275764
H        3.86248071      -2.20028728       0.55518593
H        5.32775351      -1.22029707      -2.58807764
H       -3.67741352       5.18544941       1.45931833
H       -4.82326676       4.27644546       1.65988906
35
Properties=species:S:1:pos:R:3 relative_energy_eV=0.004661946353735402 branch=left pbc="F F F"
O       -4.39535128       2.59689482       0.27420288
P       -3.10715948       3.06741441      -0.34021856
O       -2.40344560       4.35288940       0.00729699
O       -3.32584663       3.01132859      -1.99777800
O       -1.94769482       1.87692747      -0.14934423
C       -2.32882801       0.54719229      -0.45874232
C       -1.80488106      -0.37131597       0.61436542
O       -2.49110599      -1.24268939       1.13121280
C       -0.37199629      -0.21574296       1.11441351
O       -0.38622285      -0.46426239       2.52156304
C        0.54156479      -1.22645700       0.38754017
O        0.41714995      -0.93331226      -0.98584485
C        2.00493244      -1.18390843       0.86732940
O        2.13846100      -1.46212430       2.25996474
C        2.84602267      -2.22564177       0.15751884
O        2.85120998      -1.95665402      -1.23453389
P        3.95367853      -2.80265978      -2.20777786
O        4.18689768      -4.15049902      -1.60467833
O        3.51393795      -2.51531828      -3.61255532
O        5.32057323      -1.88046657      -1.90227541
O       -4.46748231       5.12599427       1.99473785
H       -2.67559903       3.61878040      -2.37091214
H       -3.41145928       0.42421209      -0.51699511
H       -1.87587791       0.24439075      -1.40856101
H       -0.01351395       0.79615484       0.94223394
H       -1.12291905      -1.09035666       2.64058311
H        0.15970981      -2.23458156       0.61245686
H        1.19838301      -1.32224781      -1.42539735
H        2.40643723      -0.19210451       0.61928399
H        1.34812394      -1.09305367       2.68992747
H        2.43909779      -3.21953639       0.35412144
H        3.86051427      -2.19526278       0.55671799
H        5.31677201      -1.20287450      -2.58889028
H       -3.65203348       5.17910892       1.46347591
H       -4.79809509       4.27167041       1.67170915
35
Properties=species:S:1:pos:R:3 relative_energy_eV=0.005167772345885169 branch=left pbc="F F F"
O       -4.38936386       2.59553642       0.28078378
P       -3.10603805       3.06455295      -0.34459262
O       -2.39985799       4.35093692      -0.00558003
O       -3.33770248       3.00586542      -2.00047066
O       -1.94458329       1.87473755      -0.15930723
C       -2.32333280       0.54384318      -0.46661259
C       -1.80969608      -0.37321319       0.61318483
O       -2.50266636      -1.23859490       1.13102087
C       -0.37788569      -0.22224076       1.11641673
O       -0.39413253      -0.46931570       2.52355658
C        0.53628294      -1.23201122       0.38994382
O        0.41159301      -0.93516865      -0.98266177
C        1.99969934      -1.18478079       0.86767664
O        2.13575787      -1.46053368       2.26040282
C        2.84480152      -2.22363316       0.15912400
O        2.84841801      -1.95740239      -1.23271866
P        3.95667706      -2.79533176      -2.20473134
O        4.20358246      -4.13886903      -1.59738474
O        3.51021442      -2.51620849      -3.60899879
O        5.31531391      -1.85976920      -1.90345841
O       -4.43757424       5.12823330       2.00441379
H       -2.69152617       3.61338656      -2.37997369
H       -3.40505536       0.41991005      -0.53511044
H       -1.85916252       0.23718881      -1.40960354
H       -0.01663833       0.78812184       0.94174781
H       -1.13464697      -1.09046304       2.64444944
H        0.15617646      -2.24088088       0.61427792
H        1.18751670      -1.33102357      -1.42455383
H        2.39454619      -0.19077882       0.61787251
H        1.34377202      -1.09441246       2.68931349
H        2.44357360      -3.21950311       0.35724053
H        3.85880075      -2.18692709       0.55816749
H        5.30666853      -1.18258317      -2.59039812
H       -3.62604423       5.17856738       1.46755874
H       -4.77353446       4.27465389       1.68515573
35
Properties=species:S:1:pos:R:3 relative_energy_eV=0.005774418023065664 branch=left pbc="F F F"
O       -4.38518349       2.59591491       0.27562168
P       -3.10298197       3.06023869      -0.35571950
O       -2.39388783       4.34731893      -0.02515461
O       -3.33938599       2.99574263      -2.01067724
O       -1.94219468       1.86941976      -0.16981405
C       -2.31993965       0.53738448      -0.47420411
C       -1.81786578      -0.37283367       0.61631239
O       -2.51725875      -1.22855984       1.14170630
C       -0.38671801      -0.22629216       1.12016108
O       -0.40505891      -0.47787581       2.52563636
C        0.52691876      -1.23598761       0.39262866
O        0.39725274      -0.94515494      -0.98088584
C        1.99061482      -1.18218069       0.86894689
O        2.13024584      -1.46013781       2.26138157
C        2.84155148      -2.21514006       0.15939020
O        2.83910397      -1.95513262      -1.23376997
P        3.95728086      -2.78454958      -2.20346729
O        4.21710506      -4.12453032      -1.59380704
O        3.51099029      -2.51295826      -3.60924579
O        5.30644816      -1.83550003      -1.90323258
O       -4.39184796       5.11806892       2.02486608
H       -2.69050834       3.59752456      -2.39475800
H       -3.40065278       0.41253226      -0.55515227
H       -1.84229740       0.22551598      -1.40853690
H       -0.02596261       0.78493448       0.94954471
H       -1.15350358      -1.09068984       2.64244127
H        0.14940604      -2.24506617       0.62042170
H        1.17789979      -1.33134735      -1.42277901
H        2.38168501      -0.18658837       0.61984978
H        1.34068914      -1.09479476       2.69499482
H        2.45012294      -3.21303487       0.36374860
H        3.85618530      -2.16906371       0.55515153
H        5.29239555      -1.16229175      -2.59392292
H       -3.59234064       5.17071090       1.47014565
H       -4.73435481       4.26629350       1.70832932
35
Properties=species:S:1:pos:R:3 relative_energy_eV=0.006116248019679915 branch=left pbc="F F F"
O       -4.37543729       2.59018095       0.29049009
P       -3.09925372       3.05714540      -0.35112716
O       -2.38660538       4.34279791      -0.02275416
O       -3.35232625       2.99874119      -2.00369245
O       -1.93545307       1.86768032      -0.18171820
C       -2.31489963       0.53540873      -0.48345252
C       -1.81882676      -0.36931048       0.61473543
O       -2.52370153      -1.21819791       1.14387219
C       -0.38794986      -0.22732164       1.12154858
O       -0.41061175      -0.48102155       2.52647031
C        0.52565151      -1.23923232       0.39571801
O        0.39422977      -0.95479481      -0.97859464
C        1.98979377      -1.18344176       0.86916106
O        2.12906494      -1.46089424       2.26162186
C        2.84201700      -2.21520008       0.15870921
O        2.83466650      -1.95829778      -1.23533007
P        3.95885300      -2.78186549      -2.20279132
O        4.22385456      -4.12004910      -1.59174957
O        3.51414714      -2.51444032      -3.60966324
O        5.30224425      -1.82507447      -1.90241372
O       -4.38773861       5.12275987       2.02005878
H       -2.70516716       3.60043739      -2.39066396
H       -3.39581380       0.41269206      -0.56715219
H       -1.83507127       0.21963516      -1.41572573
H       -0.02362444       0.78286725       0.95227667
H       -1.16447771      -1.08822616       2.63994696
H        0.15040502      -2.24760943       0.63016739
H        1.17727826      -1.33839040      -1.41893813
H        2.37846844      -0.18660852       0.62154973
H        1.33716347      -1.09813619       2.69307890
H        2.45510862      -3.21463093       0.36494738
H        3.85782880      -2.16401957       0.55136578
H        5.28646761      -1.15547271      -2.59657425
H       -3.58911463       5.17609112       1.46396220
H       -4.72721761       4.26768856       1.70881241
35
Properties=species:S:1:pos:R:3 relative_energy_eV=0.006475801928900182 branch=left pbc="F F F"
O       -4.37084856       2.58622984       0.29185032
P       -3.09656377       3.05513835      -0.35180622
O       -2.38377733       4.34015579      -0.02046329
O       -3.35348681       3.00083005      -2.00423232
O       -1.93220154       1.86515717      -0.18982037
C       -2.31330809       0.53262828      -0.48878143
C       -1.81987305      -0.36958875       0.61232840
O       -2.52908320      -1.21358767       1.14340428
C       -0.38977145      -0.22783313       1.12188679
O       -0.41499722      -0.47975393       2.52675216
C        0.52555479      -1.24028799       0.39992537
O        0.39192924      -0.96025895      -0.97462347
C        1.99055130      -1.18286841       0.87065383
O        2.13060284      -1.45943860       2.26362791
C        2.84280272      -2.21424341       0.15845988
O        2.83326437      -1.95673919      -1.23580706
P        3.95790025      -2.77890216      -2.20402689
O        4.22586675      -4.11651327      -1.59288572
O        3.51240802      -2.51247571      -3.61078348
O        5.29777164      -1.81832769      -1.90273610
O       -4.38141768       5.12626149       2.01818866
H       -2.70905534       3.60478785      -2.39195026
H       -3.39421740       0.40972263      -0.57226646
H       -1.83312740       0.21528845      -1.42006465
H       -0.02610348       0.78237397       0.95127865
H       -1.17037300      -1.08504189       2.64041316
H        0.15039104      -2.24785452       0.63808432
H        1.17477951      -1.34437474      -1.41452693
H        2.37956895      -0.18649069       0.62149378
H        1.33481365      -1.10613462       2.69602596
H        2.45578355      -3.21344857       0.36768625
H        3.85962424      -2.16224414       0.54889366
H        5.28387744      -1.15008928      -2.59817001
H       -3.58500999       5.17285293       1.45745393
H       -4.72032292       4.26696078       1.72068907
35
Properties=species:S:1:pos:R:3 relative_energy_eV=0.00751727868191665 branch=left pbc="F F F"
O       -4.36028059       2.58208950       0.27282265
P       -3.08577391       3.05198903      -0.36945837
O       -2.37252778       4.33598065      -0.03487633
O       -3.34328590       3.00170089      -2.02213589
O       -1.92225007       1.86040501      -0.21054206
C       -2.31261980       0.52697891      -0.49328505
C       -1.82357765      -0.37025894       0.61522601
O       -2.53338429      -1.21254695       1.14873916
C       -0.39536509      -0.22646993       1.12937810
O       -0.42315853      -0.48082543       2.53332091
C        0.52132748      -1.24051855       0.41088900
O        0.37958963      -0.97222649      -0.96514601
C        1.98788730      -1.17672895       0.87634287
O        2.13734040      -1.45373401       2.26894791
C        2.83962587      -2.20544412       0.16029687
O        2.82596343      -1.94705792      -1.23337828
P        3.94827226      -2.76421084      -2.20777196
O        4.21866618      -4.10452943      -1.60348631
O        3.49573483      -2.49011383      -3.61076957
O        5.29116594      -1.80635009      -1.90957289
O       -4.34749138       5.09990534       2.03254569
H       -2.70035551       3.60750288      -2.40968482
H       -3.39472130       0.41389381      -0.57569022
H       -1.83620911       0.19677618      -1.42209768
H       -0.03326914       0.78513580       0.96227873
H       -1.18644975      -1.07646243       2.64603789
H        0.15175629      -2.24803251       0.65961316
H        1.16110669      -1.35509235      -1.40869061
H        2.37139503      -0.17799268       0.62959127
H        1.33307852      -1.12263940       2.70182422
H        2.45653504      -3.20618747       0.36921357
H        3.85640290      -2.15194407       0.55006153
H        5.27576895      -1.13586097      -2.60289220
H       -3.55808198       5.14689520       1.46128052
H       -4.69886273       4.24786453       1.72721970
35
Properties=species:S:1:pos:R:3 relative_energy_eV=0.009092824613617267 branch=left pbc="F F F"
O       -4.35364295       2.57886522       0.24217624
P       -3.07551506       3.04716812      -0.39401849
O       -2.36147008       4.32972998      -0.05533892
O       -3.32524216       3.00246401      -2.04784441
O       -1.91407933       1.85348237      -0.22953826
C       -2.31062153       0.51894209      -0.49501033
C       -1.82548438      -0.37076162       0.62006031
O       -2.53740699      -1.21335649       1.15053619
C       -0.39951907      -0.22633929       1.13950977
O       -0.43199514      -0.48062671       2.54382719
C        0.51476381      -1.24326679       0.42250269
O        0.36562496      -0.98658285      -0.95462081
C        1.98177731      -1.17327759       0.88399834
O        2.12752343      -1.45346565       2.27626621
C        2.83947405      -2.19441170       0.16496314
O        2.82431011      -1.92719495      -1.22707703
P        3.93534046      -2.74618262      -2.21318905
O        4.20519120      -4.09208610      -1.62117943
O        3.47389347      -2.46294890      -3.61134794
O        5.28400232      -1.79522017      -1.92024118
O       -4.30481590       5.06542866       2.05438801
H       -2.68911287       3.61950646      -2.42809012
H       -3.39324656       0.41121505      -0.57423932
H       -1.83707681       0.17227260      -1.41940418
H       -0.02999949       0.78255162       0.97101108
H       -1.19798660      -1.07324737       2.65545928
H        0.14895480      -2.24881895       0.68187525
H        1.15004568      -1.36358958      -1.39807211
H        2.36125524      -0.17394867       0.63474244
H        1.32623540      -1.11434307       2.70921485
H        2.45564970      -3.19541841       0.36823509
H        3.85739143      -2.14230924       0.55373895
H        5.26130144      -1.11894633      -2.60784842
H       -3.52895240       5.12066955       1.46650748
H       -4.67261500       4.22593772       1.73419880
35
Properties=species:S:1:pos:R:3 relative_energy_eV=0.011332306028634775 branch=left pbc="F F F"
O       -4.34308908       2.57720712       0.20879039
P       -3.05942312       3.04223318      -0.41830028
O       -2.34452999       4.32269102      -0.07226359
O       -3.29848144       3.00323080      -2.07387241
O       -1.90472426       1.84153156      -0.24956777
C       -2.31213139       0.50664233      -0.49784883
C       -1.83072611      -0.37364968       0.62618154
O       -2.54502767      -1.21012442       1.16306035
C       -0.40778924      -0.22895876       1.14719661
O       -0.44049716      -0.47093179       2.55333979
C        0.50464710      -1.24997818       0.43421939
O        0.35290870      -1.00065299      -0.94373730
C        1.97135340      -1.17143934       0.89467530
O        2.11787663      -1.44665900       2.28687022
C        2.83565780      -2.18596482       0.17166538
O        2.82180225      -1.90349830      -1.21834846
P        3.91647864      -2.72371376      -2.22161822
O        4.18080395      -4.07331875      -1.63557090
O        3.44433589      -2.42930939      -3.61447505
O        5.27477322      -1.78438736      -1.93471925
O       -4.26165905       5.02532249       2.06652690
H       -2.66439289       3.62681901      -2.44744665
H       -3.39591748       0.40198168      -0.57262075
H       -1.84157481       0.15168972      -1.42008292
H       -0.03989380       0.77794780       0.97190180
H       -1.19863961      -1.07323275       2.66465839
H        0.14066020      -2.25605023       0.69606076
H        1.14568560      -1.36108532      -1.38688116
H        2.34416586      -0.16813264       0.65102796
H        1.32492742      -1.08572765       2.71742869
H        2.46007122      -3.19362720       0.36216120
H        3.85293094      -2.12938421       0.56221522
H        5.24534167      -1.09706126      -2.61102318
H       -3.48935910       5.08276775       1.47396209
H       -4.63261130       4.18871375       1.74258594
35
Properties=species:S:1:pos:R:3 relative_energy_eV=0.01406772319751326 branch=left pbc="F F F"
O       -4.32172800       2.56888991       0.20990930
P       -3.04010902       3.03315765      -0.42320971
O       -2.31210533       4.30434616      -0.07126868
O       -3.28974745       3.01272495      -2.07772135
O       -1.89226024       1.82683580      -0.27503764
C       -2.31198984       0.49433182      -0.51248538
C       -1.84103875      -0.37663246       0.62563609
O       -2.55988446      -1.20371531       1.17083649
C       -0.41485952      -0.23056264       1.14409165
O       -0.44167758      -0.45766312       2.55209156
C        0.49738584      -1.25913695       0.44336232
O        0.34506178      -1.01884328      -0.93585900
C        1.96389906      -1.17376956       0.90460652
O        2.11685075      -1.45238904       2.29558619
C        2.83385139      -2.18005690       0.17953744
O        2.82065001      -1.88345598      -1.20619560
P        3.89837345      -2.70374131      -2.22339346
O        4.16155057      -4.05826111      -1.64841814
O        3.40828848      -2.39751237      -3.60734555
O        5.26555785      -1.77380925      -1.94611387
O       -4.24988699       4.99913235       2.05685454
H       -2.66446264       3.64918545      -2.44490641
H       -3.39651394       0.40430887      -0.59334655
H       -1.84051112       0.12199266      -1.42788554
H       -0.04437723       0.77446788       0.95878609
H       -1.19309371      -1.06483328       2.67604172
H        0.13297061      -2.26298381       0.71490359
H        1.14755660      -1.36095427      -1.37576427
H        2.32861705      -0.16844507       0.65489607
H        1.34201393      -1.06671030       2.73661656
H        2.46478481      -3.19128955       0.36024623
H        3.84972985      -2.12242420       0.57195928
H        5.22899993      -1.07900360      -2.61446325
H       -3.46729754       5.07146457       1.48033242
H       -4.60064511       4.15724563       1.72327153
35
Properties=species:S:1:pos:R:3 relative_energy_eV=0.01686098655773094 branch=left pbc="F F F"
O       -4.30974280       2.58059410       0.20544246
P       -3.02598872       3.03321259      -0.43312460
O       -2.28567523       4.29894233      -0.08610024
O       -3.27930261       3.01208029      -2.08501933
O       -1.88882331       1.81618737      -0.28961150
C       -2.31493626       0.48393639      -0.51663635
C       -1.85002364      -0.37893098       0.62953929
O       -2.57279035      -1.20103486       1.17707280
C       -0.42416038      -0.23004696       1.14749213
O       -0.45112161      -0.44569281       2.55723796
C        0.49300580      -1.25811275       0.44956069
O        0.33821054      -1.02577016      -0.93073994
C        1.96207951      -1.16644877       0.90817724
O        2.12179817      -1.44893219       2.29750651
C        2.83127555      -2.17045925       0.18081187
O        2.81598003      -1.87289589      -1.20415030
P        3.88779763      -2.69302634      -2.22749971
O        4.15015574      -4.05041419      -1.65904075
O        3.39531412      -2.37973856      -3.60916840
O        5.25700062      -1.76711125      -1.94881455
O       -4.23407737       4.96248632       2.07206118
H       -2.64893516       3.64142937      -2.45146394
H       -3.39875595       0.39074590      -0.59961572
H       -1.84018199       0.10400500      -1.42702497
H       -0.05215326       0.77335270       0.95520853
H       -1.19609205      -1.05846354       2.69161444
H        0.13182037      -2.26368691       0.71798235
H        1.14607032      -1.35776311      -1.36908590
H        2.32666945      -0.15960949       0.66525066
H        1.34503009      -1.07004026       2.73911335
H        2.45754720      -3.17978065       0.36242595
H        3.84740101      -2.11425776       0.57387936
H        5.22079380      -1.07260250      -2.61731303
H       -3.45292547       5.06798929       1.50062503
H       -4.57831007       4.13174794       1.69955846
35
Properties=species:S:1:pos:R:3 relative_energy_eV=0.02273353790224064 branch=left pbc="F F F"
O       -4.30469081       2.62705064       0.13629088
P       -2.99869235       3.03548864      -0.48729628
O       -2.23899569       4.29044431      -0.14785908
O       -3.22825529       2.98767231      -2.14115034
O       -1.89371130       1.79472719      -0.29630803
C       -2.33286357       0.46387227      -0.50634385
C       -1.86618171      -0.38457337       0.65150758
O       -2.58622673      -1.20154966       1.21076763
C       -0.44020009      -0.22407060       1.16961542
O       -0.45962790      -0.45100075       2.57761939
C        0.48244068      -1.23957143       0.46419744
O        0.31828168      -0.99714742      -0.91281490
C        1.94998235      -1.13915753       0.91454440
O        2.11036152      -1.42595941       2.30342787
C        2.81716985      -2.13901314       0.17622371
O        2.79304962      -1.84153139      -1.21008233
P        3.86252872      -2.66377395      -2.23790725
O        4.11045532      -4.02826661      -1.68021263
O        3.38066133      -2.34018376      -3.62081174
O        5.23948730      -1.75076341      -1.95231520
O       -4.16010261       4.83828008       2.13321697
H       -2.54783613       3.55659615      -2.51993026
H       -3.41820865       0.37903531      -0.58680126
H       -1.86356664       0.06933068      -1.41384878
H       -0.08573527       0.78686559       0.98388383
H       -1.22271147      -1.04112941       2.71088691
H        0.13492662      -2.24896367       0.74179333
H        1.11897071      -1.33405491      -1.35978367
H        2.30442480      -0.12807787       0.67397525
H        1.31807058      -1.08020129       2.74706834
H        2.44463458      -3.14903584       0.35873494
H        3.83742236      -2.08132484       0.55645737
H        5.21363200      -1.05760900      -2.62285260
H       -3.36736077       4.99860449       1.59492152
H       -4.49757884       4.05088173       1.66733595
35
Properties=species:S:1:pos:R:3 relative_energy_eV=0.02853929717821302 branch=left pbc="F F F"
O       -4.30527545       2.63853803       0.09141187
P       -2.98646851       3.03423130      -0.51377451
O       -2.21794007       4.27958297      -0.16246952
O       -3.20210616       2.97065771      -2.17119760
O       -1.89203401       1.79041705      -0.29889188
C       -2.34246046       0.46283296      -0.49279349
C       -1.87199906      -0.37737811       0.66621520
O       -2.58697941      -1.19891502       1.22592732
C       -0.44718730      -0.21381167       1.18632827
O       -0.47583149      -0.45517388       2.59249756
C        0.47310651      -1.22409031       0.46824591
O        0.29741883      -0.98566687      -0.90882998
C        1.94399128      -1.12517735       0.91222281
O        2.10700271      -1.41110201       2.30150063
C        2.81090351      -2.12038735       0.17061324
O        2.78091557      -1.82129242      -1.21480331
P        3.84767999      -2.64761016      -2.24051593
O        4.08781886      -4.01343930      -1.68163878
O        3.36838778      -2.31598044      -3.62244504
O        5.22797232      -1.74163730      -1.94992611
O       -4.11980520       4.77145505       2.14628460
H       -2.48686487       3.49235826      -2.55716867
H       -3.42925601       0.39004273      -0.56549834
H       -1.88435569       0.04980913      -1.39813941
H       -0.08923742       0.79720601       1.00995244
H       -1.25154063      -1.03387364       2.71249524
H        0.12259677      -2.23149428       0.74196695
H        1.09735636      -1.32032368      -1.35816718
H        2.30125176      -0.11572583       0.67164166
H        1.30333473      -1.08665974       2.74032107
H        2.44817017      -3.13244923       0.35444524
H        3.83031087      -2.06057664       0.55176620
H        5.21429843      -1.05129292      -2.62362021
H       -3.30337358       4.93873123       1.64672965
H       -4.44584653       4.00008565       1.64546435
35
Properties=species:S:1:pos:R:3 relative_energy_eV=0.03774846130545484 branch=left pbc="F F F"
O       -4.28771596       2.64890398       0.05054972
P       -2.96373054       3.03581933      -0.55002785
O       -2.20150728       4.28709211      -0.20844928
O       -3.16966347       2.93550525      -2.20558944
O       -1.87062026       1.79534266      -0.31720521
C       -2.35155482       0.47403295      -0.47911750
C       -1.88283148      -0.36045074       0.68076872
O       -2.60888920      -1.16961948       1.24576777
C       -0.45788259      -0.20901244       1.20065316
O       -0.48387063      -0.47538257       2.60094756
C        0.45880821      -1.21453339       0.47149496
O        0.28005777      -0.95954506      -0.90261737
C        1.93065510      -1.11446820       0.91259860
O        2.11048624      -1.39754438       2.30177890
C        2.80307742      -2.10333864       0.16772956
O        2.77024222      -1.80087020      -1.21735793
P        3.83526876      -2.63083033      -2.24101719
O        4.06589300      -3.99735066      -1.68028001
O        3.36018858      -2.29822527      -3.62407627
O        5.22295863      -1.73680541      -1.94843351
O       -4.06639819       4.67847369       2.18947363
H       -2.42438785       3.40911845      -2.59446346
H       -3.44137263       0.41492417      -0.51388189
H       -1.92347425       0.04328575      -1.39030873
H       -0.09516784       0.80366568       1.04072671
H       -1.26675856      -1.04754520       2.70539900
H        0.11385250      -2.22657123       0.73827022
H        1.07270015      -1.29794047      -1.36086738
H        2.27507126      -0.10258835       0.66237433
H        1.30528467      -1.08958940       2.74867365
H        2.45437272      -3.12207285       0.34677131
H        3.82203668      -2.02730614       0.54813730
H        5.21724080      -1.04548507      -2.62099920
H       -3.26059530       4.87275198       1.68724189
H       -4.41781905       3.96004925       1.63148515
35
Properties=species:S:1:pos:R:3 relative_energy_eV=0.047274866403313354 branch=left pbc="F F F"
O       -4.33376999       2.69284805      -0.05913230
P       -2.97981965       3.04728742      -0.61259406
O       -2.23481040       4.31388555      -0.28919745
O       -3.09137886       2.87993265      -2.27375276
O       -1.90683453       1.81128346      -0.25859066
C       -2.37870697       0.48883682      -0.44373942
C       -1.90347314      -0.35867285       0.70773094
O       -2.62519889      -1.16832800       1.27665907
C       -0.47407417      -0.21602767       1.22011517
O       -0.48978874      -0.49866213       2.61856760
C        0.44851462      -1.20388192       0.47265824
O        0.27209495      -0.92648709      -0.89733820
C        1.92233315      -1.09364149       0.91342074
O        2.10617153      -1.38864785       2.29929421
C        2.79668872      -2.07651939       0.16227116
O        2.76006893      -1.77787435      -1.22364828
P        3.82348969      -2.61590935      -2.24473605
O        4.04024728      -3.98540391      -1.68608607
O        3.35960218      -2.27990331      -3.63070891
O        5.21548438      -1.73134597      -1.94338896
O       -3.94622723       4.57562854       2.24489715
H       -2.32179106       3.33106984      -2.64295621
H       -3.46803137       0.44095973      -0.48580207
H       -1.96183016       0.06435274      -1.36446804
H       -0.11810994       0.79992758       1.06751195
H       -1.25550185      -1.09400237       2.72343857
H        0.10691275      -2.22377624       0.71950353
H        1.06402555      -1.26317039      -1.35827463
H        2.26316250      -0.07594570       0.67562038
H        1.30640126      -1.07579513       2.75258272
H        2.44616924      -3.09360302       0.34448912
H        3.81720119      -2.00333874       0.53952486
H        5.21550183      -1.04092078      -2.61687120
H       -3.17003709       4.76140901       1.69198783
H       -4.38073055       3.91632612       1.67716199
35
Properties=species:S:1:pos:R:3 relative_energy_eV=0.05379076437384356 branch=left pbc="F F F"
O       -4.35448296       2.72230282      -0.12541009
P       -2.97946608       3.05535034      -0.63455549
O       -2.22720137       4.31435814      -0.29716380
O       -3.04814213       2.85938475      -2.29332328
O       -1.93062351       1.81803289      -0.23231348
C       -2.40379478       0.49781845      -0.41649291
C       -1.92326666      -0.36132833       0.72169308
O       -2.64185543      -1.17740070       1.28371048
C       -0.48896530      -0.21919134       1.22178514
O       -0.49110203      -0.50294164       2.62094690
C        0.44468823      -1.19291953       0.46707090
O        0.27240095      -0.90562227      -0.90093847
C        1.91525706      -1.08077631       0.91163661
O        2.09377309      -1.37951257       2.29616633
C        2.79017364      -2.06291246       0.15993195
O        2.75400914      -1.76456128      -1.22628412
P        3.81612526      -2.60790255      -2.24500792
O        4.02509623      -3.97868398      -1.68681512
O        3.35896859      -2.26978229      -3.63244339
O        5.21104740      -1.72920973      -1.94196621
O       -3.87361578       4.52843178       2.25462997
H       -2.25187064       3.26833967      -2.65502901
H       -3.49368865       0.44346058      -0.46398921
H       -1.97365432       0.07348392      -1.32930433
H       -0.14708157       0.80175826       1.06675646
H       -1.25003675      -1.10341320       2.73955571
H        0.11949380      -2.21931673       0.70366233
H        1.06823476      -1.23437379      -1.36222526
H        2.25647450      -0.06326023       0.67878822
H        1.29750073      -1.05751547       2.75014857
H        2.43886695      -3.07948596       0.34197882
H        3.81063788      -1.99176050       0.53775534
H        5.21379804      -1.03667704      -2.61338747
H       -3.13692290       4.70563000       1.64657237
H       -4.34681995       3.86208606       1.73001009
35
Properties=species:S:1:pos:R:3 relative_energy_eV=0.06283438416721765 branch=left pbc="F F F"
O       -4.39747232       2.74871473      -0.21238813
P       -2.99421339       3.05225140      -0.65556854
O       -2.23246307       4.29967477      -0.29499537
O       -2.98333509       2.84091830      -2.31254978
O       -1.98515550       1.80962328      -0.17461397
C       -2.42746795       0.48526597      -0.39830053
C       -1.93215010      -0.37711053       0.73022276
O       -2.63503428      -1.20524525       1.29526826
C       -0.49885203      -0.20977123       1.22257242
O       -0.49194988      -0.48909923       2.62109153
C        0.43466822      -1.17583645       0.46230873
O        0.26662472      -0.86985737      -0.90196411
C        1.90495929      -1.07193104       0.90843088
O        2.08626307      -1.36090982       2.29312327
C        2.78293794      -2.05420322       0.16124559
O        2.75258399      -1.74906385      -1.22326995
P        3.80789582      -2.59815731      -2.24268422
O        4.01210574      -3.96921698      -1.68294849
O        3.34889186      -2.25689761      -3.62879659
O        5.20925345      -1.72931286      -1.94133963
O       -3.77253351       4.49001787       2.26771991
H       -2.15272363       3.20832631      -2.63977702
H       -3.51413561       0.41047066      -0.44068874
H       -1.99449133       0.09493370      -1.32632159
H       -0.16647675       0.81241111       1.06568573
H       -1.24462260      -1.09768761       2.73428659
H        0.09659052      -2.20056576       0.68121973
H        1.06120893      -1.19599919      -1.36576087
H        2.24768578      -0.05739645       0.66716590
H        1.28731548      -1.04486885       2.74676785
H        2.43334070      -3.07274566       0.33722284
H        3.80160194      -1.98010754       0.54508300
H        5.21567700      -1.03197037      -2.60761965
H       -3.11384664       4.67086459       1.57263022
H       -4.28872524       3.80637115       1.81369147
35
Properties=species:S:1:pos:R:3 relative_energy_eV=0.07423107011709362 branch=left pbc="F F F"
O       -4.39554106       2.72495624      -0.22934091
P       -2.99545540       3.04359920      -0.66248063
O       -2.25723608       4.30064561      -0.28499423
O       -2.93226501       2.83222886      -2.31739346
O       -2.00030835       1.79374738      -0.18118872
C       -2.45052438       0.47253266      -0.39967369
C       -1.93725558      -0.37500673       0.72938238
O       -2.62445603      -1.21596947       1.29363594
C       -0.50327602      -0.20075305       1.21752508
O       -0.49536050      -0.47751950       2.61674469
C        0.43071248      -1.16717750       0.45571163
O        0.26604640      -0.84952705      -0.90658822
C        1.89896900      -1.06241384       0.90689535
O        2.07690191      -1.34880021       2.29290124
C        2.77635267      -2.04825409       0.16269859
O        2.75017126      -1.74255342      -1.22188646
P        3.80358083      -2.59300877      -2.24044519
O        4.00416878      -3.96412088      -1.67928639
O        3.34350012      -2.25120036      -3.62631822
O        5.20770973      -1.72697646      -1.93894367
O       -3.74049002       4.49793302       2.27262913
H       -2.07891899       3.16955359      -2.61435567
H       -3.53865838       0.39491072      -0.44160021
H       -2.02446297       0.07650001      -1.32724635
H       -0.16023811       0.81760516       1.05961318
H       -1.25228958      -1.07822299       2.74211688
H        0.09526053      -2.19480215       0.66412332
H        1.05663571      -1.17817402      -1.37529302
H        2.23976371      -0.04726483       0.66166749
H        1.27532485      -1.03483608       2.74389254
H        2.42429414      -3.06670191       0.33560295
H        3.79438978      -1.98005333       0.54922477
H        5.21483800      -1.03029273      -2.60595413
H       -3.10367979       4.66472716       1.55273136
H       -4.24424801       3.77657932       1.87204232
35
Properties=species:S:1:pos:R:3 relative_energy_eV=0.09460760975343874 branch=left pbc="F F F"
O       -4.47542709       2.69195197      -0.36199514
P       -3.05020568       3.02201202      -0.69100545
O       -2.35724238       4.29950434      -0.29374176
O       -2.85475813       2.78896644      -2.32935511
O       -2.05704066       1.80202049      -0.11460241
C       -2.46793542       0.47312830      -0.37294453
C       -1.94184028      -0.39495178       0.73156271
O       -2.61714385      -1.25311123       1.28353612
C       -0.51128154      -0.19706106       1.21188800
O       -0.49531715      -0.46538588       2.61297058
C        0.43287986      -1.14869407       0.44905818
O        0.27053149      -0.82212947      -0.91193129
C        1.89909064      -1.04711427       0.90975637
O        2.06503323      -1.34770547       2.29466570
C        2.76682234      -2.03770783       0.16271252
O        2.74195007      -1.73352418      -1.22227179
P        3.79604645      -2.58590868      -2.24045142
O        3.99044445      -3.95945621      -1.68327238
O        3.34404727      -2.24036344      -3.62811311
O        5.20014944      -1.72180012      -1.93294236
O       -3.62126700       4.47920992       2.27746660
H       -1.98609142       3.15572421      -2.53789474
H       -3.55380182       0.38251805      -0.41845655
H       -2.02984133       0.11104137      -1.30970114
H       -0.19862582       0.83021141       1.04662856
H       -1.24169881      -1.07783331       2.74449931
H        0.10384425      -2.18028888       0.65105713
H        1.05642510      -1.16580153      -1.37783491
H        2.25040927      -0.03254290       0.67791573
H        1.26379320      -1.02396761       2.74026255
H        2.39722296      -3.04918851       0.33811225
H        3.78576160      -1.98331796       0.54757286
H        5.21121062      -1.03082343      -2.60584516
H       -3.02172161       4.62098608       1.51788298
H       -4.17046635       3.77329284       1.91096118
35
Properties=species:S:1:pos:R:3 relative_energy_eV=0.11094263446284458 branch=left pbc="F F F"
O       -4.52449741       2.68543965      -0.47144311
P       -3.08498659       3.02061693      -0.72499670
O       -2.41005133       4.30852636      -0.32686270
O       -2.80603099       2.75193746      -2.34893878
O       -2.14043558       1.82097959      -0.03579154
C       -2.49212696       0.48496510      -0.33995739
C       -1.94775863      -0.39804043       0.74328517
O       -2.60969233      -1.27745059       1.27720210
C       -0.51390967      -0.19092620       1.21908147
O       -0.49489814      -0.46789795       2.61914530
C        0.43390949      -1.13763811       0.45128988
O        0.27429511      -0.81206720      -0.91020989
C        1.90126782      -1.04484997       0.91283397
O        2.06688936      -1.35614389       2.29570975
C        2.76546070      -2.03675318       0.16157273
O        2.73882975      -1.73152715      -1.22304011
P        3.79295511      -2.58316385      -2.24256771
O        3.98490409      -3.95819587      -1.68808905
O        3.34381447      -2.23304200      -3.63002780
O        5.19722313      -1.72070050      -1.93105364
O       -3.53481271       4.43904325       2.30702809
H       -1.96545283       3.16913032      -2.57607465
H       -3.56973980       0.33683218      -0.42935490
H       -2.02222027       0.18964991      -1.28031605
H       -0.20808286       0.83994575       1.06189282
H       -1.21898199      -1.10892607       2.73854244
H        0.10414150      -2.16801673       0.65709282
H        1.05957645      -1.16236244      -1.37370930
H        2.25852655      -0.03069559       0.68883124
H        1.27019613      -1.02725701       2.74557809
H        2.39615692      -3.04848558       0.33723285
H        3.78564926      -1.98452551       0.54317379
H        5.21279634      -1.03103725      -2.60520175
H       -2.96376084       4.59332091       1.52829749
H       -4.15519724       3.80120541       1.92599542
35
Properties=species:S:1:pos:R:3 relative_energy_eV=0.13019094796618447 branch=left pbc="F F F"
O       -4.59044436       2.74945745      -0.58064626
P       -3.13061702       3.03522799      -0.76712094
O       -2.45953652       4.33060951      -0.38131641
O       -2.75903056       2.68235721      -2.35419478
O       -2.23194039       1.84818238       0.01282977
C       -2.50248629       0.50177243      -0.32811119
C       -1.94353472      -0.39138525       0.74724464
O       -2.59369253      -1.28974531       1.26428442
C       -0.51072922      -0.18745605       1.23506522
O       -0.49144219      -0.48247927       2.63373304
C        0.43275210      -1.13599257       0.46114184
O        0.27239206      -0.80420798      -0.89847247
C        1.90274175      -1.05078997       0.91591166
O        2.07566164      -1.36376537       2.29716648
C        2.76813363      -2.03913825       0.16038546
O        2.73939161      -1.73061625      -1.22294407
P        3.79280579      -2.58138583      -2.24513728
O        3.98409511      -3.95803747      -1.69379099
O        3.34202988      -2.22725839      -3.63063248
O        5.19952166      -1.72359187      -1.93325185
O       -3.46967671       4.40565612       2.33203267
H       -1.98043204       3.20019604      -2.58961459
H       -3.57188853       0.30430463      -0.42637843
H       -1.99155751       0.23066635      -1.26010501
H       -0.20189209       0.84473097       1.08773965
H       -1.19046427      -1.15284993       2.73913180
H        0.09517920      -2.16514096       0.66243025
H        1.05389805      -1.15569720      -1.36649671
H        2.25884869      -0.03676919       0.69076026
H        1.28160912      -1.03729121       2.75322926
H        2.40548937      -3.05355294       0.33444886
H        3.78805271      -1.98111428       0.54235834
H        5.21701758      -1.03022027      -2.60353178
H       -2.91276156       4.53535625       1.53944516
H       -4.15353741       3.84185844       1.94855711
35
Properties=species:S:1:pos:R:3 relative_energy_eV=0.14963807769527193 branch=left pbc="F F F"
O       -4.61274757       2.76038337      -0.59131823
P       -3.15332274       3.03614307      -0.79155929
O       -2.45405049       4.32301819      -0.43140854
O       -2.76399661       2.68818958      -2.37595535
O       -2.26170465       1.86443664       0.03503132
C       -2.50982207       0.51784854      -0.31353181
C       -1.94501920      -0.38826073       0.75130877
O       -2.58965175      -1.29783589       1.25839696
C       -0.51006802      -0.18918456       1.24181923
O       -0.48881370      -0.48787352       2.64080489
C        0.43188662      -1.13762377       0.46381439
O        0.27210122      -0.80226598      -0.89515912
C        1.90296476      -1.05307714       0.91641028
O        2.07913800      -1.36464125       2.29733484
C        2.77027609      -2.04021305       0.16063323
O        2.74101417      -1.73062018      -1.22232442
P        3.79367617      -2.58068637      -2.24595218
O        3.98429692      -3.95811594      -1.69612757
O        3.34165919      -2.22546043      -3.63055071
O        5.20216968      -1.72550906      -1.93507590
O       -3.45837491       4.41184842       2.31070146
H       -1.97820709       3.22398187      -2.54474716
H       -3.57285505       0.28315398      -0.42958886
H       -1.98419646       0.26934802      -1.24398806
H       -0.19455356       0.84210361       1.09979077
H       -1.18066794      -1.16504671       2.74536581
H        0.09349562      -2.16724546       0.66106625
H        1.05190326      -1.15413818      -1.36590237
H        2.25593137      -0.03839981       0.68923956
H        1.28487056      -1.04167974       2.75540710
H        2.40985980      -3.05570809       0.33356595
H        3.79003987      -1.98112495       0.54362878
H        5.21758324      -1.02975080      -2.60299111
H       -2.88472248       4.47653971       1.52415404
H       -4.15613607       3.84935669       1.96385785
35
Properties=species:S:1:pos:R:3 relative_energy_eV=0.3321790629561292 branch=left pbc="F F F"
O       -4.65637455       2.81861343      -0.49276525
P       -3.20250974       3.05701851      -0.73484798
O       -2.50979102       4.33031741      -0.32936429
O       -2.77206454       2.75156258      -2.28473064
O       -2.32090443       1.88174244       0.10483095
C       -2.51541218       0.53985939      -0.28649424
C       -1.94152609      -0.38777933       0.75778180
O       -2.58593453      -1.30934178       1.24116554
C       -0.50723397      -0.19814392       1.24717775
O       -0.48168650      -0.49844336       2.64581019
C        0.43290699      -1.14293105       0.46413661
O        0.27392365      -0.80232755      -0.89389033
C        1.90485561      -1.05460658       0.91676300
O        2.08105902      -1.36245605       2.29783466
C        2.77301765      -2.04069424       0.16153626
O        2.74574687      -1.72948242      -1.22110045
P        3.79577425      -2.58179305      -2.24668208
O        3.98430655      -3.95993070      -1.69861586
O        3.34193747      -2.22335205      -3.63004911
O        5.20617444      -1.72843182      -1.93788431
O       -3.36688702       4.34046127       2.11747063
H       -1.96576136       3.24852396      -2.45038759
H       -3.56870509       0.28702779      -0.42118366
H       -1.96194219       0.34974709      -1.21279678
H       -0.19253155       0.83383506       1.10656175
H       -1.17447938      -1.17123325       2.76098937
H        0.09784054      -2.17462133       0.65558803
H        1.05363331      -1.15638722      -1.36363496
H        2.25499085      -0.03923458       0.68646435
H        1.28414435      -1.04365689       2.75456872
H        2.41149723      -3.05624076       0.33224306
H        3.79174775      -1.98235015       0.54686918
H        5.21617691      -1.02816608      -2.60138041
H       -2.86844237       4.32812918       1.25984714
H       -4.13359060       3.83665576       1.82431994
35
Properties=species:S:1:pos:R:3 relative_energy_eV=1.6316669516309048 branch=left pbc="F F F"
O       -4.69657936       2.90751329      -0.39632574
P       -3.22247787       3.03630086      -0.55236086
O       -2.47937077       4.38637139      -0.30494967
O       -2.82449296       2.74254836      -2.17237100
O       -2.33724536       1.89159708       0.20164913
C       -2.50124082       0.55427881      -0.25707024
C       -1.94312735      -0.39862786       0.76362323
O       -2.58681202      -1.32708520       1.22860236
C       -0.50733017      -0.20409205       1.24384314
O       -0.48271499      -0.49850161       2.64205569
C        0.43629415      -1.14469118       0.46166287
O        0.27688686      -0.80655236      -0.89750163
C        1.90718749      -1.05384039       0.91732032
O        2.08166498      -1.35944845       2.29873107
C        2.77440610      -2.04118248       0.16238650
O        2.75078990      -1.72610959      -1.22020005
P        3.79594134      -2.58346281      -2.24692025
O        3.98489165      -3.96029280      -1.69908022
O        3.34079015      -2.22239275      -3.63053070
O        5.20634929      -1.73200720      -1.93844935
O       -3.33274837       3.93030870       1.96737150
H       -2.01832585       3.27095165      -2.25640200
H       -3.55470928       0.31551455      -0.42124941
H       -1.95145149       0.42695032      -1.18782578
H       -0.19789049       0.82922706       1.09835192
H       -1.17686155      -1.17100750       2.75556066
H        0.10490595      -2.17647142       0.65542683
H        1.06038482      -1.15910044      -1.36437477
H        2.25967763      -0.03979677       0.68614828
H        1.28282136      -1.04200103       2.75412290
H        2.40958763      -3.05536142       0.33154105
H        3.79348141      -1.98624090       0.54752592
H        5.21411521      -1.02760704      -2.59678089
H       -2.71220385       4.52490579       0.85763561
H       -4.23063780       3.83129290       1.64498296
35
Properties=species:S:1:pos:R:3 relative_energy_eV=1.930609017435927 branch=ts pbc="F F F"
O       -4.73862246       2.90537018      -0.41848123
P       -3.25266765       3.08374087      -0.39425766
O       -2.40354094       4.46448768      -0.33233393
O       -2.84934436       2.77797650      -2.01235957
O       -2.32051038       1.86897122       0.25869813
C       -2.49694891       0.56254071      -0.25946139
C       -1.93904618      -0.40135766       0.75459339
O       -2.58942567      -1.32469474       1.22380226
C       -0.50566509      -0.20458877       1.23986372
O       -0.48258070      -0.49913281       2.63999692
C        0.43862443      -1.14505471       0.46164158
O        0.27855404      -0.80778027      -0.89749819
C        1.90855771      -1.05373598       0.91707459
O        2.08239802      -1.35921447       2.29948747
C        2.77496829      -2.04106559       0.16248661
O        2.75087388      -1.72648804      -1.21963468
P        3.79529754      -2.58267268      -2.24650126
O        3.98343951      -3.96099631      -1.69905239
O        3.33899020      -2.22314447      -3.62900105
O        5.20720112      -1.73229258      -1.93781220
O       -3.32707782       3.76714595       1.69823022
H       -2.04264422       3.26737973      -2.20846129
H       -3.54769315       0.31737950      -0.42945006
H       -1.94248074       0.43669963      -1.19170270
H       -0.19860226       0.82889929       1.09597281
H       -1.17817380      -1.16968613       2.75322951
H        0.10631528      -2.17673459       0.65714473
H        1.06085345      -1.15828640      -1.36653886
H        2.26038740      -0.03897939       0.68726836
H        1.28249137      -1.04083222       2.75231397
H        2.40823022      -3.05481631       0.33129953
H        3.79401799      -1.98770912       0.54728084
H        5.21481738      -1.02669478      -2.59512606
H       -2.58349582       4.61384964       0.67095887
H       -4.28749290       3.82150548       1.68630915
35
Properties=species:S:1:pos:R:3 relative_energy_eV=1.8517014094613842 branch=right pbc="F F F"
O       -4.75373045       2.90325158      -0.42883008
P       -3.27066828       3.11495864      -0.29056981
O       -2.36579132       4.49110666      -0.38668199
O       -2.85813263       2.78059210      -1.97290106
O       -2.31502337       1.86113207       0.28243852
C       -2.49265257       0.56800302      -0.26260840
C       -1.93830300      -0.40065973       0.74879220
O       -2.58955941      -1.32125883       1.22206239
C       -0.50513821      -0.20482008       1.23843085
O       -0.48332255      -0.49986198       2.63894213
C        0.43891284      -1.14525295       0.46175454
O        0.27858952      -0.80773174      -0.89697977
C        1.90843475      -1.05408128       0.91640565
O        2.08194102      -1.35888617       2.29970073
C        2.77570995      -2.04142316       0.16248088
O        2.75125833      -1.72749495      -1.21947965
P        3.79492990      -2.58238451      -2.24581780
O        3.98418767      -3.96063702      -1.69888762
O        3.34010255      -2.22345560      -3.62923291
O        5.20718165      -1.73232936      -1.93775027
O       -3.34986026       3.67445660       1.59165047
H       -2.05008074       3.26422650      -2.19048638
H       -3.54236745       0.31914765      -0.43664895
H       -1.93530642       0.44153692      -1.19384040
H       -0.19762522       0.82828401       1.09614001
H       -1.17967405      -1.16928418       2.75235314
H        0.10687662      -2.17741905       0.65597798
H        1.05932735      -1.15853786      -1.36688586
H        2.26061494      -0.03936383       0.68661841
H        1.28111079      -1.04183674       2.75206681
H        2.40910202      -3.05520613       0.33192585
H        3.79439047      -1.98724426       0.54761519
H        5.21532105      -1.02718351      -2.59573327
H       -2.48962934       4.72246309       0.58628058
H       -4.29507226       3.81528346       1.70550911
35
Properties=species:S:1:pos:R:3 relative_energy_eV=1.7618587553370162 branch=right pbc="F F F"
O       -4.77163114       2.91100732      -0.42033800
P       -3.28281065       3.11080806      -0.25785286
O       -2.35980683       4.50844735      -0.37563567
O       -2.86940922       2.77831762      -1.93545584
O       -2.31707394       1.85009872       0.31059823
C       -2.48787320       0.57367335      -0.25806393
C       -1.93768204      -0.40041372       0.74560108
O       -2.59008517      -1.31968576       1.22105068
C       -0.50417359      -0.20561668       1.23704919
O       -0.48462532      -0.50011292       2.63803050
C        0.43876575      -1.14544353       0.46189130
O        0.27852545      -0.80767786      -0.89683075
C        1.90858562      -1.05462993       0.91644687
O        2.08166711      -1.35831469       2.29987832
C        2.77606205      -2.04183387       0.16287404
O        2.75166644      -1.72825521      -1.21954733
P        3.79578849      -2.58283256      -2.24550245
O        3.98514419      -3.96066547      -1.69858095
O        3.34143710      -2.22385371      -3.62941351
O        5.20753467      -1.73183875      -1.93761883
O       -3.36877783       3.59774764       1.51575057
H       -2.06729307       3.25965344      -2.16855941
H       -3.53785677       0.32593827      -0.43793971
H       -1.93269628       0.45304734      -1.19302194
H       -0.19677010       0.82748208       1.09665721
H       -1.18128602      -1.16979411       2.74996735
H        0.10678689      -2.17780150       0.65543645
H        1.05857069      -1.15899342      -1.36718738
H        2.26065328      -0.04009079       0.68585184
H        1.27948443      -1.04256090       2.75107291
H        2.41015461      -3.05569502       0.33231343
H        3.79489293      -1.98680763       0.54796585
H        5.21529172      -1.02775408      -2.59654741
H       -2.42605865       4.79535710       0.54487541
H       -4.29904768       3.79718310       1.68859618
35
Properties=species:S:1:pos:R:3 relative_energy_eV=1.7428556094746455 branch=right pbc="F F F"
O       -4.78323561       2.91617081      -0.42362397
P       -3.29298458       3.11406284      -0.24701151
O       -2.36191578       4.50794682      -0.38749714
O       -2.87996444       2.77052575      -1.92527871
O       -2.32514053       1.84442027       0.31606970
C       -2.48551641       0.56979838      -0.25640274
C       -1.93649257      -0.40426531       0.74653077
O       -2.58931959      -1.32205097       1.22185145
C       -0.50340748      -0.20678025       1.23720661
O       -0.48556598      -0.50116935       2.63770600
C        0.43954377      -1.14615144       0.46149077
O        0.27867818      -0.80802239      -0.89712172
C        1.90896789      -1.05515537       0.91616580
O        2.08127430      -1.35760757       2.30002749
C        2.77667868      -2.04216191       0.16288759
O        2.75235097      -1.72889922      -1.21942445
P        3.79637521      -2.58225693      -2.24617746
O        3.98609084      -3.96191510      -1.69814267
O        3.34253721      -2.22462492      -3.62846967
O        5.20825173      -1.73147892      -1.93736430
O       -3.36628468       3.59110590       1.51757969
H       -2.07925686       3.26088472      -2.14095200
H       -3.53425791       0.32771043      -0.43973138
H       -1.92762527       0.46781342      -1.18905502
H       -0.19625549       0.82630529       1.09631288
H       -1.18343708      -1.17016522       2.74660087
H        0.10693408      -2.17825115       0.65563812
H        1.05831289      -1.15940443      -1.36812496
H        2.26076251      -0.04058663       0.68547776
H        1.27763747      -1.04296316       2.74949492
H        2.41093548      -3.05611632       0.33245763
H        3.79531794      -1.98687320       0.54813267
H        5.21536077      -1.02792202      -2.59716134
H       -2.38660990       4.83634716       0.53320735
H       -4.30268582       3.76981927       1.66051236
35
Properties=species:S:1:pos:R:3 relative_energy_eV=1.7265102415331057 branch=right pbc="F F F"
O       -4.78559979       2.93794225      -0.40380898
P       -3.29293803       3.12248948      -0.23210461
O       -2.36140020       4.51586644      -0.40959424
O       -2.89197545       2.76848516      -1.91011161
O       -2.33928489       1.84513719       0.33038961
C       -2.48678879       0.57337331      -0.25808379
C       -1.93609485      -0.40678370       0.74490895
O       -2.58334469      -1.32721561       1.22397618
C       -0.50269497      -0.20941723       1.23656848
O       -0.48649577      -0.50597423       2.63703996
C        0.44066458      -1.14799790       0.46082518
O        0.27911790      -0.80929937      -0.89744882
C        1.90991265      -1.05567997       0.91548857
O        2.07989852      -1.35643763       2.29957160
C        2.77818331      -2.04308988       0.16330036
O        2.75381378      -1.73008343      -1.21916070
P        3.79835701      -2.58366856      -2.24507614
O        3.98842182      -3.96210482      -1.69797913
O        3.34405620      -2.22575158      -3.62846196
O        5.20925202      -1.73119182      -1.93737225
O       -3.36802953       3.62709454       1.52150608
H       -2.09005079       3.26256951      -2.10788678
H       -3.53292173       0.31340867      -0.44942510
H       -1.91321523       0.48225778      -1.18465169
H       -0.19665924       0.82392176       1.09503255
H       -1.18820751      -1.17200332       2.74285844
H        0.10861220      -2.18013577       0.65531184
H        1.05810528      -1.16032018      -1.36976468
H        2.26130324      -0.04106325       0.68427874
H        1.27427588      -1.04418464       2.74750070
H        2.41245479      -3.05704247       0.33272538
H        3.79685648      -1.98745939       0.54859395
H        5.21591804      -1.02838402      -2.59778600
H       -2.35511710       4.83921519       0.49762876
H       -4.32233123       3.72161675       1.63502246
35
Properties=species:S:1:pos:R:3 relative_energy_eV=1.716407402906043 branch=right pbc="F F F"
O       -4.79908183       2.95656938      -0.37625867
P       -3.30139184       3.13505085      -0.23179624
O       -2.34948370       4.51491869      -0.42838824
O       -2.89646899       2.76122540      -1.89676884
O       -2.35814331       1.83951969       0.35141278
C       -2.48325758       0.57273304      -0.25222994
C       -1.93309150      -0.40583137       0.74446553
O       -2.58366239      -1.32701055       1.21732842
C       -0.50155130      -0.21102907       1.23526216
O       -0.48781554      -0.51068992       2.63441414
C        0.44152245      -1.14947075       0.45903214
O        0.27922684      -0.81081771      -0.89922861
C        1.91039769      -1.05632923       0.91491252
O        2.07940015      -1.35561719       2.29968952
C        2.77969794      -2.04381979       0.16381610
O        2.75521100      -1.73148758      -1.21888749
P        3.80039342      -2.58489408      -2.24450553
O        3.99162032      -3.96261173      -1.69735311
O        3.34557238      -2.22716325      -3.62846530
O        5.21070756      -1.73107571      -1.93737771
O       -3.37801249       3.66986510       1.50074340
H       -2.09674799       3.25827688      -2.09888533
H       -3.52180281       0.30499437      -0.46195993
H       -1.90456719       0.49625493      -1.17434270
H       -0.19589111       0.82291394       1.09519977
H       -1.19231322      -1.17388728       2.73970573
H        0.11100070      -2.18226217       0.65366915
H        1.05846435      -1.16181299      -1.37094746
H        2.26166414      -0.04188947       0.68255834
H        1.27142587      -1.04649100       2.74564120
H        2.41439295      -3.05784416       0.33359562
H        3.79832336      -1.98810364       0.54922474
H        5.21692209      -1.02884298      -2.59837225
H       -2.33288086       4.84694344       0.48451615
H       -4.33372562       3.67780511       1.63439127
35
Properties=species:S:1:pos:R:3 relative_energy_eV=1.706513176788576 branch=right pbc="F F F"
O       -4.81175642       2.96786768      -0.37937664
P       -3.31371892       3.14915470      -0.22557531
O       -2.31746329       4.50085320      -0.42841955
O       -2.90963247       2.74287795      -1.89130265
O       -2.40411193       1.84868123       0.38064278
C       -2.48281090       0.58831623      -0.24528830
C       -1.93432588      -0.40457421       0.74380383
O       -2.58670894      -1.32908294       1.20864467
C       -0.49949369      -0.21401066       1.23539432
O       -0.48771616      -0.51747168       2.63474901
C        0.44352875      -1.15130734       0.45633888
O        0.28078301      -0.81338293      -0.90200793
C        1.91185191      -1.05749171       0.91336005
O        2.07922540      -1.35447680       2.29850658
C        2.78202144      -2.04529262       0.16420479
O        2.75745137      -1.73414740      -1.21847516
P        3.80374648      -2.58618757      -2.24406505
O        3.99702383      -3.96377561      -1.69608051
O        3.34786989      -2.23008002      -3.62743170
O        5.21315805      -1.73103159      -1.93759769
O       -3.38811344       3.73381576       1.48594530
H       -2.11533956       3.24062304      -2.11118375
H       -3.50941376       0.29584531      -0.47814226
H       -1.88349083       0.52533931      -1.15783230
H       -0.19261182       0.82088128       1.09725685
H       -1.19656490      -1.17673336       2.73420294
H        0.11388231      -2.18413167       0.64965039
H        1.05993863      -1.16453187      -1.37394323
H        2.26182309      -0.04301016       0.68027666
H        1.26830829      -1.05160369       2.74361747
H        2.41727969      -3.05923814       0.33560043
H        3.80021614      -1.98821971       0.55027767
H        5.21919002      -1.02928021      -2.59911417
H       -2.31495018       4.86053510       0.46812286
H       -4.33302129       3.62236019       1.65905233
35
Properties=species:S:1:pos:R:3 relative_energy_eV=1.7008362351771211 branch=right pbc="F F F"
O       -4.81262038       2.97617859      -0.38834282
P       -3.31568023       3.15372728      -0.22594990
O       -2.30055003       4.48797370      -0.43578432
O       -2.92159053       2.74036324      -1.88594264
O       -2.42040188       1.84537948       0.40042255
C       -2.48534042       0.59257325      -0.24047038
C       -1.93482180      -0.39866674       0.74398247
O       -2.58466003      -1.32653552       1.20464578
C       -0.50086712      -0.21426720       1.23457216
O       -0.48924744      -0.52142241       2.63269762
C        0.44269933      -1.15191914       0.45532589
O        0.28214541      -0.81288467      -0.90290459
C        1.91166269      -1.05773998       0.91273982
O        2.07993977      -1.35452760       2.29804352
C        2.78315289      -2.04586791       0.16449883
O        2.75895836      -1.73606683      -1.21852610
P        3.80590078      -2.58752778      -2.24354474
O        4.00040940      -3.96453856      -1.69511286
O        3.34932749      -2.23191506      -3.62718115
O        5.21472749      -1.73081600      -1.93756494
O       -3.39966796       3.74737395       1.48300561
H       -2.12734031       3.22893229      -2.12287706
H       -3.50797175       0.29428426      -0.48819504
H       -1.87115716       0.55524854      -1.14233122
H       -0.19151947       0.81931769       1.09826079
H       -1.19821690      -1.18035707       2.73361326
H        0.11386448      -2.18540801       0.64801108
H        1.06043957      -1.16590928      -1.37505573
H        2.26213496      -0.04323834       0.67905780
H        1.26735623      -1.05506581       2.74218198
H        2.41905623      -3.06009986       0.33654178
H        3.80151937      -1.98787545       0.55067223
H        5.22055713      -1.02952859      -2.59957614
H       -2.30419706       4.86960870       0.45417232
H       -4.33194708       3.59930598       1.68072595
35
Properties=species:S:1:pos:R:3 relative_energy_eV=1.6992814129625913 branch=right pbc="F F F"
O       -4.81657409       2.98369855      -0.38832144
P       -3.31932257       3.15228635      -0.22421519
O       -2.29951273       4.47942610      -0.43834293
O       -2.92366291       2.73584041      -1.89120183
O       -2.42957910       1.84786030       0.40765314
C       -2.48505553       0.59722086      -0.23769354
C       -1.93523670      -0.40020306       0.74349637
O       -2.58595805      -1.32669160       1.20638716
C       -0.50016393      -0.21430497       1.23452677
O       -0.49009008      -0.52229886       2.63277211
C        0.44282355      -1.15154560       0.45479574
O        0.28237727      -0.81106179      -0.90307681
C        1.91154759      -1.05837610       0.91225182
O        2.08012527      -1.35491395       2.29745313
C        2.78340958      -2.04597117       0.16423926
O        2.75919656      -1.73697942      -1.21877952
P        3.80736999      -2.58830295      -2.24324400
O        4.00286023      -3.96512437      -1.69437159
O        3.35080078      -2.23363242      -3.62693084
O        5.21562405      -1.73076241      -1.93741316
O       -3.39964182       3.74722331       1.48511377
H       -2.12943319       3.22417673      -2.13133589
H       -3.50466028       0.29671395      -0.49474957
H       -1.86577409       0.57502773      -1.13530984
H       -0.19130793       0.82048141       1.09909765
H       -1.19790817      -1.18301607       2.73185098
H        0.11189100      -2.18447019       0.64718537
H        1.06005405      -1.16611722      -1.37443429
H        2.26140706      -0.04384395       0.67882822
H        1.26714109      -1.05723729       2.74197882
H        2.42011629      -3.06022353       0.33692467
H        3.80146347      -1.98708337       0.55074197
H        5.22123260      -1.02982387      -2.59980869
H       -2.30000544       4.86628266       0.44713931
H       -4.32949969       3.59383488       1.69060461
35
Properties=species:S:1:pos:R:3 relative_energy_eV=1.6982332259503892 branch=right pbc="F F F"
O       -4.82328644       2.99446375      -0.38429835
P       -3.32460382       3.15402600      -0.22402834
O       -2.30439906       4.47856909      -0.44627585
O       -2.92787456       2.72580186      -1.88522763
O       -2.44360528       1.84634193       0.41775755
C       -2.48186624       0.60137651      -0.23838607
C       -1.93584763      -0.39565981       0.74457339
O       -2.58588372      -1.32371048       1.20494951
C       -0.50142534      -0.21396597       1.23583238
O       -0.49026005      -0.52365058       2.63309277
C        0.44164513      -1.15038659       0.45489683
O        0.28307439      -0.80867291      -0.90259244
C        1.91084861      -1.05874865       0.91203924
O        2.07944624      -1.35645992       2.29700855
C        2.78348246      -2.04633616       0.16381469
O        2.75933345      -1.73868996      -1.21967222
P        3.80948638      -2.58962217      -2.24264339
O        4.00654825      -3.96564795      -1.69255192
O        3.35359278      -2.23666797      -3.62711568
O        5.21672153      -1.73034078      -1.93671342
O       -3.39537849       3.75050425       1.48404248
H       -2.13773438       3.21780379      -2.13106397
H       -3.49724843       0.29692903      -0.50502534
H       -1.85576455       0.58998725      -1.13176450
H       -0.19306317       0.81965498       1.10065706
H       -1.19675961      -1.18609267       2.72810917
H        0.10969682      -2.18299290       0.64541695
H        1.05934401      -1.16534325      -1.37516278
H        2.26080935      -0.04404261       0.67853519
H        1.26620392      -1.05965713       2.74172222
H        2.42131400      -3.06106547       0.33708273
H        3.80160925      -1.98564790       0.55049648
H        5.22208028      -1.03042598      -2.60016475
H       -2.29130548       4.85651208       0.44406367
H       -4.32287651       3.58994645       1.69240749
35
Properties=species:S:1:pos:R:3 relative_energy_eV=1.6975917248782935 branch=right pbc="F F F"
O       -4.82673149       3.00074294      -0.38609726
P       -3.32749145       3.15336660      -0.22283458
O       -2.30714078       4.47987133      -0.44886118
O       -2.93319511       2.71794460      -1.88227572
O       -2.45173847       1.84464405       0.42259206
C       -2.48023627       0.60233387      -0.23928028
C       -1.93470955      -0.39446235       0.74274234
O       -2.58800969      -1.31979667       1.20354667
C       -0.50054537      -0.21256349       1.23576781
O       -0.49140794      -0.52490337       2.63274058
C        0.44119924      -1.14964564       0.45404104
O        0.28317885      -0.80574177      -0.90307564
C        1.91013002      -1.05918151       0.91169001
O        2.07883569      -1.35773203       2.29647945
C        2.78305856      -2.04632256       0.16350320
O        2.75898251      -1.73992625      -1.22015811
P        3.81112292      -2.59064588      -2.24208275
O        4.00926895      -3.96611387      -1.69074198
O        3.35590543      -2.23930022      -3.62709976
O        5.21727099      -1.72974069      -1.93599737
O       -3.39100010       3.75218194       1.48397244
H       -2.14607613       3.21195060      -2.13229343
H       -3.49262173       0.29476072      -0.51407954
H       -1.84787104       0.59927180      -1.12723187
H       -0.19247233       0.82257539       1.10247446
H       -1.19625088      -1.18939395       2.72782899
H        0.10798304      -2.18250597       0.64424457
H        1.05875099      -1.16439154      -1.37506585
H        2.26043936      -0.04446850       0.67900829
H        1.26574913      -1.06137163       2.74160618
H        2.42210667      -3.06123745       0.33727757
H        3.80104302      -1.98464034       0.54994208
H        5.22287063      -1.03075626      -2.60042645
H       -2.28678539       4.84988095       0.44388869
H       -4.31755825       3.59340634       1.69806707
35
Properties=species:S:1:pos:R:3 relative_energy_eV=1.6967139520056662 branch=right pbc="F F F"
O       -4.83109827       3.01100595      -0.37810838
P       -3.33131577       3.15392391      -0.22035767
O       -2.31329155       4.47847013      -0.45235097
O       -2.94152333       2.71161571      -1.88027685
O       -2.45690863       1.84134596       0.42292971
C       -2.47749069       0.60062469      -0.24419312
C       -1.93527477      -0.39553410       0.74012144
O       -2.59041919      -1.31831148       1.20391988
C       -0.50067091      -0.21170334       1.23555993
O       -0.49265006      -0.52575376       2.63211563
C        0.44177905      -1.14742549       0.45313496
O        0.28366334      -0.80221743      -0.90356381
C        1.91000603      -1.05973275       0.91110390
O        2.07704289      -1.36000305       2.29566182
C        2.78241612      -2.04661822       0.16239177
O        2.75750529      -1.74132871      -1.22149366
P        3.81282596      -2.59180528      -2.24053119
O        4.01246114      -3.96612772      -1.68708077
O        3.35926211      -2.24359025      -3.62687169
O        5.21720220      -1.72799219      -1.93398974
O       -3.38712899       3.75328122       1.48671042
H       -2.15576678       3.20713379      -2.13142627
H       -3.48490749       0.28321517      -0.52881225
H       -1.83554288       0.60291064      -1.12528209
H       -0.18981314       0.82367269       1.10666512
H       -1.19623393      -1.19154139       2.72678916
H        0.10719497      -2.17957721       0.64163799
H        1.05824853      -1.16178856      -1.37614162
H        2.26063083      -0.04497954       0.68074178
H        1.26438211      -1.06252174       2.74108310
H        2.42188339      -3.06137471       0.33784042
H        3.80020332      -1.98373250       0.54895852
H        5.22380544      -1.03120821      -2.60073011
H       -2.27951399       4.84697099       0.44216649
H       -4.31490845       3.60878590       1.70549000
35
Properties=species:S:1:pos:R:3 relative_energy_eV=1.6953940438761492 branch=right pbc="F F F"
O       -4.84304731       3.02567726      -0.36697726
P       -3.34078768       3.15351717      -0.21379054
O       -2.31377318       4.47320157      -0.45640140
O       -2.96001275       2.70806652      -1.87509491
O       -2.47305921       1.83390333       0.42245721
C       -2.46977919       0.59652448      -0.25230342
C       -1.93413963      -0.39398569       0.74061552
O       -2.59035722      -1.31634681       1.20332075
C       -0.50123205      -0.21202564       1.23750887
O       -0.49344381      -0.52847963       2.63273970
C        0.44116881      -1.14479991       0.45129696
O        0.28567567      -0.79526886      -0.90460997
C        1.90941560      -1.05913396       0.91098002
O        2.07406238      -1.36436423       2.29477015
C        2.78101548      -2.04676469       0.16185753
O        2.75570377      -1.74437867      -1.22286989
P        3.81594410      -2.59382652      -2.23822116
O        4.01824109      -3.96584677      -1.67984760
O        3.36495621      -2.25106562      -3.62679930
O        5.21665174      -1.72460714      -1.92999452
O       -3.37780476       3.75113600       1.49569523
H       -2.17314793       3.19763767      -2.13511384
H       -3.46882188       0.27012052      -0.55358456
H       -1.81450205       0.60878765      -1.12353130
H       -0.19026847       0.82218783       1.11058707
H       -1.19761086      -1.19405487       2.72350167
H        0.10623609      -2.17731268       0.63680314
H        1.05834246      -1.15725057      -1.37874106
H        2.26289660      -0.04423816       0.68324512
H        1.26189629      -1.06482506       2.73955725
H        2.42108736      -3.06166353       0.33837460
H        3.79947298      -1.98314394       0.54660205
H        5.22510207      -1.03217032      -2.60114166
H       -2.27071860       4.84482900       0.43424074
H       -4.30930848       3.63805327       1.71868076
35
Properties=species:S:1:pos:R:3 relative_energy_eV=1.6943010443355888 branch=right pbc="F F F"
O       -4.85037403       3.03953818      -0.35187839
P       -3.34647669       3.15447134      -0.20988406
O       -2.31114190       4.46459027      -0.45955765
O       -2.98266246       2.70954276      -1.87448947
O       -2.48710759       1.82774073       0.42614880
C       -2.46398366       0.59520363      -0.25754334
C       -1.93088403      -0.39654605       0.73702356
O       -2.58861503      -1.31543292       1.20437463
C       -0.49933567      -0.21246489       1.23770306
O       -0.49370894      -0.53364067       2.63263286
C        0.44305465      -1.14455223       0.45026656
O        0.28825355      -0.78933128      -0.90427912
C        1.90999693      -1.05977134       0.91073299
O        2.07198806      -1.36618021       2.29428444
C        2.78080439      -2.04702550       0.16122261
O        2.75431512      -1.74607617      -1.22374244
P        3.81828205      -2.59538349      -2.23551245
O        4.02326789      -3.96572346      -1.67414865
O        3.36952025      -2.25698564      -3.62585861
O        5.21608489      -1.72179879      -1.92698981
O       -3.36854838       3.75066725       1.49938710
H       -2.19025780       3.18993443      -2.13484548
H       -3.45659163       0.26430901      -0.57356932
H       -1.79800241       0.61334826      -1.12113059
H       -0.19389433       0.82502936       1.10936793
H       -1.20165258      -1.19605593       2.72267109
H        0.10708626      -2.17834813       0.63173108
H        1.05914177      -1.15359092      -1.37897267
H        2.26411105      -0.04470409       0.68531538
H        1.25945896      -1.06749838       2.73938233
H        2.41998042      -3.06106943       0.33917684
H        3.79927102      -1.98417134       0.54535145
H        5.22552664      -1.03268309      -2.60151733
H       -2.26802226       4.84208905       0.42972557
H       -4.30283102       3.66065854       1.72123302
35
Properties=species:S:1:pos:R:3 relative_energy_eV=1.6935259412712185 branch=right pbc="F F F"
O       -4.85731326       3.05093089      -0.33921229
P       -3.35106621       3.15405524      -0.20608433
O       -2.30546562       4.45758925      -0.45913472
O       -3.00439977       2.70905557      -1.87408046
O       -2.49355955       1.82441698       0.42643815
C       -2.46137355       0.59402273      -0.26128561
C       -1.93208219      -0.39732061       0.73569777
O       -2.58946036      -1.31643646       1.20278937
C       -0.50055008      -0.21413986       1.23616800
O       -0.49421622      -0.53544459       2.62988406
C        0.44452307      -1.14313801       0.44940221
O        0.29179748      -0.78569864      -0.90443901
C        1.91103015      -1.06020420       0.91210873
O        2.07241862      -1.36714184       2.29574512
C        2.78113363      -2.04803750       0.16192111
O        2.75461385      -1.74776472      -1.22348718
P        3.82078290      -2.59661161      -2.23360120
O        4.02735092      -3.96564525      -1.66960513
O        3.37237335      -2.26142766      -3.62486106
O        5.21636612      -1.71947057      -1.92488418
O       -3.35938571       3.75217040       1.50060231
H       -2.20776215       3.18130505      -2.13635788
H       -3.44982603       0.26079862      -0.58871883
H       -1.78528931       0.62279120      -1.11632686
H       -0.19523571       0.82254584       1.11006298
H       -1.20484391      -1.19456982       2.71985298
H        0.11026853      -2.17711732       0.62703093
H        1.06189855      -1.15098421      -1.37958401
H        2.26471414      -0.04542345       0.68622423
H        1.25784764      -1.07098366       2.73871868
H        2.41923732      -3.06179260       0.33991746
H        3.80011879      -1.98576734       0.54514729
H        5.22526196      -1.03269312      -2.60177966
H       -2.26852425       4.83745874       0.42928984
H       -4.29532973       3.67876136       1.72025312
35
Properties=species:S:1:pos:R:3 relative_energy_eV=1.6932041988475248 branch=right pbc="F F F"
O       -4.86029476       3.05577095      -0.33231068
P       -3.35320745       3.15519442      -0.20428082
O       -2.30330535       4.45457066      -0.46055151
O       -3.01371426       2.70746158      -1.87053997
O       -2.49605336       1.82507726       0.42591932
C       -2.46077072       0.59568634      -0.26230341
C       -1.93275273      -0.39806252       0.73370699
O       -2.59198298      -1.31632754       1.20008486
C       -0.50055725      -0.21490646       1.23526871
O       -0.49562562      -0.53558169       2.62956137
C        0.44506894      -1.14340062       0.44781820
O        0.29409802      -0.78395056      -0.90624672
C        1.91164697      -1.05985247       0.91207157
O        2.07282641      -1.36677309       2.29583692
C        2.78154898      -2.04877095       0.16317882
O        2.75573776      -1.74873123      -1.22209575
P        3.82184760      -2.59711499      -2.23251518
O        4.02948559      -3.96576059      -1.66800842
O        3.37330010      -2.26295402      -3.62401675
O        5.21685006      -1.71881884      -1.92481208
O       -3.35621902       3.75124334       1.50257125
H       -2.21697161       3.17611985      -2.13842144
H       -3.44736279       0.26087616      -0.59399668
H       -1.78142716       0.62731165      -1.11441028
H       -0.19464197       0.82203995       1.10946958
H       -1.20704132      -1.19395830       2.71876861
H        0.11106992      -2.17813104       0.62579655
H        1.06476522      -1.15029229      -1.37993519
H        2.26639762      -0.04490076       0.68674836
H        1.25753143      -1.07336557       2.73904854
H        2.41969141      -3.06269984       0.34047326
H        3.80048356      -1.98708549       0.54600666
H        5.22503613      -1.03217473      -2.60186026
H       -2.26577134       4.83474897       0.42793644
H       -4.29363263       3.68560129       1.71985101
35
Properties=species:S:1:pos:R:3 relative_energy_eV=1.6925510720611783 branch=right pbc="F F F"
O       -4.86708165       3.06720122      -0.31355205
P       -3.35847370       3.15613047      -0.19738528
O       -2.30300242       4.44803589      -0.46292559
O       -3.03726780       2.70262000      -1.86748161
O       -2.49819244       1.82533760       0.42740870
C       -2.45843686       0.59913620      -0.26646874
C       -1.93335146      -0.39649205       0.72756211
O       -2.59569630      -1.31399560       1.19038406
C       -0.50167808      -0.21643449       1.23171298
O       -0.49987250      -0.53733905       2.62595824
C        0.44756486      -1.14381923       0.44628488
O        0.30074210      -0.78345786      -0.90777350
C        1.91349216      -1.06035381       0.91243224
O        2.07338002      -1.36553521       2.29653669
C        2.78383616      -2.05063921       0.16520617
O        2.75939458      -1.75038888      -1.21998015
P        3.82507185      -2.59840699      -2.22999467
O        4.03489025      -3.96623883      -1.66445587
O        3.37391933      -2.26576174      -3.62092465
O        5.21901080      -1.71752370      -1.92521494
O       -3.35107286       3.75181647       1.50980680
H       -2.23910678       3.16394141      -2.14383058
H       -3.44261903       0.26375445      -0.60342011
H       -1.77521203       0.63141082      -1.11560940
H       -0.19395846       0.82013507       1.10576207
H       -1.21381815      -1.19260155       2.71777906
H        0.11341155      -2.17883137       0.62071937
H        1.07285674      -1.14823878      -1.38075028
H        2.27019095      -0.04598323       0.68774097
H        1.25600382      -1.07832298       2.73972246
H        2.42065216      -3.06410047       0.34347139
H        3.80210570      -1.99078532       0.55102750
H        5.22402552      -1.03036146      -2.60185578
H       -2.25474173       4.82858942       0.42516777
H       -4.29091295       3.70559176       1.72075141
35
Properties=species:S:1:pos:R:3 relative_energy_eV=1.6920110599385225 branch=right pbc="F F F"
O       -4.87135042       3.06918881      -0.30622334
P       -3.36209520       3.15594810      -0.19316156
O       -2.30495640       4.44528185      -0.46408936
O       -3.05197511       2.70227877      -1.86564806
O       -2.49494318       1.82727521       0.42681449
C       -2.45738064       0.60161012      -0.26969245
C       -1.93211089      -0.39662662       0.72274754
O       -2.59570106      -1.31398652       1.18407529
C       -0.50099201      -0.21804214       1.22893058
O       -0.50092927      -0.53874510       2.62313173
C        0.44907623      -1.14500991       0.44539611
O        0.30362685      -0.78448457      -0.90909014
C        1.91487073      -1.06205852       0.91495956
O        2.07383828      -1.36581280       2.29988397
C        2.78596764      -2.05186839       0.16882356
O        2.76420181      -1.75091686      -1.21613633
P        3.82765522      -2.59909589      -2.22921491
O        4.03910306      -3.96675274      -1.66378646
O        3.37244022      -2.26625203      -3.61895796
O        5.22204794      -1.71799858      -1.92687129
O       -3.34817645       3.75419662       1.51283887
H       -2.25182336       3.15629607      -2.14831618
H       -3.44484011       0.27158253      -0.60275407
H       -1.77723618       0.63517552      -1.12200909
H       -0.19493331       0.81860188       1.10291691
H       -1.21819894      -1.19045420       2.71370019
H        0.11499103      -2.17990764       0.61871741
H        1.07842885      -1.14781677      -1.37862837
H        2.27072568      -0.04843810       0.68688420
H        1.25385029      -1.07944359       2.73857398
H        2.42123147      -3.06468868       0.34529835
H        3.80372525      -1.99240264       0.55515383
H        5.22298660      -1.02871863      -2.60136577
H       -2.24653153       4.82221836       0.42449895
H       -4.28853971       3.71795630       1.72641131
35
Properties=species:S:1:pos:R:3 relative_energy_eV=1.6915140801065718 branch=right pbc="F F F"
O       -4.88055073       3.07630280      -0.28751469
P       -3.37009710       3.15927069      -0.18908790
O       -2.30594414       4.44124712      -0.47013409
O       -3.07736128       2.70129856      -1.86190820
O       -2.49819656       1.82866314       0.42523219
C       -2.45588815       0.60461683      -0.27417029
C       -1.93072049      -0.39705616       0.71617177
O       -2.59348327      -1.31523344       1.17742228
C       -0.50029005      -0.21894537       1.22529999
O       -0.50311602      -0.54198234       2.61872701
C        0.45105999      -1.14667134       0.44386512
O        0.30878765      -0.78391671      -0.90987137
C        1.91548961      -1.06390263       0.91547685
O        2.07014724      -1.36622634       2.30053354
C        2.78880051      -2.05431526       0.17185229
O        2.76848744      -1.75200454      -1.21287452
P        3.83117671      -2.60021650      -2.22599369
O        4.04647709      -3.96741733      -1.66110833
O        3.37330561      -2.26952037      -3.61517161
O        5.22540962      -1.71774918      -1.92812724
O       -3.34218730       3.76000880       1.51539337
H       -2.27261002       3.14536254      -2.14695623
H       -3.44086782       0.27219744      -0.61141076
H       -1.77451423       0.64405240      -1.12529134
H       -0.19412031       0.81832796       1.10164872
H       -1.22402788      -1.19004540       2.70646415
H        0.11649194      -2.18215185       0.61597143
H        1.08436179      -1.14635433      -1.37870565
H        2.27184059      -0.04994427       0.68893052
H        1.24940373      -1.08086067       2.73888595
H        2.42281211      -3.06734529       0.34759278
H        3.80632826      -1.99449508       0.56019489
H        5.22300484      -1.02677675      -2.60095030
H       -2.23234096       4.81512992       0.41902709
H       -4.28101500       3.73474238       1.73439754
35
Properties=species:S:1:pos:R:3 relative_energy_eV=1.6910394651276874 branch=right pbc="F F F"
O       -4.88676552       3.07577725      -0.27592038
P       -3.37585866       3.16057802      -0.18644783
O       -2.30843101       4.43874079      -0.47521184
O       -3.09583860       2.70375211      -1.86286293
O       -2.50050191       1.83279835       0.42395465
C       -2.45810332       0.60918198      -0.27488146
C       -1.92899018      -0.39279505       0.71218121
O       -2.58962574      -1.31512982       1.16796332
C       -0.49919765      -0.21809051       1.22236980
O       -0.50719388      -0.54306474       2.61557364
C        0.45174028      -1.14760622       0.44173101
O        0.31172005      -0.78621660      -0.91284496
C        1.91532746      -1.06542090       0.91710807
O        2.06631941      -1.36816073       2.30279156
C        2.79081175      -2.05547930       0.17495515
O        2.77361419      -1.75354003      -1.20969527
P        3.83494702      -2.60129486      -2.22471027
O        4.05191622      -3.96798303      -1.65902647
O        3.37210972      -2.27029946      -3.61233777
O        5.22942272      -1.71790786      -1.92932778
O       -3.33417544       3.76439367       1.51594428
H       -2.28435320       3.13694798      -2.14578349
H       -3.44243975       0.27407709      -0.61202011
H       -1.77892685       0.65033044      -1.12732479
H       -0.18995917       0.81813600       1.09998996
H       -1.22768098      -1.19256336       2.69926793
H        0.11605901      -2.18240635       0.61523305
H        1.08890285      -1.14745362      -1.38038936
H        2.27201944      -0.05130548       0.69135644
H        1.24506196      -1.07994121       2.73836470
H        2.42718965      -3.06923581       0.34933979
H        3.80710790      -1.99617542       0.56576152
H        5.22368963      -1.02502716      -2.60019928
H       -2.22286943       4.80943031       0.41375583
H       -4.27099439       3.74104308       1.74515313
35
Properties=species:S:1:pos:R:3 relative_energy_eV=1.690666082293319 branch=right pbc="F F F"
O       -4.89247321       3.08095715      -0.25903957
P       -3.38055197       3.16319188      -0.18285585
O       -2.31071448       4.43664116      -0.48071380
O       -3.11575480       2.70727164      -1.86053647
O       -2.50355051       1.83227417       0.42329123
C       -2.45811115       0.61050052      -0.27865249
C       -1.92833245      -0.39313639       0.70595810
O       -2.59007425      -1.31581358       1.15955526
C       -0.49846863      -0.21707138       1.21952538
O       -0.51058140      -0.54313122       2.61281433
C        0.45294565      -1.14693437       0.43977950
O        0.31407508      -0.78688369      -0.91554808
C        1.91583523      -1.06707903       0.91813433
O        2.06311160      -1.37092448       2.30394019
C        2.79263918      -2.05671269       0.17743422
O        2.77638390      -1.75369860      -1.20698873
P        3.83754419      -2.60170981      -2.22178257
O        4.05714856      -3.96773206      -1.65566355
O        3.37392533      -2.27296881      -3.60961193
O        5.23148315      -1.71710895      -1.92889992
O       -3.32477759       3.76701038       1.51861281
H       -2.29772962       3.12667690      -2.14588314
H       -3.44248649       0.27379306      -0.61422029
H       -1.77680518       0.65307650      -1.13003651
H       -0.18526574       0.81863369       1.09918344
H       -1.22972575      -1.19464801       2.69268255
H        0.11514425      -2.18066814       0.61206863
H        1.09206990      -1.14862603      -1.38144819
H        2.27347360      -0.05301437       0.69459930
H        1.24155233      -1.08052473       2.73752709
H        2.42853905      -3.07050431       0.35152468
H        3.80843703      -1.99608345       0.56987256
H        5.22462855      -1.02411044      -2.59963389
H       -2.21693424       4.80786143       0.40748927
H       -4.26054534       3.74928567       1.75133301
35
Properties=species:S:1:pos:R:3 relative_energy_eV=1.6900031729528564 branch=right pbc="F F F"
O       -4.89925237       3.09268570      -0.23186469
P       -3.38623287       3.16629810      -0.17466109
O       -2.31800133       4.43749422      -0.49030947
O       -3.15117239       2.70564518      -1.85679431
O       -2.50717383       1.83364795       0.42022797
C       -2.45859035       0.61508589      -0.28601683
C       -1.92698418      -0.38998869       0.69548722
O       -2.58704143      -1.31702625       1.14254927
C       -0.49875668      -0.21532909       1.21239868
O       -0.51520518      -0.54261693       2.60448675
C        0.45291395      -1.14716490       0.43648912
O        0.31939839      -0.78558814      -0.91807737
C        1.91431357      -1.06944319       0.91990895
O        2.05501566      -1.37818995       2.30469796
C        2.79537453      -2.05767571       0.18218612
O        2.78238949      -1.75454033      -1.20205237
P        3.84398233      -2.60246418      -2.21624634
O        4.06643407      -3.96700804      -1.64766816
O        3.37828881      -2.27783576      -3.60439623
O        5.23637775      -1.71450827      -1.92594375
O       -3.30273927       3.76979277       1.52498049
H       -2.32433117       3.10061914      -2.15163223
H       -3.44393295       0.27921042      -0.61755895
H       -1.77925373       0.66370659      -1.13883459
H       -0.18297575       0.81963921       1.09693045
H       -1.22856468      -1.20074014       2.67961714
H        0.11033860      -2.18010182       0.60763610
H        1.09518278      -1.15314219      -1.38269912
H        2.27687173      -0.05576446       0.70123618
H        1.23499021      -1.08286724       2.73779650
H        2.43132428      -3.07182380       0.35581697
H        3.81056520      -1.99389987       0.57696387
H        5.22735147      -1.02325973      -2.59843977
H       -2.20956572       4.80834776       0.39566137
H       -4.23528459       3.75689550       1.77193473
35
Properties=species:S:1:pos:R:3 relative_energy_eV=1.6889904537019902 branch=right pbc="F F F"
O       -4.90445446       3.10743221      -0.18913836
P       -3.39014794       3.17409747      -0.16443943
O       -2.32712317       4.44141425      -0.50337308
O       -3.19578120       2.70557121      -1.84943360
O       -2.49800565       1.83972454       0.41133068
C       -2.46220517       0.62057112      -0.29529076
C       -1.92503059      -0.38920716       0.67957432
O       -2.58128346      -1.32251090       1.11910998
C       -0.49904447      -0.21382775       1.20300110
O       -0.52043087      -0.54126572       2.59578298
C        0.45348504      -1.14737861       0.43119517
O        0.32612795      -0.78442019      -0.92452186
C        1.91302406      -1.07253999       0.92393627
O        2.04486198      -1.38892543       2.30884939
C        2.79790953      -2.05773739       0.18788935
O        2.78945206      -1.75535633      -1.19606371
P        3.85213967      -2.60296967      -2.20822657
O        4.07647049      -3.96554445      -1.63571643
O        3.38430129      -2.28223833      -3.59680163
O        5.24224491      -1.71002695      -1.92033629
O       -3.27287141       3.77624858       1.53346627
H       -2.35660307       3.06580969      -2.15568659
H       -3.45072058       0.28548393      -0.62005447
H       -1.79258675       0.66711122      -1.15635575
H       -0.18394834       0.82114792       1.08904779
H       -1.22614576      -1.20814262       2.66459499
H        0.10714156      -2.17981459       0.60282115
H        1.09964850      -1.16116035      -1.38566477
H        2.27931399      -0.05891430       0.71058025
H        1.22552631      -1.08552824       2.73814229
H        2.43596165      -3.07192054       0.36113875
H        3.81101959      -1.99239094       0.58604481
H        5.23149767      -1.02236694      -2.59656263
H       -2.20614577       4.81970702       0.37892664
H       -4.20154221       3.75795824       1.79604391
35
Properties=species:S:1:pos:R:3 relative_energy_eV=1.6881722665930283 branch=right pbc="F F F"
O       -4.90991244       3.11643910      -0.16462354
P       -3.39482678       3.17673837      -0.15750962
O       -2.33614755       4.44355391      -0.51252989
O       -3.22479942       2.70533295      -1.84178264
O       -2.49036583       1.84355724       0.40416194
C       -2.46252765       0.62353333      -0.30180669
C       -1.92520911      -0.38945405       0.67049168
O       -2.58014053      -1.32664267       1.10363490
C       -0.50048584      -0.21230449       1.19786240
O       -0.52475613      -0.54063499       2.59088746
C        0.45519123      -1.14532097       0.42868260
O        0.33134540      -0.78484262      -0.92770840
C        1.91178179      -1.07432446       0.92597538
O        2.03866276      -1.39357464       2.31019477
C        2.79865422      -2.05895181       0.19073968
O        2.79075521      -1.75586532      -1.19339466
P        3.85690554      -2.60344707      -2.20205466
O        4.08499567      -3.96458781      -1.62750619
O        3.39080022      -2.28635164      -3.59179557
O        5.24510572      -1.70764927      -1.91649976
O       -3.25075344       3.77493546       1.53940053
H       -2.37927319       3.04292670      -2.15567602
H       -3.45291379       0.29213741      -0.62485460
H       -1.79786613       0.66748310      -1.16736326
H       -0.18592345       0.82311387       1.08290633
H       -1.22588774      -1.21248826       2.65900088
H        0.10910904      -2.17663111       0.59701587
H        1.10434822      -1.16256722      -1.38961400
H        2.27615480      -0.05963352       0.71807885
H        1.21926397      -1.08818810       2.73804136
H        2.43869099      -3.07450567       0.36314811
H        3.81136213      -1.99257478       0.59115811
H        5.23467600      -1.02215208      -2.59493415
H       -2.20480457       4.82279335       0.36734341
H       -4.17515343       3.76823785       1.81473927
35
Properties=species:S:1:pos:R:3 relative_energy_eV=1.6873637607786804 branch=right pbc="F F F"
O       -4.91426157       3.12954253      -0.13179208
P       -3.39966538       3.18126425      -0.14885130
O       -2.34676339       4.44363458      -0.52817976
O       -3.25992978       2.70038140      -1.83350354
O       -2.48817237       1.84699559       0.40136078
C       -2.46266368       0.62913555      -0.30786265
C       -1.92736460      -0.39088382       0.65873913
O       -2.58131728      -1.33292335       1.08216133
C       -0.50421900      -0.21361692       1.19012590
O       -0.53009154      -0.53882332       2.58407493
C        0.45489811      -1.14514964       0.42323421
O        0.33619292      -0.78213583      -0.93356588
C        1.91012165      -1.07408933       0.92736226
O        2.03243897      -1.39677625       2.31169821
C        2.79879668      -2.05990484       0.19420847
O        2.79425038      -1.75897373      -1.19029839
P        3.86442060      -2.60460559      -2.19599208
O        4.09576894      -3.96303576      -1.61661674
O        3.40025833      -2.29232852      -3.58777972
O        5.24901552      -1.70378774      -1.90885643
O       -3.22537750       3.78466772       1.54267172
H       -2.40651251       3.01280196      -2.15144388
H       -3.45478340       0.30532097      -0.62990162
H       -1.79712162       0.67287352      -1.17334623
H       -0.19143029       0.82239066       1.07736106
H       -1.22629533      -1.21484757       2.65425875
H        0.11174531      -2.17818200       0.58989808
H        1.11081952      -1.16104294      -1.39192696
H        2.27365413      -0.05736124       0.72501478
H        1.21087074      -1.09339075       2.73677919
H        2.44038814      -3.07656014       0.36464530
H        3.81102117      -1.99316153       0.59459907
H        5.23929637      -1.02338425      -2.59222125
H       -2.19953455       4.82966248       0.34570707
H       -4.14239725       3.76438400       1.84204785
35
Properties=species:S:1:pos:R:3 relative_energy_eV=1.6867154665305861 branch=right pbc="F F F"
O       -4.91390935       3.12233421      -0.12659939
P       -3.39925739       3.18025999      -0.14838115
O       -2.35216931       4.44654825      -0.53290929
O       -3.25897710       2.69889085      -1.83255464
O       -2.48247517       1.84809606       0.40041274
C       -2.46338796       0.62889135      -0.30704318
C       -1.93007989      -0.39360285       0.65781791
O       -2.58495704      -1.33588233       1.07899076
C       -0.50680656      -0.21669849       1.18997238
O       -0.53056500      -0.53786724       2.58463036
C        0.45332989      -1.14607812       0.42308958
O        0.33496748      -0.77943553      -0.93281922
C        1.90891225      -1.07272768       0.92532884
O        2.03131585      -1.39415048       2.31004464
C        2.79704114      -2.05740685       0.19101640
O        2.79196862      -1.75839457      -1.19411618
P        3.86635235      -2.60553281      -2.19483305
O        4.09636864      -3.96388947      -1.61444771
O        3.40579090      -2.29479254      -3.58789497
O        5.24843857      -1.70170621      -1.90425276
O       -3.21730455       3.78429322       1.54242197
H       -2.40329304       3.00897029      -2.14777201
H       -3.45645271       0.30822750      -0.63163496
H       -1.79409293       0.66736084      -1.17016451
H       -0.19573080       0.81915921       1.07662200
H       -1.22812979      -1.21145888       2.65881608
H        0.11080956      -2.18018404       0.58661278
H        1.11223377      -1.15307351      -1.39084688
H        2.27413840      -0.05715143       0.72161903
H        1.20852422      -1.09320721       2.73502894
H        2.43570070      -3.07187361       0.36515263
H        3.80908433      -1.99309628       0.59278675
H        5.24225451      -1.02410118      -2.59057975
H       -2.20237545       4.83354127       0.34063033
H       -4.13121065       3.76382822       1.84966515
35
Properties=species:S:1:pos:R:3 relative_energy_eV=1.6862680099511635 branch=right pbc="F F F"
O       -4.91185924       3.11773082      -0.10598421
P       -3.39783690       3.18166631      -0.14301606
O       -2.36025255       4.45159836      -0.54030279
O       -3.27532962       2.69821757      -1.82840384
O       -2.47429656       1.85153707       0.39633374
C       -2.46482062       0.63112572      -0.30899537
C       -1.93230988      -0.39457131       0.65333934
O       -2.58550009      -1.34101126       1.06781310
C       -0.50972804      -0.21727515       1.18654823
O       -0.53500996      -0.53897565       2.58144901
C        0.45209090      -1.14618689       0.42070891
O        0.33679389      -0.77845286      -0.93511696
C        1.90704067      -1.07280632       0.92529627
O        2.02716994      -1.39460345       2.30968873
C        2.79658647      -2.05750875       0.19388506
O        2.79488950      -1.75848312      -1.19114356
P        3.87048873      -2.60531638      -2.19124115
O        4.10135128      -3.96273301      -1.60923331
O        3.41259991      -2.29796314      -3.58608701
O        5.25165649      -1.70019779      -1.89989124
O       -3.20013752       3.78860680       1.54506440
H       -2.41568334       2.99105095      -2.14900032
H       -3.46025665       0.31530944      -0.62955879
H       -1.80083572       0.66763400      -1.17633345
H       -0.19736001       0.81832108       1.07037983
H       -1.23248612      -1.21272740       2.65665461
H        0.10857702      -2.18009539       0.58184624
H        1.11656091      -1.14914061      -1.39133046
H        2.27368893      -0.05799705       0.71989080
H        1.20370916      -1.09312063       2.73257752
H        2.43324868      -3.07143305       0.36664925
H        3.80835011      -1.99135000       0.59555204
H        5.24591542      -1.02394589      -2.58746714
H       -2.20027741       4.83977486       0.33045895
H       -4.11068083       3.76141200       1.86277903
35
Properties=species:S:1:pos:R:3 relative_energy_eV=1.6860409109067405 branch=right pbc="F F F"
O       -4.91108213       3.11571008      -0.09749268
P       -3.39764656       3.18141834      -0.14104275
O       -2.36188484       4.45084082      -0.54318034
O       -3.28060998       2.69700969      -1.82650476
O       -2.47566745       1.84944406       0.39857207
C       -2.46315618       0.63057435      -0.30956318
C       -1.93240466      -0.39570076       0.65290433
O       -2.58628217      -1.34109187       1.06888790
C       -0.51093421      -0.21823406       1.18725401
O       -0.53679345      -0.54144979       2.58185495
C        0.45073335      -1.14531519       0.41933381
O        0.33634858      -0.77480965      -0.93626240
C        1.90583491      -1.07230993       0.92353436
O        2.02664778      -1.39173024       2.30869572
C        2.79514119      -2.05818130       0.19249684
O        2.79397341      -1.75924976      -1.19295039
P        3.87244824      -2.60588115      -2.19029750
O        4.10324365      -3.96242172      -1.60633898
O        3.41681006      -2.29994853      -3.58610505
O        5.25230733      -1.69954205      -1.89745257
O       -3.19451598       3.79051107       1.54508735
H       -2.42061036       2.98639699      -2.15040059
H       -3.45670963       0.31311991      -0.63440561
H       -1.79596263       0.66990427      -1.17419242
H       -0.19897208       0.81734551       1.07132787
H       -1.23707083      -1.21255457       2.65624332
H        0.10762304      -2.17949517       0.57914223
H        1.11775095      -1.14358859      -1.39132426
H        2.27152021      -0.05724928       0.71684329
H        1.20220976      -1.09237835       2.73144570
H        2.43185503      -3.07244646       0.36599694
H        3.80659556      -1.99158085       0.59557618
H        5.24774783      -1.02402197      -2.58574812
H       -2.19837323       4.83965456       0.32713986
H       -4.10405765       3.76534135       1.86473428
35
Properties=species:S:1:pos:R:3 relative_energy_eV=1.6858045152912382 branch=right pbc="F F F"
O       -4.90800295       3.10923822      -0.08870517
P       -3.39466995       3.18021838      -0.13826401
O       -2.36508185       4.45321400      -0.54587339
O       -3.28487123       2.69596725      -1.82464604
O       -2.46692515       1.85103596       0.39559975
C       -2.46388841       0.63075786      -0.31049104
C       -1.93256008      -0.39576100       0.65071468
O       -2.58634525      -1.34153522       1.06601836
C       -0.51165248      -0.21833042       1.18543911
O       -0.53914655      -0.54215947       2.57951015
C        0.44983940      -1.14527468       0.41779215
O        0.33646374      -0.77371666      -0.93745020
C        1.90373487      -1.07209292       0.92255151
O        2.02487179      -1.38860028       2.30799643
C        2.79357531      -2.05831769       0.19278028
O        2.79444203      -1.75960506      -1.19255469
P        3.87464548      -2.60571255      -2.18854747
O        4.10482049      -3.96195092      -1.60337965
O        3.42011978      -2.29913543      -3.58463222
O        5.25457509      -1.69936746      -1.89478228
O       -3.18508927       3.79045570       1.54713117
H       -2.42499129       2.98000147      -2.15318383
H       -3.46129035       0.31758022      -0.62728647
H       -1.80245220       0.66605559      -1.17989289
H       -0.20054858       0.81765025       1.07295428
H       -1.23983512      -1.21293480       2.65208149
H        0.10572425      -2.17917044       0.57660649
H        1.11854309      -1.14112899      -1.39230461
H        2.26799814      -0.05687478       0.71495476
H        1.20024918      -1.09006619       2.73092504
H        2.43283328      -3.07347005       0.36459842
H        3.80384699      -1.99256377       0.59799475
H        5.25024595      -1.02346575      -2.58276113
H       -2.19942439       4.84396172       0.32274949
H       -4.09369671       3.76318761       1.87016611
35
Properties=species:S:1:pos:R:3 relative_energy_eV=1.685616266229772 branch=right pbc="F F F"
O       -4.90702662       3.10878050      -0.08127497
P       -3.39393081       3.17875893      -0.13703870
O       -2.36349690       4.44932661      -0.54923923
O       -3.28909708       2.69154947      -1.82288123
O       -2.46415119       1.85084198       0.39485186
C       -2.46306066       0.63043032      -0.31086353
C       -1.93321829      -0.39493808       0.65152204
O       -2.58803682      -1.33968047       1.06784296
C       -0.51235187      -0.21805664       1.18643344
O       -0.54043737      -0.54695826       2.57924585
C        0.44883656      -1.14473997       0.41669684
O        0.33592426      -0.77057015      -0.93803220
C        1.90303096      -1.07142695       0.92158271
O        2.02525654      -1.38495378       2.30766896
C        2.79230548      -2.05839832       0.19245304
O        2.79409374      -1.75929004      -1.19292887
P        3.87622753      -2.60548891      -2.18679717
O        4.10643315      -3.96176094      -1.60181240
O        3.42434954      -2.29985073      -3.58389083
O        5.25548456      -1.69897222      -1.89097085
O       -3.17937194       3.79064209       1.54724403
H       -2.43119931       2.97967079      -2.15340734
H       -3.46089775       0.31776222      -0.62703996
H       -1.80096228       0.66385260      -1.17998651
H       -0.20093237       0.81867453       1.07634521
H       -1.24484578      -1.21446787       2.64849329
H        0.10449959      -2.17943762       0.57209581
H        1.11762525      -1.13730365      -1.39410263
H        2.26673042      -0.05664190       0.70998508
H        1.19941418      -1.08793938       2.72930183
H        2.43000641      -3.07325364       0.36267089
H        3.80269201      -1.99334792       0.59766966
H        5.25226061      -1.02336876      -2.57921404
H       -2.19897847       4.84345338       0.31846629
H       -4.08711821       3.76519245       1.87272003
35
Properties=species:S:1:pos:R:3 relative_energy_eV=1.685470253250969 branch=right pbc="F F F"
O       -4.90769584       3.11119729      -0.07260934
P       -3.39461335       3.17869577      -0.13457623
O       -2.36470809       4.44716519      -0.55392410
O       -3.29859262       2.68849754      -1.81989286
O       -2.46122428       1.85190102       0.39333125
C       -2.46306043       0.63120057      -0.31159073
C       -1.93314384      -0.39448704       0.65010401
O       -2.58861042      -1.33863635       1.06671130
C       -0.51273740      -0.21925028       1.18575008
O       -0.54313086      -0.55109101       2.57775998
C        0.44865922      -1.14347227       0.41444965
O        0.33613600      -0.76758478      -0.93993317
C        1.90248947      -1.07106297       0.92013374
O        2.02400620      -1.38270882       2.30661516
C        2.79208412      -2.05878769       0.19256592
O        2.79569618      -1.75899134      -1.19265004
P        3.87898303      -2.60543924      -2.18502183
O        4.10872765      -3.96142412      -1.59906226
O        3.42822650      -2.30018120      -3.58260382
O        5.25724199      -1.69807370      -1.88677702
O       -3.17106276       3.79298445       1.54740063
H       -2.44210618       2.97546033      -2.15464112
H       -3.46189197       0.32069801      -0.62588380
H       -1.80341605       0.66316608      -1.18243856
H       -0.20063583       0.81701373       1.07754924
H       -1.24821271      -1.21842692       2.64401383
H        0.10374851      -2.17761355       0.56889102
H        1.11711988      -1.13658686      -1.39512569
H        2.26727024      -0.05705066       0.70841623
H        1.19780785      -1.08731214       2.72872153
H        2.42776563      -3.07307268       0.36326598
H        3.80209602      -1.99394886       0.59924771
H        5.25474235      -1.02283962      -2.57535926
H       -2.19556694       4.84309137       0.31158059
H       -4.07633403       3.76506058       1.87939131
