28
Properties=species:S:1:pos:R:3 relative_energy_eV=0.0 branch=left pbc="F F F"
O       -3.74908610       2.10768358      -0.09224206
C       -3.10766489       1.35311952      -0.80628054
C       -3.14082250      -0.14537959      -0.55470676
O       -3.79743396      -0.41086476       0.66456000
C       -1.76290308      -0.80152235      -0.61592204
O       -1.35507606      -0.73166140      -1.97084760
C       -0.80530461      -0.08945340       0.33659212
O       -0.79481268       1.30381559       0.00928181
C        0.60752139      -0.66305215       0.28256503
O        1.08833988      -0.43284087      -1.02486699
C        1.51553939      -0.03478499       1.33494643
O        2.70022525      -0.79289619       1.53582706
P        4.01907349      -0.52209455       0.57835284
O        5.08781795      -1.44059715       1.04207414
O        3.52704027      -0.46417453      -0.87797152
O        4.38960366       1.05109317       0.95803311
H       -3.71212481      -0.57180987      -1.39557709
H       -2.61647159       1.69288294      -1.72747319
H       -4.12642103       0.45663013       0.96225306
H       -1.87349048      -1.84762141      -0.29194691
H       -0.37235761      -0.72620598      -1.95124355
H       -1.19464920      -0.17071888       1.34896487
H       -0.14799927       1.37184287      -0.71364785
H        0.55159187      -1.73821335       0.49778518
H        2.16375809      -0.46977088      -0.99452601
H        1.00730633      -0.02483693       2.29894765
H        1.73076655       1.00017333       1.05989378
H        4.17035571       1.57954754       0.18142606
28
Properties=species:S:1:pos:R:3 relative_energy_eV=0.0004124457700527273 branch=left pbc="F F F"
O       -3.74661592       2.10762402      -0.08157001
C       -3.10713918       1.35676854      -0.80128157
C       -3.13714799      -0.14286419      -0.55401604
O       -3.78786837      -0.41356472       0.66723922
C       -1.76093643      -0.80072237      -0.62047767
O       -1.35370079      -0.72688017      -1.97483949
C       -0.80414146      -0.09372535       0.33600604
O       -0.79126995       1.30107227       0.01376179
C        0.60783046      -0.66787513       0.28454614
O        1.08921359      -0.44741930      -1.02480757
C        1.51368919      -0.03005559       1.33248994
O        2.69798538      -0.78635397       1.54112825
P        4.01696054      -0.51974790       0.58240253
O        5.09170689      -1.42434332       1.05957795
O        3.52873676      -0.48361102      -0.87578838
O        4.37475780       1.06070312       0.94290744
H       -3.71210944      -0.56592242      -1.39387119
H       -2.62236990       1.70154282      -1.72480958
H       -4.11600158       0.45227531       0.97038505
H       -1.87462717      -1.84762503      -0.30132158
H       -0.37103635      -0.72635636      -1.95538341
H       -1.19662497      -0.17707820       1.34714592
H       -0.14555094       1.37104559      -0.70993746
H        0.55130001      -1.74162262       0.50851663
H        2.16362002      -0.48594773      -0.99410332
H        1.00174410      -0.00961786       2.29434449
H        1.73017976       1.00245987       1.05005552
H        4.16173644       1.57613224       0.15595171
28
Properties=species:S:1:pos:R:3 relative_energy_eV=0.0013152216633898206 branch=left pbc="F F F"
O       -3.74256795       2.10464101      -0.07450395
C       -3.10244649       1.35512818      -0.79494840
C       -3.13413637      -0.14442125      -0.55168399
O       -3.78243472      -0.41973797       0.66980504
C       -1.75839208      -0.80152317      -0.61679836
O       -1.35035850      -0.72893755      -1.97071400
C       -0.80519482      -0.09137074       0.34012647
O       -0.79526664       1.30281143       0.01767667
C        0.60765997      -0.66147021       0.28985832
O        1.08876897      -0.45050058      -1.02111340
C        1.51396536      -0.01488072       1.33237522
O        2.69900353      -0.76796044       1.55047533
P        4.01526526      -0.51934362       0.58434902
O        5.09684365      -1.40053113       1.08872979
O        3.52598212      -0.53419782      -0.87401864
O        4.36044038       1.07574376       0.89279580
H       -3.70708301      -0.56593932      -1.39383670
H       -2.61971422       1.70076380      -1.71889089
H       -4.11808268       0.44231153       0.97265868
H       -1.86994600      -1.84725738      -0.29052954
H       -0.36762047      -0.73083954      -1.95204885
H       -1.19722992      -0.17851370       1.35122549
H       -0.14967087       1.37198360      -0.70562251
H        0.55217480      -1.73303255       0.52074734
H        2.16394826      -0.51299370      -0.99234077
H        1.00455391       0.01267066       2.29510593
H        1.73015770       1.01383519       1.03722485
H        4.14369327       1.56185822       0.08814985
28
Properties=species:S:1:pos:R:3 relative_energy_eV=0.0034397342169540934 branch=left pbc="F F F"
O       -3.74928501       2.09098405      -0.05952548
C       -3.10277074       1.34958741      -0.78290922
C       -3.13070824      -0.15231523      -0.55268927
O       -3.78920617      -0.43826822       0.66103420
C       -1.74878190      -0.79755147      -0.61723306
O       -1.33802168      -0.70511229      -1.96914683
C       -0.80389875      -0.08827436       0.34884222
O       -0.80440553       1.30963145       0.04063083
C        0.61334604      -0.64785829       0.29733438
O        1.09597394      -0.41658360      -1.00943867
C        1.51367285       0.00285113       1.34280665
O        2.70142162      -0.74211045       1.57312937
P        4.01311841      -0.53430499       0.58944597
O        5.10843526      -1.36238065       1.15093808
O        3.52277125      -0.65342317      -0.86350120
O        4.33797242       1.08167651       0.79179394
H       -3.69624884      -0.56919960      -1.40271405
H       -2.61557528       1.70383221      -1.70084338
H       -4.12242117       0.42358570       0.97036722
H       -1.84956748      -1.84864587      -0.30702778
H       -0.35561906      -0.69587674      -1.94622622
H       -1.20136530      -0.18328600       1.35648778
H       -0.15603000       1.39579880      -0.67795441
H        0.56668130      -1.72293976       0.51650364
H        2.16424813      -0.54552224      -0.98457409
H        0.99749449       0.03712271       2.30150042
H        1.72817162       1.03051645       1.04370502
H        4.10290210       1.51636776      -0.03648100
28
Properties=species:S:1:pos:R:3 relative_energy_eV=0.004067154251970351 branch=left pbc="F F F"
O       -3.74189720       2.08998877      -0.05373208
C       -3.09775802       1.34667486      -0.77758694
C       -3.13060274      -0.15514342      -0.54699502
O       -3.79666778      -0.43920728       0.66309240
C       -1.74983153      -0.80448912      -0.60464896
O       -1.33911246      -0.72688755      -1.95820038
C       -0.80202652      -0.08613684       0.35351822
O       -0.80273789       1.30894153       0.02929039
C        0.61653083      -0.64293767       0.30634415
O        1.09495571      -0.43245265      -1.00571497
C        1.51684297       0.02425088       1.34127679
O        2.70628305      -0.71641947       1.57780109
P        4.01408932      -0.52836291       0.58426199
O        5.11583738      -1.33700307       1.16159201
O        3.52152154      -0.68843036      -0.86391137
O        4.33027416       1.09433907       0.74567853
H       -3.69385197      -0.56988699      -1.39933397
H       -2.61109485       1.69800720      -1.69709014
H       -4.12680833       0.42419687       0.97117658
H       -1.85510014      -1.85201298      -0.28364769
H       -0.35651102      -0.72321964      -1.93656248
H       -1.19473689      -0.17124130       1.36448131
H       -0.16334532       1.38319194      -0.69911513
H        0.57475391      -1.71373949       0.54550758
H        2.16133865      -0.56716467      -0.98509315
H        1.00159709       0.06603522       2.30058992
H        1.72724005       1.04969574       1.03134653
H        4.08311106       1.50772241      -0.09006602
28
Properties=species:S:1:pos:R:3 relative_energy_eV=0.00432576188177336 branch=left pbc="F F F"
O       -3.73964502       2.09158556      -0.05262448
C       -3.09659955       1.34699175      -0.77633112
C       -3.13024133      -0.15476759      -0.54468671
O       -3.79632918      -0.43760833       0.66581308
C       -1.74990423      -0.80557037      -0.60339407
O       -1.33968798      -0.72394383      -1.95660555
C       -0.80098941      -0.08785250       0.35420427
O       -0.80416916       1.30710845       0.02966379
C        0.61809577      -0.64305249       0.30789455
O        1.09607499      -0.43727721      -1.00533179
C        1.51749761       0.02830650       1.34150857
O        2.70801028      -0.70977123       1.57906929
P        4.01410674      -0.52636862       0.58399372
O        5.11733205      -1.33010640       1.16496907
O        3.52102980      -0.69635150      -0.86294367
O        4.32869763       1.09708338       0.73608799
H       -3.69342923      -0.56855671      -1.39802172
H       -2.61519224       1.69784798      -1.69891357
H       -4.13076623       0.42489072       0.97151597
H       -1.85394419      -1.85403122      -0.28503837
H       -0.35704650      -0.72837895      -1.93478228
H       -1.19233353      -0.17239706       1.36539569
H       -0.17048593       1.38248587      -0.70345428
H        0.57767990      -1.71356737       0.55034040
H        2.16323127      -0.57686725      -0.98369124
H        1.00353438       0.06969320       2.30134495
H        1.72586679       1.05366425       1.03057113
H        4.08189745       1.50512159      -0.10229368
28
Properties=species:S:1:pos:R:3 relative_energy_eV=0.004797247427632101 branch=left pbc="F F F"
O       -3.74377677       2.08914701      -0.05385815
C       -3.09707391       1.34762113      -0.77733132
C       -3.12840966      -0.15476092      -0.54578140
O       -3.79460307      -0.43920383       0.66440944
C       -1.74870115      -0.80679029      -0.60217324
O       -1.33564053      -0.73098470      -1.95493350
C       -0.80220707      -0.08571646       0.35501357
O       -0.81148445       1.30921228       0.03026366
C        0.61856314      -0.63795315       0.31005406
O        1.09760945      -0.42725266      -1.00164749
C        1.51767642       0.02947395       1.34696233
O        2.71114719      -0.70475833       1.58137200
P        4.01614485      -0.52857519       0.58278394
O        5.11785613      -1.33078296       1.16895146
O        3.52226056      -0.70677090      -0.86280021
O        4.33388473       1.09532539       0.72267630
H       -3.69125221      -0.56814138      -1.39910770
H       -2.61859519       1.70060856      -1.70112599
H       -4.13137684       0.42262881       0.96897203
H       -1.85450358      -1.85376931      -0.27829556
H       -0.35315529      -0.73138909      -1.93142456
H       -1.19521536      -0.17126312       1.36509799
H       -0.18612767       1.38684377      -0.70944034
H        0.57906917      -1.70943127       0.54752238
H        2.16362461      -0.57269092      -0.98168339
H        1.00317072       0.06281239       2.30670101
H        1.72319812       1.05669802       1.04220538
H        4.09020717       1.49817478      -0.11912223
28
Properties=species:S:1:pos:R:3 relative_energy_eV=0.005771804353571497 branch=left pbc="F F F"
O       -3.73384309       2.09010400      -0.04713607
C       -3.09338861       1.34441440      -0.77202626
C       -3.12803418      -0.15686002      -0.53766576
O       -3.78561548      -0.43367545       0.67991275
C       -1.74995217      -0.81067211      -0.59809707
O       -1.33819675      -0.74646957      -1.95144610
C       -0.80283252      -0.08099629       0.35182290
O       -0.80690911       1.31045159       0.01035678
C        0.61536782      -0.63981424       0.31305034
O        1.09502257      -0.44608456      -1.00068697
C        1.51728751       0.03321747       1.34274521
O        2.71201498      -0.69980650       1.57831086
P        4.01741384      -0.51865014       0.58113593
O        5.12571864      -1.30888354       1.17073721
O        3.52153826      -0.71088817      -0.86163621
O        4.32973461       1.10787414       0.70898600
H       -3.69712367      -0.57058105      -1.38742521
H       -2.61956032       1.69285005      -1.69913302
H       -4.12735166       0.42977233       0.97606051
H       -1.85332592      -1.85480666      -0.26737920
H       -0.35562552      -0.75642184      -1.92577614
H       -1.19946584      -0.15177069       1.36189874
H       -0.18934567       1.37648938      -0.73705151
H        0.57017156      -1.70729166       0.56603111
H        2.16207735      -0.58507430      -0.97883919
H        1.00587618       0.07007913       2.30366780
H        1.71730838       1.06009882       1.03290087
H        4.09332137       1.50171195      -0.13905496
28
Properties=species:S:1:pos:R:3 relative_energy_eV=0.008639959341962822 branch=left pbc="F F F"
O       -3.70489091       2.09004311      -0.03158515
C       -3.08155351       1.33509477      -0.76320455
C       -3.12922478      -0.16400299      -0.52189217
O       -3.78896918      -0.42912447       0.69665248
C       -1.75428823      -0.82285091      -0.57588893
O       -1.35129106      -0.79062805      -1.93277305
C       -0.80181587      -0.06578133       0.34736171
O       -0.79621398       1.31316735      -0.04419261
C        0.61135395      -0.64122728       0.32348055
O        1.09093750      -0.49336349      -0.99647179
C        1.52015125       0.04930151       1.33583642
O        2.71687831      -0.68062310       1.57115027
P        4.01897867      -0.49807322       0.57103591
O        5.13767512      -1.26714484       1.17043611
O        3.52630773      -0.70779115      -0.87051482
O        4.29961518       1.13458714       0.68660180
H       -3.70454833      -0.57332264      -1.36965568
H       -2.62493731       1.67023059      -1.70371159
H       -4.10335184       0.44329341       0.99742374
H       -1.85603892      -1.85774177      -0.21594892
H       -0.36900684      -0.81915033      -1.91736664
H       -1.20330709      -0.09208176       1.35795788
H       -0.18534040       1.34474605      -0.79962064
H        0.55081286      -1.70173218       0.60084780
H        2.15736835      -0.61866085      -0.97661692
H        1.01800947       0.09871780       2.30267680
H        1.72112217       1.07111628       1.00760598
H        4.08783324       1.51133058      -0.17535350
28
Properties=species:S:1:pos:R:3 relative_energy_eV=0.01345688258879818 branch=left pbc="F F F"
O       -3.65316326       2.09421412      -0.00563478
C       -3.07715720       1.32823872      -0.76256095
C       -3.13507037      -0.16899392      -0.51388120
O       -3.80117022      -0.42636190       0.70368325
C       -1.76007649      -0.83418477      -0.55664922
O       -1.36561642      -0.84752000      -1.91663908
C       -0.79739096      -0.05378192       0.33657640
O       -0.78058847       1.30868707      -0.10591543
C        0.60894516      -0.64230405       0.33460048
O        1.08625429      -0.52930590      -0.98954804
C        1.52096200       0.06151691       1.33572809
O        2.71866377      -0.66729506       1.56962498
P        4.01561643      -0.47650768       0.56555161
O        5.14299177      -1.23014907       1.16781732
O        3.52073328      -0.70769478      -0.87179952
O        4.28114664       1.16201199       0.65749994
H       -3.70917437      -0.57880069      -1.36405670
H       -2.65912775       1.65397133      -1.72479199
H       -4.07786100       0.45139204       1.02386370
H       -1.86312498      -1.85710919      -0.16209041
H       -0.38277440      -0.86463661      -1.90477575
H       -1.19478357      -0.04587757       1.34824019
H       -0.16666490       1.31145092      -0.85979467
H        0.53802318      -1.69464859       0.64464779
H        2.15786340      -0.63364290      -0.96985389
H        1.02578249       0.12190468       2.30580034
H        1.72773149       1.07951137       1.00276866
H        4.08128192       1.52425361      -0.21413456
28
Properties=species:S:1:pos:R:3 relative_energy_eV=0.020003307370643597 branch=left pbc="F F F"
O       -3.63616149       2.09275438       0.03073818
C       -3.08918163       1.33410636      -0.75370272
C       -3.13274205      -0.16486702      -0.51036422
O       -3.78633347      -0.42989285       0.71236788
C       -1.75758091      -0.82930579      -0.55273669
O       -1.37049896      -0.87450792      -1.91322230
C       -0.78713395      -0.03649490       0.32050870
O       -0.75307807       1.30923570      -0.16125078
C        0.61292377      -0.64175757       0.32662256
O        1.09274714      -0.54775658      -0.99678407
C        1.51777172       0.05925131       1.33258388
O        2.72189743      -0.65321021       1.58036535
P        4.01867448      -0.46827293       0.57345655
O        5.15390551      -1.20342537       1.18306978
O        3.52612350      -0.71948330      -0.86183365
O        4.27672883       1.17099733       0.64968527
H       -3.71053047      -0.57968174      -1.35594390
H       -2.70449121       1.67139250      -1.72661387
H       -4.06012507       0.44488979       1.04404681
H       -1.86497859      -1.84301910      -0.13691081
H       -0.38798627      -0.90304376      -1.90108090
H       -1.18524574       0.01006110       1.33130090
H       -0.12722423       1.28046225      -0.90413687
H        0.53279162      -1.69036246       0.63822345
H        2.16290274      -0.64948163      -0.96820218
H        1.00815486       0.09454559       2.29384842
H        1.70865835       1.08307631       1.01222535
H        4.02226003       1.52213143      -0.21198170
28
Properties=species:S:1:pos:R:3 relative_energy_eV=0.025381827195815276 branch=left pbc="F F F"
O       -3.60709630       2.10267814       0.05226690
C       -3.07886553       1.33796884      -0.73940303
C       -3.13270095      -0.16074199      -0.49071263
O       -3.78421839      -0.40546474       0.73849182
C       -1.76749842      -0.84873705      -0.53685195
O       -1.38409656      -0.92781913      -1.89542199
C       -0.78447090      -0.04605853       0.30988725
O       -0.72665884       1.28250023      -0.21880878
C        0.60890758      -0.66468288       0.34437175
O        1.08633889      -0.63940548      -0.98349582
C        1.52170708       0.08419345       1.31105093
O        2.73167774      -0.61482026       1.57174353
P        4.02714996      -0.42761575       0.56190710
O        5.16660350      -1.15538066       1.17280714
O        3.52433815      -0.69598842      -0.86594092
O        4.27676314       1.21395145       0.61932596
H       -3.72421487      -0.57184359      -1.32786458
H       -2.70902590       1.67255743      -1.71702555
H       -4.03248375       0.47785879       1.06557246
H       -1.88734226      -1.84963115      -0.09468622
H       -0.40431645      -1.00296316      -1.88313169
H       -1.18613376       0.03625508       1.31639254
H       -0.10969195       1.21009888      -0.96740924
H        0.52099900      -1.69725364       0.70611474
H        2.16328348      -0.70095617      -0.95635534
H        1.01624030       0.17207669       2.27450078
H        1.70421238       1.09147281       0.93314180
H        3.97282222       1.56610528      -0.22618029
28
Properties=species:S:1:pos:R:3 relative_energy_eV=0.03407291336770868 branch=left pbc="F F F"
O       -3.58397272       2.11333304       0.03435410
C       -3.06040306       1.32818655      -0.74075182
C       -3.13346228      -0.16457589      -0.46163072
O       -3.79589981      -0.38077036       0.76702263
C       -1.78242227      -0.87845031      -0.48327849
O       -1.41301611      -1.04293852      -1.83787597
C       -0.78196727      -0.04605851       0.31724929
O       -0.71773574       1.25976001      -0.27087088
C        0.60890001      -0.67292752       0.36871243
O        1.07215708      -0.73772736      -0.96380299
C        1.54106198       0.13004756       1.27227249
O        2.74724044      -0.56421635       1.54837700
P        4.03370220      -0.39091000       0.52850695
O        5.17634582      -1.10470902       1.14731870
O        3.52019910      -0.67419120      -0.89281928
O        4.28751633       1.24772417       0.57361360
H       -3.72492239      -0.56957591      -1.30074977
H       -2.70228815       1.63399167      -1.73290062
H       -4.06887151       0.50826094       1.05883928
H       -1.90976543      -1.85138480       0.01450560
H       -0.43369317      -1.11791707      -1.83062180
H       -1.17172064       0.08136707       1.32599733
H       -0.11228943       1.14942896      -1.02416076
H        0.51979383      -1.68146945       0.79451639
H        2.14850892      -0.73864189      -0.95828833
H        1.06704964       0.28633480       2.24174957
H        1.72766615       1.11259579       0.83360217
H        3.94448232       1.60381228      -0.25458485
28
Properties=species:S:1:pos:R:3 relative_energy_eV=0.0430752408283297 branch=left pbc="F F F"
O       -3.55777847       2.12139194       0.00762649
C       -3.04603140       1.31177048      -0.75109706
C       -3.14184099      -0.17251204      -0.44596488
O       -3.82256173      -0.36019402       0.77872330
C       -1.79645457      -0.90144514      -0.43692077
O       -1.42975381      -1.11241106      -1.78612712
C       -0.78041133      -0.05399654       0.33022108
O       -0.72116010       1.23752900      -0.28765875
C        0.61089076      -0.67921072       0.39208704
O        1.06014147      -0.81488167      -0.93837189
C        1.55746033       0.16479952       1.23917833
O        2.76298277      -0.52744603       1.53965731
P        4.04321754      -0.36051342       0.50305101
O        5.20051778      -1.07060447       1.10083408
O        3.50705901      -0.63774549      -0.91056757
O        4.29213132       1.27932063       0.53872364
H       -3.72708931      -0.57679443      -1.29461513
H       -2.69162268       1.59474515      -1.75159053
H       -4.06854983       0.54009836       1.06073252
H       -1.94535996      -1.85295633       0.09776738
H       -0.45203284      -1.21051812      -1.78323919
H       -1.15628098       0.11205469       1.33713165
H       -0.14277630       1.11367095      -1.05852623
H        0.53099237      -1.65706213       0.88441934
H        2.13078616      -0.77669321      -0.93965788
H        1.09177577       0.38229415       2.20091918
H        1.74844194       1.11622270       0.73835409
H        3.94547296       1.62948561      -0.29077639
28
Properties=species:S:1:pos:R:3 relative_energy_eV=0.05181096916930983 branch=left pbc="F F F"
O       -3.51119471       2.12763166       0.00585342
C       -3.01911057       1.30484669      -0.75187471
C       -3.14446248      -0.17366938      -0.43993648
O       -3.83834468      -0.33964359       0.78078284
C       -1.80262660      -0.91259608      -0.41401891
O       -1.43520718      -1.13924391      -1.76041831
C       -0.77908449      -0.06719304       0.34378613
O       -0.71424351       1.21316874      -0.29596487
C        0.60788711      -0.69947558       0.41429968
O        1.04442675      -0.89816895      -0.91175829
C        1.55560988       0.18726000       1.21486638
O        2.76774156      -0.48114327       1.53662795
P        4.03720661      -0.32248270       0.48612838
O        5.20009004      -1.03664411       1.06912950
O        3.47804501      -0.60631478      -0.91786661
O        4.29227736       1.31960139       0.52414140
H       -3.73150577      -0.58323722      -1.28648070
H       -2.65253050       1.57307771      -1.75227680
H       -4.05690191       0.56762875       1.06275246
H       -1.95381271      -1.85904530       0.12565932
H       -0.46077075      -1.26998092      -1.73897482
H       -1.15608031       0.11187513       1.34855793
H       -0.16927841       1.06330546      -1.08595557
H        0.52652986      -1.66000983       0.93926070
H        2.10946106      -0.80992749      -0.93621943
H        1.08821680       0.45406888       2.16322861
H        1.74405305       1.11491343       0.67195626
H        3.97576059       1.65980731      -0.32096622
28
Properties=species:S:1:pos:R:3 relative_energy_eV=0.06151131387014175 branch=left pbc="F F F"
O       -3.47532654       2.12956231      -0.01408712
C       -2.99718095       1.28936836      -0.76001745
C       -3.14316328      -0.18183219      -0.42034447
O       -3.83838758      -0.31135594       0.80580008
C       -1.81310979      -0.94019637      -0.38076240
O       -1.44044872      -1.17322272      -1.72410291
C       -0.78662182      -0.08252309       0.36164207
O       -0.70970288       1.18443708      -0.30631460
C        0.60229536      -0.70568477       0.44212928
O        1.03411269      -0.94003069      -0.88046002
C        1.55126112       0.21544654       1.19779671
O        2.77383531      -0.42897685       1.52005474
P        4.03160333      -0.29313493       0.45472526
O        5.17910923      -1.02596983       1.04296069
O        3.46905758      -0.57856391      -0.94657190
O        4.31007359       1.34422773       0.48212715
H       -3.73695841      -0.59296831      -1.26468545
H       -2.64175823       1.53572688      -1.76887946
H       -4.07182361       0.60434128       1.04868387
H       -1.97635944      -1.88493113       0.16249908
H       -0.46638807      -1.30765079      -1.70206121
H       -1.16318822       0.12116581       1.36026085
H       -0.15662607       1.00600584      -1.08468698
H        0.53092537      -1.64869257       0.99602457
H        2.09132653      -0.82022819      -0.92825349
H        1.09875494       0.51173935       2.14417748
H        1.70946484       1.12182162       0.61179530
H        4.03735470       1.69054274      -0.37512224
28
Properties=species:S:1:pos:R:3 relative_energy_eV=0.06991796735383105 branch=left pbc="F F F"
O       -3.47976820       2.12998272      -0.04613388
C       -2.98670461       1.27679461      -0.76901300
C       -3.13952977      -0.18621333      -0.40712404
O       -3.83180087      -0.29802565       0.82204345
C       -1.82031183      -0.95683692      -0.36104087
O       -1.45515927      -1.22619181      -1.69940141
C       -0.79190452      -0.09462850       0.37116351
O       -0.71963191       1.16126675      -0.31791394
C        0.60199295      -0.70649322       0.46070561
O        1.02646211      -0.96097395      -0.85995033
C        1.54579664       0.24379214       1.19201864
O        2.77952265      -0.38193543       1.51327926
P        4.02860886      -0.27664276       0.43514852
O        5.16735842      -1.03453078       1.00916510
O        3.44139077      -0.54431920      -0.95993201
O        4.34497894       1.35238098       0.43834926
H       -3.74133562      -0.59076709      -1.24701688
H       -2.62360937       1.49943691      -1.78138796
H       -4.07758672       0.62004587       1.03984033
H       -1.98588580      -1.88231997       0.20845597
H       -0.47738695      -1.32888483      -1.68154890
H       -1.16864773       0.12617465       1.36687802
H       -0.14243614       0.98328388      -1.07874195
H        0.55372736      -1.63960125       1.03658693
H        2.08535210      -0.81813853      -0.91818788
H        1.09803113       0.54119698       2.14098692
H        1.68780986       1.14790913       0.59597320
H        4.08278191       1.68267368      -0.42886753
28
Properties=species:S:1:pos:R:3 relative_energy_eV=0.07672866158100078 branch=left pbc="F F F"
O       -3.48560431       2.12885650      -0.07321159
C       -2.99015299       1.26235200      -0.78012697
C       -3.14453212      -0.19408145      -0.40119407
O       -3.83539629      -0.29026304       0.83195378
C       -1.82312716      -0.96463735      -0.34625858
O       -1.46038468      -1.26321904      -1.67774888
C       -0.79094165      -0.09183252       0.37495521
O       -0.71522734       1.16512779      -0.31171223
C        0.60705649      -0.69607384       0.46374796
O        1.02237902      -0.96538397      -0.85637141
C        1.55048467       0.26090335       1.19348862
O        2.79234801      -0.34805833       1.51674452
P        4.02982819      -0.27103668       0.42191835
O        5.16265611      -1.04730480       0.98273025
O        3.42652674      -0.53583339      -0.96693083
O        4.37099231       1.35343132       0.41220742
H       -3.74985716      -0.60065078      -1.24367074
H       -2.62630383       1.47561163      -1.79426140
H       -4.08346460       0.63052522       1.03801020
H       -1.99849073      -1.88056523       0.23794100
H       -0.48220566      -1.35812065      -1.66583515
H       -1.17581141       0.11873184       1.37033966
H       -0.12694507       0.99224864      -1.06606916
H        0.55541461      -1.62100985       1.05005074
H        2.07986677      -0.81751689      -0.92584526
H        1.09862303       0.55422155       2.14219083
H        1.68836652       1.16942532       0.60566637
H        4.10600635       1.67259505      -0.45837013
28
Properties=species:S:1:pos:R:3 relative_energy_eV=0.09685242376144743 branch=left pbc="F F F"
O       -3.48059320       2.11541698      -0.08959107
C       -2.99185040       1.25325314      -0.80126120
C       -3.14857600      -0.20244173      -0.42301513
O       -3.86083691      -0.29740447       0.79872622
C       -1.82474618      -0.97103171      -0.32316489
O       -1.45479039      -1.32877644      -1.63835779
C       -0.79682642      -0.07970739       0.38963559
O       -0.74076771       1.17314457      -0.30085061
C        0.60784189      -0.67509404       0.47170201
O        1.01355187      -0.92766594      -0.85155483
C        1.54998261       0.28481403       1.19472007
O        2.79347736      -0.32180497       1.49889937
P        4.02269798      -0.27212373       0.39608976
O        5.13176040      -1.07077263       0.97093539
O        3.41647964      -0.54070187      -0.98925201
O        4.40251567       1.34468900       0.37708505
H       -3.74333524      -0.61988804      -1.26788228
H       -2.60654306       1.46108299      -1.80965986
H       -4.07052155       0.62875950       1.02263063
H       -2.00875823      -1.85824974       0.30453162
H       -0.48201971      -1.44722143      -1.62669869
H       -1.15879014       0.13707573       1.39227830
H       -0.12212114       1.01129015      -1.03072892
H        0.56861652      -1.60547679       1.05587053
H        2.06909339      -0.80353181      -0.92728023
H        1.10984884       0.56657169       2.15113259
H        1.67340006       1.20116668       0.61441819
H        4.13390479       1.68307690      -0.48501564
28
Properties=species:S:1:pos:R:3 relative_energy_eV=0.1607030276718433 branch=left pbc="F F F"
O       -3.52598448       2.08416270      -0.15186971
C       -2.98968039       1.22417313      -0.83667738
C       -3.15187570      -0.22611898      -0.45104262
O       -3.95869860      -0.30258020       0.71875589
C       -1.83560069      -0.98906607      -0.24204390
O       -1.43039084      -1.46750152      -1.50855771
C       -0.81319027      -0.05489351       0.43601890
O       -0.77807423       1.18033370      -0.28889519
C        0.60983350      -0.62255711       0.48331043
O        1.01166797      -0.82651620      -0.85055294
C        1.56115466       0.33356169       1.19539314
O        2.79743897      -0.31375073       1.45913781
P        4.02453927      -0.29946693       0.35828652
O        5.12553762      -1.11856125       0.91895189
O        3.40306898      -0.55101579      -1.02650343
O        4.44856058       1.30066463       0.32402653
H       -3.69083342      -0.66500033      -1.33199759
H       -2.62159677       1.44641735      -1.84243206
H       -4.05179597       0.63146066       0.98069312
H       -2.04541020      -1.82854923       0.44201739
H       -0.44725851      -1.49011123      -1.47599613
H       -1.17993077       0.17862514       1.43891812
H       -0.16567993       1.00020734      -1.02394264
H        0.59870821      -1.56550771       1.04732717
H        2.09374767      -0.73253048      -0.94082811
H        1.16518465       0.61839210       2.17355175
H        1.68134183       1.24273124       0.59836373
H        4.16729093       1.65146035      -0.52906231
28
Properties=species:S:1:pos:R:3 relative_energy_eV=0.21817917418957222 branch=left pbc="F F F"
O       -3.58357261       2.05316615      -0.23330093
C       -3.01059529       1.18253942      -0.87179428
C       -3.14682994      -0.26102343      -0.44659100
O       -4.03081026      -0.32013795       0.66446892
C       -1.83211527      -1.00471160      -0.12609694
O       -1.38835974      -1.64002220      -1.30926890
C       -0.81869585      -0.01519942       0.47461115
O       -0.83531235       1.17850346      -0.30939575
C        0.61675037      -0.54703979       0.49312902
O        0.97643085      -0.67463480      -0.86461554
C        1.60909782       0.37389811       1.19987076
O        2.84174541      -0.29137335       1.45443425
P        4.03869365      -0.33007446       0.31802971
O        5.11882420      -1.19425993       0.84995221
O        3.38473598      -0.57662479      -1.05693892
O        4.49287642       1.26279031       0.27412191
H       -3.59482183      -0.70801566      -1.36351146
H       -2.58905818       1.36975564      -1.86922124
H       -4.20733734       0.62265520       0.87240390
H       -2.08881398      -1.75108296       0.63959143
H       -0.41232440      -1.49717317      -1.37476205
H       -1.15945707       0.25879215       1.47056345
H       -0.24830373       0.96582501      -1.05981290
H        0.62084557      -1.51082159       1.01595745
H        2.07505876      -0.65945349      -0.97052233
H        1.22338249       0.67573504       2.17248203
H        1.75192316       1.28297200       0.61318907
H        4.19808663       1.59349961      -0.58260998
28
Properties=species:S:1:pos:R:3 relative_energy_eV=0.2797185425297357 branch=left pbc="F F F"
O       -3.64105986       2.01009835      -0.31847470
C       -3.01724642       1.12993549      -0.89916122
C       -3.14369296      -0.29101804      -0.41873399
O       -4.04039560      -0.32533917       0.68661997
C       -1.82250710      -0.98693926      -0.04122613
O       -1.36567738      -1.74728113      -1.14264576
C       -0.80459539       0.04658342       0.50302058
O       -0.85465701       1.20871596      -0.32479891
C        0.63047267      -0.47677162       0.49037480
O        0.94627819      -0.55694613      -0.88371636
C        1.65344068       0.40858247       1.20524780
O        2.86402716      -0.30711063       1.45521234
P        4.03915416      -0.36367467       0.29455333
O        5.12161981      -1.23717304       0.80521388
O        3.35347561      -0.60863703      -1.06531271
O        4.53594752       1.21710905       0.21849270
H       -3.61160985      -0.76899167      -1.31724615
H       -2.59091108       1.29182363      -1.89910314
H       -4.38628993       0.58996391       0.71419323
H       -2.09083634      -1.67684143       0.76188628
H       -0.43508751      -1.48286836      -1.32490685
H       -1.09974640       0.34479821       1.50324291
H       -0.28958444       0.93149242      -1.07817029
H        0.65716914      -1.46688334       0.95974560
H        2.04631497      -0.62553757      -0.99045606
H        1.28880559       0.69932919       2.18873759
H        1.83072181       1.31653162       0.61911797
H        4.22848155       1.56555426      -0.62733108
28
Properties=species:S:1:pos:R:3 relative_energy_eV=0.3451956901408266 branch=left pbc="F F F"
O       -3.71491817       1.98384179      -0.43649313
C       -3.04881361       1.08486788      -0.92977932
C       -3.14146820      -0.29490812      -0.36067660
O       -4.03604641      -0.28808697       0.75564250
C       -1.81324803      -0.96894943       0.04895961
O       -1.34155132      -1.76791641      -1.02083477
C       -0.79135367       0.09843849       0.51447970
O       -0.87294887       1.24000920      -0.33742067
C        0.63851421      -0.43798852       0.44853793
O        0.94633846      -0.49644941      -0.93498788
C        1.67034082       0.41640178       1.17941988
O        2.87003285      -0.31622274       1.41133594
P        4.05035439      -0.40250495       0.26113244
O        5.12461677      -1.27125179       0.80061637
O        3.36407531      -0.66060081      -1.09671170
O        4.55451755       1.17482205       0.18624076
H       -3.62003980      -0.80274193      -1.25907296
H       -2.61226019       1.17020681      -1.93840901
H       -4.57643145       0.51380441       0.62571497
H       -2.03806718      -1.61124747       0.91399647
H       -0.42620030      -1.46668756      -1.23921669
H       -1.04833318       0.42376737       1.52108157
H       -0.24765772       0.99477370      -1.05525918
H        0.65715329      -1.43578396       0.90448557
H        2.04660495      -0.59995401      -1.03956836
H        1.30280582       0.67766373       2.17102198
H        1.85582525       1.34794153       0.63566095
H        4.25013809       1.53328143      -0.65550834
28
Properties=species:S:1:pos:R:3 relative_energy_eV=0.40629294276004657 branch=left pbc="F F F"
O       -3.75473248       1.97524415      -0.50794290
C       -3.06581303       1.06112215      -0.93692228
C       -3.14181231      -0.28884107      -0.32638808
O       -4.03004161      -0.31091877       0.79358358
C       -1.81073249      -0.92819659       0.07223588
O       -1.34631786      -1.77022607      -0.96393481
C       -0.76951885       0.13025205       0.50328051
O       -0.85328058       1.28718634      -0.32561573
C        0.64906883      -0.42907082       0.41533856
O        0.97506981      -0.48660134      -0.95788357
C        1.66133483       0.41295235       1.17737194
O        2.86588406      -0.30596852       1.40126714
P        4.03958503      -0.40668813       0.25279455
O        5.08977197      -1.30130338       0.79126942
O        3.36878690      -0.66616502      -1.11290019
O        4.54893100       1.16634495       0.17324059
H       -3.59512440      -0.79829664      -1.23322809
H       -2.56687039       1.08952122      -1.92256352
H       -4.62079627       0.44290543       0.62715897
H       -2.05299279      -1.54144458       0.94591941
H       -0.42985884      -1.48169036      -1.18650396
H       -0.98757904       0.46115108       1.51463479
H       -0.24652049       1.04520188      -1.05691434
H        0.63550311      -1.43005764       0.85939716
H        2.09318826      -0.59824907      -1.04619332
H        1.27342956       0.65629070       2.16868326
H        1.82746641       1.34370302       0.63037107
H        4.24593984       1.51037636      -0.67516357
28
Properties=species:S:1:pos:R:3 relative_energy_eV=0.525996834236139 branch=left pbc="F F F"
O       -4.01673779       1.81791281      -0.73448288
C       -3.13997870       0.99501630      -0.97968021
C       -3.13984290      -0.28265773      -0.24377181
O       -3.94003919      -0.21787426       0.93476705
C       -1.78077131      -0.87994088       0.09891019
O       -1.36569726      -1.66427421      -1.00423836
C       -0.72890654       0.17566528       0.51466406
O       -0.78730511       1.33876383      -0.31038507
C        0.66533141      -0.43632549       0.40440058
O        0.95990080      -0.49679149      -0.97504019
C        1.68032627       0.39898143       1.16698904
O        2.87510373      -0.32734205       1.40399012
P        4.02603119      -0.43406545       0.24172836
O        5.08240327      -1.32998615       0.76438969
O        3.33089044      -0.67915254      -1.11306877
O        4.55146330       1.13008827       0.12409022
H       -3.67688433      -0.81402665      -1.12055694
H       -2.49478808       1.05760913      -1.86280365
H       -4.60520151       0.46688112       0.74114642
H       -1.95653502      -1.51527232       0.98257380
H       -0.43949467      -1.42026629      -1.25835639
H       -0.91923028       0.50251213       1.54026532
H       -0.23882804       1.08995724      -1.08521690
H        0.63465718      -1.44850489       0.84205470
H        2.07070107      -0.62095906      -1.09014654
H        1.27989304       0.60982185       2.15500541
H        1.84377583       1.35719476       0.65961610
H        4.23169465       1.46559321      -0.72243657
28
Properties=species:S:1:pos:R:3 relative_energy_eV=0.6833003962674411 branch=left pbc="F F F"
O       -4.36398396       1.47676172      -1.05092805
C       -3.30134334       0.87620871      -1.03686664
C       -3.13421125      -0.22467279      -0.09146157
O       -3.79799674      -0.00265295       1.16058265
C       -1.75983382      -0.83926843       0.08341775
O       -1.45035271      -1.49064040      -1.13713385
C       -0.70795532       0.20836322       0.51008777
O       -0.75703412       1.36956440      -0.30602364
C        0.67435394      -0.41065079       0.41572706
O        0.94361035      -0.45552809      -0.97430798
C        1.72904237       0.37280039       1.17804026
O        2.92018241      -0.37615032       1.37929854
P        4.05930812      -0.49006697       0.18838121
O        5.13881836      -1.36181309       0.71396213
O        3.34802484      -0.76805484      -1.15278862
O        4.55941884       1.08839981       0.06518798
H       -3.79601086      -0.78992631      -0.87894843
H       -2.52334883       1.02521609      -1.78323686
H       -4.52982589       0.59842858       0.92228948
H       -1.81348212      -1.58263589       0.89328442
H       -0.51526664      -1.26125908      -1.34464097
H       -0.91601115       0.51771758       1.52849006
H       -0.16937202       1.10262561      -1.04294884
H        0.64787042      -1.41979820       0.84696130
H        2.02366310      -0.63938165      -1.09156085
H        1.34671374       0.58071403       2.17721201
H        1.92832492       1.32188158       0.68003946
H        4.21857012       1.41241436      -0.77768634
28
Properties=species:S:1:pos:R:3 relative_energy_eV=0.7499129447169253 branch=left pbc="F F F"
O       -4.46235421       1.33917296      -1.09381645
C       -3.34851940       0.82831560      -1.04389966
C       -3.14174000      -0.19528375      -0.03726453
O       -3.74744406       0.09298188       1.22840234
C       -1.77239918      -0.81109039       0.07713539
O       -1.48654891      -1.39048426      -1.18955926
C       -0.70613446       0.20995353       0.51837371
O       -0.75520788       1.36788838      -0.30342807
C        0.68577152      -0.40650914       0.42056495
O        0.96958833      -0.44539614      -0.96364988
C        1.75803451       0.36744375       1.18037421
O        2.93355826      -0.41672705       1.35891518
P        4.07154201      -0.51084954       0.17309150
O        5.17005367      -1.36097722       0.69020209
O        3.34415189      -0.80954695      -1.15298543
O        4.56089063       1.06869416       0.04414048
H       -3.82545117      -0.80669355      -0.79724995
H       -2.57482537       0.98093103      -1.80610861
H       -4.50046916       0.66279401       0.98066336
H       -1.85440417      -1.60173907       0.83683557
H       -0.53533887      -1.23085307      -1.39825455
H       -0.94524185       0.51399208       1.53548374
H       -0.12704340       1.13270066      -1.01881351
H        0.64090382      -1.41962276       0.84062145
H        2.05744923      -0.63332831      -1.07993152
H        1.41500626       0.58929394       2.19103228
H        1.95763952       1.31908422       0.67701887
H        4.22038551       1.40446421      -0.79345671
28
Properties=species:S:1:pos:R:3 relative_energy_eV=0.8588957763859071 branch=left pbc="F F F"
O       -4.54685461       1.30551554      -1.09883327
C       -3.43519287       0.77787558      -1.07695399
C       -3.18357119      -0.19303830      -0.03910181
O       -3.69879409       0.14563498       1.24290823
C       -1.79818581      -0.79369595       0.05160773
O       -1.46899676      -1.31173060      -1.22691066
C       -0.71676612       0.21430556       0.53291029
O       -0.74704336       1.38401772      -0.27203485
C        0.68958209      -0.41496700       0.43284105
O        1.01096659      -0.44379157      -0.93995904
C        1.77818322       0.35072436       1.17854325
O        2.95620745      -0.44185465       1.34138666
P        4.10145455      -0.52264927       0.16182698
O        5.21089676      -1.36537880       0.66649285
O        3.37993810      -0.82793535      -1.17111506
O        4.56300644       1.06180811       0.03066264
H       -3.95859168      -0.77753797      -0.75297154
H       -2.71468540       0.89081911      -1.88045308
H       -4.45837502       0.72140031       1.04494984
H       -1.86112520      -1.60698630       0.79019808
H       -0.49891642      -1.15258531      -1.35177268
H       -0.93211420       0.49978611       1.56334551
H       -0.09944215       1.15309125      -0.97072274
H        0.64037602      -1.42798385       0.85666000
H        2.12650770      -0.65914771      -1.06909047
H        1.45230090       0.59944004       2.18749727
H        1.99313552       1.28196658       0.65013586
H        4.21793856       1.39151608      -0.80760452
28
Properties=species:S:1:pos:R:3 relative_energy_eV=1.0165089785659802 branch=left pbc="F F F"
O       -4.60972846       1.32439462      -1.01945754
C       -3.52763950       0.73905955      -1.10898019
C       -3.14471520      -0.12624751      -0.02438462
O       -3.75366348       0.16356939       1.24168363
C       -1.76636871      -0.74595583       0.05353805
O       -1.47925184      -1.23241909      -1.25233465
C       -0.66915495       0.21233279       0.55881762
O       -0.69906044       1.41719415      -0.19033606
C        0.70960920      -0.44032730       0.44875123
O        0.99781300      -0.50837072      -0.93004860
C        1.80597153       0.32763737       1.17169654
O        2.97878245      -0.45994843       1.34560157
P        4.11741173      -0.52468837       0.15666203
O        5.24206670      -1.35038898       0.65651030
O        3.37886678      -0.82457988      -1.16087127
O        4.57876402       1.06141743       0.02137164
H       -3.88974122      -0.76907204      -0.74535133
H       -2.93741031       0.70863506      -2.02486250
H       -4.42528044       0.84807615       1.02289869
H       -1.84236164      -1.59054776       0.75871725
H       -0.50540473      -1.11825917      -1.40734652
H       -0.89004158       0.44816354       1.59575147
H       -0.11885085       1.20479149      -0.94209479
H        0.65327578      -1.43868068       0.90742606
H        2.07588195      -0.70195027      -1.05717251
H        1.48109604       0.57804928       2.17918898
H        2.01516617       1.25568087       0.63655219
H        4.22579402       1.38106165      -0.81747917
28
Properties=species:S:1:pos:R:3 relative_energy_eV=1.1262489603977883 branch=left pbc="F F F"
O       -4.62685169       1.35368455      -0.97197452
C       -3.58477113       0.72148900      -1.09669024
C       -3.13669634      -0.12190686      -0.02396136
O       -3.70198686       0.23167211       1.22647908
C       -1.77031250      -0.72579418       0.05855906
O       -1.54496003      -1.19100577      -1.26377228
C       -0.65246509       0.21387729       0.57932504
O       -0.67179715       1.43199179      -0.14513647
C        0.71803025      -0.45303197       0.46017073
O        0.97975270      -0.54391068      -0.92626243
C        1.81991819       0.32258550       1.17795903
O        2.99614189      -0.45782611       1.35232003
P        4.12744614      -0.52765600       0.15120684
O        5.25357359      -1.35148849       0.66009279
O        3.39091016      -0.83511586      -1.16279531
O        4.57800907       1.06543953       0.02177316
H       -3.80855958      -0.82607616      -0.82744976
H       -3.02506311       0.61610519      -2.02446321
H       -4.39160151       0.87687538       0.93920034
H       -1.84015511      -1.57507411       0.75922608
H       -0.57776577      -1.11823579      -1.43164208
H       -0.85151894       0.44775108       1.62303701
H       -0.13761267       1.22709371      -0.92951363
H        0.66722883      -1.45132292       0.91901749
H        2.04410429      -0.70814235      -1.05960561
H        1.49298101       0.57878306       2.18590368
H        2.02334761       1.25346978       0.64407824
H        4.23249521       1.38439953      -0.82063236
28
Properties=species:S:1:pos:R:3 relative_energy_eV=1.9168507605572813 branch=ts pbc="F F F"
O       -4.63453099       1.38021359      -0.95451460
C       -3.63981049       0.59771570      -1.11090496
C       -3.07645615      -0.03095727       0.04631180
O       -3.67903713       0.22933870       1.19811981
C       -1.77144269      -0.73511628       0.06237894
O       -1.55587125      -1.18807694      -1.25358582
C       -0.64460668       0.21553050       0.58025429
O       -0.67184877       1.42750372      -0.13914891
C        0.72273789      -0.45582914       0.45937540
O        0.98443538      -0.54502236      -0.92517171
C        1.82082867       0.32313399       1.17949006
O        2.99508314      -0.45831838       1.35265136
P        4.12795437      -0.52687032       0.15238158
O        5.25202190      -1.35080006       0.65835038
O        3.38853129      -0.83574589      -1.16188868
O        4.57742146       1.06414508       0.02102814
H       -3.86444714      -0.72143460      -1.00757170
H       -3.00373270       0.63210742      -1.99416059
H       -4.39675735       0.87039445       0.91417054
H       -1.83926689      -1.58315549       0.76202390
H       -0.58783880      -1.11909898      -1.43321930
H       -0.85240348       0.44797799       1.62385245
H       -0.13864793       1.23040667      -0.92902063
H        0.66468734      -1.45087643       0.92003250
H        2.04874896      -0.70814133      -1.05965652
H        1.49407587       0.57923651       2.18696472
H        2.02441566       1.25344155       0.64439809
H        4.23310353       1.38499944      -0.82111787
28
Properties=species:S:1:pos:R:3 relative_energy_eV=1.8827667435616604 branch=right pbc="F F F"
O       -4.64492793       1.37059251      -0.92804676
C       -3.69444613       0.48209664      -1.13645733
C       -3.00920148       0.04693253       0.09366267
O       -3.67887906       0.22837648       1.19212547
C       -1.76664925      -0.75904163       0.06334582
O       -1.54890699      -1.20400375      -1.25170058
C       -0.63894180       0.22052602       0.57924789
O       -0.66583297       1.42555913      -0.13605071
C        0.72391071      -0.46004099       0.45624355
O        0.98189240      -0.54259280      -0.92505484
C        1.82110896       0.32470534       1.18077524
O        2.99435125      -0.45904876       1.35310261
P        4.12796691      -0.52598535       0.15279218
O        5.25196785      -1.35209571       0.65853721
O        3.38063220      -0.83434344      -1.16229061
O        4.57624434       1.06374868       0.02114506
H       -3.92546539      -0.57176729      -1.15513275
H       -2.97979619       0.66656246      -1.98169274
H       -4.41353480       0.86641792       0.89122187
H       -1.83961306      -1.58689900       0.76895204
H       -0.58135738      -1.11812645      -1.43116337
H       -0.85564672       0.44544723       1.62228769
H       -0.13683956       1.23069255      -0.92852218
H        0.66151917      -1.45218081       0.92188973
H        2.06165090      -0.70888568      -1.06025973
H        1.49480165       0.57916705       2.18789898
H        2.02387448       1.25382318       0.64353986
H        4.23299088       1.38513715      -0.82120027
28
Properties=species:S:1:pos:R:3 relative_energy_eV=1.6704241885672673 branch=right pbc="F F F"
O       -4.67177927       1.34162735      -0.90063455
C       -3.68723095       0.49054036      -1.11793911
C       -2.98586491       0.07550787       0.10129285
O       -3.66093908       0.24830158       1.19370012
C       -1.74990010      -0.75033318       0.07034257
O       -1.54053806      -1.22105824      -1.24120862
C       -0.62903052       0.21432508       0.58199024
O       -0.66019817       1.42362942      -0.13465091
C        0.72755704      -0.46094821       0.45770130
O        0.98291590      -0.54093179      -0.92603948
C        1.82267645       0.32376181       1.18107424
O        2.99555317      -0.45916099       1.35346635
P        4.12663965      -0.52669429       0.15350633
O        5.24920699      -1.35193382       0.65630935
O        3.37560219      -0.83288004      -1.16052672
O        4.57501518       1.06297598       0.02100064
H       -3.98263590      -0.57060668      -1.22981009
H       -2.98558055       0.66510987      -1.96331357
H       -4.42054924       0.86060600       0.86215286
H       -1.84493944      -1.58850321       0.77755135
H       -0.57464353      -1.11786304      -1.42982096
H       -0.85449490       0.44382452       1.62191609
H       -0.13371178       1.22992889      -0.92977490
H        0.66039469      -1.45360341       0.92240110
H        2.06909161      -0.70896829      -1.06151631
H        1.49455441       0.57873339       2.18802186
H        2.02273070       1.25376941       0.64324872
H        4.23297139       1.38561688      -0.82124482
28
Properties=species:S:1:pos:R:3 relative_energy_eV=1.4429919288377278 branch=right pbc="F F F"
O       -4.74024849       1.27497239      -0.77968649
C       -3.72658398       0.47053683      -1.09698900
C       -2.98678305       0.03339487       0.11396156
O       -3.57695539       0.33906089       1.20243185
C       -1.72219504      -0.72712940       0.10089358
O       -1.51702486      -1.24616282      -1.19180139
C       -0.60450141       0.21073624       0.59476047
O       -0.63766303       1.41761517      -0.13287304
C        0.74352948      -0.46678433       0.45946789
O        0.99604793      -0.53817100      -0.92375267
C        1.82967960       0.32062193       1.18433850
O        3.00306999      -0.45742335       1.35968409
P        4.12126837      -0.52504994       0.15432276
O        5.24510890      -1.35662552       0.64683563
O        3.37327327      -0.83225081      -1.16016223
O        4.57208291       1.06173896       0.02045162
H       -4.10949113      -0.54432273      -1.47458661
H       -3.01517183       0.69275978      -1.89697021
H       -4.43236874       0.85156016       0.74016835
H       -1.85879918      -1.55309626       0.80508253
H       -0.56113711      -1.12231348      -1.42210663
H       -0.83237898       0.44176574       1.63017040
H       -0.11462880       1.22328057      -0.93140226
H        0.66587998      -1.46022262       0.92141493
H        2.08930176      -0.70821185      -1.06525705
H        1.49580517       0.57647250       2.18853001
H        2.02105500       1.25051188       0.64405074
H        4.23270138       1.38750944      -0.82178163
28
Properties=species:S:1:pos:R:3 relative_energy_eV=1.1513795407154248 branch=right pbc="F F F"
O       -4.78601412       1.21723687      -0.57637280
C       -3.84083283       0.36077933      -1.11269907
C       -3.04972519      -0.07041316       0.11841358
O       -3.48266034       0.43133380       1.19069973
C       -1.72793706      -0.72836476       0.11821505
O       -1.49484759      -1.26145758      -1.15255289
C       -0.59825232       0.23161063       0.60535128
O       -0.60285873       1.42149138      -0.13372638
C        0.75475146      -0.47287540       0.45982174
O        1.01686293      -0.53708041      -0.91816835
C        1.83820775       0.31617064       1.19100928
O        3.01758315      -0.45294861       1.37051458
P        4.12600435      -0.52437308       0.15456135
O        5.24536160      -1.36586172       0.63356190
O        3.38737037      -0.83633840      -1.16745130
O        4.57044501       1.06405387       0.02005916
H       -4.18825325      -0.51275923      -1.72442771
H       -3.06382615       0.79176195      -1.81891805
H       -4.45087168       0.89404757       0.54762812
H       -1.85482793      -1.50741512       0.86723645
H       -0.54894613      -1.13005465      -1.39886803
H       -0.78219116       0.45163346       1.65655964
H       -0.08130579       1.20636956      -0.92742340
H        0.68582481      -1.47210070       0.91663611
H        2.10682276      -0.70688601      -1.06738590
H        1.50024937       0.57277180       2.19272205
H        2.02412876       1.24433774       0.64681028
H        4.23261052       1.39010341      -0.82261098
28
Properties=species:S:1:pos:R:3 relative_energy_eV=0.599581164526171 branch=right pbc="F F F"
O       -4.74091047       1.22145787      -0.56947930
C       -3.81724209       0.35203177      -1.11451578
C       -3.08158567      -0.08468115       0.10374363
O       -3.48079859       0.33190680       1.18889922
C       -1.76250162      -0.76719038       0.08896411
O       -1.51976790      -1.25314972      -1.20122715
C       -0.62963762       0.23716226       0.59744450
O       -0.60091432       1.44121790      -0.13803259
C        0.73735733      -0.46431598       0.46391836
O        1.01265695      -0.53789072      -0.92061520
C        1.83625742       0.31558108       1.19087746
O        3.02352671      -0.45198876       1.36652282
P        4.13772948      -0.52723902       0.14942074
O        5.25802287      -1.36865576       0.63740398
O        3.40829649      -0.83975206      -1.17118548
O        4.57540797       1.06853426       0.02104311
H       -4.10867752      -0.54947613      -1.60674190
H       -3.10808290       0.83704285      -1.80649378
H       -4.53558561       1.02353274       0.46395494
H       -1.81420665      -1.53208022       0.89025432
H       -0.55074766      -1.13048065      -1.37836790
H       -0.77065129       0.47008336       1.65934928
H       -0.07276100       1.19697669      -0.92033191
H        0.69553122      -1.47031375       0.91100244
H        2.09327353      -0.70747338      -1.06131627
H        1.50382391       0.57137510       2.19750751
H        2.03198665       1.24332749       0.64967745
H        4.23307315       1.38923071      -0.82248105
28
Properties=species:S:1:pos:R:3 relative_energy_eV=0.13979562318127137 branch=right pbc="F F F"
O       -4.78761941       1.28064937      -0.63876015
C       -3.77722598       0.35586193      -1.05215432
C       -3.03727448      -0.07808677       0.17266259
O       -3.47530132       0.19974986       1.28373889
C       -1.74759577      -0.80012942       0.07257507
O       -1.53188321      -1.25450497      -1.23922450
C       -0.63175293       0.23779921       0.58748603
O       -0.60192554       1.43730069      -0.14598070
C        0.73283485      -0.45678930       0.46453991
O        0.99983082      -0.53330380      -0.91986002
C        1.84013583       0.31608609       1.19044261
O        3.02682989      -0.45668378       1.35737085
P        4.14802565      -0.52686385       0.14623569
O        5.27376168      -1.36736054       0.64322318
O        3.41269210      -0.83983483      -1.17120116
O        4.58356998       1.06912483       0.02085138
H       -4.07229934      -0.60888089      -1.53438457
H       -3.13756444       0.87810357      -1.81427256
H       -4.66489338       1.16347707       0.33116998
H       -1.77547062      -1.56214034       0.87134568
H       -0.55699998      -1.14498936      -1.36940109
H       -0.78057476       0.48600971       1.64363671
H       -0.05372254       1.19253234      -0.91512159
H        0.69621521      -1.46272733       0.90594165
H        2.08570601      -0.70886021      -1.05440612
H        1.51009352       0.56692269       2.19970982
H        2.04072255       1.24515404       0.65431411
H        4.23455870       1.38715725      -0.82128188
28
Properties=species:S:1:pos:R:3 relative_energy_eV=-0.023863697533670347 branch=right pbc="F F F"
O       -4.80270904       1.27877089      -0.68730451
C       -3.78028085       0.36371258      -1.04784049
C       -3.04761778      -0.07453581       0.22361686
O       -3.49297265       0.16843525       1.33643903
C       -1.71922436      -0.76805775       0.09474312
O       -1.52635319      -1.24406076      -1.21492448
C       -0.60931781       0.22700865       0.58470704
O       -0.60875139       1.42142912      -0.16218762
C        0.75181527      -0.45660476       0.46347206
O        1.00745323      -0.53084374      -0.92123036
C        1.84865018       0.31586908       1.18969713
O        3.02684855      -0.46298979       1.35559065
P        4.14736470      -0.52804105       0.14724739
O        5.27506054      -1.35863260       0.64180683
O        3.40146229      -0.83693108      -1.16523922
O        4.58980711       1.06512978       0.01850656
H       -4.07177980      -0.58582652      -1.51206480
H       -3.12665885       0.85726096      -1.79726824
H       -4.72467975       1.20141072       0.28587929
H       -1.76083495      -1.57951131       0.83323511
H       -0.55736197      -1.16519136      -1.39520475
H       -0.80130470       0.48070995       1.62705373
H       -0.03833425       1.19535235      -0.91930733
H        0.68991330      -1.45886636       0.90915094
H        2.08543431      -0.70802465      -1.05501165
H        1.51647834       0.56244598       2.19792513
H        2.04440226       1.24927260       0.65775074
H        4.23636455       1.38608297      -0.82004287
28
Properties=species:S:1:pos:R:3 relative_energy_eV=-0.12388506202842109 branch=right pbc="F F F"
O       -4.80921258       1.25684506      -0.73302279
C       -3.76247355       0.36536222      -1.01047328
C       -3.06624790      -0.06063697       0.24431105
O       -3.54913730       0.15382903       1.34814239
C       -1.72570960      -0.75064206       0.11106473
O       -1.53709089      -1.20513950      -1.20953847
C       -0.61224415       0.22903607       0.57776854
O       -0.61028426       1.41344060      -0.19021382
C        0.75886864      -0.45650069       0.45962869
O        1.01863821      -0.53279818      -0.92526744
C        1.85962842       0.31443754       1.19109485
O        3.03661349      -0.46741201       1.36209599
P        4.15060447      -0.52910917       0.14727756
O        5.28193107      -1.35244488       0.63812863
O        3.40355565      -0.83694242      -1.16360994
O        4.59860305       1.06151385       0.01466780
H       -4.07992737      -0.55665866      -1.48950668
H       -3.07552267       0.80685277      -1.74253839
H       -4.81981404       1.24287752       0.24883680
H       -1.72796324      -1.59657870       0.81571033
H       -0.56808420      -1.18283646      -1.41637161
H       -0.81398985       0.47588643       1.61975202
H       -0.01236466       1.18940854      -0.92922181
H        0.69323483      -1.45712037       0.91535306
H        2.09540921      -0.70578618      -1.06101133
H        1.52972948       0.55660436       2.20034590
H        2.05694153       1.25305593       0.66534156
H        4.23918182       1.38622979      -0.81954936
28
Properties=species:S:1:pos:R:3 relative_energy_eV=-0.16425961175264092 branch=right pbc="F F F"
O       -4.82295023       1.25380376      -0.74253623
C       -3.76015920       0.36154354      -1.00578464
C       -3.06100192      -0.06817732       0.25540647
O       -3.57865153       0.16052397       1.34028467
C       -1.72322675      -0.75490737       0.10997002
O       -1.55531941      -1.18615976      -1.22501126
C       -0.60948910       0.23123618       0.57495916
O       -0.60773472       1.41040786      -0.20050325
C        0.75727317      -0.45474284       0.45972545
O        1.01700496      -0.53659279      -0.92468993
C        1.86050904       0.31351188       1.19218472
O        3.04169266      -0.46571974       1.36017460
P        4.15915153      -0.52992381       0.14779774
O        5.29013096      -1.35521220       0.63612069
O        3.41140603      -0.83851063      -1.16584533
O        4.60214494       1.06225110       0.01330515
H       -4.09415123      -0.56015976      -1.49815462
H       -3.03393685       0.79133820      -1.69843381
H       -4.87285503       1.25608223       0.23096077
H       -1.71619738      -1.59372278       0.82067226
H       -0.58483331      -1.17795717      -1.40569893
H       -0.81054721       0.48530033       1.61693923
H       -0.00160119       1.17647299      -0.93094990
H        0.69700220      -1.45311874       0.91522589
H        2.10606853      -0.70457389      -1.06190439
H        1.53613448       0.55353895       2.20402609
H        2.06604775       1.25101846       0.67114796
H        4.24096264       1.38722285      -0.82019383
28
Properties=species:S:1:pos:R:3 relative_energy_eV=-0.17269457370275632 branch=right pbc="F F F"
O       -4.82158344       1.24681754      -0.74428806
C       -3.76110189       0.35685243      -1.01401112
C       -3.06092909      -0.06382791       0.24844699
O       -3.57206861       0.16402025       1.33636867
C       -1.72312935      -0.74890787       0.11586192
O       -1.55902711      -1.19137381      -1.21454828
C       -0.60454084       0.22764045       0.57643455
O       -0.60624770       1.40582371      -0.19874035
C        0.76150435      -0.45552183       0.46144002
O        1.01888651      -0.54163646      -0.92276045
C        1.86294784       0.31386250       1.19205806
O        3.04118877      -0.46839225       1.35309523
P        4.16208128      -0.52983839       0.14573007
O        5.29174532      -1.35590457       0.63535977
O        3.41104230      -0.83727671      -1.16521616
O        4.60393917       1.06320774       0.01392883
H       -4.10158854      -0.56211198      -1.51079262
H       -3.02613019       0.80709713      -1.68355819
H       -4.87928817       1.24115501       0.23021385
H       -1.72368340      -1.59137234       0.82079553
H       -0.59076810      -1.16262417      -1.39995798
H       -0.80541699       0.49876178       1.61067169
H       -0.00941279       1.16493950      -0.93284949
H        0.69368523      -1.45214601       0.91665914
H        2.10651125      -0.70523262      -1.05675322
H        1.53564000       0.55119443       2.20434707
H        2.06553097       1.25251350       0.67144807
H        4.24308710       1.38705449      -0.82018888
28
Properties=species:S:1:pos:R:3 relative_energy_eV=-0.1782711817213567 branch=right pbc="F F F"
O       -4.82595018       1.23599062      -0.75175426
C       -3.75088603       0.36484612      -1.01114995
C       -3.05389250      -0.05862177       0.25178898
O       -3.57606255       0.16043880       1.33641965
C       -1.72322000      -0.75015597       0.12255706
O       -1.55587434      -1.20006004      -1.20566248
C       -0.60624914       0.23019078       0.57877466
O       -0.60551805       1.40379871      -0.20635676
C        0.75805832      -0.45824032       0.46461252
O        1.01700895      -0.54880457      -0.91951438
C        1.86406094       0.31189080       1.18967319
O        3.04197515      -0.47284394       1.35073224
P        4.16412972      -0.52971470       0.14345870
O        5.29467251      -1.35337844       0.63365487
O        3.41249019      -0.83391428      -1.16839923
O        4.60880086       1.06252949       0.01396838
H       -4.08787503      -0.55425950      -1.51025957
H       -3.02609384       0.82639633      -1.67791371
H       -4.89561953       1.22588307       0.21903572
H       -1.73408293      -1.59267061       0.82639358
H       -0.59058140      -1.14511022      -1.40280580
H       -0.80291212       0.51340709       1.61188712
H       -0.02053660       1.15220505      -0.94696643
H        0.69042644      -1.45436398       0.92344944
H        2.10451167      -0.70884215      -1.05185816
H        1.53966699       0.54624931       2.20277444
H        2.06449549       1.25464135       0.67231805
H        4.24793101       1.38728649      -0.81966346
28
Properties=species:S:1:pos:R:3 relative_energy_eV=-0.18272830693604192 branch=right pbc="F F F"
O       -4.83440044       1.22518048      -0.74344311
C       -3.74503364       0.37462676      -1.01642334
C       -3.05049793      -0.05453754       0.24790848
O       -3.57925031       0.16955569       1.32865413
C       -1.71965120      -0.75226438       0.12671864
O       -1.54978237      -1.21004904      -1.19998570
C       -0.60351322       0.23158793       0.58104864
O       -0.60790109       1.40104406      -0.21229069
C        0.75633507      -0.45977737       0.46902100
O        1.01320886      -0.55539507      -0.91545976
C        1.86197854       0.30887087       1.18954000
O        3.04123300      -0.47234049       1.34723717
P        4.16460814      -0.52955982       0.14213739
O        5.29594898      -1.35356534       0.63121995
O        3.41119537      -0.82981011      -1.17012312
O        4.61073992       1.06218215       0.01433632
H       -4.06652140      -0.54579522      -1.51909131
H       -3.02274744       0.84452486      -1.68496596
H       -4.89951715       1.20262124       0.22806141
H       -1.74505550      -1.58773243       0.84152837
H       -0.58623858      -1.13443757      -1.40304220
H       -0.80231909       0.52031139       1.61312762
H       -0.03455935       1.14493878      -0.96044759
H        0.68625956      -1.45432493       0.92971702
H        2.10211236      -0.71326062      -1.05135293
H        1.54196232       0.54372169       2.20335244
H        2.06173585       1.24938808       0.67179982
H        4.25254478       1.38906947      -0.81958843
28
Properties=species:S:1:pos:R:3 relative_energy_eV=-0.1862980718506151 branch=right pbc="F F F"
O       -4.84455837       1.21427297      -0.73939987
C       -3.74094166       0.38208070      -1.01942343
C       -3.04867803      -0.04613196       0.24490438
O       -3.58036582       0.17206666       1.32593768
C       -1.71999484      -0.74922330       0.13182034
O       -1.54664293      -1.21633841      -1.19034284
C       -0.60268418       0.22953943       0.57823291
O       -0.61224685       1.39640294      -0.21735498
C        0.75829058      -0.46096863       0.47088593
O        1.01449109      -0.56044347      -0.91304236
C        1.86415120       0.30678174       1.19294766
O        3.04355811      -0.47380369       1.34641444
P        4.16456930      -0.52846182       0.13940496
O        5.29443137      -1.35510737       0.62662098
O        3.40779018      -0.82678126      -1.17038832
O        4.61226957       1.06322725       0.01483422
H       -4.04290284      -0.54084035      -1.53504979
H       -3.02128600       0.86523673      -1.68348783
H       -4.91421999       1.19158889       0.23268784
H       -1.74295975      -1.57946872       0.85194956
H       -0.58336810      -1.14154674      -1.39766793
H       -0.80422490       0.52146022       1.60679329
H       -0.04321981       1.14165615      -0.96813654
H        0.68159914      -1.45246295       0.93583299
H        2.09970043      -0.71658284      -1.05276836
H        1.54328943       0.54275277       2.20766987
H        2.06016041       1.24427052       0.66894448
H        4.25686733       1.39159808      -0.81962517
28
Properties=species:S:1:pos:R:3 relative_energy_eV=-0.19094301344739506 branch=right pbc="F F F"
O       -4.86103876       1.19088411      -0.74249021
C       -3.73510617       0.39184318      -1.02011058
C       -3.04106503      -0.03957543       0.24369726
O       -3.57780057       0.17390675       1.32273846
C       -1.71750452      -0.74707856       0.13521138
O       -1.54662004      -1.23278053      -1.17948453
C       -0.60340840       0.23148087       0.57445631
O       -0.61588727       1.39640988      -0.22457812
C        0.75608417      -0.46305384       0.47359963
O        1.01275506      -0.56807809      -0.91004594
C        1.86526013       0.30456050       1.19435974
O        3.04606885      -0.47668538       1.34983985
P        4.16345821      -0.52749351       0.13634015
O        5.29202183      -1.35876144       0.61690178
O        3.40798680      -0.82252589      -1.17529170
O        4.61375337       1.06464192       0.01574677
H       -4.00865475      -0.52684126      -1.56123584
H       -3.03010405       0.91063108      -1.66799066
H       -4.93318726       1.17550423       0.22780661
H       -1.73831861      -1.56637026       0.86569340
H       -0.58203141      -1.16482277      -1.37922045
H       -0.80575753       0.52543495       1.60144914
H       -0.05270412       1.13779502      -0.97783970
H        0.67587412      -1.45276835       0.94451623
H        2.09851529      -0.72035129      -1.05152853
H        1.54702926       0.54157266       2.20995882
H        2.06003663       1.24134780       0.66639423
H        4.26321874       1.39594724      -0.81969958
28
Properties=species:S:1:pos:R:3 relative_energy_eV=-0.19608563961810432 branch=right pbc="F F F"
O       -4.89071210       1.14951342      -0.74256932
C       -3.72927386       0.40537151      -1.02802633
C       -3.03997058      -0.03562347       0.23674419
O       -3.57496388       0.18906960       1.31518616
C       -1.71660084      -0.74715041       0.13975525
O       -1.54604873      -1.25689854      -1.16650527
C       -0.60056713       0.23754879       0.57436776
O       -0.61157938       1.40043469      -0.22917766
C        0.75453326      -0.46304496       0.47635097
O        1.00993635      -0.58061478      -0.90539758
C        1.86402249       0.30397368       1.19145774
O        3.04420542      -0.47629169       1.34372570
P        4.16177347      -0.52819752       0.13299118
O        5.28981319      -1.36497013       0.60571378
O        3.40462668      -0.81455927      -1.17957373
O        4.61126646       1.06389350       0.01900818
H       -3.97293832      -0.49827922      -1.59786089
H       -3.02676340       0.97084971      -1.64156610
H       -4.93916557       1.14147688       0.23054146
H       -1.74078303      -1.55470123       0.88410625
H       -0.57899594      -1.20712020      -1.35885670
H       -0.80734746       0.53427761       1.60118247
H       -0.06075063       1.13596715      -0.98939029
H        0.66888824      -1.45037158       0.95120680
H        2.10006305      -0.72235027      -1.04940823
H        1.54910668       0.54325478       2.20628988
H        2.06179226       1.24001750       0.66722655
H        4.26930707       1.39929804      -0.81832858
28
Properties=species:S:1:pos:R:3 relative_energy_eV=-0.1973703750554705 branch=right pbc="F F F"
O       -4.89517531       1.14334629      -0.74422229
C       -3.72638901       0.40961658      -1.02641400
C       -3.04056780      -0.03414433       0.23912388
O       -3.57843313       0.18379923       1.31725802
C       -1.71898601      -0.74882570       0.14112706
O       -1.54626994      -1.25844957      -1.16511998
C       -0.60262204       0.23663787       0.57335677
O       -0.60775741       1.40011899      -0.22826695
C        0.75347522      -0.46174028       0.47492033
O        1.00930218      -0.58264868      -0.90637266
C        1.86474146       0.30616584       1.18963963
O        3.04279697      -0.47901720       1.34052650
P        4.16196730      -0.52823690       0.13107338
O        5.28923297      -1.36466133       0.60597250
O        3.40335185      -0.81307181      -1.18110351
O        4.61209615       1.06398534       0.02071001
H       -3.96037751      -0.49761285      -1.59839597
H       -3.02249741       0.98023810      -1.63494737
H       -4.94371007       1.14357138       0.22830231
H       -1.74342206      -1.55799395       0.88435814
H       -0.57889694      -1.21586934      -1.35932494
H       -0.80735997       0.53886835       1.59846617
H       -0.05823719       1.13411385      -0.98888360
H        0.66814825      -1.44727348       0.95210665
H        2.09881389      -0.72174069      -1.04889322
H        1.54799944       0.54439445       2.20496505
H        2.06297527       1.24389397       0.66599179
H        4.26867456       1.39730947      -0.81676010
28
Properties=species:S:1:pos:R:3 relative_energy_eV=-0.1984900779207237 branch=right pbc="F F F"
O       -4.89871524       1.13310245      -0.74258666
C       -3.72266767       0.41083697      -1.02426189
C       -3.04068977      -0.03568208       0.24065167
O       -3.58261839       0.18166936       1.31683316
C       -1.71880613      -0.74932522       0.14271232
O       -1.54805006      -1.26190495      -1.16293931
C       -0.60227003       0.23688353       0.57249261
O       -0.60631092       1.39914042      -0.23056856
C        0.75249134      -0.46091130       0.47414548
O        1.00715063      -0.58422407      -0.90757790
C        1.86323175       0.30855359       1.18622294
O        3.03863052      -0.48056729       1.33886507
P        4.16002316      -0.52848242       0.13057126
O        5.28712033      -1.36503618       0.60553719
O        3.40477399      -0.81005510      -1.18459397
O        4.61293022       1.06316813       0.02199171
H       -3.93939653      -0.49177061      -1.60941151
H       -3.02066151       0.99402590      -1.62273660
H       -4.94415824       1.14115494       0.23011441
H       -1.75075496      -1.55732694       0.88675660
H       -0.58070706      -1.22297980      -1.35609084
H       -0.80651470       0.54218353       1.59630253
H       -0.05408361       1.12929548      -0.98794084
H        0.66815448      -1.44474598       0.95532372
H        2.09620158      -0.72161138      -1.05038320
H        1.54760319       0.54665759       2.20156915
H        2.06394764       1.24656161       0.66283405
H        4.26701960       1.39616341      -0.81463908
28
Properties=species:S:1:pos:R:3 relative_energy_eV=-0.1996095142167178 branch=right pbc="F F F"
O       -4.90479980       1.11656101      -0.74199989
C       -3.71760588       0.41331610      -1.02400966
C       -3.04150614      -0.03573249       0.24145533
O       -3.58489373       0.18019971       1.31780630
C       -1.72060652      -0.74834542       0.14658299
O       -1.55063208      -1.26630295      -1.15699768
C       -0.60219105       0.23760580       0.57243396
O       -0.60799834       1.39490459      -0.23870335
C        0.75255834      -0.46105237       0.47467291
O        1.00574313      -0.58746858      -0.90681985
C        1.86250583       0.30945006       1.18319590
O        3.03643075      -0.47940714       1.33537284
P        4.15862024      -0.52898894       0.12962833
O        5.28371780      -1.36774825       0.60557000
O        3.40306333      -0.80522068      -1.18613665
O        4.61238799       1.06171041       0.02289100
H       -3.91708158      -0.47948649      -1.62818042
H       -3.01545954       1.01359994      -1.60361278
H       -4.94346900       1.13191018       0.23160849
H       -1.75645088      -1.55382747       0.89222831
H       -0.58391469      -1.22577478      -1.35167534
H       -0.80559374       0.54401429       1.59692839
H       -0.04914848       1.12226177      -0.99080505
H        0.66889561      -1.44341996       0.95857225
H        2.09380662      -0.72198720      -1.05411074
H        1.54720396       0.55135570       2.19732630
H        2.06396871       1.24525150       0.65814786
H        4.26532263       1.39739534      -0.81217640
28
Properties=species:S:1:pos:R:3 relative_energy_eV=-0.20078303835180122 branch=right pbc="F F F"
O       -4.91044018       1.10358770      -0.74571888
C       -3.71092915       0.42006458      -1.02168944
C       -3.04194651      -0.03726412       0.24614797
O       -3.58765175       0.16964293       1.32262191
C       -1.72272894      -0.75112450       0.14995916
O       -1.55415113      -1.26801391      -1.15374154
C       -0.60521898       0.23592996       0.57110400
O       -0.61124502       1.38810661      -0.24753240
C        0.75068520      -0.46181495       0.47455123
O        1.00206761      -0.59046483      -0.90749251
C        1.86242471       0.31066169       1.18078151
O        3.03681686      -0.47812396       1.33539759
P        4.15756919      -0.52893379       0.12788280
O        5.27888752      -1.37136547       0.60666133
O        3.39944790      -0.80235927      -1.18760584
O        4.61296380       1.06195563       0.02352496
H       -3.89417019      -0.46996866      -1.63573241
H       -3.00743197       1.03474968      -1.58562034
H       -4.94572829       1.13022012       0.22711548
H       -1.75456559      -1.55448442       0.89816747
H       -0.58785330      -1.22321980      -1.35014601
H       -0.80517749       0.54530350       1.59576768
H       -0.04251628       1.11468966      -0.99281615
H        0.67055821      -1.44357047       0.95927987
H        2.09110495      -0.72153913      -1.05615764
H        1.54657643       0.55860094       2.19395296
H        2.06308542       1.24383168       0.64985705
H        4.26244030       1.39967627      -0.80932659
28
Properties=species:S:1:pos:R:3 relative_energy_eV=-0.20164043265685905 branch=right pbc="F F F"
O       -4.91192924       1.10023077      -0.74691141
C       -3.70691318       0.42347205      -1.01912029
C       -3.04394226      -0.04222424       0.24908046
O       -3.59165773       0.16527068       1.32413682
C       -1.72246618      -0.75515430       0.15197666
O       -1.55617480      -1.26913440      -1.15304207
C       -0.60536798       0.23398140       0.56996132
O       -0.61221270       1.38437837      -0.24993010
C        0.75026885      -0.46337641       0.47356174
O        1.00029848      -0.59126332      -0.90912664
C        1.86075695       0.31254649       1.17851694
O        3.03529806      -0.47525953       1.33869691
P        4.15447910      -0.52831615       0.12879539
O        5.27477330      -1.37347123       0.60449332
O        3.39802940      -0.80222140      -1.18747216
O        4.61425606       1.06155509       0.02293895
H       -3.88189509      -0.46301750      -1.63822874
H       -3.00114389       1.04643155      -1.57437737
H       -4.94680354       1.12951271       0.22590365
H       -1.74876256      -1.55829200       0.90133482
H       -0.59069817      -1.22091183      -1.35241636
H       -0.80526689       0.54658471       1.59270135
H       -0.03894336       1.10977277      -0.99117287
H        0.67101071      -1.44573430       0.95780918
H        2.08950580      -0.72055795      -1.05509470
H        1.54658680       0.56468109       2.19093058
H        2.06181289       1.24331741       0.64259286
H        4.25997440       1.40197312      -0.80734504
28
Properties=species:S:1:pos:R:3 relative_energy_eV=-0.2023838000241085 branch=right pbc="F F F"
O       -4.91241704       1.09578731      -0.74569087
C       -3.70205876       0.42734262      -1.01769039
C       -3.04505094      -0.04437530       0.25099051
O       -3.59561105       0.16488956       1.32468722
C       -1.72324010      -0.75814932       0.15576224
O       -1.55729958      -1.27654771      -1.14819243
C       -0.60554138       0.23296350       0.57032735
O       -0.61124230       1.38129473      -0.25251993
C        0.74988184      -0.46540347       0.47370967
O        0.99952807      -0.59333236      -0.90860490
C        1.85882952       0.31431869       1.17555841
O        3.03412143      -0.47059605       1.33884407
P        4.15213118      -0.52787622       0.12931754
O        5.27143255      -1.37654151       0.60030005
O        3.39405165      -0.80022306      -1.18580037
O        4.61549190       1.06005178       0.02268194
H       -3.86524169      -0.45046743      -1.65315000
H       -2.99609230       1.06365389      -1.55656057
H       -4.95073022       1.11818239       0.22778948
H       -1.74391165      -1.56150186       0.90496383
H       -0.59340478      -1.22179504      -1.35444573
H       -0.80508472       0.55025481       1.59194906
H       -0.03859049       1.10318208      -0.99323532
H        0.67016245      -1.44829752       0.95708103
H        2.08960935      -0.72134684      -1.05515914
H        1.54520157       0.57242299       2.18623303
H        2.05907771       1.24205182       0.63479423
H        4.25887080       1.40483115      -0.80474691
28
Properties=species:S:1:pos:R:3 relative_energy_eV=-0.2031712757452624 branch=right pbc="F F F"
O       -4.90924984       1.09860953      -0.74542049
C       -3.69663886       0.43456145      -1.01444000
C       -3.04372591      -0.04678753       0.25350099
O       -3.59633759       0.15513429       1.32706177
C       -1.72284186      -0.76129143       0.15594333
O       -1.55911865      -1.28203225      -1.14724084
C       -0.60728067       0.23255709       0.57052099
O       -0.61156663       1.38003889      -0.25368548
C        0.74765618      -0.46540957       0.47343155
O        0.99554706      -0.59485883      -0.90962123
C        1.85779292       0.31616762       1.17325723
O        3.03520320      -0.46777281       1.33874070
P        4.15259730      -0.52767096       0.12751783
O        5.27049057      -1.37839917       0.59922250
O        3.39080295      -0.79929848      -1.18708407
O        4.61854607       1.06027193       0.02342243
H       -3.85123154      -0.43964584      -1.65710971
H       -2.99007006       1.07627808      -1.54480538
H       -4.95964458       1.10953868       0.22703945
H       -1.74160701      -1.56421489       0.90526172
H       -0.59514069      -1.22749929      -1.35335232
H       -0.80630886       0.55016592       1.59278682
H       -0.04047982       1.09965717      -0.99556575
H        0.66990300      -1.44779509       0.95751049
H        2.09008374      -0.72307115      -1.05585628
H        1.54158640       0.57958146       2.18252923
H        2.05502816       1.24240203       0.62806062
H        4.25887792       1.40555682      -0.80243302
28
Properties=species:S:1:pos:R:3 relative_energy_eV=-0.2044298281034571 branch=right pbc="F F F"
O       -4.89902301       1.11141752      -0.74099628
C       -3.68427633       0.44856560      -1.00689661
C       -3.04381314      -0.05444052       0.25678590
O       -3.59854658       0.13363177       1.33172656
C       -1.72327774      -0.76722051       0.15621357
O       -1.56208063      -1.28712024      -1.14706708
C       -0.60880112       0.22973888       0.56955702
O       -0.61537835       1.37635048      -0.25512668
C        0.74723722      -0.46588110       0.47117484
O        0.99316086      -0.59812047      -0.91195807
C        1.85433405       0.32143340       1.16652418
O        3.03272112      -0.45872649       1.33843271
P        4.15020198      -0.52658794       0.12691349
O        5.26629786      -1.38028132       0.59698613
O        3.38895341      -0.79729410      -1.18771124
O        4.62571844       1.05754866       0.02213866
H       -3.83172005      -0.41399472      -1.66431957
H       -2.96890889       1.09528224      -1.52157542
H       -4.97359649       1.08491229       0.23020346
H       -1.74127637      -1.56892615       0.90617688
H       -0.59825308      -1.23625742      -1.35260662
H       -0.80878422       0.54506893       1.59240246
H       -0.04632462       1.09233899      -0.99700015
H        0.67062579      -1.44593285       0.95969190
H        2.08620953      -0.72533944      -1.05805158
H        1.53595538       0.59341187       2.17269214
H        2.04678858       1.24333331       0.61305625
H        4.25872894       1.40786302      -0.79817371
28
Properties=species:S:1:pos:R:3 relative_energy_eV=-0.20531953073805198 branch=right pbc="F F F"
O       -4.89107124       1.12152210      -0.73694682
C       -3.67841886       0.45609415      -1.00491498
C       -3.04495880      -0.05655711       0.25904901
O       -3.60380748       0.12145649       1.33403704
C       -1.72571530      -0.77019610       0.15697514
O       -1.56215543      -1.28710921      -1.14779553
C       -0.61134262       0.22595017       0.56824824
O       -0.61868338       1.37313003      -0.25599007
C        0.74647847      -0.46683498       0.47068605
O        0.99351794      -0.60229897      -0.91129345
C        1.85264304       0.32506856       1.16185698
O        3.03075280      -0.45365307       1.33654250
P        4.14943245      -0.52582927       0.12718552
O        5.26305189      -1.38193040       0.59848959
O        3.38976486      -0.79545843      -1.18743419
O        4.62898838       1.05643896       0.01979756
H       -3.82731404      -0.40149926      -1.67032318
H       -2.95847827       1.10536659      -1.50780528
H       -4.97740133       1.06721528       0.23213909
H       -1.74322228      -1.57083234       0.90848465
H       -0.59751200      -1.24007506      -1.35226733
H       -0.80854055       0.54151261       1.59122932
H       -0.05145931       1.09050268      -0.99925878
H        0.67281213      -1.44576171       0.96191849
H        2.08349527      -0.72536714      -1.05933215
H        1.53615672       0.59785922       2.16775702
H        2.04594661       1.24572321       0.60623724
H        4.25991263       1.41033673      -0.79807846
28
Properties=species:S:1:pos:R:3 relative_energy_eV=-0.2060960132002947 branch=right pbc="F F F"
O       -4.88559385       1.12900594      -0.73340242
C       -3.67199613       0.46638764      -1.00190613
C       -3.04664687      -0.06072090       0.26059294
O       -3.61456315       0.10625923       1.33243961
C       -1.72606061      -0.77382376       0.15850030
O       -1.56284415      -1.29021404      -1.14650227
C       -0.61263562       0.22320681       0.56728133
O       -0.62333064       1.36951032      -0.25844021
C        0.74527593      -0.46797474       0.47066741
O        0.99045328      -0.60951744      -0.91140661
C        1.85258945       0.32824249       1.15777880
O        3.03102861      -0.45054490       1.33374563
P        4.15019678      -0.52470032       0.12496498
O        5.25910130      -1.38443027       0.60185745
O        3.38913075      -0.79253065      -1.19010576
O        4.63269958       1.05801704       0.01816034
H       -3.81503063      -0.38592243      -1.67605402
H       -2.95144264       1.12492269      -1.49197196
H       -4.98444344       1.05020372       0.23268720
H       -1.74392275      -1.57373997       0.91080089
H       -0.59698745      -1.24898516      -1.34803553
H       -0.80902033       0.54001609       1.58980187
H       -0.05865915       1.08985971      -1.00448821
H        0.67518549      -1.44549739       0.96618399
H        2.08280823      -0.72585191      -1.05899346
H        1.53757272       0.60251165       2.16417915
H        2.04682545       1.24858416       0.60031975
H        4.26318189       1.41250023      -0.79946190
28
Properties=species:S:1:pos:R:3 relative_energy_eV=-0.20667611966928234 branch=right pbc="F F F"
O       -4.88302533       1.13438993      -0.73068159
C       -3.66543373       0.47688238      -0.99725433
C       -3.05029541      -0.06762703       0.26176610
O       -3.62717942       0.08646617       1.33057549
C       -1.72726281      -0.77796833       0.16136581
O       -1.56594672      -1.29480448      -1.14331595
C       -0.61303611       0.22182237       0.56707289
O       -0.62809007       1.36539298      -0.26250206
C        0.74681136      -0.46846322       0.47018842
O        0.99035140      -0.61575683      -0.91139855
C        1.85333056       0.33057515       1.15419800
O        3.03119887      -0.44662675       1.33138230
P        4.14968967      -0.52303682       0.12309654
O        5.25480883      -1.38549414       0.60344049
O        3.38870279      -0.78813253      -1.19216510
O        4.63638852       1.05778541       0.01621261
H       -3.79867597      -0.36555988      -1.68395781
H       -2.94244361       1.14431829      -1.47241991
H       -4.99270530       1.03788835       0.23262743
H       -1.74217155      -1.57965718       0.91125683
H       -0.60048223      -1.25529359      -1.34440327
H       -0.80922762       0.54071734       1.58954641
H       -0.06372634       1.08576259      -1.00834323
H        0.67815413      -1.44375625       0.97016326
H        2.08189096      -0.72738258      -1.05951702
H        1.53850329       0.61004399       2.15908463
H        2.04624172       1.24877095       0.59380756
H        4.26650185       1.41351764      -0.80063283
28
Properties=species:S:1:pos:R:3 relative_energy_eV=-0.2073692018748261 branch=right pbc="F F F"
O       -4.88404452       1.13874259      -0.72817569
C       -3.66494714       0.48526905      -0.99721529
C       -3.05511657      -0.07327744       0.26127441
O       -3.63926000       0.06500011       1.32829251
C       -1.72973903      -0.78120471       0.16311971
O       -1.56764001      -1.29898886      -1.14159423
C       -0.61510633       0.22037884       0.56723577
O       -0.63106709       1.36330412      -0.26314341
C        0.74694335      -0.46762696       0.47214192
O        0.99154079      -0.61970114      -0.90851685
C        1.85425727       0.33216312       1.15378442
O        3.03248658      -0.44556200       1.33144132
P        4.15117403      -0.52146391       0.12240705
O        5.25631910      -1.38440790       0.60190140
O        3.39196570      -0.78385758      -1.19460514
O        4.63891436       1.05882554       0.01390833
H       -3.79534544      -0.34863779      -1.69570861
H       -2.93893718       1.15676059      -1.46134830
H       -4.99530209       1.03270486       0.23448612
H       -1.74142373      -1.58242035       0.91409053
H       -0.60205539      -1.25914897      -1.34164245
H       -0.80637679       0.54352618       1.58923877
H       -0.07141849       1.08203797      -1.01154282
H        0.68072334      -1.44071024       0.97536179
H        2.08339965      -0.72995856      -1.05974375
H        1.54125664       0.61263524       2.15871995
H        2.04778833       1.24885774       0.59154079
H        4.27388200       1.41153448      -0.80651518
28
Properties=species:S:1:pos:R:3 relative_energy_eV=-0.2076408606590121 branch=right pbc="F F F"
O       -4.88408034       1.13974492      -0.72762061
C       -3.66579014       0.48462947      -0.99713571
C       -3.05710253      -0.07673456       0.26032436
O       -3.64242845       0.05955490       1.32706145
C       -1.72954740      -0.78108813       0.16262545
O       -1.56687918      -1.29836681      -1.14212449
C       -0.61510893       0.22098498       0.56746347
O       -0.63107388       1.36359837      -0.26291565
C        0.74681833      -0.46777500       0.47287922
O        0.99118160      -0.61932265      -0.90816540
C        1.85475680       0.33256776       1.15479009
O        3.03357961      -0.44573223       1.33096635
P        4.15272994      -0.52101675       0.12208601
O        5.25939621      -1.38346973       0.59972263
O        3.39149156      -0.78445289      -1.19379891
O        4.63884850       1.06023683       0.01398796
H       -3.79832755      -0.34669094      -1.69767544
H       -2.93988717       1.15706220      -1.46132556
H       -4.99467543       1.03627894       0.23553773
H       -1.74196332      -1.58073687       0.91504200
H       -0.60118720      -1.25953540      -1.34269545
H       -0.80675957       0.54336070       1.58960278
H       -0.07265213       1.08116264      -1.01186078
H        0.67980557      -1.44096316       0.97710717
H        2.08425345      -0.72972242      -1.05826829
H        1.54172444       0.61221417       2.16065397
H        2.04860748       1.24946457       0.59229326
H        4.27714101       1.40952112      -0.80936450
28
Properties=species:S:1:pos:R:3 relative_energy_eV=-0.2077938711081515 branch=right pbc="F F F"
O       -4.88352228       1.14152094      -0.72700812
C       -3.66459450       0.48685541      -0.99594328
C       -3.05881733      -0.07951312       0.26012948
O       -3.64739995       0.04996685       1.32576533
C       -1.73013286      -0.78157986       0.16278615
O       -1.56702611      -1.29865803      -1.14199100
C       -0.61598047       0.22123530       0.56744050
O       -0.63163026       1.36264793      -0.26467964
C        0.74670323      -0.46771915       0.47365420
O        0.99131898      -0.62047638      -0.90676665
C        1.85519744       0.33284666       1.15402397
O        3.03431158      -0.44434323       1.33038183
P        4.15291426      -0.52028077       0.12163650
O        5.26058605      -1.38235891       0.59724084
O        3.39037927      -0.78470168      -1.19269347
O        4.63901951       1.06045930       0.01330419
H       -3.79466709      -0.34213255      -1.69999078
H       -2.93725235       1.16159102      -1.45445454
H       -4.99550519       1.03623028       0.23560512
H       -1.74205177      -1.58079609       0.91553722
H       -0.60143190      -1.26028958      -1.34272215
H       -0.80861846       0.54325416       1.58982084
H       -0.07301836       1.07859727      -1.01296558
H        0.67883226      -1.44057368       0.97830287
H        2.08333452      -0.72898316      -1.05656542
H        1.54284258       0.61348736       2.15932627
H        2.04838140       1.24973460       0.59181439
H        4.28069888       1.40875315      -0.81179590
28
Properties=species:S:1:pos:R:3 relative_energy_eV=-0.2078490604981198 branch=right pbc="F F F"
O       -4.88302538       1.14228956      -0.72639479
C       -3.66391449       0.48848151      -0.99580837
C       -3.05891467      -0.07974849       0.25989515
O       -3.64866192       0.04723107       1.32515404
C       -1.73020825      -0.78174368       0.16256018
O       -1.56683960      -1.29954880      -1.14185343
C       -0.61656415       0.22125556       0.56739493
O       -0.63151576       1.36240738      -0.26506582
C        0.74581509      -0.46754774       0.47432572
O        0.99026889      -0.62091855      -0.90611494
C        1.85500708       0.33290969       1.15395591
O        3.03469318      -0.44410938       1.33102257
P        4.15277148      -0.52021046       0.12121492
O        5.26105636      -1.38191007       0.59620741
O        3.38981895      -0.78506572      -1.19309237
O        4.63898575       1.06078065       0.01270758
H       -3.79240560      -0.34008852      -1.70083494
H       -2.93562201       1.16367131      -1.45176680
H       -4.99534082       1.03371203       0.23587018
H       -1.74230799      -1.58078809       0.91546788
H       -0.60104984      -1.26103685      -1.34186838
H       -0.81007513       0.54361032       1.58939626
H       -0.07328900       1.07771413      -1.01352194
H        0.67779753      -1.44025835       0.97877997
H        2.08296938      -0.72901805      -1.05589584
H        1.54319869       0.61374025       2.15921270
H        2.04769285       1.24983119       0.59142139
H        4.28253040       1.40913211      -0.81317595
