16
Properties=species:S:1:pos:R:3 relative_energy_eV=2.0291678285466332 branch=ts pbc="F F F"
O       -2.30138334       1.44031360      -0.30910701
C       -1.28159709       0.65912607      -0.18601893
C       -0.15323142       0.62114083      -1.19845322
O        0.74738281      -0.41706419      -0.90769080
P        1.93691957      -0.13624022       0.27208601
O        1.44711280      -0.79772459       1.54217648
O        2.38187659       1.28834672       0.18380965
O        3.10045767      -1.11743406      -0.39013588
C       -1.48347201      -0.52672127       0.60912218
O       -2.65688086      -0.64309298       1.20800849
H       -0.58336417       0.43833672      -2.18781689
H        0.33494236       1.59636323      -1.19628124
H        3.03498321      -1.95392608       0.08473174
H       -0.74552924      -1.28711997       0.77009574
H       -0.64911955       0.66727110       0.85410164
H       -3.12909551       0.16842673       0.85137146
