35
Properties=species:S:1:pos:R:3 relative_energy_eV=1.1158851520594908 branch=ts pbc="F F F"
O        3.33381949      -2.55928377      -3.36353760
P        4.11238260      -2.23977253      -2.12818761
O        5.54008375      -1.79365574      -2.11816285
O        3.61853612      -2.96650815      -0.82500591
O        3.24136358      -0.47911479      -1.60215730
C        1.83264192      -0.47537971      -1.81671382
C        1.38658472       0.86388594      -1.29144559
O        1.53313830       1.88869556      -1.93680291
C        0.83754464       0.98715198       0.12719530
O        1.30777689       2.22430604       0.65498306
C       -0.70079137       0.93199490       0.07502802
O       -0.99462655      -0.29175365      -0.56145463
C       -1.36700421       1.06219881       1.45612363
O       -1.01435783       2.27368897       2.12307147
C       -2.87703551       1.08287084       1.33552336
O       -3.32043455      -0.12168771       0.73244464
P       -4.99387295      -0.37859093       0.63842624
O       -5.66995740       0.94451702       0.47090484
O       -5.14497588      -1.57634569      -0.25113954
O       -5.26793638      -0.87688410       2.21571275
O        3.49885075      -1.11990592       0.78311927
H        3.55530760      -2.13913992       0.04520888
H        1.63882928      -0.56357924      -2.88027202
H        1.34193533      -1.28440793      -1.28272236
H        1.21782967       0.17322764       0.74389617
H        1.42158075       2.78919867      -0.12944443
H       -1.04631193       1.78723836      -0.52746425
H       -1.93554844      -0.47919804      -0.38292340
H       -1.07338461       0.18450914       2.04668395
H       -0.10649818       2.48688411       1.85272267
H       -3.18408946       1.94249543       0.73867858
H       -3.31400133       1.19653781       2.32851421
H       -5.19903478      -1.83833095       2.18594937
H        4.40663802      -1.07696816       1.10118724
H        3.38532014      -0.55855637      -0.55753562
