35
Properties=species:S:1:pos:R:3 relative_energy_eV=0.0 branch=left pbc="F F F"
O       -7.83453608      -2.22475125      -2.38617090
P       -6.88331861      -1.22357110      -1.80147232
O       -7.03694928      -0.75480298      -0.37179425
O       -5.75644614      -0.65121643      -2.63296679
O       -2.52337397       0.29614368       0.38298525
C       -1.97521641      -0.44236082      -0.68842821
C       -0.90906523      -1.37653930      -0.16354687
O       -0.77107772      -2.51250189      -0.58266576
C        0.02587129      -0.91239763       0.95710946
O        0.15980969      -1.98970078       1.89103133
C        1.39056899      -0.51426007       0.36280277
O        1.11649366       0.51016574      -0.56549870
C        2.41322009      -0.07892280       1.42947519
O        2.67087991      -1.09622281       2.39535734
C        3.75273764       0.24757057       0.80249804
O        3.59443533       1.33148246      -0.09619974
P        4.99466172       2.08094342      -0.69699980
O        6.07242368       1.05138302      -0.80774941
O        4.50026388       2.98268150      -1.78784217
O        5.35773451       3.03949014       0.63110465
O       -4.96209476       1.16235347      -0.62897596
H       -4.99572563       0.74168695      -1.51293054
H       -2.70703197      -1.05424428      -1.22722843
H       -1.47520935       0.21421105      -1.41242408
H       -0.41110841      -0.06939068       1.48345911
H        0.18498171      -2.78967661       1.34126524
H        1.80450621      -1.40417279      -0.13718188
H        1.95921795       0.98291222      -0.71594239
H        2.02490151       0.83328950       1.90316279
H        1.82446996      -1.55215787       2.54430215
H        4.13710515      -0.63122515       0.28098407
H        4.46153508       0.50187942       1.59128243
H        4.92470367       3.88251675       0.45116578
H       -3.38760450       0.65150134       0.08460364
H       -5.68390561       0.65847763      -0.19898223
35
Properties=species:S:1:pos:R:3 relative_energy_eV=0.0015276011545211077 branch=left pbc="F F F"
O       -7.77565252      -2.19312736      -2.41756840
P       -6.84518050      -1.16790546      -1.84184037
O       -7.05152557      -0.64212831      -0.43837598
O       -5.68870407      -0.63004190      -2.65464779
O       -2.51707073       0.27748934       0.42133035
C       -1.98892548      -0.48397565      -0.64362553
C       -0.91726718      -1.41303410      -0.12092548
O       -0.78569267      -2.55359011      -0.53011934
C        0.03283439      -0.93910070       0.98281457
O        0.18208561      -2.00802750       1.92467343
C        1.38916104      -0.54159223       0.36837347
O        1.10101551       0.47357778      -0.56572479
C        2.42118756      -0.09498118       1.42194796
O        2.70142727      -1.11100452       2.38286550
C        3.74922226       0.24593587       0.77877112
O        3.56818821       1.33147069      -0.11276524
P        4.94770710       2.11532414      -0.71694986
O        6.04703963       1.11084266      -0.84666295
O        4.42364752       3.01656577      -1.79428239
O        5.30085230       3.06741494       0.61876324
O       -4.91578614       1.19716684      -0.63876946
H       -4.91657564       0.78468158      -1.52656810
H       -2.73108986      -1.10358598      -1.15801648
H       -1.49951656       0.15510888      -1.39005794
H       -0.39862081      -0.09233267       1.50770855
H        0.18904756      -2.81424722       1.38367054
H        1.80166932      -1.43378028      -0.12904706
H        1.93606168       0.95976519      -0.71698468
H        2.02884703       0.81299230       1.90067808
H        1.86119441      -1.57515117       2.54245853
H        4.13193153      -0.62809060       0.24823701
H        4.46675209       0.50296278       1.55870625
H        4.84995816       3.90373832       0.45230253
H       -3.36995050       0.65335284       0.11488737
H       -5.67041419       0.70787955      -0.24766963
35
Properties=species:S:1:pos:R:3 relative_energy_eV=0.002457688176946249 branch=left pbc="F F F"
O       -7.74229769      -2.16798056      -2.44357348
P       -6.82680224      -1.13226894      -1.86267215
O       -7.05913906      -0.58678137      -0.47127169
O       -5.65627121      -0.60111395      -2.65964108
O       -2.51827421       0.25551993       0.44227132
C       -1.99582087      -0.51374528      -0.62052998
C       -0.91941227      -1.43617804      -0.09729972
O       -0.78969450      -2.57959336      -0.49950903
C        0.03701091      -0.95737553       0.99887124
O        0.19528718      -2.02689357       1.93798549
C        1.38872728      -0.55971073       0.37433370
O        1.09264976       0.44731436      -0.56526851
C        2.42542270      -0.10464227       1.41916140
O        2.72122105      -1.11938441       2.37722783
C        3.74595930       0.25069468       0.76820698
O        3.54775875       1.33559281      -0.12130576
P        4.91739252       2.13436922      -0.72804737
O        6.02319471       1.13794020      -0.86249440
O        4.38441733       3.03298009      -1.80316407
O        5.26481887       3.08968865       0.60690903
O       -4.88261710       1.22927415      -0.65581749
H       -4.88313536       0.79329872      -1.53244981
H       -2.73928736      -1.14085309      -1.12429692
H       -1.51366230       0.11926783      -1.37653174
H       -0.39264588      -0.11135402       1.52668756
H        0.19520896      -2.83165971       1.39417912
H        1.79997132      -1.45546473      -0.11794808
H        1.92267744       0.94158943      -0.71773418
H        2.03092700       0.79948167       1.90290758
H        1.88608865      -1.59105027       2.54017308
H        4.13940666      -0.61742713       0.23561347
H        4.46278739       0.51605070       1.54601000
H        4.80396277       3.92077621       0.44029432
H       -3.35724312       0.65425579       0.12805647
H       -5.65072951       0.76595430      -0.26174706
35
Properties=species:S:1:pos:R:3 relative_energy_eV=0.0034506839874666184 branch=left pbc="F F F"
O       -7.73076742      -2.13357633      -2.48060368
P       -6.82122855      -1.10001546      -1.88727771
O       -7.06260544      -0.56303195      -0.49472232
O       -5.64651309      -0.56374572      -2.67501742
O       -2.50241987       0.25270091       0.44027678
C       -1.98792645      -0.53654199      -0.61127786
C       -0.91867403      -1.45982563      -0.07343716
O       -0.79316807      -2.60869383      -0.46073055
C        0.03921256      -0.96890813       1.01580427
O        0.19973718      -2.02239789       1.97189181
C        1.38706103      -0.57772250       0.38052176
O        1.08242838       0.42132927      -0.56489605
C        2.42974834      -0.11467522       1.41487583
O        2.74008376      -1.12910671       2.36817672
C        3.74067800       0.24883349       0.74944484
O        3.52843561       1.34393611      -0.12461746
P        4.89088943       2.15263638      -0.73683907
O        6.00143294       1.16349355      -0.88549597
O        4.34537360       3.05528228      -1.80185682
O        5.24450515       3.09875237       0.60268019
O       -4.85846597       1.23687193      -0.65779943
H       -4.87460109       0.79934357      -1.53433612
H       -2.73818575      -1.16283296      -1.10662054
H       -1.49912580       0.08174696      -1.37533275
H       -0.38761237      -0.11419461       1.53118599
H        0.20060878      -2.83615408       1.44284318
H        1.79707487      -1.47602732      -0.10759220
H        1.90437685       0.92916216      -0.71533328
H        2.03351219       0.78645398       1.90226898
H        1.90292083      -1.58359032       2.56308990
H        4.12588014      -0.61235250       0.19992989
H        4.46939968       0.50599795       1.51873718
H        4.78030767       3.92987827       0.44696122
H       -3.33478334       0.65929134       0.11818279
H       -5.62973161       0.78825346      -0.25550027
35
Properties=species:S:1:pos:R:3 relative_energy_eV=0.004470088009838946 branch=left pbc="F F F"
O       -7.76546015      -2.03533624      -2.54808382
P       -6.81931487      -1.05755800      -1.91701377
O       -7.04043715      -0.56960579      -0.50275975
O       -5.62887050      -0.52976546      -2.68736174
O       -2.47870479       0.25292334       0.43442656
C       -1.96538184      -0.55279881      -0.60549468
C       -0.91803446      -1.48679600      -0.04453056
O       -0.81041286      -2.64565735      -0.40783645
C        0.04340140      -0.98915205       1.03723357
O        0.21058122      -2.03789001       1.99646561
C        1.38779217      -0.59822249       0.39243796
O        1.07774446       0.38495881      -0.56732011
C        2.43027316      -0.11342801       1.41753697
O        2.75213116      -1.11254011       2.38328681
C        3.73506845       0.25446368       0.74252148
O        3.50846507       1.34509986      -0.13356063
P        4.85744172       2.16777247      -0.75545344
O        5.97172291       1.18588718      -0.92082469
O        4.29487567       3.07237016      -1.80960546
O        5.21789500       3.11095204       0.58403622
O       -4.83876685       1.24079043      -0.65050020
H       -4.85275182       0.81741061      -1.53386694
H       -2.71961069      -1.17067260      -1.10453205
H       -1.45619720       0.05187582      -1.36680315
H       -0.38286290      -0.13279346       1.55013079
H        0.18861450      -2.85536039       1.47233903
H        1.80025216      -1.50214329      -0.08350178
H        1.89594121       0.89790428      -0.72211455
H        2.02791336       0.79089468       1.89424969
H        1.92157337      -1.57898239       2.57749107
H        4.12276303      -0.60663504       0.19414140
H        4.46676274       0.51857271       1.50676011
H        4.74507083       3.93883122       0.43926019
H       -3.31354803       0.65328997       0.11124515
H       -5.60807069       0.78190946      -0.25481545
35
Properties=species:S:1:pos:R:3 relative_energy_eV=0.005202649474085774 branch=left pbc="F F F"
O       -7.76354188      -1.99392651      -2.56553862
P       -6.81055175      -1.02509803      -1.93026592
O       -7.01632859      -0.55599171      -0.50758139
O       -5.62681035      -0.48586198      -2.70319572
O       -2.47351064       0.22813133       0.43786010
C       -1.95693786      -0.57243243      -0.60405915
C       -0.91480215      -1.50917671      -0.03711324
O       -0.81366321      -2.67149397      -0.39123390
C        0.04749472      -1.01012767       1.04374734
O        0.22439935      -2.06272573       1.99616637
C        1.38782511      -0.60700459       0.39881129
O        1.06602330       0.37123408      -0.56231763
C        2.42491570      -0.11097554       1.42416558
O        2.75297017      -1.10403860       2.39454004
C        3.72844169       0.26279435       0.75021039
O        3.49563110       1.34027216      -0.13997580
P        4.83782858       2.17033169      -0.76669540
O        5.96315698       1.19926686      -0.92424025
O        4.26578578       3.06165729      -1.82741344
O        5.18813351       3.12851591       0.56514694
O       -4.81898479       1.25604870      -0.63800498
H       -4.83915904       0.84924899      -1.52881337
H       -2.70994161      -1.18668913      -1.11032015
H       -1.44068393       0.03594768      -1.35779709
H       -0.38445471      -0.15813106       1.56020770
H        0.19046887      -2.87781413       1.46852848
H        1.81099632      -1.50705502      -0.07532411
H        1.87875839       0.89105863      -0.72093304
H        2.01550580       0.79138518       1.89829473
H        1.92989204      -1.58853633       2.57670573
H        4.12601495      -0.60149071       0.21401309
H        4.45420921       0.54412975       1.51399227
H        4.72079171       3.95618114       0.40030920
H       -3.29863775       0.64576748       0.11062790
H       -5.58337629       0.78716684      -0.24492091
35
Properties=species:S:1:pos:R:3 relative_energy_eV=0.007747494557406753 branch=left pbc="F F F"
O       -7.78028477      -1.92358686      -2.59085968
P       -6.81509806      -0.96779881      -1.95465795
O       -7.01226259      -0.50524410      -0.52829878
O       -5.62993303      -0.43566897      -2.73009119
O       -2.46828126       0.19523593       0.45667869
C       -1.94863635      -0.59630621      -0.59049013
C       -0.90457069      -1.53558705      -0.03269724
O       -0.79623205      -2.69362318      -0.40034166
C        0.05367482      -1.04377866       1.05563582
O        0.24510890      -2.11304124       1.98583705
C        1.38932751      -0.61230145       0.41491466
O        1.05165688       0.37686832      -0.52952810
C        2.42428052      -0.11289064       1.44249332
O        2.76167484      -1.10492219       2.41047607
C        3.72556687       0.28077610       0.77408917
O        3.47852098       1.35332895      -0.11898627
P        4.81432649       2.16532376      -0.78071393
O        5.94887543       1.19813707      -0.88772991
O        4.23921763       2.99795948      -1.88714091
O        5.15156393       3.18760306       0.50679642
O       -4.78587646       1.24989240      -0.63220046
H       -4.81144600       0.86437410      -1.53231313
H       -2.70025308      -1.20467228      -1.10788681
H       -1.42761748       0.01715026      -1.33653575
H       -0.38895801      -0.20673912       1.58772432
H        0.18330842      -2.91899754       1.44612247
H        1.82220770      -1.50011288      -0.07355412
H        1.86369832       0.89468499      -0.69889476
H        2.00570265       0.78487850       1.91720443
H        1.95339179      -1.61980310       2.56956129
H        4.14611750      -0.57392936       0.24042670
H        4.44219751       0.57761644       1.54133776
H        4.67427449       4.00251265       0.30741248
H       -3.28597757       0.62391460       0.12442556
H       -5.56140703       0.78931531      -0.25063318
35
Properties=species:S:1:pos:R:3 relative_energy_eV=0.012277712463401258 branch=left pbc="F F F"
O       -7.77775182      -1.82998275      -2.64642841
P       -6.80010287      -0.90899566      -1.97739287
O       -7.00721826      -0.46736998      -0.54593033
O       -5.58931031      -0.39509662      -2.72392821
O       -2.46614146       0.14197266       0.47551892
C       -1.94018785      -0.62750212      -0.58524479
C       -0.88904223      -1.56469071      -0.03816895
O       -0.77777797      -2.71854555      -0.41616030
C        0.06590561      -1.08172277       1.05584162
O        0.27616683      -2.16828211       1.96105561
C        1.39386145      -0.61414620       0.42761180
O        1.03968609       0.38374831      -0.50039594
C        2.41288015      -0.11860793       1.47267547
O        2.76270693      -1.12728136       2.42007219
C        3.71143307       0.30367242       0.81671566
O        3.45521402       1.37168725      -0.07817937
P        4.78131811       2.15292881      -0.79641271
O        5.93174886       1.19910715      -0.83371099
O        4.19907068       2.89859522      -1.95982990
O        5.09679119       3.26914509       0.41450357
O       -4.75809826       1.28105194      -0.61075286
H       -4.77136538       0.90496199      -1.51474047
H       -2.68649957      -1.23865396      -1.10557299
H       -1.42939683       0.00294906      -1.32354797
H       -0.38804047      -0.26411290       1.60787247
H        0.23522032      -2.96234384       1.40185810
H        1.84788243      -1.48384288      -0.07351197
H        1.84422654       0.91386248      -0.66672311
H        1.97417291       0.75775928       1.96929377
H        1.96069134      -1.65823875       2.56344704
H        4.14850221      -0.54554278       0.28813576
H        4.41706373       0.61256391       1.58889401
H        4.60341634       4.05726385       0.15608596
H       -3.27329836       0.59011164       0.14538443
H       -5.54586823       0.82414652      -0.25075344
35
Properties=species:S:1:pos:R:3 relative_energy_eV=0.01622416591271758 branch=left pbc="F F F"
O       -7.77952103      -1.72316546      -2.71363861
P       -6.77156151      -0.86357213      -2.01195106
O       -6.97375832      -0.45810939      -0.56932271
O       -5.53864569      -0.36955088      -2.73590993
O       -2.46217390       0.11783633       0.50942419
C       -1.92827487      -0.62266868      -0.56824601
C       -0.87610401      -1.57231352      -0.04232615
O       -0.74869199      -2.71202776      -0.45767357
C        0.06949600      -1.11249800       1.06969190
O        0.28704074      -2.21569503       1.95319537
C        1.39177039      -0.62706150       0.44558531
O        1.02405914       0.36809532      -0.48067586
C        2.40091464      -0.11987801       1.49316217
O        2.75587480      -1.12502608       2.44283379
C        3.69879906       0.32035412       0.84707996
O        3.42862424       1.35149027      -0.08449824
P        4.73845994       2.13507441      -0.82134467
O        5.90917188       1.20611633      -0.82789670
O        4.14027951       2.82829735      -2.00860304
O        5.02246312       3.29436808       0.35563933
O       -4.72780700       1.28188008      -0.59515006
H       -4.72913367       0.90024885      -1.49685751
H       -2.66899477      -1.21998081      -1.11265014
H       -1.41188726       0.03100441      -1.28284901
H       -0.39072529      -0.31076418       1.63941015
H        0.28455121      -2.99495733       1.37314827
H        1.85644253      -1.48990217      -0.05843418
H        1.82700262       0.89714338      -0.65961520
H        1.94781605       0.74984616       1.98799021
H        1.96464979      -1.67552930       2.56890341
H        4.16908073      -0.53016407       0.35140382
H        4.38310216       0.67485150       1.61948842
H        4.54993403       4.07513900       0.04546855
H       -3.26570418       0.57580536       0.18417422
H       -5.51868974       0.82588257      -0.24137646
35
Properties=species:S:1:pos:R:3 relative_energy_eV=0.020923387477523647 branch=left pbc="F F F"
O       -7.78890896      -1.61547861      -2.78569474
P       -6.77993430      -0.79130891      -2.04164840
O       -7.03763233      -0.35839224      -0.61531467
O       -5.48712448      -0.37097964      -2.70300374
O       -2.45822230       0.05046035       0.54638102
C       -1.91954204      -0.64859342      -0.55692032
C       -0.85898169      -1.60476744      -0.05969758
O       -0.72723142      -2.73283580      -0.50244387
C        0.08337813      -1.16314091       1.06281512
O        0.31473148      -2.28209308       1.92185080
C        1.40157142      -0.64843946       0.45307920
O        1.01967681       0.32619592      -0.48942823
C        2.37990117      -0.09403614       1.50545045
O        2.72938042      -1.05980616       2.49888035
C        3.68274189       0.35334180       0.87287968
O        3.41359338       1.34486803      -0.10336456
P        4.72565336       2.12970882      -0.84235933
O        5.90177114       1.20733109      -0.81956608
O        4.13894247       2.79995297      -2.04944141
O        4.99060398       3.31715887       0.31262359
O       -4.69688752       1.27401063      -0.55104362
H       -4.68455291       0.88594790      -1.45068485
H       -2.65882694      -1.23469159      -1.11461465
H       -1.40606981       0.03179782      -1.24893428
H       -0.38991079      -0.38220882       1.65107951
H        0.31483104      -3.05098080       1.32795246
H        1.89683351      -1.50486667      -0.03387926
H        1.81930214       0.85247771      -0.68846008
H        1.90295029       0.78236840       1.96317525
H        1.96158321      -1.64608165       2.59955132
H        4.18731089      -0.50387872       0.42454811
H        4.33876879       0.75132866       1.64806261
H        4.51946060       4.08852765      -0.02553828
H       -3.25281463       0.53408910       0.23342686
H       -5.51848601       0.85358534      -0.22213904
35
Properties=species:S:1:pos:R:3 relative_energy_eV=0.02697568706207676 branch=left pbc="F F F"
O       -7.73884943      -1.60444818      -2.77079428
P       -6.72702084      -0.77681923      -2.03604080
O       -6.96614159      -0.35674794      -0.60331148
O       -5.45166868      -0.32662439      -2.71183374
O       -2.47817594       0.00005627       0.59379177
C       -1.91831578      -0.63926309      -0.53671155
C       -0.86121433      -1.61494446      -0.07264261
O       -0.74493450      -2.73587651      -0.53769251
C        0.09409407      -1.20398939       1.04942513
O        0.34087379      -2.34796823       1.86850181
C        1.40549838      -0.66613633       0.44741174
O        1.01909840       0.28146734      -0.52218063
C        2.34499413      -0.06687923       1.50738984
O        2.68730048      -0.99371965       2.54113531
C        3.65322264       0.38143655       0.88980180
O        3.38978989       1.34597320      -0.11330339
P        4.70905523       2.11078771      -0.85931323
O        5.88483977       1.19000983      -0.80360549
O        4.12717217       2.75087457      -2.08378137
O        4.96822248       3.31880039       0.27268494
O       -4.65516685       1.30304589      -0.53564897
H       -4.63870855       0.92481936      -1.43847529
H       -2.64663212      -1.19772463      -1.13405920
H       -1.39945097       0.07908839      -1.18338466
H       -0.37668760      -0.44189626       1.66516202
H        0.32228434      -3.09919300       1.25257408
H        1.93190074      -1.51700624      -0.01511451
H        1.80709483       0.83069771      -0.70609101
H        1.83858745       0.81201323       1.92748444
H        1.95815051      -1.63026993       2.60316255
H        4.17149880      -0.48090624       0.46718216
H        4.29175552       0.80492604       1.66606138
H        4.43987689       4.06377253      -0.03822357
H       -3.25031519       0.51632610       0.27967048
H       -5.47416876       0.87688913      -0.21165187
35
Properties=species:S:1:pos:R:3 relative_energy_eV=0.0345850743324263 branch=left pbc="F F F"
O       -7.65013937      -1.69101633      -2.67639352
P       -6.70053372      -0.74561025      -2.00223625
O       -6.96364605      -0.25280544      -0.59671331
O       -5.46465058      -0.24892261      -2.71410565
O       -2.49615431      -0.07709221       0.60345866
C       -1.92366563      -0.67343379      -0.54203166
C       -0.85192942      -1.64326829      -0.09846861
O       -0.71345370      -2.75255703      -0.58361724
C        0.09414247      -1.23255118       1.03016728
O        0.36567568      -2.38343499       1.83498560
C        1.39634367      -0.66798380       0.43402130
O        1.01005197       0.26273708      -0.55036424
C        2.30830152      -0.04240893       1.50106093
O        2.62565436      -0.94565352       2.56351942
C        3.62619392       0.40257417       0.90452585
O        3.37536693       1.35343655      -0.11416577
P        4.71015662       2.10058742      -0.84874874
O        5.88042719       1.17633101      -0.75228533
O        4.15763303       2.71765659      -2.09849651
O        4.94944945       3.32785737       0.26752436
O       -4.62964228       1.33660818      -0.49183233
H       -4.60777044       1.00206880      -1.41140798
H       -2.63982384      -1.22319278      -1.16106369
H       -1.41136330       0.07027704      -1.16367688
H       -0.38821865      -0.49159224       1.66194713
H        0.42855636      -3.11556395       1.19941716
H        1.94049824      -1.51424814      -0.01607127
H        1.79994939       0.80361944      -0.74992676
H        1.78604807       0.84102860       1.89220990
H        1.93795624      -1.63114618       2.57031295
H        4.15231511      -0.46054226       0.49631612
H        4.25223046       0.83225905       1.68819542
H        4.41803445       4.06301611      -0.06192681
H       -3.24867051       0.47626718       0.30678469
H       -5.46746526       0.91727233      -0.20333483
35
Properties=species:S:1:pos:R:3 relative_energy_eV=0.04890026007342385 branch=left pbc="F F F"
O       -7.28493613      -1.86043189      -2.48091663
P       -6.51192979      -0.73144362      -1.86698667
O       -6.81959646      -0.25802470      -0.46204838
O       -5.42377368      -0.02777098      -2.64598443
O       -2.64175238      -0.28853292       0.56171090
C       -1.98526987      -0.76173879      -0.59656363
C       -0.85543059      -1.67929572      -0.18196973
O       -0.65375878      -2.76255141      -0.70174165
C        0.05983537      -1.24997554       0.96652562
O        0.34779262      -2.39667872       1.77251620
C        1.36038879      -0.64525754       0.40772488
O        0.96936618       0.29780513      -0.56526299
C        2.24970427      -0.01268174       1.49090038
O        2.53972438      -0.89669691       2.57719875
C        3.58627631       0.41230659       0.91522382
O        3.37473689       1.32015236      -0.15094204
P        4.72742145       2.08121359      -0.83717765
O        5.90759360       1.17813425      -0.67541020
O        4.21842587       2.66980388      -2.11924997
O        4.89956355       3.33382587       0.26554329
O       -4.56897892       1.45719142      -0.40007672
H       -4.57567655       1.17329123      -1.33685726
H       -2.63618302      -1.32271846      -1.27553508
H       -1.51147863       0.05656505      -1.15414606
H       -0.46371408      -0.53010604       1.58984452
H        0.44529339      -3.12801038       1.14148787
H        1.92986803      -1.47115482      -0.04859448
H        1.77116052       0.81395634      -0.78033888
H        1.72081168       0.87548152       1.85830615
H        1.87460220      -1.60295602       2.55891075
H        4.11894382      -0.47191774       0.55877123
H        4.18476897       0.87906270       1.69919244
H        4.43524687       4.08083769      -0.13290413
H       -3.33849986       0.34366805       0.27507685
H       -5.39268940       1.01522017      -0.10864888
35
Properties=species:S:1:pos:R:3 relative_energy_eV=0.060359405222698115 branch=left pbc="F F F"
O       -7.07962977      -1.95374498      -2.35612446
P       -6.44732428      -0.70701963      -1.81331727
O       -6.78424207      -0.22372399      -0.41830945
O       -5.47491472       0.09986462      -2.64556686
O       -2.66949438      -0.38739385       0.53033335
C       -1.98926959      -0.80446819      -0.63468233
C       -0.83712411      -1.69748606      -0.22316723
O       -0.59780510      -2.76943521      -0.75069301
C        0.05120495      -1.25571597       0.94185775
O        0.32561583      -2.39979796       1.75766759
C        1.35355357      -0.64490420       0.39392433
O        0.95950185       0.30431583      -0.57593989
C        2.23107009      -0.00775291       1.48262422
O        2.50834428      -0.88204506       2.57922842
C        3.57293816       0.41472863       0.92127751
O        3.36785418       1.28628730      -0.17620341
P        4.71951298       2.06148314      -0.84427697
O        5.90190891       1.16250973      -0.67922192
O        4.21945523       2.65947400      -2.12502973
O        4.86930343       3.31095160       0.26291057
O       -4.54321602       1.48042440      -0.34610203
H       -4.57398067       1.27023269      -1.30270192
H       -2.62042455      -1.36581572      -1.33185438
H       -1.53880597       0.03858528      -1.17138344
H       -0.47829444      -0.52728339       1.55145595
H        0.44460411      -3.12903352       1.12700425
H        1.92997218      -1.46169450      -0.06929140
H        1.75157298       0.84769352      -0.76119798
H        1.70310907       0.88899097       1.83334509
H        1.81253484      -1.55870021       2.58676761
H        4.13686508      -0.46584717       0.60656987
H        4.14307418       0.91698612       1.70330342
H        4.39799936       4.05093851      -0.14040460
H       -3.32824314       0.29720981       0.27819784
H       -5.37937049       1.04175930      -0.07342184
35
Properties=species:S:1:pos:R:3 relative_energy_eV=0.11203473532077624 branch=left pbc="F F F"
O       -6.88582422      -1.86904192      -2.48534746
P       -6.37477485      -0.62058359      -1.82626976
O       -6.79432504      -0.24373507      -0.42185261
O       -5.42998528       0.31091912      -2.55849140
O       -2.76464236      -0.64809587       0.47007542
C       -1.99747136      -0.88336722      -0.69318819
C       -0.82184530      -1.73491803      -0.26048901
O       -0.56414148      -2.83305241      -0.72213513
C        0.03892418      -1.20682809       0.89314038
O        0.29491282      -2.28842169       1.79747706
C        1.35534488      -0.61586677       0.36621442
O        0.97337148       0.32596040      -0.61274452
C        2.20285482       0.01570965       1.48142575
O        2.45400885      -0.86791205       2.57608903
C        3.56022134       0.45733914       0.97043108
O        3.38809589       1.24749193      -0.18713008
P        4.71647759       2.01277941      -0.90835889
O        5.92881008       1.15152889      -0.76455971
O        4.14836315       2.55127757      -2.18567868
O        4.90400004       3.27785858       0.17512072
O       -4.43774611       1.45506165      -0.21397544
H       -4.53698821       1.24747486      -1.16707162
H       -2.55859862      -1.40835529      -1.47020243
H       -1.58143661       0.04354807      -1.10011757
H       -0.52745595      -0.44866066       1.43043899
H        0.42208878      -3.06198592       1.22609654
H        1.94903279      -1.42987045      -0.07600920
H        1.77942549       0.83539983      -0.82989757
H        1.65924819       0.90934992       1.81805156
H        1.74255824      -1.53404456       2.57828369
H        4.16571739      -0.41816748       0.73992358
H        4.06257947       1.02065085       1.75849226
H        4.24495640       3.93609962      -0.06986143
H       -3.37057600       0.10184428       0.28711189
H       -5.28732131       1.10318936       0.10258317
35
Properties=species:S:1:pos:R:3 relative_energy_eV=0.16257912672153907 branch=left pbc="F F F"
O       -6.68353700      -1.83949077      -2.50367171
P       -6.28960566      -0.56343935      -1.82362461
O       -6.85039498      -0.18747590      -0.47244769
O       -5.32629219       0.39978217      -2.48898423
O       -2.87229294      -0.83762494       0.33957802
C       -2.00892070      -0.93313496      -0.76443883
C       -0.81461083      -1.72330062      -0.27878577
O       -0.52446484      -2.83068506      -0.70916933
C        0.00694394      -1.16459877       0.88795026
O        0.23880433      -2.22541488       1.82156602
C        1.33241767      -0.57855677       0.37649291
O        0.95492843       0.35357336      -0.61556582
C        2.18510691       0.05442867       1.49473259
O        2.47110420      -0.84550883       2.57040692
C        3.53975637       0.48445426       0.96873545
O        3.36718854       1.24574974      -0.20941273
P        4.71347768       1.98302365      -0.91776883
O        5.89412702       1.08626614      -0.73668911
O        4.19996262       2.53536947      -2.21453974
O        4.87336740       3.25894327       0.15546277
O       -4.36622497       1.38460768      -0.05166427
H       -4.49118449       1.24993789      -1.01957309
H       -2.45325420      -1.47530737      -1.59658806
H       -1.66741219       0.04767308      -1.10271203
H       -0.57393788      -0.39410826       1.39303981
H        0.33353704      -3.02309373       1.27362477
H        1.92994140      -1.38921152      -0.06605270
H        1.78359288       0.79382743      -0.89152732
H        1.63324550       0.93340878       1.85605718
H        1.75808146      -1.50923973       2.58475960
H        4.12352866      -0.41230554       0.76125705
H        4.07698836       1.06253371       1.72282966
H        4.20988914       3.89897351      -0.13854164
H       -3.40961172      -0.01834366       0.24042244
H       -5.23638338       1.06886718       0.27241470
35
Properties=species:S:1:pos:R:3 relative_energy_eV=0.23922353552188724 branch=left pbc="F F F"
O       -5.76821720      -1.76991810      -2.54953636
P       -5.61113420      -0.57116867      -1.66257108
O       -6.29452085      -0.49153002      -0.31543538
O       -4.83815707       0.63903144      -2.13800509
O       -3.10601338      -1.10107974      -0.01998412
C       -2.07185848      -0.97441995      -0.98680501
C       -0.93077595      -1.72792621      -0.35676005
O       -0.64531265      -2.87805402      -0.65591595
C       -0.16986518      -1.08889429       0.81254166
O       -0.01262182      -2.08245752       1.82844458
C        1.18608841      -0.55673664       0.31886513
O        0.85793630       0.34940199      -0.71737139
C        2.04351608       0.09571976       1.41661956
O        2.27263034      -0.75927736       2.53618875
C        3.41732667       0.46326813       0.89099533
O        3.28278375       1.28435725      -0.25868362
P        4.70269380       1.94691417      -0.91449088
O        5.84724434       1.04173027      -0.59189874
O        4.31377274       2.42954622      -2.28005244
O        4.83604991       3.27955531       0.09316670
O       -4.29479467       1.30260637       0.53219799
H       -4.32606133       1.46201963      -0.43505266
H       -2.35678297      -1.46603732      -1.91725995
H       -1.79915623       0.06360542      -1.18854751
H       -0.76089045      -0.27084146       1.22237756
H        0.08722599      -2.91599744       1.33906631
H        1.76025972      -1.41070890      -0.07049067
H        1.68328584       0.83097916      -0.92245626
H        1.53149104       1.01477831       1.73032949
H        1.49150863      -1.33148966       2.61504887
H        3.97635515      -0.44087463       0.64182839
H        3.96761703       0.98772599       1.67459233
H        4.34074317       3.97790760      -0.35182941
H       -3.45157234      -0.19671978       0.18223160
H       -5.10292811       0.75556885       0.61621529
35
Properties=species:S:1:pos:R:3 relative_energy_eV=0.25543089821439935 branch=left pbc="F F F"
O       -5.55583689      -1.52354109      -2.72749356
P       -5.42886222      -0.44422340      -1.69167157
O       -6.21102415      -0.50966417      -0.39467890
O       -4.64509867       0.82327058      -1.97339480
O       -3.21877725      -1.26894819      -0.23321246
C       -2.07987739      -1.02024568      -1.05574563
C       -0.97155580      -1.74538860      -0.34064006
O       -0.68613641      -2.91285527      -0.56145567
C       -0.23086168      -1.04848833       0.80871052
O       -0.09351631      -1.99128194       1.87141576
C        1.13944840      -0.55250963       0.30902464
O        0.84315048       0.31731319      -0.76576964
C        1.98392280       0.14526375       1.38751582
O        2.19982863      -0.66343323       2.54406716
C        3.36826416       0.48276412       0.86859819
O        3.27225291       1.29186167      -0.29128393
P        4.71240418       1.93330450      -0.92676725
O        5.84465427       1.02982350      -0.55839730
O        4.34872555       2.38530552      -2.30941727
O        4.83615290       3.30441361       0.02959089
O       -4.21682026       1.07573576       0.80324042
H       -4.19146368       1.37080762      -0.13134321
H       -2.24034261      -1.46350732      -2.03644947
H       -1.86140350       0.04120352      -1.16506639
H       -0.81817551      -0.20172970       1.16595449
H       -0.02529192      -2.85074778       1.42189499
H        1.70502123      -1.43472307      -0.02863642
H        1.67220501       0.79614671      -0.96322084
H        1.45485226       1.07270858       1.64663635
H        1.42265019      -1.23928447       2.63443639
H        3.89461786      -0.44644178       0.64311683
H        3.92599358       1.00064681       1.65009941
H        4.41396364       3.99605024      -0.49494819
H       -3.45575031      -0.41691928       0.21834066
H       -5.04944299       0.55790348       0.76450815
35
Properties=species:S:1:pos:R:3 relative_energy_eV=0.26099146259366535 branch=left pbc="F F F"
O       -5.36655309      -1.12783309      -2.93870350
P       -5.29391125      -0.24271878      -1.73033084
O       -6.17938509      -0.48146279      -0.52403644
O       -4.47146914       1.03095058      -1.73800294
O       -3.25579753      -1.39438156      -0.42501149
C       -2.05041322      -1.06514605      -1.11855907
C       -0.99137163      -1.76149887      -0.30858758
O       -0.74079445      -2.95058474      -0.43356095
C       -0.26578188      -1.01114557       0.81466265
O       -0.16371386      -1.90559094       1.91899484
C        1.12048006      -0.55981958       0.31763634
O        0.86168033       0.20977593      -0.83758732
C        1.93513669       0.21112505       1.36970492
O        2.11237184      -0.52730730       2.57760604
C        3.32880840       0.51807016       0.86127722
O        3.23942204       1.28956394      -0.32457009
P        4.67754599       1.90445368      -0.97799678
O        5.79667676       0.98697504      -0.60333854
O        4.31174853       2.34213869      -2.36515663
O        4.81844916       3.28157791      -0.03111786
O       -4.17211338       0.77485653       1.03772259
H       -4.09361762       1.21204214       0.16348314
H       -2.10423129      -1.49567046      -2.11459064
H       -1.87818703       0.00762123      -1.18991311
H       -0.84627430      -0.13921893       1.12286797
H       -0.11245479      -2.78582125       1.50602250
H        1.69493685      -1.46675890       0.07319088
H        1.68850355       0.69067821      -1.03852792
H        1.41491421       1.15977583       1.55798455
H        1.33508305      -1.10226123       2.67092238
H        3.85808419      -0.41628818       0.66849488
H        3.88248202       1.06116684       1.62807149
H        4.43219984       3.98570621      -0.56519855
H       -3.44117536      -0.65728472       0.20870647
H       -5.02340226       0.31491273       0.88499519
35
Properties=species:S:1:pos:R:3 relative_energy_eV=0.26504278102947865 branch=left pbc="F F F"
O       -5.32759408      -0.92208842      -3.02987055
P       -5.25439182      -0.15047469      -1.74599637
O       -6.15257909      -0.48325088      -0.57247115
O       -4.41942777       1.11035755      -1.63744236
O       -3.25502778      -1.42243805      -0.49668141
C       -2.02697105      -1.08236844      -1.14099528
C       -0.98934448      -1.76919758      -0.29426260
O       -0.74277786      -2.96151177      -0.39397921
C       -0.27699768      -1.00301864       0.82612334
O       -0.19145983      -1.87237995       1.95085629
C        1.11621608      -0.57422064       0.32924501
O        0.87179232       0.15002548      -0.85782242
C        1.91676561       0.23481790       1.36118115
O        2.09329869      -0.46356865       2.59349104
C        3.31151838       0.54447627       0.85626875
O        3.22563555       1.28212386      -0.35059159
P        4.66541183       1.88836373      -1.00992103
O        5.78239304       0.96234422      -0.64982531
O        4.28949121       2.33619064      -2.39056218
O        4.82700947       3.25852372      -0.05819318
O       -4.17413691       0.64957738       1.11369610
H       -4.06926230       1.14410650       0.27321919
H       -2.04179985      -1.51162923      -2.13856259
H       -1.86325857      -0.00869307      -1.20521306
H       -0.85394995      -0.12127438       1.11115383
H       -0.14820191      -2.76199908       1.55857886
H        1.69009719      -1.49048246       0.12343284
H        1.69824277       0.62743967      -1.06741923
H        1.38184016       1.17996667       1.52022662
H        1.32716488      -1.05009337       2.69983255
H        3.85596011      -0.38741091       0.69521893
H        3.84772820       1.11580371       1.61507544
H        4.40385380       3.96165270      -0.56527286
H       -3.43426379      -0.73001424       0.18703319
H       -5.02509537       0.21094530       0.90800144
35
Properties=species:S:1:pos:R:3 relative_energy_eV=0.2666418031367357 branch=left pbc="F F F"
O       -5.29216683      -0.85431705      -3.05158363
P       -5.23327401      -0.11380580      -1.74936688
O       -6.14499598      -0.47688038      -0.59500749
O       -4.40185807       1.14515097      -1.59890849
O       -3.25528674      -1.42651587      -0.51585527
C       -2.01934037      -1.09275195      -1.14870581
C       -0.98958614      -1.78127011      -0.29196399
O       -0.74927721      -2.97564976      -0.37926343
C       -0.28073247      -1.00413931       0.82350681
O       -0.20339447      -1.85921923       1.95948002
C        1.11598604      -0.57954807       0.33256630
O        0.88155923       0.12414318      -0.86815890
C        1.90897292       0.24525915       1.35857187
O        2.08621537      -0.44735667       2.59396758
C        3.30374562       0.55644112       0.85320747
O        3.21895241       1.27818167      -0.36399328
P        4.65992248       1.88280917      -1.02463848
O        5.77350906       0.95121065      -0.66895245
O        4.28340590       2.33726155      -2.40295067
O        4.82831030       3.24671055      -0.06499333
O       -4.17481305       0.60611729       1.14003052
H       -4.07865203       1.12863756       0.31560390
H       -2.02861147      -1.51945810      -2.14825086
H       -1.84824489      -0.01938354      -1.20759888
H       -0.86352497      -0.12108281       1.09209234
H       -0.15458602      -2.75343449       1.57883147
H        1.69433848      -1.49837960       0.14950440
H        1.70462550       0.61178069      -1.06843647
H        1.36985113       1.18947064       1.51207796
H        1.31313676      -1.02366297       2.70578434
H        3.85315735      -0.37454109       0.70548689
H        3.83664834       1.14060180       1.60434130
H        4.39257696       3.95168790      -0.55854566
H       -3.42993617      -0.74387519       0.17918726
H       -5.01875295       0.16040997       0.92048497
35
Properties=species:S:1:pos:R:3 relative_energy_eV=0.2685855383751914 branch=left pbc="F F F"
O       -5.24322474      -0.82091883      -3.05762026
P       -5.21421761      -0.09286574      -1.74700038
O       -6.14296475      -0.46969536      -0.61155950
O       -4.38944795       1.16692905      -1.56888604
O       -3.24884632      -1.42048826      -0.51224128
C       -2.01458724      -1.10122721      -1.15469012
C       -0.98685830      -1.78830839      -0.29537349
O       -0.74879552      -2.98361637      -0.37587986
C       -0.27960791      -1.00620733       0.81670317
O       -0.20657731      -1.85178967       1.96019965
C        1.11830554      -0.58694543       0.32642550
O        0.88479782       0.11291565      -0.87701495
C        1.90150089       0.24705655       1.35243063
O        2.07000987      -0.43087479       2.59657219
C        3.29923072       0.55652045       0.85690867
O        3.21404766       1.28122961      -0.35766494
P        4.64997734       1.88028546      -1.02839579
O        5.76321809       0.94462541      -0.68313813
O        4.26282575       2.33397807      -2.40387787
O        4.83143892       3.24326514      -0.06980267
O       -4.18538417       0.58424502       1.16358817
H       -4.08347810       1.12253854       0.34997403
H       -2.03331089      -1.53782453      -2.14896563
H       -1.83484214      -0.03035298      -1.22602042
H       -0.85834954      -0.11723599       1.07559454
H       -0.14605369      -2.74860149       1.58794854
H        1.69848878      -1.50560238       0.14586897
H        1.70719208       0.60058327      -1.07855725
H        1.35724839       1.19250865       1.48606466
H        1.28765596      -0.99232432       2.71868497
H        3.85137232      -0.37340663       0.70894388
H        3.82630274       1.13802300       1.61454659
H        4.38500225       3.94755404      -0.55454022
H       -3.41316433      -0.73710741       0.18442785
H       -5.02102436       0.13373778       0.92389799
35
Properties=species:S:1:pos:R:3 relative_energy_eV=0.27294553542742506 branch=left pbc="F F F"
O       -5.17582541      -0.79388461      -3.06469351
P       -5.17045570      -0.08356483      -1.74447376
O       -6.11757232      -0.48052490      -0.63080981
O       -4.35383521       1.17763959      -1.53764517
O       -3.23472815      -1.42324526      -0.49957789
C       -2.01001241      -1.10873315      -1.16692866
C       -0.97789866      -1.78851782      -0.30938964
O       -0.72459227      -2.98026215      -0.39871617
C       -0.29027292      -1.00346804       0.81155865
O       -0.22710839      -1.84809540       1.95608477
C        1.11072478      -0.58509583       0.33556373
O        0.89038493       0.09624591      -0.87991930
C        1.89148913       0.25768582       1.35448838
O        2.04765010      -0.40940032       2.60548772
C        3.29078352       0.55172664       0.85285654
O        3.20656033       1.28156502      -0.35903418
P        4.64070227       1.87986768      -1.03646056
O        5.75742656       0.94356081      -0.70332736
O        4.24286709       2.34014916      -2.40689119
O        4.83137906       3.24021324      -0.07556616
O       -4.20979494       0.57666338       1.19793189
H       -4.08705581       1.12089314       0.39187766
H       -2.04309098      -1.56176985      -2.15347923
H       -1.83299472      -0.03830033      -1.25687965
H       -0.87587634      -0.11663808       1.06133128
H       -0.15492065      -2.74579299       1.58859490
H        1.68862469      -1.50811392       0.17373933
H        1.71061352       0.58995048      -1.07580815
H        1.35988120       1.21002709       1.48044206
H        1.26857200      -0.97646029       2.72241742
H        3.82394964      -0.38733343       0.69651334
H        3.83516239       1.12247178       1.60615993
H        4.38330711       3.94599497      -0.55725306
H       -3.39046939      -0.74213281       0.20076404
H       -5.04569356       0.13728188       0.93859270
35
Properties=species:S:1:pos:R:3 relative_energy_eV=0.28315418080455856 branch=left pbc="F F F"
O       -5.09792357      -0.75710726      -3.05623113
P       -5.13660445      -0.05577507      -1.73085207
O       -6.13220512      -0.43952927      -0.65826557
O       -4.30517088       1.18985541      -1.48491057
O       -3.24190054      -1.46225712      -0.49910999
C       -2.01682208      -1.16206039      -1.18190371
C       -0.97424722      -1.81851926      -0.31814496
O       -0.70806402      -3.00837757      -0.39296773
C       -0.28872841      -1.01518268       0.79072526
O       -0.22449815      -1.84991328       1.94260858
C        1.11064470      -0.59306441       0.31315573
O        0.89273132       0.07435202      -0.91265976
C        1.87320953       0.26462477       1.33466473
O        2.03634266      -0.39060604       2.59352630
C        3.27174614       0.57725089       0.84545140
O        3.19780146       1.29888118      -0.37232119
P        4.64846035       1.88799681      -1.02035910
O        5.74540089       0.93549273      -0.66772156
O        4.28519306       2.35979874      -2.39648191
O        4.83145755       3.24126875      -0.04922223
O       -4.24193743       0.63305924       1.25123194
H       -4.13466990       1.14965036       0.42283135
H       -2.06468136      -1.63804900      -2.15711468
H       -1.83216305      -0.09417675      -1.29665240
H       -0.87330382      -0.12728383       1.03323981
H       -0.16709823      -2.75137951       1.58054965
H        1.69322216      -1.51270545       0.15996417
H        1.70971686       0.57351746      -1.10779112
H        1.32111232       1.20707000       1.44768802
H        1.26902435      -0.97271308       2.71186082
H        3.82514109      -0.35159781       0.70484245
H        3.79600112       1.16035708       1.60215295
H        4.43777873       3.96181708      -0.55501458
H       -3.37305141      -0.80228628       0.21804151
H       -5.07403395       0.17819488       1.02274043
35
Properties=species:S:1:pos:R:3 relative_energy_eV=0.2963100555280107 branch=left pbc="F F F"
O       -5.05249083      -0.73095338      -3.04565020
P       -5.12712077      -0.03896622      -1.71779400
O       -6.18423706      -0.39694076      -0.69724933
O       -4.27038021       1.17926476      -1.42927301
O       -3.23972174      -1.47222949      -0.48759942
C       -2.01816586      -1.20991770      -1.19187595
C       -0.97778165      -1.86547340      -0.32519454
O       -0.72976149      -3.06071301      -0.37068250
C       -0.28824838      -1.04113745       0.76568775
O       -0.22129937      -1.85220809       1.93582651
C        1.11251300      -0.60876594       0.28540588
O        0.89612756       0.05424123      -0.94152472
C        1.85448095       0.26626491       1.30501938
O        2.02365697      -0.39362595       2.55878742
C        3.25215986       0.61643153       0.83483550
O        3.19357633       1.31956041      -0.39756599
P        4.67177148       1.90017222      -1.00343961
O        5.74646084       0.93280812      -0.62279222
O        4.36341348       2.38398951      -2.38868000
O        4.84094433       3.24810634      -0.02083539
O       -4.26495940       0.65223485       1.30191608
H       -4.12521681       1.14114764       0.46272479
H       -2.08351830      -1.70489580      -2.15537742
H       -1.81915205      -0.14960772      -1.33100277
H       -0.88465956      -0.15391061       0.99054095
H       -0.15911953      -2.76204981       1.59739961
H        1.71628302      -1.51804571       0.14310590
H        1.70679685       0.56724538      -1.12700011
H        1.27957162       1.19416109       1.42230386
H        1.25962181      -0.98149858       2.67631610
H        3.83767379      -0.29585581       0.72101767
H        3.73900793       1.22743978       1.59629621
H        4.50289186       3.98278030      -0.54605708
H       -3.35846717      -0.80485250       0.22278244
H       -5.13477074       0.26640432       1.09717863
35
Properties=species:S:1:pos:R:3 relative_energy_eV=0.3471002090445836 branch=left pbc="F F F"
O       -4.81826525      -0.60853040      -3.20416892
P       -5.08306043      -0.06893903      -1.82630357
O       -6.20677437      -0.58944127      -0.96412633
O       -4.34007852       1.17474812      -1.35421832
O       -3.28882577      -1.46540771      -0.50721646
C       -2.03531177      -1.18542745      -1.14904582
C       -1.01823860      -1.85560709      -0.26838524
O       -0.80637227      -3.05862991      -0.28516942
C       -0.30218157      -1.01173426       0.78660519
O       -0.23439485      -1.79985546       1.97268830
C        1.09442694      -0.59862897       0.27886902
O        0.85667015       0.09644129      -0.92785429
C        1.87255963       0.24899655       1.29816860
O        2.06824998      -0.41459960       2.54645065
C        3.26652248       0.58320890       0.81484091
O        3.19605054       1.30664856      -0.39992283
P        4.65640627       1.89710030      -1.02861988
O        5.74350738       0.93263867      -0.67851022
O        4.30564054       2.39027371      -2.40016590
O        4.85550536       3.23915572      -0.04469878
O       -4.19578649       0.67354914       1.35862613
H       -4.14589581       1.05215975       0.44686284
H       -2.05119003      -1.64864580      -2.13056080
H       -1.83850057      -0.11761105      -1.24102938
H       -0.89526237      -0.11295819       0.98522278
H       -0.16032858      -2.71417364       1.64401527
H        1.67899471      -1.51890320       0.11400259
H        1.67596546       0.59092880      -1.12261254
H        1.31124915       1.18464532       1.42605404
H        1.30359158      -0.99350604       2.69387709
H        3.84733880      -0.32921612       0.68128353
H        3.76172805       1.17377080       1.58456350
H        4.47886602       3.97257452      -0.54465018
H       -3.41239897      -0.83382526       0.23420118
H       -5.08252472       0.29940502       1.32847921
35
Properties=species:S:1:pos:R:3 relative_energy_eV=0.3896537380715017 branch=left pbc="F F F"
O       -4.51366200      -0.44340065      -3.32991581
P       -5.05750620      -0.08837418      -1.97779921
O       -6.25456260      -0.78337116      -1.38951805
O       -4.52604291       1.15431352      -1.27647357
O       -3.33649124      -1.48255067      -0.56267898
C       -2.05240468      -1.14370991      -1.10528888
C       -1.04686183      -1.79124119      -0.18800958
O       -0.81505108      -2.99009326      -0.19644217
C       -0.30570614      -0.96063961       0.86099612
O       -0.21868830      -1.75047413       2.04391315
C        1.08450425      -0.57183543       0.31793471
O        0.82827715       0.15022694      -0.86655506
C        1.92252353       0.23242988       1.32998321
O        2.11417339      -0.47103394       2.55428530
C        3.31056303       0.52230076       0.79167528
O        3.19591567       1.28335677      -0.39970876
P        4.61965881       1.88825089      -1.09310785
O        5.73073203       0.92909629      -0.80792206
O        4.20020829       2.39390638      -2.44108449
O        4.84624859       3.21735179      -0.09627725
O       -4.09430704       0.60953576       1.34449743
H       -4.25012497       0.97450208       0.43275769
H       -2.00244147      -1.58424635      -2.09760310
H       -1.89235126      -0.06673402      -1.15963984
H       -0.85492152      -0.05040876       1.09810105
H       -0.18636993      -2.66894594       1.72343022
H        1.63466788      -1.50367210       0.11335561
H        1.64983261       0.62996047      -1.09215222
H        1.40674193       1.18838450       1.49920926
H        1.29759267      -0.97495601       2.71137484
H        3.83575240      -0.41383421       0.59321451
H        3.88606572       1.06681600       1.54397595
H        4.40101584       3.94492450      -0.54673479
H       -3.52067406      -0.87622683       0.18656482
H       -4.97842304       0.32099661       1.59919703
35
Properties=species:S:1:pos:R:3 relative_energy_eV=0.40055845065944595 branch=left pbc="F F F"
O       -4.37199313      -0.41899610      -3.33296827
P       -5.04652673      -0.10962470      -2.03043187
O       -6.28074779      -0.84291938      -1.58453129
O       -4.61563947       1.12892172      -1.25434847
O       -3.34351629      -1.45811386      -0.59975951
C       -2.04656671      -1.09053945      -1.09489934
C       -1.05725047      -1.74530741      -0.16028803
O       -0.83060967      -2.94569827      -0.16997577
C       -0.32870785      -0.92058183       0.90735280
O       -0.25126833      -1.71968380       2.08384406
C        1.06411323      -0.55030402       0.36327362
O        0.80292757       0.17037182      -0.82016025
C        1.94773649       0.22954285       1.35199318
O        2.16844445      -0.48541296       2.56677850
C        3.32117216       0.48296076       0.76334034
O        3.18892316       1.25684605      -0.41610053
P        4.59654106       1.87943866      -1.12787633
O        5.72166485       0.92844475      -0.87523540
O        4.14717700       2.39566577      -2.46160369
O        4.82858227       3.19891681      -0.12074994
O       -4.04955689       0.55056298       1.33524606
H       -4.25261919       0.91079516       0.42982239
H       -1.94413320      -1.50715967      -2.09364741
H       -1.89910665      -0.00914251      -1.13109606
H       -0.89160739      -0.01502803       1.13732037
H       -0.22022100      -2.63187010       1.74370636
H        1.59288802      -1.49227550       0.14927278
H        1.62805856       0.64093743      -1.04930941
H        1.46478918       1.19699073       1.54225484
H        1.35793458      -0.98970933       2.74444790
H        3.80260767      -0.47109095       0.54163476
H        3.93758434       1.00331442       1.49699742
H        4.35856614       3.92344642      -0.55042875
H       -3.52250322      -0.88825013       0.17955247
H       -4.91925239       0.28515629       1.65412818
35
Properties=species:S:1:pos:R:3 relative_energy_eV=0.4169302359223366 branch=left pbc="F F F"
O       -4.31645789      -0.41139656      -3.33591336
P       -5.01621530      -0.13277019      -2.04058544
O       -6.24239649      -0.89055106      -1.61443760
O       -4.61206962       1.09893040      -1.24406804
O       -3.32019236      -1.44832199      -0.58211344
C       -2.03141319      -1.05736707      -1.07186576
C       -1.04848650      -1.72104794      -0.14850637
O       -0.81157297      -2.91938906      -0.16547734
C       -0.33869029      -0.90057805       0.92522474
O       -0.27621139      -1.69745881       2.10317320
C        1.04865722      -0.54440428       0.36742012
O        0.77569466       0.17145678      -0.81719367
C        1.94189992       0.22515450       1.34733868
O        2.16292379      -0.51003487       2.55037351
C        3.30947292       0.47101402       0.74499839
O        3.17352025       1.24738719      -0.43367153
P        4.58449026       1.87352959      -1.13516273
O        5.70664728       0.91893776      -0.88050098
O        4.14502779       2.39829694      -2.46874862
O        4.80953898       3.18712076      -0.11778066
O       -4.01645716       0.55220783       1.33228314
H       -4.21700497       0.89847506       0.42035439
H       -1.92906921      -1.43065859      -2.08576116
H       -1.90286415       0.02246514      -1.06377802
H       -0.89500177       0.00998708       1.14756209
H       -0.30045472      -2.61216559       1.76902355
H        1.56831797      -1.48856490       0.14630000
H        1.59823150       0.63744341      -1.06208314
H        1.46593381       1.19370635       1.55055505
H        1.34775049      -1.01025559       2.72264176
H        3.78065016      -0.48689837       0.51740953
H        3.93663093       0.98522106       1.47324249
H        4.35136123       3.91607219      -0.55264863
H       -3.50361234      -0.87237561       0.19256065
H       -4.87069447       0.21743652       1.62739095
35
Properties=species:S:1:pos:R:3 relative_energy_eV=0.4914708539581625 branch=left pbc="F F F"
O       -4.16274886      -0.44920548      -3.24731568
P       -4.91365067      -0.17950345      -1.97807834
O       -6.07450915      -1.02125846      -1.52296488
O       -4.65697292       1.13251420      -1.24024938
O       -3.33476944      -1.40725026      -0.65707723
C       -2.03361710      -1.00092818      -1.09366307
C       -1.10839845      -1.69105289      -0.12694904
O       -0.95308819      -2.90256751      -0.08304288
C       -0.35878177      -0.88373154       0.93179279
O       -0.28959810      -1.68813878       2.10268782
C        1.02550497      -0.54894650       0.35186493
O        0.74800429       0.17782048      -0.82370073
C        1.93184565       0.20857751       1.33171407
O        2.15816446      -0.52733648       2.53194264
C        3.29949550       0.46149804       0.73523441
O        3.16441618       1.24164781      -0.44018018
P        4.57911552       1.86946434      -1.13636372
O        5.69987348       0.91474086      -0.87962500
O        4.14278112       2.39491263      -2.47117102
O        4.80502674       3.18184873      -0.11843544
O       -3.95250943       0.48612968       1.29288810
H       -4.21067607       0.92048390       0.42813312
H       -1.89191912      -1.33382703      -2.11818596
H       -1.90570139       0.08011470      -1.06805303
H       -0.89557747       0.03603422       1.16829280
H       -0.35374290      -2.59807449       1.75371998
H        1.52945823      -1.50037187       0.12026461
H        1.57201415       0.64056052      -1.06730307
H        1.45593589       1.17642703       1.53751523
H        1.34275510      -1.02253201       2.71578181
H        3.78207563      -0.49044394       0.50767693
H        3.91646106       0.97856113       1.47027837
H        4.34830048       3.91316925      -0.55040810
H       -3.54251617      -0.86081756       0.14336541
H       -4.80456689       0.18208495       1.61716975
35
Properties=species:S:1:pos:R:3 relative_energy_eV=0.6197538557462394 branch=ts pbc="F F F"
O       -4.12093860      -0.36820600      -3.18184373
P       -4.79622033      -0.27423875      -1.85143356
O       -6.00159158      -1.06661649      -1.45434045
O       -4.59704785       1.08722426      -1.09619137
O       -3.41212294      -1.24314975      -0.69449876
C       -2.07576492      -0.95673194      -1.08588270
C       -1.17247090      -1.66828612      -0.10600632
O       -1.09100844      -2.88491929      -0.06887627
C       -0.36434386      -0.88389476       0.92769840
O       -0.27380912      -1.69317177       2.09663793
C        1.02246040      -0.54982025       0.34259257
O        0.75172157       0.18611163      -0.82672787
C        1.93171034       0.20584856       1.33076611
O        2.15947728      -0.52925597       2.53176178
C        3.30069743       0.46223429       0.73686127
O        3.16520841       1.24153917      -0.43898357
P        4.57870975       1.86839973      -1.13779108
O        5.70009548       0.91343903      -0.88219457
O        4.13987713       2.39432664      -2.47136714
O        4.80599188       3.18084696      -0.11972795
O       -3.92024644       0.35568371       1.14387452
H       -4.28807283       0.82669485       0.04932803
H       -1.92403158      -1.33904934      -2.09274773
H       -1.87371824       0.11129476      -1.07975956
H       -0.87766296       0.04466732       1.17715111
H       -0.35587964      -2.60283334       1.75672266
H        1.52808188      -1.49998242       0.10797947
H        1.57823913       0.64841174      -1.06299009
H        1.45431962       1.17276476       1.53944608
H        1.34282062      -1.02347503       2.71294094
H        3.78564390      -0.48879367       0.51084237
H        3.91640737       0.98159850       1.47210403
H        4.34347665       3.91005219      -0.54990571
H       -3.58742955      -0.71593877       0.20130042
H       -4.77259763       0.19722907       1.56326666
35
Properties=species:S:1:pos:R:3 relative_energy_eV=0.4038867147100973 branch=right pbc="F F F"
O       -4.12268771      -0.35878436      -3.18241707
P       -4.68978643      -0.38294495      -1.81873443
O       -5.99211914      -1.07028761      -1.42972822
O       -4.60027068       1.10164399      -1.15856129
O       -3.46053779      -1.20747509      -0.82105630
C       -2.09458248      -0.94304799      -1.10108673
C       -1.21192501      -1.67661630      -0.10400984
O       -1.12797624      -2.86313790      -0.06542886
C       -0.37045856      -0.88520610       0.92786350
O       -0.27044313      -1.69519171       2.09108044
C        1.01626756      -0.55183144       0.33907462
O        0.75242382       0.18818452      -0.82644963
C        1.92964500       0.20513930       1.33058697
O        2.15860601      -0.52674330       2.53168165
C        3.29874382       0.46170635       0.73500052
O        3.16487287       1.24237435      -0.43891085
P        4.57970162       1.86883596      -1.13804662
O        5.69995663       0.91431600      -0.88110551
O        4.14111416       2.39588823      -2.47053399
O        4.80561776       3.18097654      -0.11917597
O       -3.85279818       0.20664939       1.18729977
H       -4.32027559       0.93581395      -0.12561118
H       -1.90988005      -1.33181830      -2.08880752
H       -1.85940759       0.12595963      -1.08090941
H       -0.87777660       0.04651201       1.18480320
H       -0.35799687      -2.60521444       1.75480525
H        1.52460740      -1.50028618       0.10767118
H        1.58248266       0.64776878      -1.06176834
H        1.45433938       1.17326482       1.53872883
H        1.34378701      -1.02374397       2.71124471
H        3.78339966      -0.48933977       0.50922900
H        3.91471946       0.98002281       1.47116303
H        4.34499756       3.91007376      -0.55108546
H       -3.69669058      -0.52407214       0.39595109
H       -4.73759101       0.16001503       1.52969972
35
Properties=species:S:1:pos:R:3 relative_energy_eV=-0.1243342535890406 branch=right pbc="F F F"
O       -4.13309399      -0.35621082      -3.25544703
P       -4.65208760      -0.43527810      -1.84845145
O       -5.91891002      -1.08570169      -1.38546300
O       -4.55231949       1.09312547      -1.21978835
O       -3.45939888      -1.20503928      -0.85189319
C       -2.09824784      -0.95439028      -1.14599771
C       -1.23117518      -1.66104772      -0.12361692
O       -1.17155482      -2.87932316      -0.05784174
C       -0.38988968      -0.87875130       0.91378176
O       -0.28821438      -1.69338669       2.07891405
C        1.00487917      -0.55032700       0.33709504
O        0.75008986       0.19014660      -0.83082950
C        1.92284742       0.20273683       1.32668612
O        2.15390889      -0.52666694       2.53129398
C        3.29369234       0.45933828       0.73219510
O        3.16243635       1.24293477      -0.44056496
P        4.57996833       1.86936886      -1.13667847
O        5.69962759       0.91305243      -0.87828314
O        4.14300896       2.39883067      -2.46942481
O        4.80525954       3.18201849      -0.11771671
O       -3.82560936       0.19512775       1.36476940
H       -4.33405442       1.08831768      -0.27150612
H       -1.80612680      -1.30553750      -2.14180856
H       -1.89737097       0.10967519      -1.11092220
H       -0.88851403       0.05214583       1.18646583
H       -0.36279533      -2.60209316       1.73575628
H        1.50635223      -1.50367592       0.10571715
H        1.58251222       0.64577717      -1.05945664
H        1.44886458       1.17176208       1.53350544
H        1.34030029      -1.02709881       2.70861139
H        3.78013793      -0.49069480       0.50523563
H        3.90972804       0.97641023       1.46950126
H        4.34634282       3.91009637      -0.55328874
H       -3.72359137      -0.51003966       0.67699624
H       -4.75492362       0.07380160       1.57491101
35
Properties=species:S:1:pos:R:3 relative_energy_eV=-0.20890041233360535 branch=right pbc="F F F"
O       -4.14480746      -0.42688535      -3.27891262
P       -4.62030356      -0.44444607      -1.85715329
O       -5.88540847      -1.06862102      -1.34556999
O       -4.46694319       1.12264778      -1.30088760
O       -3.42568052      -1.21072699      -0.88067456
C       -2.06615327      -0.92437885      -1.17173203
C       -1.21361704      -1.65245599      -0.14429750
O       -1.17750455      -2.86947238      -0.05697749
C       -0.39140128      -0.87760108       0.90305198
O       -0.29990207      -1.69295671       2.07049010
C        0.99911972      -0.54839204       0.32900058
O        0.74734188       0.19142037      -0.84082428
C        1.91232764       0.20172605       1.31946281
O        2.13821437      -0.53204453       2.52157900
C        3.28377215       0.45573428       0.72788945
O        3.15716233       1.24347904      -0.44284128
P        4.57740855       1.86890772      -1.13451587
O        5.69600057       0.91123943      -0.87334480
O        4.14611099       2.39968929      -2.46815888
O        4.80128049       3.18101917      -0.11401325
O       -3.89331735       0.18591581       1.49287505
H       -4.35039861       1.13115131      -0.33282929
H       -1.79383010      -1.30378028      -2.16399639
H       -1.83509849       0.14690748      -1.12925857
H       -0.90217095       0.05105298       1.15430262
H       -0.39373344      -2.59778343       1.71708409
H        1.49114025      -1.50734933       0.10255757
H        1.57964743       0.64800875      -1.06694696
H        1.43992259       1.17121550       1.52838487
H        1.32314243      -1.03042274       2.69921983
H        3.76848512      -0.49508849       0.49965180
H        3.89726583       0.96931318       1.46885996
H        4.34881348       3.91072933      -0.55381902
H       -3.67520748      -0.52580267       0.85036641
H       -4.82959934       0.02745366       1.65443391
35
Properties=species:S:1:pos:R:3 relative_energy_eV=-0.24556202595704235 branch=right pbc="F F F"
O       -4.14678319      -0.51487998      -3.25895811
P       -4.58519215      -0.44014933      -1.83080168
O       -5.86657436      -1.00281492      -1.29081104
O       -4.38184652       1.13370632      -1.32496775
O       -3.38799697      -1.16369579      -0.83515293
C       -2.03124171      -0.91999710      -1.17645989
C       -1.19204996      -1.65901442      -0.16066815
O       -1.15610296      -2.87755152      -0.08440377
C       -0.39206589      -0.87164989       0.88898168
O       -0.31107536      -1.68428852       2.05616286
C        1.00050588      -0.54599744       0.31609007
O        0.75059962       0.19058990      -0.85612082
C        1.90552947       0.20168768       1.31380947
O        2.12120719      -0.53721056       2.51454782
C        3.27792149       0.45433662       0.72682271
O        3.15314090       1.24463121      -0.44269274
P        4.57467005       1.86771009      -1.13081007
O        5.69107432       0.90883258      -0.86703302
O        4.14850074       2.39934431      -2.46625670
O        4.79588853       3.17920466      -0.10913087
O       -3.96375143       0.17814805       1.54189811
H       -4.37742309       1.11224211      -0.35052348
H       -1.78834052      -1.29254413      -2.17733014
H       -1.78481184       0.14199970      -1.14955881
H       -0.89268188       0.06492858       1.14368728
H       -0.44180553      -2.58578531       1.70577668
H        1.50078986      -1.50149256       0.09201964
H        1.58057384       0.65223192      -1.07924377
H        1.43135526       1.16973852       1.52253556
H        1.30225124      -1.03303827       2.68338772
H        3.75612140      -0.49826268       0.49389118
H        3.89397439       0.96396021       1.46837560
H        4.35133855       3.91138102      -0.55265524
H       -3.69758492      -0.50724525       0.89084543
H       -4.89603591      -0.02965261       1.66720353
35
Properties=species:S:1:pos:R:3 relative_energy_eV=-0.2797170748235658 branch=right pbc="F F F"
O       -4.13517283      -0.57835200      -3.19372737
P       -4.54418450      -0.44458601      -1.76286118
O       -5.82132002      -0.93028180      -1.14414163
O       -4.29206714       1.14676996      -1.34044842
O       -3.34737872      -1.18170811      -0.81068417
C       -2.00117888      -0.94062987      -1.18996706
C       -1.15265304      -1.66326029      -0.18201406
O       -1.08721846      -2.88174349      -0.11333199
C       -0.38335777      -0.86867042       0.86946631
O       -0.32833017      -1.67893148       2.03849688
C        1.01265143      -0.54369094       0.30256372
O        0.76366140       0.19149387      -0.87065225
C        1.90332442       0.20496888       1.30823704
O        2.10050588      -0.53851403       2.50912566
C        3.27863729       0.45495276       0.72909539
O        3.15587561       1.25031050      -0.43756584
P        4.57643105       1.86922406      -1.12461003
O        5.68948739       0.90691820      -0.85842812
O        4.15260175       2.40081998      -2.46086141
O        4.79659069       3.18106396      -0.10320284
O       -4.09153436       0.16103361       1.57440075
H       -4.40621180       1.22509631      -0.37762058
H       -1.79990624      -1.32183017      -2.19254537
H       -1.77247011       0.12108149      -1.17633662
H       -0.89016695       0.06911758       1.10786639
H       -0.50114204      -2.57802002       1.69502975
H        1.51663831      -1.49669926       0.07412318
H        1.59171982       0.65628554      -1.09358789
H        1.42526002       1.17335583       1.51113617
H        1.28146854      -1.04083775       2.66099715
H        3.75329000      -0.49813378       0.49124038
H        3.89961160       0.95706177       1.47099704
H        4.35355715       3.91206663      -0.55004781
H       -3.74759853      -0.45517808       0.89183292
H       -5.00734220      -0.13115046       1.63048253
35
Properties=species:S:1:pos:R:3 relative_energy_eV=-0.3402716583441361 branch=right pbc="F F F"
O       -4.35695799      -0.62135447      -3.08245779
P       -4.55749302      -0.39910735      -1.61703971
O       -5.78484559      -0.80463778      -0.84012905
O       -4.10537470       1.17635248      -1.31580479
O       -3.31183691      -1.14291221      -0.74463285
C       -1.98506769      -1.01034358      -1.22498381
C       -1.09715680      -1.71447108      -0.23523131
O       -0.94633431      -2.92755861      -0.19290301
C       -0.37415929      -0.87912009       0.81296191
O       -0.32095333      -1.64430511       2.00619142
C        1.02693340      -0.53208868       0.29721725
O        0.80066015       0.19915773      -0.87907214
C        1.91711500       0.20925256       1.30754212
O        2.09865936      -0.52835414       2.51291182
C        3.30305451       0.45578971       0.74520678
O        3.19130997       1.26396025      -0.41386892
P        4.60686515       1.88242508      -1.11234134
O        5.72624327       0.92609123      -0.85348230
O        4.17304212       2.40654902      -2.44851412
O        4.83626577       3.20030784      -0.10238326
O       -4.39005485       0.08615726       1.61113048
H       -4.48017547       1.43500574      -0.46017503
H       -1.85326834      -1.47917654      -2.19984156
H       -1.69351210       0.03524755      -1.28338832
H       -0.92247763       0.03463657       1.00482731
H       -0.47259303      -2.55203819       1.68836092
H        1.52704092      -1.48750821       0.10067301
H        1.63474174       0.65572267      -1.08961248
H        1.45269928       1.18380808       1.49852975
H        1.28667146      -1.04834214       2.64375088
H        3.78728372      -0.49402612       0.50369413
H        3.89906422       0.96224837       1.50591988
H        4.36288977       3.92206420      -0.53394679
H       -3.79864399      -0.36389965       0.97128889
H       -5.23755636      -0.29613003       1.30205949
35
Properties=species:S:1:pos:R:3 relative_energy_eV=-0.4251958834938705 branch=right pbc="F F F"
O       -4.42492743      -0.63781604      -3.09090348
P       -4.57253502      -0.38611822      -1.62489156
O       -5.78429098      -0.73004774      -0.79773018
O       -4.17962447       1.19781466      -1.33401095
O       -3.30903906      -1.14444357      -0.76604067
C       -1.98382809      -1.03033284      -1.26143438
C       -1.10730632      -1.71637303      -0.24304231
O       -0.96668515      -2.92755955      -0.18631595
C       -0.38457409      -0.88098790       0.82144957
O       -0.35515316      -1.66003655       2.01689328
C        1.03205146      -0.53757275       0.29373297
O        0.82469403       0.19314892      -0.89128635
C        1.91738782       0.21771174       1.30819970
O        2.11315264      -0.52523016       2.50971427
C        3.30624990       0.46790204       0.74831809
O        3.20201801       1.26430989      -0.41758902
P        4.61895934       1.88478009      -1.10961862
O        5.74065422       0.93229278      -0.84859669
O        4.17681766       2.40496526      -2.44461730
O        4.84484347       3.20233778      -0.09856529
O       -4.46273376       0.02682450       1.66222570
H       -4.48855378       1.40468449      -0.44255843
H       -1.86866321      -1.52448871      -2.22866165
H       -1.67316912       0.00951778      -1.34787330
H       -0.91084399       0.05309825       1.02251303
H       -0.39359764      -2.58217532       1.70377668
H        1.54077375      -1.49098189       0.08511547
H        1.65789992       0.66610038      -1.08699315
H        1.44644759       1.18944157       1.51600553
H        1.30064777      -1.03600740       2.66196556
H        3.79164266      -0.48338424       0.52294419
H        3.91582778       0.96489819       1.50461891
H        4.37088934       3.92502134      -0.52781135
H       -3.76607458      -0.34548245       1.10583114
H       -5.22727907      -0.25640897       1.14769405
35
Properties=species:S:1:pos:R:3 relative_energy_eV=-0.4511550632378203 branch=right pbc="F F F"
O       -4.39473890      -0.65352746      -3.06330657
P       -4.57257358      -0.38798673      -1.60356320
O       -5.79157343      -0.72980740      -0.77939310
O       -4.19299216       1.20536666      -1.33419245
O       -3.30558486      -1.12985052      -0.74669540
C       -1.98783023      -1.02578356      -1.26924099
C       -1.10500850      -1.70321183      -0.25134327
O       -0.98182015      -2.91703235      -0.19461167
C       -0.36952012      -0.87675943       0.81060571
O       -0.33070951      -1.65122474       2.00452199
C        1.04406543      -0.54603547       0.29118066
O        0.81860766       0.19190787      -0.88380824
C        1.92143629       0.20861036       1.31063204
O        2.11211454      -0.53372221       2.51302307
C        3.30530203       0.46971054       0.75086150
O        3.19628844       1.26586965      -0.41634000
P        4.61853707       1.88434657      -1.10624644
O        5.73746954       0.92968096      -0.84000493
O        4.18895946       2.40707774      -2.44448912
O        4.84050209       3.19952623      -0.09101338
O       -4.49722369       0.03257346       1.66011731
H       -4.46615893       1.40940762      -0.42824320
H       -1.88091931      -1.54932952      -2.22191649
H       -1.68780040       0.01293398      -1.39217947
H       -0.89774378       0.05404446       1.01748633
H       -0.38810555      -2.56940849       1.68489581
H        1.55693123      -1.49977824       0.08268156
H        1.65226638       0.65715839      -1.08333629
H        1.43532700       1.17375823       1.50520302
H        1.28210702      -1.01773801       2.66335308
H        3.78198440      -0.48454458       0.51978011
H        3.91083394       0.97891927       1.50192233
H        4.37699629       3.92520717      -0.52594186
H       -3.76110362      -0.36109721       1.16339559
H       -5.22624370      -0.25985926       1.07866343
35
Properties=species:S:1:pos:R:3 relative_energy_eV=-0.46522747596463887 branch=right pbc="F F F"
O       -4.39562813      -0.65941988      -3.03074936
P       -4.56424640      -0.38755977      -1.57074190
O       -5.78218024      -0.74321242      -0.75087506
O       -4.18766969       1.21300415      -1.31887834
O       -3.29633666      -1.10015949      -0.70114553
C       -1.99417349      -1.02932561      -1.26618431
C       -1.09995951      -1.69781090      -0.25831368
O       -0.97631299      -2.91327198      -0.20413606
C       -0.36302492      -0.87374472       0.79957995
O       -0.33409480      -1.65356620       1.99215515
C        1.05000721      -0.54587084       0.27908118
O        0.83345743       0.18343308      -0.90466785
C        1.91942653       0.20721834       1.30255272
O        2.10719910      -0.53199576       2.50734539
C        3.30449564       0.47201836       0.75006030
O        3.19698274       1.26717162      -0.41777575
P        4.62229549       1.88417124      -1.09878497
O        5.73472717       0.92401020      -0.82462128
O        4.20190469       2.41069312      -2.43853167
O        4.83736647       3.19807017      -0.08048747
O       -4.55536685       0.04606532       1.61964744
H       -4.43036811       1.42352993      -0.40371311
H       -1.93220718      -1.58618177      -2.20103732
H       -1.68758066       0.00082489      -1.43335044
H       -0.88207324       0.06334213       0.99986944
H       -0.38281083      -2.57109545       1.66489736
H        1.56064951      -1.49779558       0.07222545
H        1.66243620       0.66220165      -1.09652881
H        1.43120576       1.17003653       1.49886651
H        1.27180057      -1.00047722       2.67354548
H        3.79457154      -0.47586544       0.52352383
H        3.90089492       0.98095473       1.50771808
H        4.38597641       3.92683250      -0.52271187
H       -3.77893475      -0.38096956       1.23188466
H       -5.23035060      -0.27585323       0.98273907
35
Properties=species:S:1:pos:R:3 relative_energy_eV=-0.4697085322404746 branch=right pbc="F F F"
O       -4.38817340      -0.64374037      -3.02747480
P       -4.56532244      -0.38481038      -1.56574343
O       -5.78072426      -0.75561703      -0.74846307
O       -4.19980009       1.21654692      -1.30708063
O       -3.29793216      -1.10049079      -0.69507954
C       -1.99804416      -1.04310341      -1.26540927
C       -1.10037508      -1.70968193      -0.26070420
O       -0.95711382      -2.92289629      -0.20258190
C       -0.37005008      -0.87212761       0.79075865
O       -0.33751720      -1.64668652       1.98573848
C        1.04668056      -0.54718993       0.27144169
O        0.83578233       0.18004405      -0.91396292
C        1.91653851       0.21024588       1.29389958
O        2.10224121      -0.52624828       2.49951238
C        3.30525622       0.47523850       0.75066991
O        3.20102261       1.27083219      -0.41660629
P        4.62836307       1.88603531      -1.09254231
O        5.74006798       0.92521749      -0.81805138
O        4.21132638       2.41198302      -2.43335143
O        4.84321872       3.20104359      -0.07507483
O       -4.57382404       0.06540282       1.61090876
H       -4.39643792       1.40914782      -0.37587990
H       -1.94683880      -1.59202881      -2.20612826
H       -1.67718182      -0.01559118      -1.42459750
H       -0.89674424       0.06238465       0.98744010
H       -0.39328955      -2.56438271       1.65914374
H        1.55704265      -1.50277533       0.07199780
H        1.66691754       0.65579140      -1.10360665
H        1.43209201       1.17687651       1.48437350
H        1.26812667      -0.99680663       2.66522267
H        3.79933099      -0.47145779       0.52700559
H        3.89814901       0.98684788       1.51026862
H        4.39233305       3.92803579      -0.52091114
H       -3.78979937      -0.38446464       1.26474228
H       -5.23324280      -0.27217217       0.96258303
35
Properties=species:S:1:pos:R:3 relative_energy_eV=-0.47235228494537296 branch=right pbc="F F F"
O       -4.37985895      -0.63086168      -3.02056094
P       -4.55957345      -0.38552894      -1.55712361
O       -5.78019675      -0.76376706      -0.75082733
O       -4.19357584       1.21191443      -1.28343837
O       -3.29136151      -1.11025701      -0.69138056
C       -1.99344304      -1.05019560      -1.26893245
C       -1.09456226      -1.71928781      -0.26763146
O       -0.95226169      -2.93209334      -0.20367648
C       -0.37185378      -0.87565498       0.78071393
O       -0.34928769      -1.63998508       1.98257029
C        1.04535912      -0.54597546       0.26783445
O        0.83772157       0.17638106      -0.92130428
C        1.91074268       0.21648529       1.28934254
O        2.08848546      -0.51624007       2.49885055
C        3.30225525       0.47735955       0.74789896
O        3.20518334       1.27060981      -0.42263302
P        4.63591495       1.88901551      -1.09132702
O        5.74700306       0.92973163      -0.80916044
O        4.22658465       2.41720153      -2.43385445
O        4.84963721       3.20243806      -0.07248616
O       -4.58835448       0.07551698       1.61676398
H       -4.36482252       1.39450265      -0.34504651
H       -1.94330402      -1.59952752      -2.20927640
H       -1.67668441      -0.02077857      -1.42804505
H       -0.90370481       0.05747804       0.96387876
H       -0.40747686      -2.56186825       1.66870361
H        1.55545251      -1.50138967       0.07253666
H        1.66974408       0.64864951      -1.11520770
H        1.42320254       1.18295875       1.47535578
H        1.25801311      -0.99866631       2.65052779
H        3.79677346      -0.47024154       0.52594060
H        3.89001659       0.99006468       1.51070229
H        4.40104989       3.93215464      -0.51582603
H       -3.80456689      -0.37653193       1.27087564
H       -5.24617228      -0.26420941       0.96770010
35
Properties=species:S:1:pos:R:3 relative_energy_eV=-0.4745703823646181 branch=right pbc="F F F"
O       -4.38295004      -0.60351487      -3.01875688
P       -4.55403677      -0.38113267      -1.55098269
O       -5.77195326      -0.77237398      -0.74634498
O       -4.17361994       1.20620122      -1.25033658
O       -3.29186212      -1.12961822      -0.70184234
C       -1.99578667      -1.06373190      -1.28080868
C       -1.09784501      -1.72549200      -0.27429471
O       -0.95738638      -2.93765433      -0.20614873
C       -0.37501943      -0.87561694       0.77231421
O       -0.35538257      -1.63004815       1.98123149
C        1.04417777      -0.54774510       0.26160484
O        0.84078159       0.16608602      -0.93341173
C        1.90277316       0.22327385       1.28190259
O        2.07800253      -0.50479172       2.49515137
C        3.29580318       0.48398004       0.74481665
O        3.20784397       1.27380144      -0.42848886
P        4.64619583       1.89093449      -1.08490962
O        5.75538058       0.92997099      -0.80011608
O        4.24735020       2.41913551      -2.43019259
O        4.85038920       3.20351658      -0.06165663
O       -4.59854169       0.08666001       1.62231362
H       -4.33917982       1.37526688      -0.30897905
H       -1.94543942      -1.61774597      -2.21854311
H       -1.68056936      -0.03504948      -1.44808403
H       -0.90626182       0.05989107       0.94835036
H       -0.40781163      -2.55496450       1.67750974
H        1.56235665      -1.50008286       0.07277936
H        1.67311216       0.63918637      -1.12301605
H        1.41350181       1.19012128       1.45977681
H        1.25008053      -0.99254444       2.64604216
H        3.78702178      -0.46701161       0.53297042
H        3.88337585       0.99636138       1.50708593
H        4.41158565       3.93569398      -0.51105225
H       -3.81806466      -0.37595055       1.28272894
H       -5.25594354      -0.25561021       0.97384527
35
Properties=species:S:1:pos:R:3 relative_energy_eV=-0.4780723650401342 branch=right pbc="F F F"
O       -4.39471651      -0.52913599      -3.01353498
P       -4.55014537      -0.36530213      -1.53569144
O       -5.77112830      -0.76551235      -0.73885294
O       -4.13328759       1.19776464      -1.16761128
O       -3.29535377      -1.17206072      -0.72820709
C       -1.99996186      -1.10331896      -1.30827292
C       -1.09547173      -1.74056338      -0.28834496
O       -0.95041600      -2.95094833      -0.19507209
C       -0.37851111      -0.87119228       0.74851661
O       -0.36477833      -1.60744720       1.96960061
C        1.04412858      -0.55187327       0.24339666
O        0.85205274       0.14434744      -0.96514080
C        1.88736562       0.23875892       1.26234084
O        2.05871402      -0.46953968       2.48761813
C        3.28543809       0.49513000       0.74028011
O        3.21197689       1.27104962      -0.44323596
P        4.66227575       1.89154938      -1.06871442
O        5.76355715       0.92808830      -0.76242609
O        4.29318635       2.42958630      -2.41885831
O        4.84914124       3.19902565      -0.03635732
O       -4.60768761       0.11800761       1.61317634
H       -4.29300505       1.32269051      -0.21574837
H       -1.94821231      -1.67392948      -2.23712273
H       -1.69877167      -0.07387857      -1.49630492
H       -0.91072779       0.06657906       0.90902953
H       -0.40307195      -2.53741134       1.67889705
H        1.56283751      -1.51116764       0.08237738
H        1.68293324       0.62267919      -1.14913265
H        1.38873523       1.20424399       1.42504006
H        1.23069624      -0.95473996       2.64211073
H        3.77960528      -0.45727758       0.54206543
H        3.86228618       1.01485322       1.50648204
H        4.43582083       3.93660508      -0.50026356
H       -3.83932552      -0.39130347       1.31678106
H       -5.27410020      -0.24495595       0.98363952
35
Properties=species:S:1:pos:R:3 relative_energy_eV=-0.48198704785318114 branch=right pbc="F F F"
O       -4.40818073      -0.44567805      -2.99859390
P       -4.53727466      -0.34329622      -1.51212438
O       -5.75950767      -0.74353039      -0.71538901
O       -4.07306574       1.18849827      -1.07460837
O       -3.29711259      -1.22565464      -0.76428902
C       -2.00118723      -1.15322198      -1.34137552
C       -1.09291315      -1.76030241      -0.31159480
O       -0.93560806      -2.96780416      -0.20084497
C       -0.39108055      -0.86537296       0.71225666
O       -0.39583595      -1.57827001       1.94793247
C        1.03943541      -0.55579234       0.22334285
O        0.86969448       0.11323721      -1.00403812
C        1.86796311       0.25432482       1.23953243
O        2.02043667      -0.42781159       2.48267610
C        3.27353589       0.50530881       0.73349391
O        3.21741929       1.27257452      -0.45828639
P        4.68425919       1.89406096      -1.04895887
O        5.77458803       0.92496283      -0.72139781
O        4.35210758       2.43752324      -2.40635962
O        4.85144950       3.19910507      -0.00877657
O       -4.63813148       0.13800375       1.63310946
H       -4.24824997       1.27472416      -0.11843916
H       -1.93141983      -1.74988471      -2.25261499
H       -1.70611988      -0.12643121      -1.55201961
H       -0.92910991       0.07451067       0.84071235
H       -0.40850465      -2.51361280       1.67139663
H        1.56054532      -1.51656439       0.08610671
H        1.70192244       0.59317474      -1.17685030
H        1.37098205       1.22541829       1.37291046
H        1.18811215      -0.90541677       2.63852057
H        3.77999151      -0.44448154       0.55166563
H        3.83329809       1.03964499       1.50120809
H        4.46055816       3.94221559      -0.48331776
H       -3.86874543      -0.40319319       1.40907582
H       -5.28217328      -0.24156952       0.98839973
35
Properties=species:S:1:pos:R:3 relative_energy_eV=-0.4842856999821379 branch=right pbc="F F F"
O       -4.40128391      -0.40775088      -2.98433369
P       -4.51998577      -0.33635966      -1.49545835
O       -5.74312728      -0.73886967      -0.70053729
O       -4.03362237       1.17982910      -1.03136288
O       -3.28689267      -1.24584289      -0.77224076
C       -1.99634867      -1.17538404      -1.36268986
C       -1.08421597      -1.77170188      -0.33024995
O       -0.91515006      -2.97647379      -0.20949629
C       -0.39655290      -0.86398400       0.69191735
O       -0.41666455      -1.56125863       1.93645383
C        1.03881702      -0.55872650       0.21420634
O        0.87927484       0.10232993      -1.01867804
C        1.85722981       0.26290341       1.22673069
O        1.99566922      -0.40846459       2.47634524
C        3.26687707       0.51174876       0.73200785
O        3.22301114       1.27347813      -0.46373372
P        4.69405174       1.89389124      -1.04251899
O        5.78041254       0.92398567      -0.70376808
O        4.37153169       2.43701596      -2.40257905
O        4.85156739       3.19788724       0.00031346
O       -4.65976551       0.14019316       1.65637250
H       -4.23495524       1.26097953      -0.07974664
H       -1.93828410      -1.77393874      -2.27381920
H       -1.70618650      -0.14838923      -1.57939314
H       -0.93609742       0.07610393       0.80452225
H       -0.42897464      -2.50024323       1.67386806
H        1.55919362      -1.52168536       0.08968392
H        1.71344043       0.57818433      -1.19362577
H        1.35734106       1.23408862       1.34328833
H        1.15535646      -0.87307967       2.62895037
H        3.77206931      -0.43972018       0.56031558
H        3.82289155       1.04404536       1.50387658
H        4.46539713       3.94254180      -0.47527717
H       -3.88429997      -0.40627011       1.47455574
H       -5.27964643      -0.24166459       0.98856195
35
Properties=species:S:1:pos:R:3 relative_energy_eV=-0.48555322355241515 branch=right pbc="F F F"
O       -4.39001199      -0.39395284      -2.97890864
P       -4.51282668      -0.33315562      -1.49002726
O       -5.73839851      -0.73966803      -0.70101962
O       -4.02894490       1.17965023      -1.01326130
O       -3.28058096      -1.24744276      -0.77333111
C       -1.99248156      -1.17767714      -1.36964836
C       -1.07810719      -1.77531193      -0.34038105
O       -0.90034024      -2.97933502      -0.22667842
C       -0.39847933      -0.86387385       0.68431423
O       -0.42417446      -1.55258304       1.93358737
C        1.03803837      -0.55892950       0.21253286
O        0.88452660       0.09392673      -1.02591236
C        1.85189919       0.26577174       1.22662854
O        1.98471766      -0.39670150       2.48154750
C        3.26453687       0.50853169       0.73638828
O        3.22395202       1.26777064      -0.46041347
P        4.69229570       1.88995535      -1.04278332
O        5.78329947       0.92464348      -0.70637204
O        4.36316571       2.42905165      -2.40268530
O        4.85257932       3.19701466      -0.00441414
O       -4.65458090       0.13699919       1.66111762
H       -4.24449798       1.26059362      -0.06386557
H       -1.94083322      -1.77330546      -2.28255887
H       -1.70054562      -0.15091661      -1.58537399
H       -0.93872285       0.07630216       0.79049224
H       -0.43387261      -2.49317457       1.68033436
H        1.56232463      -1.51940535       0.09376116
H        1.71655286       0.57535053      -1.19544317
H        1.35302859       1.23729181       1.33943244
H        1.14395088      -0.85898081       2.63750992
H        3.76516084      -0.44606200       0.56492308
H        3.81931630       1.04240875       1.50860870
H        4.45208909       3.93615856      -0.47693725
H       -3.87701257      -0.40642451       1.47813674
H       -5.27494425      -0.24512163       0.99316143
35
Properties=species:S:1:pos:R:3 relative_energy_eV=-0.48723005339707015 branch=right pbc="F F F"
O       -4.38669135      -0.36327704      -2.97300998
P       -4.50579725      -0.32028694      -1.48333905
O       -5.72512219      -0.74674523      -0.69497321
O       -4.03432481       1.19107640      -0.99139457
O       -3.26832895      -1.23482651      -0.77698158
C       -1.98548929      -1.17786387      -1.38436764
C       -1.06838879      -1.77568875      -0.35760264
O       -0.88322274      -2.97886867      -0.25116546
C       -0.40077867      -0.86288308       0.67273496
O       -0.44232661      -1.54311169       1.92678741
C        1.04011379      -0.56162470       0.21537159
O        0.89573578       0.08297658      -1.02859997
C        1.84523650       0.27167073       1.22858131
O        1.96941731      -0.37986793       2.48982440
C        3.26054524       0.50704615       0.74517691
O        3.22308391       1.26007436      -0.45474739
P        4.68758932       1.88116837      -1.04502915
O        5.78392484       0.92172984      -0.70981261
O        4.35111689       2.41100175      -2.40653591
O        4.84696047       3.19298714      -0.01308035
O       -4.65086993       0.12871364       1.66825424
H       -4.24362846       1.25151524      -0.03873463
H       -1.94267086      -1.78142948      -2.29217173
H       -1.68908542      -0.15430524      -1.60846489
H       -0.94472531       0.07643640       0.76458243
H       -0.41778315      -2.48543734       1.68372868
H        1.56417752      -1.52424577       0.10812955
H        1.72668612       0.56740389      -1.19548500
H        1.34587896       1.24478997       1.32651149
H        1.12395268      -0.83174816       2.64871072
H        3.75515105      -0.45252145       0.58264872
H        3.81652665       1.04049507       1.51684521
H        4.42628057       3.92481307      -0.47956593
H       -3.86678731      -0.40652080       1.49023942
H       -5.26427771      -0.26324713       0.99939593
35
Properties=species:S:1:pos:R:3 relative_energy_eV=-0.4878607882274082 branch=right pbc="F F F"
O       -4.38846561      -0.34910059      -2.96945295
P       -4.50376519      -0.31498645      -1.47919198
O       -5.72058702      -0.74925940      -0.69123256
O       -4.03449473       1.19516669      -0.98020568
O       -3.26142092      -1.22958947      -0.78199566
C       -1.98079596      -1.17873899      -1.39515670
C       -1.06503772      -1.77545452      -0.36581239
O       -0.87487711      -2.97791572      -0.26055046
C       -0.40308269      -0.86087818       0.66832113
O       -0.44745896      -1.54062663       1.92278628
C        1.03949903      -0.56198257       0.21593340
O        0.90167702       0.07613407      -1.03189888
C        1.84136633       0.27463362       1.22928623
O        1.95695099      -0.37190200       2.49437989
C        3.25863918       0.50769013       0.74793387
O        3.22292429       1.25536650      -0.45567256
P        4.68706557       1.87647792      -1.04611484
O        5.78318663       0.91844925      -0.70563572
O        4.34934491       2.40215763      -2.40894767
O        4.84321509       3.19092032      -0.01718101
O       -4.65163676       0.12129292       1.67735040
H       -4.23879398       1.25255476      -0.02684518
H       -1.94349648      -1.78651883      -2.30066430
H       -1.67957041      -0.15725384      -1.62429847
H       -0.94628510       0.07914145       0.76165777
H       -0.41158947      -2.48300489       1.68242150
H        1.56306203      -1.52541538       0.11483146
H        1.73465950       0.55865668      -1.19442448
H        1.34259261       1.24892959       1.32080534
H        1.10854967      -0.82018022       2.65045084
H        3.75630847      -0.45081971       0.58903723
H        3.81272483       1.04486234       1.51821271
H        4.41568008       3.92061022      -0.48085775
H       -3.86362840      -0.40763215       1.49946287
H       -5.26038084      -0.27238584       1.00572961
35
Properties=species:S:1:pos:R:3 relative_energy_eV=-0.4882807983231032 branch=right pbc="F F F"
O       -4.38677077      -0.34175506      -2.96695232
P       -4.50160111      -0.31050910      -1.47662796
O       -5.71699991      -0.74934613      -0.68954147
O       -4.03742339       1.20019765      -0.97382449
O       -3.25741430      -1.22306609      -0.78028263
C       -1.97853996      -1.17502321      -1.39695498
C       -1.06249625      -1.77287323      -0.36906284
O       -0.86729848      -2.97502413      -0.26878167
C       -0.40366267      -0.86076330       0.66817484
O       -0.44761029      -1.54572556       1.91983347
C        1.03937052      -0.56178779       0.21651390
O        0.90420728       0.07081637      -1.03479600
C        1.83852659       0.27761440       1.22953792
O        1.95071607      -0.36647801       2.49656994
C        3.25617152       0.51109289       0.75139989
O        3.22207740       1.25303899      -0.45584176
P        4.68692722       1.87188805      -1.04616529
O        5.78286231       0.91625234      -0.69892017
O        4.35218596       2.39081549      -2.41244526
O        4.83968376       3.19001738      -0.02163420
O       -4.64452633       0.11103272       1.68282555
H       -4.24101868       1.25477477      -0.02035675
H       -1.94397047      -1.78542828      -2.30052122
H       -1.67626978      -0.15449699      -1.62990635
H       -0.94853826       0.07778951       0.76541465
H       -0.41309170      -2.48705719       1.67489106
H        1.56195504      -1.52661372       0.12201427
H        1.73811110       0.55089677      -1.20062417
H        1.34114128       1.25282553       1.31676800
H        1.10299337      -0.81735099       2.64905602
H        3.75591156      -0.44773740       0.60042423
H        3.80541096       1.05582297       1.51948596
H        4.40755381       3.91514957      -0.48806227
H       -3.85816550      -0.41579582       1.48994545
H       -5.25832899      -0.27379527       1.01090770
35
Properties=species:S:1:pos:R:3 relative_energy_eV=-0.4889329832949443 branch=right pbc="F F F"
O       -4.38507029      -0.31788022      -2.95964877
P       -4.49850599      -0.29893215      -1.46918363
O       -5.71286284      -0.74500211      -0.68410083
O       -4.03444097       1.20747937      -0.95656107
O       -3.25328518      -1.21722336      -0.78173268
C       -1.97725990      -1.17470815      -1.40493083
C       -1.05942150      -1.77292296      -0.37936338
O       -0.86082441      -2.97474821      -0.28397308
C       -0.40567641      -0.86328631       0.66287107
O       -0.45079878      -1.55272677       1.91200713
C        1.03783204      -0.56233047       0.21672247
O        0.90675805       0.05755973      -1.04119089
C        1.82782938       0.28875922       1.22679163
O        1.93722282      -0.34645673       2.49856495
C        3.24883316       0.52168976       0.75750564
O        3.22545577       1.24418737      -0.46111559
P        4.69338664       1.86334158      -1.04383577
O        5.78860467       0.91304842      -0.67988501
O        4.36876031       2.36968186      -2.41720021
O        4.83498939       3.19105535      -0.02934400
O       -4.63347878       0.09542106       1.69345115
H       -4.23700706       1.25425738      -0.00240950
H       -1.94752595      -1.78832624      -2.30699174
H       -1.67195489      -0.15542657      -1.63951109
H       -0.95336229       0.07359293       0.75995277
H       -0.41427469      -2.49284930       1.66228613
H        1.56529093      -1.52531686       0.13306314
H        1.74345645       0.53121162      -1.20913742
H        1.32414361       1.26194967       1.30624617
H        1.09679579      -0.81213180       2.64462186
H        3.75501388      -0.43571059       0.62380587
H        3.79071034       1.07647228       1.52375569
H        4.39948774       3.91059703      -0.50153042
H       -3.85211655      -0.43524876       1.48982093
H       -5.25462588      -0.27967986       1.02264053
35
Properties=species:S:1:pos:R:3 relative_energy_eV=-0.4899014995971811 branch=right pbc="F F F"
O       -4.38654329      -0.29380902      -2.95326102
P       -4.49873194      -0.28166921      -1.46243250
O       -5.71235270      -0.73147141      -0.67817129
O       -4.03387424       1.22221905      -0.94118641
O       -3.25130169      -1.20419887      -0.78254410
C       -1.97841276      -1.16958390      -1.41291081
C       -1.05768941      -1.77695889      -0.39346683
O       -0.86025456      -2.97949834      -0.30583909
C       -0.40625295      -0.87211493       0.65569077
O       -0.45124566      -1.56840606       1.90130238
C        1.03880925      -0.56405145       0.21798738
O        0.91478921       0.04656733      -1.04516846
C        1.81507078       0.30058086       1.22636844
O        1.91640238      -0.31797591       2.50758860
C        3.23905244       0.53711335       0.76711631
O        3.22863280       1.23562327      -0.46555760
P        4.70239043       1.85004512      -1.04157482
O        5.79780047       0.91088220      -0.64992492
O        4.39133144       2.33277966      -2.42654051
O        4.82723995       3.19362187      -0.04638330
O       -4.61671553       0.06532657       1.70770812
H       -4.23363809       1.26474703       0.01349344
H       -1.96010245      -1.78007342      -2.31716234
H       -1.66778707      -0.15170776      -1.64767268
H       -0.95875857       0.06213902       0.75637655
H       -0.40845703      -2.50734818       1.64857522
H        1.57303085      -1.52448170       0.14653592
H        1.75444759       0.51441032      -1.21653736
H        1.30651628       1.27124168       1.29252877
H        1.08841598      -0.80812976       2.64351625
H        3.75025167      -0.42064613       0.65896497
H        3.76718244       1.11297142       1.52705822
H        4.38869825       3.90400013      -0.52953889
H       -3.83659213      -0.46285552       1.49405945
H       -5.23927401      -0.29989239       1.03346362
35
Properties=species:S:1:pos:R:3 relative_energy_eV=-0.4906877232933766 branch=right pbc="F F F"
O       -4.38134198      -0.27144923      -2.94830494
P       -4.49813880      -0.26807315      -1.45781354
O       -5.71366132      -0.71942287      -0.67796288
O       -4.03137321       1.23270231      -0.92826542
O       -3.25300157      -1.19584579      -0.77845674
C       -1.98279902      -1.16230894      -1.41363998
C       -1.05908874      -1.77865683      -0.40284077
O       -0.86350389      -2.98202407      -0.32539243
C       -0.40446062      -0.88104948       0.64992471
O       -0.44600044      -1.58320828       1.89220131
C        1.04013840      -0.56655859       0.21574851
O        0.92109698       0.03841693      -1.05025201
C        1.80533226       0.30872507       1.22419240
O        1.89770710      -0.29808281       2.51137145
C        3.23242102       0.54758088       0.77659529
O        3.22714775       1.23008789      -0.46546118
P        4.70481496       1.83773201      -1.03747168
O        5.79714946       0.90720268      -0.61831082
O        4.40745684       2.29702729      -2.43334352
O        4.81652192       3.19707915      -0.06289380
O       -4.59557193       0.03543208       1.71597072
H       -4.22780096       1.26778065       0.02676097
H       -1.97070086      -1.76777220      -2.32083784
H       -1.67059914      -0.14409584      -1.64432730
H       -0.95990777       0.05069484       0.75783318
H       -0.40194611      -2.52149230       1.63813813
H        1.58005591      -1.52419782       0.15035011
H        1.76026001       0.51076798      -1.21294765
H        1.29286337       1.27872826       1.27741613
H        1.07237429      -0.79368184       2.64286681
H        3.75337878      -0.40730087       0.68750356
H        3.74886781       1.13720143       1.53448515
H        4.38203797       3.89729608      -0.56398129
H       -3.81302751      -0.47953557       1.48060368
H       -5.22462300      -0.32030351       1.04300333
35
Properties=species:S:1:pos:R:3 relative_energy_eV=-0.49122416367026744 branch=right pbc="F F F"
O       -4.38364306      -0.26096485      -2.94738725
P       -4.49916694      -0.26063467      -1.45685888
O       -5.71416944      -0.70983260      -0.67591035
O       -4.02779390       1.23970874      -0.92700555
O       -3.25458763      -1.18999240      -0.77969030
C       -1.98411379      -1.15448088      -1.41360623
C       -1.06089713      -1.77766005      -0.40663073
O       -0.86549655      -2.98156082      -0.33641803
C       -0.40452881      -0.88662888       0.65066426
O       -0.44617648      -1.59650165       1.88838459
C        1.04020187      -0.56875452       0.21704026
O        0.91778310       0.03760316      -1.04849509
C        1.79916749       0.31091037       1.22602096
O        1.88494650      -0.28791868       2.51780325
C        3.22812774       0.55319392       0.78496164
O        3.22679113       1.22698715      -0.46194263
P        4.70671872       1.82909130      -1.03416232
O        5.79831411       0.90613133      -0.59639462
O        4.41635947       2.26693320      -2.43833956
O        4.81037854       3.20411133      -0.08083012
O       -4.57680045       0.00639012       1.72740935
H       -4.22739091       1.27986645       0.02649127
H       -1.97212581      -1.75257064      -2.32582880
H       -1.66981734      -0.13517086      -1.63545904
H       -0.95865487       0.04531072       0.76420794
H       -0.39170831      -2.53222334       1.62685298
H        1.58455427      -1.52405857       0.15221264
H        1.75501730       0.51211429      -1.21449017
H        1.28061941       1.27810856       1.26818772
H        1.06144398      -0.78759599       2.64654077
H        3.75403989      -0.39976859       0.70367732
H        3.73705454       1.15021312       1.54283274
H        4.37920067       3.89592629      -0.59659111
H       -3.79138003      -0.49110781       1.46294045
H       -5.21018932      -0.33577868       1.05227423
35
Properties=species:S:1:pos:R:3 relative_energy_eV=-0.49170873108232627 branch=right pbc="F F F"
O       -4.38881152      -0.24266052      -2.94330935
P       -4.49842213      -0.24808056      -1.45261260
O       -5.71080292      -0.69795159      -0.66877905
O       -4.02439758       1.25099564      -0.92014358
O       -3.25172281      -1.17931680      -0.78244877
C       -1.98222803      -1.14418539      -1.41812723
C       -1.05993951      -1.77632775      -0.41528108
O       -0.86273504      -2.98049709      -0.35444699
C       -0.40692809      -0.89281816       0.64960386
O       -0.44501453      -1.61050850       1.88256041
C        1.03624365      -0.56932193       0.21788426
O        0.91361974       0.03311851      -1.04948231
C        1.78708152       0.31772498       1.22742762
O        1.86583541      -0.27172904       2.52399103
C        3.21825406       0.56145368       0.79554834
O        3.22554810       1.22425976      -0.45651140
P        4.70916181       1.81716617      -1.02978851
O        5.80092377       0.90888478      -0.56333268
O        4.42952120       2.22309504      -2.44558128
O        4.80219366       3.21175511      -0.10573700
O       -4.54921555      -0.03076737       1.73979246
H       -4.21915175       1.29013003       0.03341755
H       -1.97287530      -1.73617648      -2.33413208
H       -1.66566004      -0.12452862      -1.63469071
H       -0.96329074       0.03692759       0.76942882
H       -0.38216340      -2.54388825       1.61559425
H        1.58342758      -1.52295336       0.15293454
H        1.75202316       0.50419437      -1.21663272
H        1.26668966       1.28411213       1.26231769
H        1.04625440      -0.77826169       2.64916960
H        3.74647223      -0.39113596       0.72955766
H        3.71860537       1.16621413       1.55250558
H        4.37802541       3.89273018      -0.64093249
H       -3.76564188      -0.51707000       1.45010580
H       -5.18880190      -0.35518746       1.06259175
35
Properties=species:S:1:pos:R:3 relative_energy_eV=-0.49269572454795707 branch=right pbc="F F F"
O       -4.39697637      -0.23729055      -2.94449320
P       -4.50248523      -0.23345423      -1.45364178
O       -5.71065872      -0.67959103      -0.66204564
O       -4.02968496       1.27081383      -0.93178493
O       -3.25245072      -1.15905775      -0.78151944
C       -1.98216201      -1.11976474      -1.41547076
C       -1.06268154      -1.76740868      -0.42074557
O       -0.86498766      -2.97231488      -0.38089521
C       -0.41252836      -0.89927814       0.65800044
O       -0.44145347      -1.63397618       1.88095123
C        1.02812981      -0.56150948       0.22651669
O        0.90324722       0.04710488      -1.03745618
C        1.77393983       0.32483391       1.23837585
O        1.84999244      -0.26579297       2.53464170
C        3.20710605       0.56740346       0.81080593
O        3.22010660       1.21942629      -0.44625417
P        4.70510498       1.79898794      -1.02544403
O        5.79435769       0.90988512      -0.51748864
O        4.43604298       2.15510989      -2.45704090
O        4.78360112       3.22595695      -0.14961075
O       -4.48550228      -0.09382936       1.74388880
H       -4.21168132       1.31371270       0.02243827
H       -1.97160369      -1.70021527      -2.33852095
H       -1.66255688      -0.09855811      -1.61808284
H       -0.97709955       0.02312806       0.79660908
H       -0.36910840      -2.56345842       1.60434065
H        1.58173990      -1.51128743       0.15913856
H        1.74734802       0.50588935      -1.21204265
H        1.25024811       1.28973550       1.27172856
H        1.03570891      -0.78191509       2.65507681
H        3.73648487      -0.38539476       0.75309891
H        3.70342261       1.17954104       1.56462820
H        4.38014461       3.89050441      -0.72055983
H       -3.71360913      -0.56557737       1.40210697
H       -5.14741739      -0.38296285       1.07321126
35
Properties=species:S:1:pos:R:3 relative_energy_eV=-0.49354817250423366 branch=right pbc="F F F"
O       -4.39768375      -0.24639653      -2.94773225
P       -4.50485698      -0.23112731      -1.45683176
O       -5.71366676      -0.66935687      -0.66174543
O       -4.02956840       1.27669461      -0.94659752
O       -3.25429597      -1.15190626      -0.77738603
C       -1.98371237      -1.11244906      -1.41234994
C       -1.06236450      -1.76148467      -0.41947069
O       -0.85787398      -2.96548268      -0.38470237
C       -0.41668767      -0.89601589       0.66375428
O       -0.44619689      -1.63775606       1.88221962
C        1.02384161      -0.55553939       0.23509158
O        0.89702206       0.05637380      -1.02682860
C        1.77356053       0.32592194       1.24904723
O        1.85103198      -0.27049105       2.54282710
C        3.20488895       0.56735969       0.81479808
O        3.21267862       1.21890739      -0.44344712
P        4.69888285       1.79326813      -1.02661115
O        5.78746130       0.90733573      -0.51154228
O        4.43482776       2.14078876      -2.46163485
O        4.77350720       3.22708028      -0.16114915
O       -4.45694640      -0.12357265       1.74520681
H       -4.21254585       1.32926502       0.00613452
H       -1.97532158      -1.68996330      -2.33744007
H       -1.66551366      -0.09013489      -1.61280081
H       -0.98136310       0.02637801       0.80266094
H       -0.37281678      -2.56540895       1.59832971
H        1.57832809      -1.50423786       0.16299037
H        1.74240235       0.51298541      -1.20138109
H        1.25458870       1.29255077       1.28931018
H        1.04071144      -0.79435860       2.65663035
H        3.73279903      -0.38518401       0.75254684
H        3.70962793       1.17766355       1.56451393
H        4.37865681       3.88434416      -0.74662934
H       -3.69116128      -0.58320068       1.37438735
H       -5.13016325      -0.39345411       1.07829140
35
Properties=species:S:1:pos:R:3 relative_energy_eV=-0.4941917853357154 branch=right pbc="F F F"
O       -4.40110707      -0.24544306      -2.94644750
P       -4.50361089      -0.22727950      -1.45529125
O       -5.71253046      -0.65648426      -0.65562894
O       -4.01737982       1.27855895      -0.95039358
O       -3.25666679      -1.15413145      -0.77774117
C       -1.98754951      -1.11887776      -1.41627622
C       -1.06307325      -1.75968671      -0.42166054
O       -0.85258780      -2.96269842      -0.38541953
C       -0.42145816      -0.88954865       0.66062142
O       -0.45081591      -1.62852641       1.88067429
C        1.01933027      -0.55024993       0.23442324
O        0.89460298       0.06211653      -1.02756893
C        1.77063154       0.32800098       1.24958478
O        1.85210365      -0.27250128       2.54144533
C        3.20207414       0.56730823       0.81439910
O        3.21264114       1.21941055      -0.44339269
P        4.70065962       1.79191016      -1.02385338
O        5.78615411       0.90542810      -0.50346558
O        4.44154626       2.13778692      -2.46014121
O        4.77273597       3.22838742      -0.16291122
O       -4.45136557      -0.14491879       1.75424382
H       -4.19387050       1.33528735       0.00275914
H       -1.98143529      -1.70480349      -2.33621393
H       -1.66975406      -0.09814703      -1.62575132
H       -0.98646648       0.03288859       0.79724947
H       -0.38303419      -2.55727715       1.59895357
H        1.57021791      -1.50125979       0.16506420
H        1.73770771       0.52399952      -1.19937317
H        1.25306260       1.29527150       1.29594292
H        1.04408142      -0.79952027       2.65594148
H        3.72786381      -0.38662717       0.75332704
H        3.70660998       1.17698257       1.56437804
H        4.38645718       3.88526682      -0.75440612
H       -3.68255861      -0.59857013       1.38049944
H       -5.12113818      -0.40265632       1.07888854
35
Properties=species:S:1:pos:R:3 relative_energy_eV=-0.4947878663006122 branch=right pbc="F F F"
O       -4.39985129      -0.24620305      -2.94600152
P       -4.50554036      -0.22112185      -1.45534420
O       -5.71771139      -0.64544800      -0.65799905
O       -4.01581526       1.28525319      -0.95523729
O       -3.25956339      -1.14560137      -0.77070785
C       -1.99220728      -1.12235211      -1.41374209
C       -1.06361246      -1.75822094      -0.41896637
O       -0.84748909      -2.96019332      -0.38303100
C       -0.42276782      -0.88665622       0.66207713
O       -0.45287526      -1.62345374       1.88390769
C        1.01887828      -0.54954633       0.23343166
O        0.89356700       0.06746257      -1.02647944
C        1.77154103       0.32669666       1.24953839
O        1.85356596      -0.27652238       2.54003576
C        3.20377111       0.56857392       0.81701089
O        3.21507578       1.21848635      -0.44185332
P        4.70184034       1.79009092      -1.02657877
O        5.78982236       0.90590328      -0.50809338
O        4.43585123       2.13313854      -2.46201577
O        4.77984129       3.22523758      -0.16501472
O       -4.43877264      -0.16856361       1.75572487
H       -4.19251691       1.34676761      -0.00253069
H       -1.99258048      -1.71763022      -2.32736390
H       -1.67217605      -0.10507728      -1.63620707
H       -0.98749682       0.03647181       0.79602738
H       -0.38719924      -2.55259218       1.60308840
H        1.57017237      -1.49999929       0.15873536
H        1.73593696       0.53255979      -1.19421415
H        1.25232339       1.29359784       1.29497332
H        1.04363512      -0.80069868       2.65486551
H        3.73184092      -0.38476697       0.75975552
H        3.70373231       1.18179828       1.56768184
H        4.38031398       3.88314608      -0.74614589
H       -3.67468347      -0.60944026       1.35907569
H       -5.11677264      -0.41169999       1.08405630
35
Properties=species:S:1:pos:R:3 relative_energy_eV=-0.4953623138644616 branch=right pbc="F F F"
O       -4.39670986      -0.24805463      -2.94672825
P       -4.50455357      -0.21888288      -1.45630736
O       -5.71889993      -0.63741560      -0.65919700
O       -4.01199362       1.28749658      -0.95941082
O       -3.26212422      -1.14517511      -0.76670530
C       -1.99621049      -1.13546603      -1.41253460
C       -1.06616579      -1.76225729      -0.41380295
O       -0.84993625      -2.96393978      -0.36836754
C       -0.42499809      -0.88041398       0.65906105
O       -0.45765697      -1.60480035       1.88844467
C        1.01648050      -0.54492383       0.22870557
O        0.88781557       0.08285931      -1.02569930
C        1.77490668       0.32296549       1.24925487
O        1.85711173      -0.28796108       2.53568051
C        3.20682401       0.56515667       0.81456999
O        3.21581626       1.22395061      -0.43980002
P        4.70225341       1.79451676      -1.02675328
O        5.79107780       0.90268983      -0.52288037
O        4.42970816       2.14901780      -2.45820039
O        4.78931408       3.22253730      -0.15332262
O       -4.43360775      -0.17492562       1.75333837
H       -4.18511787       1.34885412      -0.00606221
H       -2.00293003      -1.74363932      -2.31745561
H       -1.67212240      -0.12230292      -1.64745020
H       -0.98687847       0.04522986       0.78467778
H       -0.39076288      -2.53688926       1.61875727
H        1.56394329      -1.49674286       0.14523000
H        1.73310030       0.54141320      -1.19634280
H        1.25858568       1.29095687       1.30165287
H        1.03820833      -0.79835803       2.65257525
H        3.73427992      -0.38781428       0.74859618
H        3.71099489       1.17172142       1.56803369
H        4.38325092       3.88462124      -0.72526860
H       -3.67532226      -0.62461271       1.35368301
H       -5.11560353      -0.41001440       1.08248741
35
Properties=species:S:1:pos:R:3 relative_energy_eV=-0.4956062178898719 branch=right pbc="F F F"
O       -4.39285877      -0.24831639      -2.94522395
P       -4.50277007      -0.21666619      -1.45498449
O       -5.71794204      -0.63325307      -0.65845425
O       -4.01181226       1.29132432      -0.96026109
O       -3.26031606      -1.14159245      -0.76281059
C       -1.99632800      -1.14063317      -1.41265636
C       -1.06689613      -1.76540547      -0.41216583
O       -0.85262995      -2.96717499      -0.36083132
C       -0.42458871      -0.87932088       0.65614763
O       -0.45692943      -1.59939390       1.88806981
C        1.01680500      -0.54306270       0.22536309
O        0.88733591       0.08453366      -1.02913497
C        1.77497425       0.32368412       1.24716382
O        1.85711500      -0.28892804       2.53260907
C        3.20691864       0.56514127       0.81387379
O        3.21607670       1.22325377      -0.44079195
P        4.70210272       1.79503883      -1.02674873
O        5.78844946       0.89810485      -0.52676178
O        4.43061189       2.15830048      -2.45616427
O        4.79206584       3.21952268      -0.14827594
O       -4.43430370      -0.18186986       1.75761808
H       -4.18515361       1.35442113      -0.00735566
H       -2.00797744      -1.75183201      -2.31542557
H       -1.66728658      -0.13062718      -1.65436521
H       -0.98878227       0.04547744       0.77741978
H       -0.38973724      -2.53245989       1.62147296
H        1.56603870      -1.49375821       0.14173887
H        1.73349208       0.54081737      -1.20085937
H        1.25973229       1.29199863       1.30056645
H        1.03543176      -0.79443144       2.65199492
H        3.73341013      -0.38827049       0.74894092
H        3.71015633       1.17116070       1.56847290
H        4.38171668       3.88369276      -0.71483397
H       -3.67749383      -0.63035211       1.35406636
H       -5.11654987      -0.40972649       1.08504621
