16
Properties=species:S:1:pos:R:3 relative_energy_eV=0.0 branch=left pbc="F F F"
O       -2.50397137       0.93182403      -0.33221975
C       -1.37117877       0.08325906      -0.42207637
C       -0.16170282       0.85194594      -0.95560050
O        0.94741498       0.00538800      -1.15230912
P        2.04180365       0.01743175       0.12919708
O        1.17312493      -0.05009767       1.37684944
O        3.08249274       1.05865950      -0.11750171
O        2.71074941      -1.48166002      -0.10381000
C       -1.14363360      -0.61661246       0.91243738
O       -1.83763363      -0.30976811       1.87318851
H       -0.43598487       1.28960633      -1.91829357
H        0.06277818       1.66805715      -0.26568472
H        2.23110445      -2.09084985       0.46916747
H       -1.58602328      -0.72514245      -1.13713324
H       -0.50210356      -1.50324280       0.90018181
H       -2.72622229       0.92770346       0.61736570
16
Properties=species:S:1:pos:R:3 relative_energy_eV=6.714584742439911e-05 branch=left pbc="F F F"
O       -2.50537985       0.93216437      -0.33172122
C       -1.37249417       0.08362542      -0.42248949
C       -0.16217477       0.85110876      -0.95571635
O        0.94607918       0.00318589      -1.15215564
P        2.04151678       0.01680292       0.12833551
O        1.17224077      -0.05172264       1.37543824
O        3.08098953       1.05962778      -0.11728090
O        2.71186557      -1.48187866      -0.10439219
C       -1.14382327      -0.61684492       0.91160016
O       -1.83586272      -0.30935310       1.87355837
H       -0.43548113       1.29058673      -1.91777034
H        0.06359881       1.66571993      -0.26502442
H        2.23673807      -2.08915687       0.47428947
H       -1.58750522      -0.72464759      -1.13779262
H       -0.50312416      -1.50453150       0.89672338
H       -2.72616927       0.93181530       0.61815653
16
Properties=species:S:1:pos:R:3 relative_energy_eV=0.00016162254178198054 branch=left pbc="F F F"
O       -2.50666248       0.93231366      -0.33284993
C       -1.37326308       0.08475278      -0.42241734
C       -0.16205417       0.85175465      -0.95397644
O        0.94494765       0.00238341      -1.15279898
P        2.04118490       0.01538921       0.12749741
O        1.17376993      -0.05702563       1.37553733
O        3.07924663       1.05981566      -0.11720137
O        2.71160888      -1.48223353      -0.10796927
C       -1.14515017      -0.61679807       0.91054755
O       -1.83531888      -0.30838590       1.87339326
H       -0.43583254       1.29372771      -1.91462978
H        0.06505591       1.66587911      -0.26286997
H        2.24399570      -2.08883744       0.47755862
H       -1.58688427      -0.72263041      -1.13821693
H       -0.50725614      -1.50616316       0.89508186
H       -2.72637377       0.93255990       0.61707242
16
Properties=species:S:1:pos:R:3 relative_energy_eV=0.0003299528070783708 branch=left pbc="F F F"
O       -2.50543737       0.93513117      -0.33163101
C       -1.37365547       0.08550931      -0.42355028
C       -0.16212438       0.85241200      -0.95431288
O        0.94349096       0.00175040      -1.15256685
P        2.03934380       0.01414119       0.12680011
O        1.17286142      -0.05948365       1.37561380
O        3.07489163       1.06042068      -0.12057031
O        2.71280721      -1.48262950      -0.10841123
C       -1.14630295      -0.61784760       0.90962747
O       -1.83381348      -0.30754384       1.87390436
H       -0.43418546       1.29462471      -1.91523578
H        0.06555790       1.66551984      -0.26230060
H        2.25481623      -2.08770733       0.48596848
H       -1.59110020      -0.72044612      -1.14025193
H       -0.51196928      -1.50994806       0.89198995
H       -2.72416644       0.93259872       0.61868523
16
Properties=species:S:1:pos:R:3 relative_energy_eV=0.00042875579674728215 branch=left pbc="F F F"
O       -2.50389818       0.93642219      -0.32962384
C       -1.37410899       0.08464297      -0.42388293
C       -0.16288537       0.85030332      -0.95684609
O        0.94257006      -0.00136411      -1.15266082
P        2.03914450       0.01517026       0.12588640
O        1.17379011      -0.05706737       1.37559632
O        3.07218681       1.06306017      -0.12531351
O        2.71277745      -1.48245313      -0.10487479
C       -1.14604148      -0.61952342       0.90907160
O       -1.83404284      -0.30826561       1.87273962
H       -0.43556070       1.29024573      -1.91915009
H        0.06429092       1.66532677      -0.26653862
H        2.25834160      -2.08282562       0.49709467
H       -1.59329086      -0.72097637      -1.14082819
H       -0.51190287      -1.51257902       0.89213713
H       -2.72035596       0.93638483       0.62095199
16
Properties=species:S:1:pos:R:3 relative_energy_eV=0.0005931679625064135 branch=left pbc="F F F"
O       -2.50178026       0.93979213      -0.32554145
C       -1.37400496       0.08508662      -0.42399751
C       -0.16276560       0.84799028      -0.96066649
O        0.94201726      -0.00516255      -1.15505535
P        2.03648029       0.01625011       0.12523208
O        1.17092581      -0.05469503       1.37505030
O        3.06810315       1.06557121      -0.12689327
O        2.71117274      -1.48166919      -0.10140431
C       -1.14458478      -0.61965316       0.90822400
O       -1.83346996      -0.31063966       1.87205992
H       -0.43411606       1.28576918      -1.92390832
H        0.06398565       1.66536819      -0.27309684
H        2.26279921      -2.08142798       0.50641500
H       -1.59504972      -0.71990508      -1.14104299
H       -0.51074526      -1.51219665       0.89220560
H       -2.71795325       0.93602293       0.62617867
16
Properties=species:S:1:pos:R:3 relative_energy_eV=0.0018462792031641584 branch=left pbc="F F F"
O       -2.49186057       0.95918560      -0.31099810
C       -1.37041166       0.09783474      -0.41895163
C       -0.15895721       0.85045554      -0.96404937
O        0.93967468      -0.01185996      -1.15563949
P        2.03410786       0.01141139       0.12330202
O        1.17106754      -0.06162395       1.37425238
O        3.05931721       1.06743573      -0.12305507
O        2.71590599      -1.48292049      -0.10052863
C       -1.14466650      -0.62083005       0.90756533
O       -1.84169175      -0.32788375       1.87110427
H       -0.43220242       1.27903872      -1.92997893
H        0.07178213       1.67183964      -0.28419966
H        2.26905127      -2.07881527       0.51069172
H       -1.59850389      -0.70334712      -1.13890091
H       -0.51141096      -1.51438634       0.87980919
H       -2.73018756       0.92096726       0.63333569
16
Properties=species:S:1:pos:R:3 relative_energy_eV=0.003690567860758165 branch=left pbc="F F F"
O       -2.47829976       0.98018303      -0.29537899
C       -1.37081776       0.10393287      -0.41151703
C       -0.15867655       0.84587663      -0.97543374
O        0.94018117      -0.01880655      -1.15760184
P        2.03094125       0.01400007       0.12585128
O        1.16109813      -0.06154793       1.37300622
O        3.05370479       1.07269148      -0.12407702
O        2.71498309      -1.48104304      -0.09397862
C       -1.14486157      -0.62863406       0.90517384
O       -1.84796853      -0.35393631       1.86955353
H       -0.43690547       1.25906920      -1.94899875
H        0.08595464       1.68064696      -0.31518535
H        2.28106829      -2.06704956       0.53652758
H       -1.61523793      -0.69214194      -1.13032035
H       -0.50334021      -1.51377296       0.87231864
H       -2.73080929       0.91703336       0.64381982
16
Properties=species:S:1:pos:R:3 relative_energy_eV=0.0061141748701629695 branch=left pbc="F F F"
O       -2.47196366       0.99365298      -0.27898973
C       -1.37137336       0.10801895      -0.41380735
C       -0.15835881       0.84110945      -0.98777627
O        0.94160518      -0.02252635      -1.15527279
P        2.02283630       0.01658762       0.13182881
O        1.15228088      -0.05341765       1.37764789
O        3.04838262       1.07261084      -0.11514798
O        2.70629087      -1.47581828      -0.08500648
C       -1.13685608      -0.63147020       0.90112284
O       -1.84250776      -0.36630894       1.86696798
H       -0.43975724       1.23407577      -1.96641602
H        0.08530458       1.68941874      -0.34550862
H        2.29898750      -2.06784310       0.55701293
H       -1.63977143      -0.68719381      -1.13062086
H       -0.48877669      -1.51509892       0.85747668
H       -2.72530844       0.92070368       0.66024858
16
Properties=species:S:1:pos:R:3 relative_energy_eV=0.009788921575818677 branch=left pbc="F F F"
O       -2.45504765       1.02058252      -0.25056703
C       -1.38003216       0.11137534      -0.41203604
C       -0.16395420       0.82214038      -1.01004707
O        0.93900856      -0.04525920      -1.15188308
P        2.01682461       0.02500565       0.14240912
O        1.14460240      -0.01299534       1.38854601
O        3.03764760       1.08131920      -0.12086825
O        2.71221978      -1.46837453      -0.04734496
C       -1.12555486      -0.64230484       0.88507531
O       -1.82429717      -0.39647366       1.86009196
H       -0.44329798       1.18954472      -2.00115348
H        0.07905273       1.68862794      -0.39081957
H        2.31004279      -2.05782537       0.59924864
H       -1.68450305      -0.67028014      -1.12571333
H       -0.47387383      -1.52040616       0.82209089
H       -2.70782259       0.93182289       0.68673157
16
Properties=species:S:1:pos:R:3 relative_energy_eV=0.013860201004717965 branch=left pbc="F F F"
O       -2.44324078       1.04052067      -0.21870650
C       -1.38762335       0.11494021      -0.41623062
C       -0.17204179       0.79456650      -1.04461353
O        0.92936584      -0.08029413      -1.14069908
P        2.01136894       0.04305981       0.14791968
O        1.13084463       0.03780189       1.38962561
O        3.03072533       1.09479827      -0.14753688
O        2.71516276      -1.45519436       0.00627861
C       -1.11554102      -0.64398861       0.87639956
O       -1.81520990      -0.42547435       1.85873776
H       -0.44299062       1.12074151      -2.05238623
H        0.06605939       1.68182769      -0.45689114
H        2.31836768      -2.02629013       0.67446583
H       -1.72368976      -0.66360521      -1.12070107
H       -0.45446333      -1.51232448       0.79271954
H       -2.66607810       0.93541124       0.72538156
16
Properties=species:S:1:pos:R:3 relative_energy_eV=0.01744512686127564 branch=left pbc="F F F"
O       -2.44380106       1.04726114      -0.20705061
C       -1.39258875       0.12057102      -0.41616280
C       -0.17255722       0.79525512      -1.04857490
O        0.92212630      -0.09031902      -1.12334682
P        2.01124817       0.04226026       0.15522621
O        1.13911141       0.02888568       1.40099998
O        3.02431399       1.09530992      -0.15220735
O        2.71464091      -1.45117830       0.01578784
C       -1.11304690      -0.64745678       0.86782210
O       -1.80333493      -0.43834451       1.85793389
H       -0.43940973       1.09827299      -2.06653716
H        0.05980409       1.69758799      -0.47617032
H        2.31322875      -2.01769514       0.68453448
H       -1.72912729      -0.65714382      -1.12382611
H       -0.44531921      -1.50820311       0.76741315
H       -2.66427255       0.94143292       0.73792161
16
Properties=species:S:1:pos:R:3 relative_energy_eV=0.022363214011420496 branch=left pbc="F F F"
O       -2.43713346       1.05538167      -0.18942816
C       -1.39904965       0.11886981      -0.41485515
C       -0.17912213       0.77259629      -1.06390626
O        0.91285666      -0.11623708      -1.11995540
P        1.99890970       0.05298420       0.15483278
O        1.12722968       0.06249443       1.40336274
O        3.00113171       1.10443225      -0.19040110
O        2.72349585      -1.43673705       0.06402701
C       -1.10045456      -0.65496477       0.85914743
O       -1.79069941      -0.46111937       1.85202655
H       -0.42592683       1.05107684      -2.08954207
H        0.06509141       1.68818852      -0.52323605
H        2.29901007      -1.97885711       0.73856705
H       -1.75350120      -0.65222062      -1.11752501
H       -0.42457966      -1.50801194       0.74950483
H       -2.63624148       0.95861806       0.76114587
16
Properties=species:S:1:pos:R:3 relative_energy_eV=0.028928508640092332 branch=left pbc="F F F"
O       -2.43344092       1.05247783      -0.17313368
C       -1.39946946       0.11277866      -0.41974051
C       -0.17824964       0.74008553      -1.09588075
O        0.90858066      -0.15855880      -1.12114009
P        1.99266547       0.07191796       0.14852298
O        1.11700352       0.12451159       1.39298452
O        2.97775255       1.12546840      -0.23771314
O        2.72253743      -1.41762899       0.12991709
C       -1.08851240      -0.66114143       0.85592543
O       -1.79062745      -0.48394728       1.84437007
H       -0.43812433       0.98986477      -2.12615901
H        0.07854792       1.66861210      -0.58430956
H        2.28804664      -1.92480802       0.82597803
H       -1.79119223      -0.65637338      -1.10617803
H       -0.39884236      -1.50668550       0.75192373
H       -2.58565756       0.97991695       0.78840125
16
Properties=species:S:1:pos:R:3 relative_energy_eV=0.0359409452721593 branch=left pbc="F F F"
O       -2.40229421       1.06517743      -0.16268546
C       -1.40294053       0.09704448      -0.41615458
C       -0.18183517       0.70742177      -1.11696677
O        0.90556370      -0.19544788      -1.12626404
P        1.98464160       0.09340865       0.14077948
O        1.10358843       0.18934146       1.37721640
O        2.96297152       1.13877592      -0.28075244
O        2.71902684      -1.39067646       0.18791303
C       -1.09075708      -0.67755190       0.85299767
O       -1.78819149      -0.51272644       1.84517116
H       -0.45121432       0.94526988      -2.15256144
H        0.08838309       1.64285678      -0.61925571
H        2.28192709      -1.88356977       0.89212930
H       -1.81409973      -0.66643801      -1.09704904
H       -0.38679066      -1.50449352       0.74807209
H       -2.54696032       1.00809495       0.80118138
16
Properties=species:S:1:pos:R:3 relative_energy_eV=0.04085864598164335 branch=left pbc="F F F"
O       -2.38789679       1.07427290      -0.15091684
C       -1.40380909       0.09035746      -0.41959797
C       -0.18496423       0.68352224      -1.13055215
O        0.90600384      -0.21254101      -1.13222237
P        1.97494963       0.10551258       0.13330597
O        1.07994585       0.23574145       1.35810116
O        2.96054061       1.13618469      -0.30790586
O        2.71971253      -1.37143044       0.22202823
C       -1.08882374      -0.67827146       0.85652642
O       -1.79501581      -0.51469625       1.84432353
H       -0.44988466       0.90911311      -2.16576202
H        0.08431775       1.62084551      -0.64461314
H        2.28716172      -1.85190437       0.93728106
H       -1.82674899      -0.67559126      -1.09463126
H       -0.37690710      -1.50332023       0.75354028
H       -2.51756209       1.00869019       0.81486800
16
Properties=species:S:1:pos:R:3 relative_energy_eV=0.043449598848383175 branch=left pbc="F F F"
O       -2.38367186       1.07336113      -0.15105074
C       -1.40214201       0.08589112      -0.41852645
C       -0.18319439       0.67434883      -1.13633615
O        0.91183532      -0.21794660      -1.13265382
P        1.97666450       0.11033795       0.13140756
O        1.06919327       0.25390575       1.34604229
O        2.96615400       1.13261713      -0.31930333
O        2.71886634      -1.36592698       0.23167503
C       -1.08743385      -0.67999775       0.85693539
O       -1.80183073      -0.52001273       1.83914117
H       -0.45288121       0.88992916      -2.17330884
H        0.07125062       1.61910593      -0.65278926
H        2.29238934      -1.83320469       0.95811587
H       -1.83631131      -0.68133427      -1.08329474
H       -0.37465903      -1.50435637       0.76153913
H       -2.50320930       1.01976649       0.81618093
16
Properties=species:S:1:pos:R:3 relative_energy_eV=0.047399120583577314 branch=left pbc="F F F"
O       -2.38248669       1.06562462      -0.15482485
C       -1.40441140       0.07650062      -0.41749018
C       -0.19319007       0.66812425      -1.14377291
O        0.91159782      -0.21228908      -1.13838480
P        1.98126288       0.11777432       0.12106849
O        1.07246411       0.26767307       1.33342838
O        2.98365500       1.13236135      -0.32244745
O        2.71701654      -1.36283293       0.24499438
C       -1.08827562      -0.68313269       0.86217659
O       -1.81150740      -0.52254857       1.83803887
H       -0.45403027       0.86596991      -2.18605848
H        0.05765320       1.61980050      -0.67070065
H        2.30150243      -1.81505875       0.98814606
H       -1.84988540      -0.69094384      -1.07311454
H       -0.37195476      -1.50549278       0.77737100
H       -2.48839030       1.03495281       0.81534533
16
Properties=species:S:1:pos:R:3 relative_energy_eV=0.051039067257079296 branch=left pbc="F F F"
O       -2.39104994       1.06163366      -0.15498258
C       -1.41002887       0.07076081      -0.41962756
C       -0.19517170       0.66028751      -1.15296852
O        0.92160904      -0.20406115      -1.14572399
P        1.98793405       0.12112613       0.12032462
O        1.08099847       0.27722915       1.33268770
O        2.99675821       1.12844222      -0.32434372
O        2.71379941      -1.36388337       0.24963688
C       -1.09674498      -0.68581477       0.86751725
O       -1.82019052      -0.52154497       1.84243703
H       -0.46545142       0.84823313      -2.19506661
H        0.04762938       1.61941645      -0.69373241
H        2.31010256      -1.79594804       1.01127083
H       -1.85389810      -0.70171804      -1.07456311
H       -0.36826880      -1.50137841       0.79298058
H       -2.47700645       1.04370139       0.81792982
16
Properties=species:S:1:pos:R:3 relative_energy_eV=0.054584864315984305 branch=left pbc="F F F"
O       -2.38764837       1.05408791      -0.15723896
C       -1.40902075       0.06378670      -0.41685260
C       -0.19685989       0.65521388      -1.15611580
O        0.92577133      -0.20179297      -1.14521115
P        1.98982067       0.12470472       0.12555672
O        1.08566855       0.28281453       1.34054849
O        3.00169087       1.12541234      -0.32641085
O        2.70544475      -1.36694365       0.24439118
C       -1.10004108      -0.68619078       0.86506540
O       -1.82577383      -0.52469356       1.83762870
H       -0.48323591       0.83676459      -2.19717730
H        0.04409672       1.62135021      -0.70688193
H        2.31534260      -1.78186831       1.02191463
H       -1.84806838      -0.71076582      -1.07079763
H       -0.36847077      -1.49215269       0.79863629
H       -2.46769600       1.05675401       0.81672153
16
Properties=species:S:1:pos:R:3 relative_energy_eV=0.05983426669990877 branch=left pbc="F F F"
O       -2.39228864       1.03964325      -0.16119748
C       -1.40412429       0.05906177      -0.41893542
C       -0.20153664       0.65435180      -1.15698201
O        0.91931134      -0.20010017      -1.14332689
P        1.98184478       0.12610306       0.12425801
O        1.08391093       0.28370437       1.34405378
O        2.99861613       1.12680896      -0.31749252
O        2.68565878      -1.36925529       0.23649486
C       -1.09496970      -0.68319742       0.86929469
O       -1.82979382      -0.51362152       1.83464100
H       -0.49668851       0.82092916      -2.19530571
H        0.04183811       1.62128129      -0.71549422
H        2.32296584      -1.77472736       1.03169046
H       -1.83680004      -0.71589034      -1.07594750
H       -0.35370407      -1.48508985       0.80496177
H       -2.44321961       1.06647887       0.81306432
16
Properties=species:S:1:pos:R:3 relative_energy_eV=0.06986787302957964 branch=left pbc="F F F"
O       -2.40242485       1.03410198      -0.18010616
C       -1.40753428       0.05244629      -0.41914041
C       -0.20707742       0.65599202      -1.15947173
O        0.91630449      -0.19749253      -1.14649883
P        1.96958594       0.12319177       0.12638331
O        1.07211892       0.28863289       1.34516917
O        2.97638334       1.13675417      -0.30566249
O        2.65748702      -1.38280023       0.22527472
C       -1.08318224      -0.68450774       0.87580114
O       -1.81475336      -0.52382130       1.84359743
H       -0.49954686       0.81373593      -2.20174531
H        0.02944991       1.62860705      -0.71842825
H        2.33200566      -1.77456497       1.04300579
H       -1.81951605      -0.74064346      -1.06713448
H       -0.33304827      -1.47996604       0.81778838
H       -2.40523122       1.10681414       0.79494530
16
Properties=species:S:1:pos:R:3 relative_energy_eV=0.08321557519229827 branch=left pbc="F F F"
O       -2.40653804       1.00923401      -0.17598173
C       -1.40318461       0.04411694      -0.42210954
C       -0.21022093       0.65617751      -1.17010071
O        0.91750319      -0.19013522      -1.15391610
P        1.95535080       0.12156566       0.12889595
O        1.05546419       0.28561832       1.34611465
O        2.95849078       1.14088248      -0.30091423
O        2.64302244      -1.38999732       0.22360684
C       -1.07481183      -0.67426253       0.87932083
O       -1.80339107      -0.52745141       1.85205443
H       -0.48142573       0.82808759      -2.21530094
H        0.02069327       1.62710682      -0.72638670
H        2.33965556      -1.78311179       1.04977831
H       -1.81556146      -0.76019614      -1.05972011
H       -0.32938693      -1.46448868       0.82508871
H       -2.38463882       1.13333347       0.79334811
16
Properties=species:S:1:pos:R:3 relative_energy_eV=0.14126982967354706 branch=left pbc="F F F"
O       -2.44309113       0.98852619      -0.15699760
C       -1.40456434       0.05957788      -0.42267164
C       -0.20607117       0.66215540      -1.19723499
O        0.90974451      -0.20634107      -1.16219621
P        1.93986333       0.11537083       0.13328157
O        1.04554914       0.27605941       1.35486684
O        2.94428221       1.13094237      -0.29766949
O        2.62830102      -1.38305922       0.23216139
C       -1.07130529      -0.65756625       0.88731843
O       -1.81985342      -0.46295958       1.83875507
H       -0.44671719       0.85577934      -2.25512902
H        0.03183447       1.63647414      -0.76142938
H        2.35927660      -1.80127237       1.05598399
H       -1.79680910      -0.77130068      -1.02271105
H       -0.30747193      -1.44344765       0.82336957
H       -2.38194676       1.05754045       0.82408072
16
Properties=species:S:1:pos:R:3 relative_energy_eV=0.3979938306983968 branch=left pbc="F F F"
O       -2.42288434       1.02256349      -0.11501231
C       -1.41636445       0.09397116      -0.45274895
C       -0.23649462       0.70368543      -1.22012229
O        0.85244152      -0.22688973      -1.11549940
P        1.92962622       0.09802366       0.13500430
O        1.06705112       0.29497682       1.38338689
O        2.93516034       1.10979124      -0.29252119
O        2.65005468      -1.40035051       0.23422494
C       -1.01361857      -0.55885883       0.85982869
O       -1.82674471      -0.42445158       1.77544633
H       -0.43830467       0.87808913      -2.28952366
H        0.10277707       1.67266614      -0.82445720
H        2.37942072      -1.81018368       1.06311539
H       -1.77580736      -0.88204231      -0.94523361
H       -0.35276931      -1.42285046       0.82979530
H       -2.45252243       0.90833827       0.84809572
16
Properties=species:S:1:pos:R:3 relative_energy_eV=0.7013244987210783 branch=left pbc="F F F"
O       -2.48542566       0.97516014      -0.08191000
C       -1.47049390       0.11383332      -0.49164606
C       -0.20980736       0.70845649      -1.22531535
O        0.85527546      -0.24087387      -1.13220418
P        1.92468756       0.07404081       0.11930751
O        1.01252915       0.26602422       1.31247515
O        2.94230309       1.09719938      -0.24105211
O        2.67746902      -1.39663491       0.24863564
C       -1.01680511      -0.53493320       0.83693627
O       -1.75649564      -0.25344055       1.77371048
H       -0.41827013       0.82831904      -2.29653193
H        0.13273208       1.66954320      -0.81183339
H        2.39119361      -1.81040452       1.06892474
H       -1.78800587      -0.76932431      -1.10602960
H       -0.35331986      -1.36771416       0.93758558
H       -2.45654518       0.69722674       0.96272631
16
Properties=species:S:1:pos:R:3 relative_energy_eV=1.3245616393942328 branch=left pbc="F F F"
O       -2.53488324       0.96972738      -0.12569049
C       -1.48130140       0.15334848      -0.48185891
C       -0.17470006       0.69744806      -1.22938293
O        0.88660078      -0.26718562      -1.14124959
P        1.93942909       0.06847866       0.10201803
O        1.00169771       0.24106302       1.30824270
O        2.96641102       1.09692939      -0.26199642
O        2.68939697      -1.39987750       0.24785525
C       -1.05099951      -0.50972160       0.84157544
O       -1.79586858      -0.16658581       1.79091217
H       -0.40438012       0.77248996      -2.29570260
H        0.14669822       1.66739081      -0.82575630
H        2.40042981      -1.80655176       1.07135810
H       -1.76755616      -0.63483848      -1.20291976
H       -0.34231616      -1.32008131       0.96649913
H       -2.49763710       0.49444412       1.10987518
16
Properties=species:S:1:pos:R:3 relative_energy_eV=1.437216615631769 branch=left pbc="F F F"
O       -2.47161153       1.06730702      -0.26595681
C       -1.42447428       0.26156495      -0.44627897
C       -0.15076993       0.69130079      -1.22910280
O        0.87877956      -0.27129281      -1.08474922
P        1.98072318       0.08347452       0.11744372
O        1.13811529       0.26219327       1.38792661
O        2.96854324       1.08243869      -0.37723158
O        2.68077478      -1.41317284       0.22448816
C       -1.11149985      -0.46594498       0.82021500
O       -1.97091895      -0.30206834       1.75867843
H       -0.42024285       0.73281164      -2.28207646
H        0.17740359       1.68335749      -0.91252824
H        2.40914005      -1.79444655       1.06551883
H       -1.68125443      -0.64575334      -1.04931236
H       -0.39298943      -1.26708526       0.87939151
H       -2.62869721       0.35179387       1.26735324
16
Properties=species:S:1:pos:R:3 relative_energy_eV=1.5339881732834328 branch=left pbc="F F F"
O       -2.44949733       1.09445629      -0.30291530
C       -1.41144834       0.27936368      -0.42274090
C       -0.14956499       0.68799744      -1.22558483
O        0.88258858      -0.26510950      -1.06285576
P        1.98985695       0.08535156       0.12616441
O        1.18118887       0.26750056       1.41403790
O        2.96920931       1.08162842      -0.41689394
O        2.67706921      -1.41917309       0.21582741
C       -1.09576864      -0.41742840       0.85819985
O       -2.03389155      -0.36521354       1.73931481
H       -0.42473687       0.72941614      -2.28073103
H        0.18780914       1.68543956      -0.94129769
H        2.41096103      -1.79084284       1.06426858
H       -1.66718988      -0.67089713      -1.03004267
H       -0.42188127      -1.25637149       0.83658470
H       -2.66368287       0.33036053       1.30244355
16
Properties=species:S:1:pos:R:3 relative_energy_eV=1.6690019415618735 branch=left pbc="F F F"
O       -2.40426421       1.17383187      -0.34223217
C       -1.40834088       0.33535573      -0.43738767
C       -0.14346098       0.70891763      -1.23192699
O        0.84657142      -0.27068657      -1.03416053
P        1.99762699       0.09342123       0.13549114
O        1.24914195       0.29490353       1.45038873
O        2.95930591       1.07133333      -0.44670196
O        2.67090548      -1.41986083       0.20812944
C       -1.16602580      -0.46283074       0.77536406
O       -2.10196941      -0.44798583       1.67069713
H       -0.44308580       0.72729044      -2.28248758
H        0.21095918       1.71124922      -0.96953642
H        2.41210060      -1.78792463       1.05946775
H       -1.60573242      -0.75797026      -0.84467746
H       -0.42364512      -1.23776629       0.81207446
H       -2.66906575       0.32520050       1.35127721
16
Properties=species:S:1:pos:R:3 relative_energy_eV=1.8356481663431623 branch=ts pbc="F F F"
O       -2.39467085       1.18365939      -0.35585882
C       -1.38222060       0.39943925      -0.40516519
C       -0.14909580       0.71118833      -1.23424135
O        0.83253831      -0.27344156      -1.03364839
P        1.99791194       0.09659982       0.14515948
O        1.26405819       0.30234101       1.45562319
O        2.95866811       1.07003527      -0.45252526
O        2.67120365      -1.42113912       0.20530228
C       -1.20016135      -0.50715233       0.70245527
O       -2.11195475      -0.45412926       1.65867793
H       -0.44610857       0.72458842      -2.28695282
H        0.20597896       1.71413091      -0.97393235
H        2.41120923      -1.78550388       1.05873663
H       -1.59016839      -0.88188028      -0.69293682
H       -0.39885177      -1.20063700       0.83750312
H       -2.66833336       0.32191429       1.37180398
16
Properties=species:S:1:pos:R:3 relative_energy_eV=1.035046582979703 branch=right pbc="F F F"
O       -2.39876779       1.19341773      -0.37539007
C       -1.33129190       0.51241063      -0.34483599
C       -0.14557597       0.71197619      -1.23681829
O        0.82670831      -0.27214402      -1.03856907
P        1.99691320       0.09578376       0.14962651
O        1.27877313       0.30908819       1.45751459
O        2.96029738       1.07087768      -0.45712126
O        2.67212426      -1.42149671       0.20349997
C       -1.24436314      -0.58214255       0.58622801
O       -2.13299739      -0.45795609       1.65092383
H       -0.44936974       0.72391705      -2.28807850
H        0.20542653       1.71823560      -0.98111583
H        2.40945407      -1.78380713       1.05810457
H       -1.58819983      -1.04613570      -0.50410090
H       -0.36833662      -1.14699046       0.85660691
H       -2.67180970       0.31851395       1.38974815
16
Properties=species:S:1:pos:R:3 relative_energy_eV=0.7341372335249616 branch=right pbc="F F F"
O       -2.32436230       1.18577761      -0.43272893
C       -1.30731934       0.47112679      -0.35054206
C       -0.09274471       0.72830930      -1.22357637
O        0.90470095      -0.23710477      -1.08633639
P        2.02419986       0.10831975       0.13764099
O        1.29280591       0.33096677       1.44221011
O        2.97611719       1.08262965      -0.47205297
O        2.67636866      -1.41753240       0.19981415
C       -1.30089991      -0.62308001       0.60809656
O       -2.26097790      -0.56937678       1.63430276
H       -0.46994380       0.74175163      -2.25030344
H        0.29245050       1.75997520      -1.03954411
H        2.40353192      -1.78567709       1.04778792
H       -1.75335778      -1.08010214      -0.36111488
H       -0.35096215      -1.02971148       0.87075305
H       -2.69062188       0.27727783       1.40181728
16
Properties=species:S:1:pos:R:3 relative_energy_eV=0.4322482809620851 branch=right pbc="F F F"
O       -2.30277297       1.14925439      -0.53036082
C       -1.28032090       0.50742405      -0.31394104
C       -0.04173808       0.70243695      -1.20996456
O        1.01600042      -0.21286326      -1.14772504
P        2.12805288       0.14127607       0.08421822
O        1.31499261       0.37425378       1.32979377
O        3.13391800       1.12019278      -0.44212521
O        2.75518397      -1.39463556       0.19657491
C       -1.39544698      -0.63700776       0.58963388
O       -2.31997833      -0.53852906       1.64854027
H       -0.45767875       0.71542198      -2.22496613
H        0.32076791       1.72517405      -1.02840869
H        2.39048548      -1.76281495       1.01275146
H       -1.86377123      -1.12549853      -0.30508104
H       -0.48441406      -1.04500451       0.98825606
H       -2.89429300       0.22447530       1.47903147
16
Properties=species:S:1:pos:R:3 relative_energy_eV=0.29141130885182065 branch=right pbc="F F F"
O       -2.25195867       1.19328223      -0.58143643
C       -1.26378274       0.49008164      -0.34021422
C       -0.01118318       0.69292638      -1.20756016
O        1.06380020      -0.18847227      -1.15520176
P        2.18854388       0.16705467       0.07491688
O        1.34210294       0.41848814       1.30140844
O        3.23383963       1.09403587      -0.45472592
O        2.83130974      -1.35440937       0.19953264
C       -1.46257622      -0.62985457       0.63181793
O       -2.40800345      -0.50074120       1.69973689
H       -0.43233544       0.69654477      -2.21486464
H        0.30888761       1.72657230      -1.01441774
H        2.38518090      -1.73979564       0.96155390
H       -1.92289820      -1.23192686      -0.21405029
H       -0.55545032      -1.09542674       0.98778197
H       -3.02648825       0.20520158       1.45195352
16
Properties=species:S:1:pos:R:3 relative_energy_eV=0.1948151334436261 branch=right pbc="F F F"
O       -2.22151541       1.19160839      -0.55649934
C       -1.26061666       0.45729033      -0.33622141
C       -0.01484954       0.65958151      -1.19564116
O        1.07487662      -0.19907699      -1.09772118
P        2.23959582       0.19734211       0.08673932
O        1.42954526       0.48550064       1.32536262
O        3.27968483       1.08867462      -0.51579229
O        2.89632821      -1.31817367       0.23048435
C       -1.50620154      -0.65307978       0.62885671
O       -2.41252298      -0.38048853       1.67969638
H       -0.37074836       0.67907743      -2.23747193
H        0.23538765       1.71056364      -0.98385689
H        2.37879332      -1.76349659       0.91070474
H       -2.00753145      -1.26843258      -0.13848643
H       -0.62931565      -1.14604311       1.01629137
H       -3.09191952       0.20272122       1.30979136
16
Properties=species:S:1:pos:R:3 relative_energy_eV=0.1603965260910627 branch=right pbc="F F F"
O       -2.24182618       1.19391808      -0.55874539
C       -1.27573411       0.45525009      -0.35098460
C       -0.00768517       0.65875558      -1.18241463
O        1.05991782      -0.22397622      -1.06624811
P        2.23975296       0.19816431       0.09481900
O        1.46985841       0.51496148       1.35180595
O        3.24287787       1.10377989      -0.54477937
O        2.89747758      -1.31913637       0.23713821
C       -1.50913040      -0.66450152       0.62694758
O       -2.42414391      -0.35870263       1.67506129
H       -0.37118307       0.65267338      -2.21593151
H        0.27501671       1.70420941      -0.97802821
H        2.37594175      -1.77966739       0.90751009
H       -2.02897322      -1.29296490      -0.14566043
H       -0.61545332      -1.13215708       1.03032028
H       -3.06772219       0.23296606       1.24542841
16
Properties=species:S:1:pos:R:3 relative_energy_eV=0.09261698245609296 branch=right pbc="F F F"
O       -2.25779399       1.14606349      -0.64829715
C       -1.29033702       0.43882328      -0.36516983
C        0.00669874       0.59745550      -1.12513727
O        1.00877937      -0.33514445      -0.90528821
P        2.27027023       0.21853350       0.11495371
O        1.60097081       0.60768576       1.40720736
O        3.19661795       1.09863554      -0.66284543
O        2.97067850      -1.27021774       0.27234940
C       -1.57120756      -0.63634785       0.62774886
O       -2.55093476      -0.27636268       1.58554863
H       -0.32712325       0.57567407      -2.16646720
H        0.36948486       1.61760054      -0.94715804
H        2.39155072      -1.77697812       0.85423646
H       -2.01437512      -1.35633935      -0.08636597
H       -0.69532513      -1.07876284       1.07419221
H       -3.08895718       0.37327430       1.09674470
16
Properties=species:S:1:pos:R:3 relative_energy_eV=0.022452738023275742 branch=right pbc="F F F"
O       -2.24838264       1.17458516      -0.75910307
C       -1.33558111       0.42669130      -0.41475575
C        0.00841061       0.52736989      -1.10441242
O        0.96923546      -0.42858668      -0.77430288
P        2.29174668       0.20539463       0.12891234
O        1.69606238       0.66251425       1.43274797
O        3.12283518       1.05880242      -0.77480529
O        3.06963461      -1.24415948       0.33261725
C       -1.63033521      -0.61685100       0.63107263
O       -2.69144776      -0.24863542       1.49166206
H       -0.21290867       0.51540592      -2.18049185
H        0.34818326       1.55609794      -0.90851979
H        2.46141738      -1.78737180       0.84265069
H       -1.96738538      -1.41953304      -0.04939286
H       -0.75910646      -0.94410495       1.19612619
H       -3.10337526       0.50599520       1.03626106
16
Properties=species:S:1:pos:R:3 relative_energy_eV=-0.0018716191771090962 branch=right pbc="F F F"
O       -2.25391047       1.16818074      -0.78206850
C       -1.34392498       0.41429372      -0.44080508
C        0.01472671       0.50210716      -1.10156369
O        0.96187955      -0.44879738      -0.73547154
P        2.29274369       0.20563782       0.12683058
O        1.72877001       0.68240847       1.43722611
O        3.10091355       1.04361376      -0.81143573
O        3.08252678      -1.23349540       0.33896182
C       -1.65477775      -0.59100946       0.62782803
O       -2.75779788      -0.23238325       1.44299769
H       -0.17078006       0.46759005      -2.18013585
H        0.35699855       1.52359617      -0.88747321
H        2.51918801      -1.81279791       0.86583264
H       -1.93815645      -1.44437838      -0.01046782
H       -0.78961446      -0.85538085       1.22510904
H       -3.12977897       0.55443905       1.01090838
16
Properties=species:S:1:pos:R:3 relative_energy_eV=-0.041419677840167424 branch=right pbc="F F F"
O       -2.27718091       1.16182014      -0.83566918
C       -1.37156581       0.42613433      -0.45272066
C       -0.00474443       0.47203130      -1.10972113
O        0.93741137      -0.48070247      -0.72450013
P        2.28201968       0.16774087       0.13016661
O        1.71737239       0.68471023       1.42988399
O        3.11017370       1.00744943      -0.79408289
O        3.08429322      -1.28312040       0.28149890
C       -1.66205571      -0.53316992       0.65470092
O       -2.81316317      -0.19253026       1.40594434
H       -0.16463000       0.41063172      -2.19239536
H        0.34989310       1.48960913      -0.90762977
H        2.67451700      -1.80734123       0.98330179
H       -1.86331222      -1.44334827       0.06869990
H       -0.78279732      -0.69698095       1.27236178
H       -3.19722044       0.56070679       0.91644458
16
Properties=species:S:1:pos:R:3 relative_energy_eV=-0.11139272621949203 branch=right pbc="F F F"
O       -2.29158648       1.13495109      -0.93731249
C       -1.38454409       0.42774043      -0.49602359
C       -0.01073095       0.43765862      -1.12524250
O        0.88317937      -0.53430931      -0.66936946
P        2.27182111       0.10941357       0.12023027
O        1.75042339       0.58523062       1.44949343
O        3.06676949       0.95296397      -0.82830280
O        3.07638845      -1.32769248       0.29096621
C       -1.66123446      -0.45199658       0.69212811
O       -2.87859991      -0.11148767       1.34087877
H       -0.19227976       0.35991719      -2.20446467
H        0.35724583       1.46280488      -0.97085957
H        2.85403318      -1.73658274       1.12407380
H       -1.75057273      -1.44746715       0.20840715
H       -0.80761175      -0.47234702       1.38126252
H       -3.26368295       0.55486867       0.75043551
16
Properties=species:S:1:pos:R:3 relative_energy_eV=-0.167623597819329 branch=right pbc="F F F"
O       -2.30602411       1.06512115      -1.01200613
C       -1.37842782       0.43268853      -0.50957545
C       -0.00867554       0.42590915      -1.14848882
O        0.86761466      -0.55862709      -0.68330949
P        2.24855823       0.04898095       0.12311893
O        1.77673964       0.48142195       1.49095732
O        2.98103501       0.90732808      -0.86029724
O        3.06294565      -1.38709525       0.30277681
C       -1.65538250      -0.37581943       0.72580884
O       -2.92189624      -0.06665858       1.28349996
H       -0.20575042       0.30344344      -2.21989800
H        0.39681020       1.44165153      -1.03005232
H        2.95903289      -1.63601909       1.23104107
H       -1.63498996      -1.41466674       0.34809567
H       -0.84247097      -0.26746179       1.45136704
H       -3.32009507       0.54349021       0.63327622
16
Properties=species:S:1:pos:R:3 relative_energy_eV=-0.19544857932487503 branch=right pbc="F F F"
O       -2.31407679       1.04170128      -1.06128443
C       -1.38940144       0.41993004      -0.54092375
C       -0.00904169       0.37964976      -1.16329715
O        0.84049570      -0.60847203      -0.65168514
P        2.22299088       0.01909793       0.12705584
O        1.79288109       0.47442893       1.49831629
O        2.93494543       0.90344349      -0.84743003
O        3.02406273      -1.42084239       0.30104681
C       -1.65656122      -0.31283752       0.74582016
O       -2.96076476      -0.06013409       1.23014560
H       -0.14195338       0.24303859      -2.24161725
H        0.41318857       1.39255063      -1.05103198
H        3.00906885      -1.59441163       1.24979853
H       -1.54457242      -1.37116381       0.50170292
H       -0.86302672      -0.10026490       1.47108875
H       -3.33920653       0.53798940       0.55862011
16
Properties=species:S:1:pos:R:3 relative_energy_eV=-0.20998004459761432 branch=right pbc="F F F"
O       -2.31173327       1.01516227      -1.10041306
C       -1.38481997       0.41549897      -0.56073321
C       -0.00997122       0.35923515      -1.17513093
O        0.82425100      -0.62002998      -0.63260592
P        2.20288838       0.01135649       0.13883162
O        1.77048047       0.45295757       1.51652498
O        2.90652566       0.89834630      -0.84159445
O        2.98668879      -1.44248272       0.30035336
C       -1.63530975      -0.28134995       0.75289693
O       -2.95053328      -0.05122970       1.22021534
H       -0.14148162       0.20901803      -2.25042904
H        0.42747247       1.36151895      -1.07117710
H        3.02482331      -1.57645204       1.25478406
H       -1.47596004      -1.34904199       0.56973509
H       -0.87472537       0.02670840       1.47683670
H       -3.33956474       0.51449661       0.52823650
16
Properties=species:S:1:pos:R:3 relative_energy_eV=-0.22383674697994138 branch=right pbc="F F F"
O       -2.32916800       0.97914938      -1.12332506
C       -1.38583077       0.41539327      -0.57393397
C       -0.01675298       0.36065222      -1.20595655
O        0.82290753      -0.62074566      -0.66849862
P        2.17048070       0.00106738       0.15962854
O        1.70240674       0.43015586       1.52857805
O        2.90681866       0.89623743      -0.78710998
O        2.95558331      -1.45095421       0.31442054
C       -1.59690834      -0.23777173       0.76039951
O       -2.90831994      -0.03802109       1.24686735
H       -0.18015876       0.17504402      -2.27116208
H        0.41104183       1.37278507      -1.12236125
H        3.02686149      -1.61437602       1.25827544
H       -1.38113415      -1.30225471       0.63214298
H       -0.82381101       0.12927188       1.44569341
H       -3.35498434       0.44808351       0.53267534
16
Properties=species:S:1:pos:R:3 relative_energy_eV=-0.2316259698345675 branch=right pbc="F F F"
O       -2.35475374       0.94449009      -1.13042800
C       -1.39056321       0.41733277      -0.58172748
C       -0.02588627       0.35264300      -1.22969985
O        0.82087224      -0.61569574      -0.68120138
P        2.15394899       0.00102404       0.17345512
O        1.67555653       0.41660750       1.54278688
O        2.89239604       0.91578931      -0.75280772
O        2.94323062      -1.45257702       0.31807099
C       -1.56762845      -0.21472709       0.76985320
O       -2.87923396      -0.03953285       1.26267646
H       -0.18731735       0.16354869      -2.29520169
H        0.41649213       1.35663512      -1.17232313
H        2.98249488      -1.64096252       1.26000099
H       -1.32757156      -1.27854197       0.67640992
H       -0.80146600       0.19714092       1.43326247
H       -3.33153823       0.42054485       0.53320840
16
Properties=species:S:1:pos:R:3 relative_energy_eV=-0.2438074201127165 branch=right pbc="F F F"
O       -2.35595553       0.92580002      -1.12432796
C       -1.38505427       0.39711030      -0.58934321
C       -0.02287444       0.35879485      -1.25204044
O        0.83844423      -0.59856951      -0.70420778
P        2.15597749       0.02831846       0.17840065
O        1.64666397       0.41351153       1.54663097
O        2.91385113       0.95316896      -0.72237139
O        2.97789213      -1.40549075       0.31692350
C       -1.54662821      -0.23015311       0.76937867
O       -2.84777793      -0.04822826       1.29479915
H       -0.19631872       0.15141525      -2.31307478
H        0.40057267       1.37456238      -1.20963886
H        2.84500716      -1.69284789       1.22819868
H       -1.30221172      -1.29548887       0.68492761
H       -0.77671256       0.18842363       1.42938815
H       -3.32584396       0.42338803       0.59268946
16
Properties=species:S:1:pos:R:3 relative_energy_eV=-0.24874757475117804 branch=right pbc="F F F"
O       -2.36008135       0.91355007      -1.12191501
C       -1.38231029       0.39516639      -0.58892535
C       -0.02478798       0.35310468      -1.25781746
O        0.84445082      -0.59454657      -0.70994471
P        2.14823019       0.03616760       0.18231751
O        1.62373348       0.40880937       1.54750514
O        2.89811635       0.97568641      -0.70780089
O        2.97487463      -1.39398581       0.32081199
C       -1.52582156      -0.22479734       0.77249571
O       -2.82641793      -0.05985484       1.30095099
H       -0.19774237       0.13616502      -2.31629275
H        0.38930270       1.37187043      -1.21808686
H        2.78215191      -1.71591909       1.21022529
H       -1.27158214      -1.28708728       0.68745640
H       -0.74877610       0.20066388       1.41831141
H       -3.30430924       0.42872097       0.60704023
16
Properties=species:S:1:pos:R:3 relative_energy_eV=-0.2504287042938813 branch=right pbc="F F F"
O       -2.35256391       0.91030661      -1.11688441
C       -1.37704174       0.38883712      -0.58298704
C       -0.02488972       0.34695856      -1.25810098
O        0.85798221      -0.59281230      -0.72142973
P        2.15087653       0.04568701       0.18195492
O        1.61015934       0.41433074       1.54171451
O        2.90622932       0.98925787      -0.69911135
O        2.98273489      -1.38047393       0.32628655
C       -1.52129975      -0.22739736       0.77881763
O       -2.82195803      -0.05025606       1.30290966
H       -0.20927859       0.12818853      -2.31384719
H        0.37737785       1.36976232      -1.22183730
H        2.74505007      -1.72967443       1.19276638
H       -1.26953673      -1.29188724       0.70105555
H       -0.74162840       0.20031028       1.42021019
H       -3.29318229       0.42257595       0.59481403
16
Properties=species:S:1:pos:R:3 relative_energy_eV=-0.25138717982918024 branch=right pbc="F F F"
O       -2.35086881       0.91596071      -1.10462595
C       -1.37333203       0.39029088      -0.57772211
C       -0.02560943       0.34823236      -1.26275626
O        0.86037837      -0.59486299      -0.73647965
P        2.14517024       0.04333760       0.17790307
O        1.58680384       0.40997706       1.53104703
O        2.90928895       0.98798620      -0.69400600
O        2.98369114      -1.37769128       0.32908615
C       -1.51663382      -0.22860151       0.78369095
O       -2.82212677      -0.06164063       1.29910477
H       -0.21963065       0.13339249      -2.31793204
H        0.38256657       1.36868357      -1.22439981
H        2.74621421      -1.72731830       1.19579936
H       -1.26022987      -1.29123659       0.69970200
H       -0.74146228       0.19855258       1.43189907
H       -3.28518883       0.42865074       0.59602028
16
Properties=species:S:1:pos:R:3 relative_energy_eV=-0.2515578899437969 branch=right pbc="F F F"
O       -2.34884479       0.91708452      -1.10346483
C       -1.37179438       0.38915846      -0.57791301
C       -0.02454651       0.34607431      -1.26500504
O        0.86260534      -0.59750843      -0.74107311
P        2.14279649       0.04371304       0.17791080
O        1.58175325       0.41082549       1.52982404
O        2.90628864       0.98975072      -0.69308719
O        2.98178852      -1.37662455       0.33119964
C       -1.51492535      -0.22826785       0.78462791
O       -2.82129205      -0.06498241       1.29943864
H       -0.21889385       0.13319536      -2.32036310
H        0.38354417       1.36700972      -1.22850332
H        2.74254388      -1.72880766       1.19619440
H       -1.25336214      -1.28932971       0.70505721
H       -0.74389280       0.20455195       1.43275292
H       -3.28473752       0.42787018       0.59873506
16
Properties=species:S:1:pos:R:3 relative_energy_eV=-0.25164112070342526 branch=right pbc="F F F"
O       -2.34540467       0.92123597      -1.10300575
C       -1.37052017       0.39000050      -0.57709827
C       -0.02428167       0.34317650      -1.26407329
O        0.86216447      -0.60059061      -0.73922239
P        2.14286582       0.04405866       0.17698959
O        1.58248645       0.41538443       1.52804325
O        2.90391791       0.98938293      -0.69706124
O        2.98319000      -1.37552243       0.33369868
C       -1.51553054      -0.22799959       0.78445094
O       -2.82286262      -0.06624866       1.29731118
H       -0.22164978       0.13086574      -2.31906163
H        0.38600141       1.36290250      -1.22814802
H        2.74253759      -1.72612670       1.19892145
H       -1.25337322      -1.28903173       0.70402617
H       -0.74472060       0.20451082       1.43357463
H       -3.28578919       0.42771532       0.59698614
16
Properties=species:S:1:pos:R:3 relative_energy_eV=-0.2517920189384313 branch=right pbc="F F F"
O       -2.34344484       0.92981059      -1.10011623
C       -1.36998159       0.39294872      -0.57672823
C       -0.02455547       0.33923950      -1.26608047
O        0.86026255      -0.60480680      -0.73837373
P        2.14107257       0.04359835       0.17533800
O        1.58163297       0.41950282       1.52546161
O        2.90157942       0.98455907      -0.70370610
O        2.98337648      -1.37326818       0.33970404
C       -1.51538703      -0.22619600       0.78475923
O       -2.82354405      -0.06813270       1.29660655
H       -0.22229569       0.12193207      -2.32008525
H        0.38959073       1.35769324      -1.23347552
H        2.74537150      -1.71789929       1.20848249
H       -1.24979253      -1.28595606       0.70551547
H       -0.74714407       0.20907439       1.43481431
H       -3.28770914       0.42161528       0.59421636
16
Properties=species:S:1:pos:R:3 relative_energy_eV=-0.251994618018216 branch=right pbc="F F F"
O       -2.33911481       0.93799841      -1.09382279
C       -1.36771823       0.39525694      -0.57358194
C       -0.02366179       0.33409346      -1.26570421
O        0.86099573      -0.60738371      -0.73295052
P        2.14308402       0.04785621       0.17379782
O        1.58021880       0.43521110       1.51917946
O        2.90388571       0.98127666      -0.71303836
O        2.98615634      -1.36765841       0.34927182
C       -1.51609338      -0.22809473       0.78497269
O       -2.82511277      -0.07091813       1.29479930
H       -0.22573717       0.10703652      -2.31674832
H        0.39252042       1.35208612      -1.24806612
H        2.73982934      -1.71060326       1.21620979
H       -1.25228592      -1.28839849       0.70273906
H       -0.74842254       0.20656498       1.43611325
H       -3.28951117       0.41939296       0.59316287
16
Properties=species:S:1:pos:R:3 relative_energy_eV=-0.2523977794298844 branch=right pbc="F F F"
O       -2.33187439       0.95347303      -1.08454550
C       -1.36424159       0.39748248      -0.57079950
C       -0.02521298       0.32380393      -1.27156499
O        0.86269612      -0.60655944      -0.72649194
P        2.14366347       0.05990902       0.17336914
O        1.57951649       0.47055355       1.51111280
O        2.91013067       0.97577297      -0.72664755
O        2.98490802      -1.35385587       0.37090200
C       -1.51394320      -0.23424236       0.78470236
O       -2.82334201      -0.08026405       1.29496168
H       -0.23554417       0.07171415      -2.31571939
H        0.39069456       1.34155558      -1.27839313
H        2.72176016      -1.69992938       1.23103231
H       -1.25017101      -1.29326195       0.69434823
H       -0.74681619       0.19435220       1.44056456
H       -3.28319000       0.42321573       0.59950526
16
Properties=species:S:1:pos:R:3 relative_energy_eV=-0.25276426013806486 branch=right pbc="F F F"
O       -2.32587730       0.96760110      -1.07486826
C       -1.36171613       0.40015633      -0.56755081
C       -0.02615010       0.31378709      -1.27546820
O        0.86676563      -0.60905389      -0.72650578
P        2.14644846       0.06559624       0.16976830
O        1.58093795       0.49406620       1.50158937
O        2.91884204       0.96661287      -0.73989559
O        2.97657162      -1.35154692       0.38602432
C       -1.51425336      -0.23807756       0.78393244
O       -2.82485141      -0.08708306       1.29153535
H       -0.24747905       0.04674539      -2.31378866
H        0.38814094       1.33162247      -1.30380743
H        2.72602151      -1.67151485       1.26073881
H       -1.25306245      -1.29749856       0.68796857
H       -0.74855458       0.18631346       1.44470392
H       -3.28274847       0.42599647       0.60196260
16
Properties=species:S:1:pos:R:3 relative_energy_eV=-0.2530915462084522 branch=right pbc="F F F"
O       -2.32087150       0.97417048      -1.07059364
C       -1.36027810       0.39690170      -0.56751518
C       -0.02891445       0.30412891      -1.28028429
O        0.86738773      -0.61161630      -0.72614640
P        2.14525110       0.07014170       0.16623041
O        1.57629835       0.51250162       1.49221300
O        2.92231659       0.96332619      -0.74781696
O        2.97210255      -1.34696725       0.40267557
C       -1.51192753      -0.24196909       0.78331637
O       -2.82212802      -0.09065490       1.29304605
H       -0.25459932       0.02337382      -2.31400266
H        0.38238473       1.32214083      -1.32106042
H        2.71853360      -1.65055482       1.28175323
H       -1.24669409      -1.29996673       0.68785700
H       -0.74466661       0.18687467       1.43961690
H       -3.27515845       0.43189490       0.60705229
16
Properties=species:S:1:pos:R:3 relative_energy_eV=-0.2539052044303389 branch=right pbc="F F F"
O       -2.31541026       0.98426964      -1.06078245
C       -1.35969006       0.38908290      -0.56930914
C       -0.03161752       0.28098182      -1.29005245
O        0.87231378      -0.62040157      -0.72324164
P        2.14713580       0.08491031       0.15852146
O        1.56779558       0.57221675       1.46385517
O        2.93555246       0.94126482      -0.77947711
O        2.97048690      -1.32283948       0.45013550
C       -1.51151294      -0.25658186       0.77759634
O       -2.81683844      -0.09514192       1.29468049
H       -0.26739884      -0.02417058      -2.31517759
H        0.37551550       1.29928634      -1.35882075
H        2.71341450      -1.59751119       1.33783848
H       -1.25933151      -1.31772769       0.68386732
H       -0.73819978       0.16887712       1.42845376
H       -3.26317537       0.45721793       0.62826000
16
Properties=species:S:1:pos:R:3 relative_energy_eV=-0.25475105745499604 branch=right pbc="F F F"
O       -2.30973928       0.97905259      -1.05964543
C       -1.35579079       0.38028967      -0.56984594
C       -0.03298123       0.26725359      -1.29556067
O        0.87271071      -0.62825752      -0.72293072
P        2.14066549       0.09503099       0.14980293
O        1.55275815       0.61538419       1.43911210
O        2.93579119       0.92888753      -0.80336023
O        2.95834615      -1.30790680       0.48155149
C       -1.50683575      -0.26766437       0.77631030
O       -2.80357188      -0.08114690       1.30553855
H       -0.27164655      -0.04869153      -2.31662232
H        0.37338092       1.28470280      -1.37640618
H        2.70516888      -1.55224076       1.37952833
H       -1.27398020      -1.33385222       0.68069515
H       -0.71925100       0.14100391       1.42104613
H       -3.24598271       0.47189338       0.63713817
16
Properties=species:S:1:pos:R:3 relative_energy_eV=-0.25492063920319197 branch=right pbc="F F F"
O       -2.30517062       0.99004958      -1.04856943
C       -1.35344210       0.38086954      -0.56746361
C       -0.03473778       0.25948044      -1.30104748
O        0.87554673      -0.62957609      -0.72548549
P        2.14011408       0.10231259       0.14570615
O        1.54641276       0.64013917       1.42502126
O        2.94261395       0.92224864      -0.81293179
O        2.95198542      -1.29775078       0.50129406
C       -1.50270729      -0.27468221       0.77504540
O       -2.79609306      -0.08435585       1.31230233
H       -0.28034192      -0.06838382      -2.31682602
H        0.37062599       1.27564142      -1.39642118
H        2.69255266      -1.52819774       1.40067997
H       -1.27795584      -1.34183285       0.66738135
H       -0.70980509       0.12522081       1.41898441
H       -3.24055465       0.47255781       0.64868363
