35
Properties=species:S:1:pos:R:3 relative_energy_eV=0.6197538557462394 branch=ts pbc="F F F"
O       -4.12093860      -0.36820600      -3.18184373
P       -4.79622033      -0.27423875      -1.85143356
O       -6.00159158      -1.06661649      -1.45434045
O       -4.59704785       1.08722426      -1.09619137
O       -3.41212294      -1.24314975      -0.69449876
C       -2.07576492      -0.95673194      -1.08588270
C       -1.17247090      -1.66828612      -0.10600632
O       -1.09100844      -2.88491929      -0.06887627
C       -0.36434386      -0.88389476       0.92769840
O       -0.27380912      -1.69317177       2.09663793
C        1.02246040      -0.54982025       0.34259257
O        0.75172157       0.18611163      -0.82672787
C        1.93171034       0.20584856       1.33076611
O        2.15947728      -0.52925597       2.53176178
C        3.30069743       0.46223429       0.73686127
O        3.16520841       1.24153917      -0.43898357
P        4.57870975       1.86839973      -1.13779108
O        5.70009548       0.91343903      -0.88219457
O        4.13987713       2.39432664      -2.47136714
O        4.80599188       3.18084696      -0.11972795
O       -3.92024644       0.35568371       1.14387452
H       -4.28807283       0.82669485       0.04932803
H       -1.92403158      -1.33904934      -2.09274773
H       -1.87371824       0.11129476      -1.07975956
H       -0.87766296       0.04466732       1.17715111
H       -0.35587964      -2.60283334       1.75672266
H        1.52808188      -1.49998242       0.10797947
H        1.57823913       0.64841174      -1.06299009
H        1.45431962       1.17276476       1.53944608
H        1.34282062      -1.02347503       2.71294094
H        3.78564390      -0.48879367       0.51084237
H        3.91640737       0.98159850       1.47210403
H        4.34347665       3.91005219      -0.54990571
H       -3.58742955      -0.71593877       0.20130042
H       -4.77259763       0.19722907       1.56326666
