16
Properties=species:S:1:pos:R:3 relative_energy_eV=1.83780384390775 branch=ts pbc="F F F"
O       -2.22710613      -1.64446467       1.15896811
C       -1.36348019      -1.11350748       0.37360022
C       -1.30068610       0.32203936       0.29309015
O       -2.16293257       0.96037109       1.07617053
C       -0.41073911       1.09355280      -0.60948760
O        0.54141053       0.24948016      -1.18680488
P        2.13359770       0.30037920      -0.53946939
O        2.18789739       1.45365351       0.41428518
O        3.03426309       0.03481973      -1.70337645
O        2.07631803      -1.08717120       0.39052826
H       -0.95087890      -1.66494528      -0.48380449
H       -0.40187095      -0.60957372       0.89990255
H       -2.63848603       0.19192273       1.51392145
H       -1.01997774       1.53732856      -1.40834742
H        0.05557317       1.90627228      -0.04403679
H        2.42751018      -1.79420335      -0.16322563
