35
Properties=species:S:1:pos:R:3 relative_energy_eV=0.0 branch=left pbc="F F F"
O        7.62123818      -2.00591787       0.34711150
P        6.17209550      -1.88919069       0.71180008
O        5.65435281      -2.44040220       2.01574083
O        5.21170224      -1.19191710      -0.22410475
O        2.52964923      -1.22520024       0.10270015
C        2.19294250      -0.03565428       0.79751328
C        0.87624153      -0.22905030       1.51050676
O        0.73226599      -0.02202213       2.70333578
C       -0.32649710      -0.74292056       0.72110211
O       -1.02711254      -1.68234908       1.53916595
C       -1.23007411       0.44127863       0.32589649
O       -0.40601496       1.30953240      -0.42090181
C       -2.48621892       0.01133924      -0.45311630
O       -3.30604891      -0.89309094       0.28344504
C       -3.36511222       1.20236803      -0.77485097
O       -2.64131508       2.10687868      -1.59164206
P       -3.48514959       3.40030806      -2.29405357
O       -4.57746681       3.81632294      -1.36258113
O       -2.41422287       4.27918600      -2.86748942
O       -4.20331704       2.57570652      -3.56517427
O        3.07071233      -3.73368689       1.58589033
H        3.50185778      -1.23437054      -0.04697757
H        2.93583394       0.23285708       1.55135882
H        2.05750011       0.79798061       0.09990278
H        0.01936748      -1.25655855      -0.17296152
H       -0.89968863      -1.36109386       2.44698142
H       -1.57620164       0.92064978       1.25498783
H       -1.00350452       1.88587867      -0.93746212
H       -2.14849293      -0.43332327      -1.39932109
H       -2.70222871      -1.45137936       0.80310618
H       -3.67847775       1.68801059       0.15105182
H       -4.26198059       0.85481408      -1.28890254
H       -3.58680949       2.67068329      -4.30097031
H        2.69705539      -3.01017375       1.06067931
H        3.95140231      -3.37280725       1.79554935
35
Properties=species:S:1:pos:R:3 relative_energy_eV=0.000242075628193561 branch=left pbc="F F F"
O        7.62532317      -1.98585612       0.33613970
P        6.17710951      -1.88233329       0.70829385
O        5.66933727      -2.44913777       2.00938922
O        5.20721930      -1.18404891      -0.21692751
O        2.52718580      -1.22928493       0.10911749
C        2.18753485      -0.03740737       0.79903339
C        0.87209618      -0.23464693       1.51321408
O        0.72868782      -0.03259350       2.70695209
C       -0.33098476      -0.74663957       0.72321211
O       -1.03511520      -1.68221174       1.54219659
C       -1.23027261       0.44008672       0.32556186
O       -0.40154825       1.30350680      -0.42186449
C       -2.48899666       0.01458544      -0.45226649
O       -3.31216790      -0.88578849       0.28555374
C       -3.36413602       1.20873531      -0.77239879
O       -2.63797847       2.11192530      -1.58834709
P       -3.48183904       3.40181218      -2.29792521
O       -4.57698398       3.82103001      -1.37116249
O       -2.41100068       4.27959059      -2.87320410
O       -4.19834924       2.57001591      -3.56527452
O        3.08035534      -3.73879120       1.58359331
H        3.49980170      -1.23736267      -0.03774623
H        2.93038492       0.23665661       1.55115342
H        2.04812359       0.79229214       0.09731985
H        0.01481293      -1.26238099      -0.16977251
H       -0.90935651      -1.35742983       2.44906428
H       -1.57506357       0.92233155       1.25365413
H       -0.99551307       1.88464985      -0.93651044
H       -2.15393933      -0.43284951      -1.39813575
H       -2.71030447      -1.44749418       0.80345568
H       -3.67620919       1.69393680       0.15438885
H       -4.26248866       0.86484244      -1.28617783
H       -3.57991252       2.65632714      -4.30045868
H        2.69974805      -3.01733209       1.06029350
H        3.96272329      -3.37604975       1.78390105
35
Properties=species:S:1:pos:R:3 relative_energy_eV=0.0006845271491329186 branch=left pbc="F F F"
O        7.63274218      -1.93305406       0.30751501
P        6.18471938      -1.87025350       0.69151203
O        5.69810548      -2.47192282       1.98512253
O        5.19505779      -1.17490238      -0.21490817
O        2.51909480      -1.24079945       0.11941199
C        2.17890462      -0.04802011       0.80753118
C        0.86270272      -0.24291405       1.52087308
O        0.71887353      -0.03867622       2.71424068
C       -0.34101077      -0.75287759       0.73057767
O       -1.05013973      -1.68392085       1.55024773
C       -1.23437077       0.43762575       0.33045527
O       -0.40086246       1.29807447      -0.41496480
C       -2.49337825       0.02007188      -0.45005270
O       -3.32309401      -0.87704264       0.28459588
C       -3.36005415       1.22012419      -0.76950261
O       -2.62919228       2.11889792      -1.58617350
P       -3.47228039       3.40230922      -2.30916216
O       -4.56902200       3.82979012      -1.38811072
O       -2.40040034       4.27530883      -2.88932460
O       -4.18568130       2.55894289      -3.57101333
O        3.09691940      -3.74374517       1.57836415
H        3.49086077      -1.24378583      -0.03481435
H        2.92100124       0.22619948       1.56044695
H        2.04103422       0.78148513       0.10509512
H        0.00404182      -1.27223792      -0.16067366
H       -0.92496053      -1.35759367       2.45653394
H       -1.57960469       0.92105447       1.25789084
H       -0.99133397       1.88431140      -0.92788381
H       -2.16083748      -0.42643402      -1.39691825
H       -2.72599701      -1.44106734       0.80510646
H       -3.66840390       1.70738148       0.15741359
H       -4.26033770       0.88195025      -1.28300500
H       -3.56348619       2.63678522      -4.30405930
H        2.70977700      -3.01717124       1.06669569
H        3.97889770      -3.38120812       1.77825318
35
Properties=species:S:1:pos:R:3 relative_energy_eV=0.0013879142788937315 branch=left pbc="F F F"
O        7.64082576      -1.91928570       0.30261591
P        6.19498050      -1.86053299       0.69428549
O        5.71521088      -2.49090728       1.97693959
O        5.20245270      -1.14595742      -0.19402327
O        2.52548146      -1.24356431       0.11547816
C        2.17156785      -0.05238327       0.80025728
C        0.85748458      -0.25717614       1.51484572
O        0.71510709      -0.05833870       2.70940985
C       -0.34819321      -0.76463923       0.72619310
O       -1.05785980      -1.69409635       1.54685029
C       -1.23734849       0.43188678       0.33327339
O       -0.40310174       1.29056828      -0.41308066
C       -2.50217551       0.02609933      -0.44335145
O       -3.33575674      -0.86428802       0.29477418
C       -3.35995024       1.23405508      -0.75926293
O       -2.62675185       2.12541325      -1.58253687
P       -3.46755939       3.40400386      -2.31848308
O       -4.56638025       3.83852559      -1.40329425
O       -2.39450105       4.27257610      -2.90319155
O       -4.17733914       2.55137917      -3.57604413
O        3.09653612      -3.73628392       1.58912302
H        3.49828865      -1.23700521      -0.03214134
H        2.91017394       0.23107342       1.55318616
H        2.02486043       0.77234384       0.09408763
H       -0.00750528      -1.28230387      -0.16816566
H       -0.91970578      -1.37509747       2.45406173
H       -1.57488876       0.91278922       1.26477222
H       -0.99278768       1.87375105      -0.93052329
H       -2.17609097      -0.42273804      -1.39132849
H       -2.74011087      -1.43579991       0.80837778
H       -3.65615633       1.72649268       0.16871668
H       -4.26835654       0.90386548      -1.26403442
H       -3.55380127       2.62661559      -4.30827317
H        2.72357799      -3.00773012       1.06997400
H        3.98805888      -3.39062539       1.77782923
35
Properties=species:S:1:pos:R:3 relative_energy_eV=0.002382863989623729 branch=left pbc="F F F"
O        7.64623479      -1.90614458       0.30212384
P        6.20177011      -1.85766428       0.69887451
O        5.72701994      -2.50795805       1.97299035
O        5.20585821      -1.12914535      -0.17362264
O        2.52520596      -1.24115228       0.09833048
C        2.17027466      -0.05498892       0.79209911
C        0.85823826      -0.27156766       1.50827776
O        0.72143392      -0.09246712       2.70658331
C       -0.35122068      -0.76965265       0.71796578
O       -1.05866550      -1.70914155       1.52827883
C       -1.24103091       0.43112751       0.34113056
O       -0.40786366       1.29506025      -0.40068136
C       -2.50973830       0.03428901      -0.43336894
O       -3.34871365      -0.85302921       0.30287780
C       -3.36032998       1.24790164      -0.74579760
O       -2.62650727       2.12797342      -1.58045517
P       -3.45947992       3.40301609      -2.33076044
O       -4.55685760       3.85309421      -1.42133326
O       -2.38069405       4.25857571      -2.92425668
O       -4.17552041       2.53970278      -3.57696593
O        3.09411271      -3.71963122       1.60479770
H        3.49912592      -1.23600695      -0.03851384
H        2.91107622       0.22382528       1.54464223
H        2.02164156       0.77488772       0.09276357
H       -0.01428629      -1.27581181      -0.18435301
H       -0.90885405      -1.40988969       2.44025350
H       -1.57331534       0.90466563       1.27802659
H       -0.99570728       1.87515042      -0.92357509
H       -2.18871697      -0.41179787      -1.38398523
H       -2.75713356      -1.43881972       0.80408793
H       -3.64323624       1.74575390       0.18381513
H       -4.27512995       0.92077413      -1.24075120
H       -3.55870887       2.60524712      -4.31555389
H        2.71745321      -2.99446323       1.08354058
H        3.99055256      -3.37902735       1.77983235
35
Properties=species:S:1:pos:R:3 relative_energy_eV=0.003370271770108957 branch=left pbc="F F F"
O        7.65296893      -1.86413877       0.28532056
P        6.20947656      -1.84825637       0.68808645
O        5.75145437      -2.52830663       1.95221660
O        5.19784162      -1.12424164      -0.17004213
O        2.51947957      -1.24564506       0.09796719
C        2.16291952      -0.06219163       0.79614509
C        0.85288956      -0.28618557       1.51198102
O        0.71863219      -0.12935902       2.71371249
C       -0.35604930      -0.77092184       0.71413404
O       -1.06371758      -1.71839268       1.51403350
C       -1.24475085       0.43354455       0.34754450
O       -0.41131764       1.30153751      -0.38871528
C       -2.51713468       0.04136832      -0.42470841
O       -3.35492613      -0.84231382       0.31632418
C       -3.36263531       1.25886851      -0.73661299
O       -2.62624520       2.12513280      -1.58261243
P       -3.44977408       3.39724152      -2.34514915
O       -4.54342085       3.86544323      -1.44044773
O       -2.36294464       4.23738681      -2.94582153
O       -4.16709588       2.52883756      -3.58699579
O        3.09409847      -3.70949676       1.62305724
H        3.49374628      -1.23897179      -0.03703869
H        2.90326849       0.21459893       1.54926112
H        2.01147892       0.77019547       0.10068189
H       -0.01589617      -1.26633194      -0.19294926
H       -0.90566242      -1.43077428       2.42854921
H       -1.57600316       0.90080192       1.28802735
H       -0.99872191       1.88074276      -0.91281624
H       -2.20109524      -0.40724124      -1.37603375
H       -2.76050459      -1.43416003       0.80752493
H       -3.63458030       1.76678493       0.19131273
H       -4.28377552       0.93808070      -1.22401533
H       -3.54622905       2.59566001      -4.32225196
H        2.71832783      -2.99620408       1.08609471
H        3.99418753      -3.37040699       1.78155413
35
Properties=species:S:1:pos:R:3 relative_energy_eV=0.004313468656619079 branch=left pbc="F F F"
O        7.66378542      -1.79986120       0.25340003
P        6.22020541      -1.83705470       0.65522889
O        5.78587964      -2.55007737       1.90939719
O        5.18452700      -1.13704927      -0.19433834
O        2.51652084      -1.25244147       0.12333382
C        2.15405488      -0.06771844       0.81557385
C        0.84097399      -0.29660003       1.52434607
O        0.70129520      -0.15107345       2.72693829
C       -0.36658895      -0.77318296       0.71908088
O       -1.07746100      -1.72504043       1.51107663
C       -1.25043698       0.43720639       0.35526885
O       -0.41482578       1.30219215      -0.38190901
C       -2.52378190       0.04699193      -0.41593875
O       -3.36437213      -0.82562045       0.33493796
C       -3.36357687       1.26577750      -0.73847721
O       -2.62167431       2.12440322      -1.58772223
P       -3.43476652       3.39759230      -2.35979273
O       -4.53165609       3.87116464      -1.46172891
O       -2.34181419       4.23235833      -2.95709833
O       -4.14755512       2.52713349      -3.60268835
O        3.10773930      -3.71376880       1.63353314
H        3.48973517      -1.24122984      -0.02359174
H        2.89010709       0.21582318       1.57100604
H        2.00188231       0.76109393       0.11640218
H       -0.02672947      -1.26592927      -0.18935056
H       -0.91303541      -1.44923960       2.42810579
H       -1.57828974       0.90670641       1.29627888
H       -1.00017780       1.88155473      -0.90859863
H       -2.20984661      -0.41115509      -1.36386763
H       -2.77155656      -1.42499269       0.81972809
H       -3.63669299       1.77942371       0.18530583
H       -4.28621229       0.94442557      -1.22268051
H       -3.52503425       2.58771807      -4.33709767
H        2.71736769      -3.00430407       1.10195627
H        4.01030158      -3.37254095       1.77129999
35
Properties=species:S:1:pos:R:3 relative_energy_eV=0.00543201530672377 branch=left pbc="F F F"
O        7.67261418      -1.75453802       0.23327818
P        6.22985333      -1.83172320       0.63313621
O        5.81282290      -2.56832644       1.88003922
O        5.17912768      -1.15239889      -0.21467930
O        2.51627044      -1.25858105       0.13622476
C        2.14854565      -0.07437388       0.82642007
C        0.83284911      -0.30286104       1.53120095
O        0.69237100      -0.15982433       2.73412333
C       -0.37506761      -0.77221373       0.72302155
O       -1.08800777      -1.73002948       1.50643988
C       -1.25742246       0.44058115       0.36705362
O       -0.41870954       1.30650946      -0.36520844
C       -2.53027034       0.05249295      -0.40649274
O       -3.37877539      -0.80989463       0.34762477
C       -3.36500493       1.26987668      -0.74501476
O       -2.61581146       2.12252283      -1.59332257
P       -3.42336322       3.39721498      -2.36947903
O       -4.52328244       3.87757563      -1.47877441
O       -2.32316724       4.22523045      -2.96239515
O       -4.13926302       2.52805421      -3.61119250
O        3.12206718      -3.71487637       1.64039179
H        3.48839437      -1.24297828      -0.02054764
H        2.87813992       0.21037157       1.58773708
H        1.99815022       0.75319291       0.12529622
H       -0.03596870      -1.25501335      -0.19093766
H       -0.92650480      -1.46195953       2.42651266
H       -1.58510839       0.90514358       1.31031347
H       -1.00069612       1.88391872      -0.89737468
H       -2.21373826      -0.41598982      -1.34806073
H       -2.79010947      -1.41114097       0.83489818
H       -3.64807862       1.79005596       0.17222752
H       -4.28056043       0.94451172      -1.23959127
H       -3.51218076       2.57540179      -4.34247307
H        2.72989076      -3.00441979       1.11116104
H        4.02828531      -3.37882641       1.76576118
35
Properties=species:S:1:pos:R:3 relative_energy_eV=0.006539069509017281 branch=left pbc="F F F"
O        7.67369629      -1.72651744       0.22654894
P        6.22976324      -1.83230659       0.61630205
O        5.82032157      -2.57490177       1.86156978
O        5.17144825      -1.17609908      -0.24006825
O        2.50789101      -1.25747720       0.14355493
C        2.14535672      -0.07339693       0.83671929
C        0.82952319      -0.30308106       1.54143765
O        0.68906368      -0.16697197       2.74484483
C       -0.37671391      -0.77064184       0.72840837
O       -1.08906772      -1.73372589       1.50574702
C       -1.26149644       0.44162457       0.37302610
O       -0.42112446       1.31387980      -0.34990166
C       -2.53248525       0.05559793      -0.40564134
O       -3.38612339      -0.80070365       0.34994597
C       -3.36515457       1.27258806      -0.75131500
O       -2.61036886       2.12480638      -1.59574406
P       -3.41747234       3.39821150      -2.37554031
O       -4.51152015       3.88284354      -1.48010111
O       -2.32106102       4.22478510      -2.97714510
O       -4.13408012       2.52371856      -3.61355936
O        3.13223522      -3.71690314       1.64546493
H        3.47822414      -1.24253763      -0.02269146
H        2.88010813       0.20729364       1.59442013
H        1.99440467       0.75728594       0.13924655
H       -0.03181636      -1.25058387      -0.18496548
H       -0.92787060      -1.47147912       2.42785544
H       -1.59623362       0.90071683       1.31634434
H       -1.00059890       1.88375752      -0.89289651
H       -2.21672405      -0.41693115      -1.34533001
H       -2.80162286      -1.40705261       0.83520252
H       -3.65678062       1.79432601       0.16210765
H       -4.27713439       0.94654883      -1.25241426
H       -3.50292772       2.56555276      -4.34203639
H        2.74027117      -2.99648214       1.12937709
H        4.04436137      -3.39305851       1.75854409
35
Properties=species:S:1:pos:R:3 relative_energy_eV=0.008258756854047533 branch=left pbc="F F F"
O        7.65261288      -1.59115190       0.16645997
P        6.21817978      -1.80505625       0.55033528
O        5.85931823      -2.59853955       1.78024628
O        5.11915056      -1.20429492      -0.29561250
O        2.47551140      -1.27852623       0.17950540
C        2.13787611      -0.09149748       0.87905711
C        0.81455957      -0.29826313       1.57650445
O        0.66755393      -0.14482460       2.77718593
C       -0.38908194      -0.76531724       0.75895648
O       -1.11463327      -1.71533909       1.54088779
C       -1.26737405       0.44385759       0.38405943
O       -0.42126309       1.31451020      -0.33246140
C       -2.52516403       0.05278281      -0.41283688
O       -3.38755063      -0.80585967       0.32967087
C       -3.35310639       1.27119216      -0.76606706
O       -2.59006025       2.12883152      -1.59820786
P       -3.39270093       3.39982063      -2.38957665
O       -4.49605319       3.88588759      -1.50632926
O       -2.29372935       4.22540748      -2.98836444
O       -4.10296631       2.51659237      -3.62407803
O        3.15600529      -3.73799407       1.65107374
H        3.43837139      -1.26392732      -0.02526072
H        2.87598888       0.16569821       1.64247158
H        2.01036075       0.75027139       0.18918533
H       -0.03908124      -1.25869793      -0.14476338
H       -0.97521279      -1.43286619       2.46046152
H       -1.61380992       0.90454336       1.32297349
H       -0.99908286       1.88152389      -0.88120531
H       -2.19508898      -0.42093746      -1.34748213
H       -2.80768188      -1.40560446       0.82921108
H       -3.65232506       1.78890844       0.14673134
H       -4.26140134       0.95083944      -1.27657052
H       -3.47124659       2.55270659      -4.35191586
H        2.74838123      -3.01339282       1.15231854
H        4.07303582      -3.41859817       1.73075241
35
Properties=species:S:1:pos:R:3 relative_energy_eV=0.012678088925895281 branch=left pbc="F F F"
O        7.60883512      -1.38673876       0.07325933
P        6.20715135      -1.75765148       0.45276615
O        5.94016884      -2.65074767       1.63660153
O        5.04924968      -1.22846751      -0.36115002
O        2.44134931      -1.31490997       0.25159032
C        2.12217178      -0.11922485       0.94297931
C        0.78598389      -0.29088516       1.62353937
O        0.62608084      -0.10728174       2.81836127
C       -0.41473390      -0.76529401       0.80674514
O       -1.15121790      -1.68699046       1.61273690
C       -1.27978992       0.44335579       0.39298320
O       -0.41425774       1.29417372      -0.32501381
C       -2.52445988       0.04988092      -0.42037532
O       -3.39853355      -0.81337182       0.30363424
C       -3.34840511       1.26881969      -0.78037479
O       -2.57563551       2.12333397      -1.60482116
P       -3.35896100       3.39781237      -2.40788855
O       -4.48046127       3.88429385      -1.54769136
O       -2.24179975       4.22132724      -2.97486254
O       -4.04427672       2.52371451      -3.66473907
O        3.20455461      -3.77400052       1.64740767
H        3.39426779      -1.29650073      -0.00030586
H        2.85223082       0.12221618       1.72017590
H        2.02382128       0.72308601       0.24881319
H       -0.06064753      -1.28540732      -0.08087796
H       -1.01971164      -1.36962957       2.52241514
H       -1.64232116       0.92863247       1.31334584
H       -0.97717783       1.86412092      -0.88617391
H       -2.17756841      -0.41461682      -1.35387770
H       -2.83350724      -1.39930252       0.83488526
H       -3.65588704       1.78720643       0.13046361
H       -4.24842923       0.94570901      -1.30291331
H       -3.39820452       2.56229407      -4.38008722
H        2.76365418      -3.03856022       1.19511002
H        4.12475946      -3.45771130       1.67065359
35
Properties=species:S:1:pos:R:3 relative_energy_eV=0.015374059272289742 branch=left pbc="F F F"
O        7.55778279      -1.23925193       0.03343341
P        6.18446702      -1.73068821       0.37962068
O        5.97514273      -2.69617847       1.51730901
O        4.99728354      -1.25683659      -0.42634314
O        2.41111910      -1.34134429       0.28765373
C        2.11386075      -0.14478235       0.98529651
C        0.77070121      -0.28398109       1.66195752
O        0.60279127      -0.06186820       2.84904325
C       -0.42919023      -0.76391899       0.84484131
O       -1.18796585      -1.66272962       1.65734756
C       -1.28043082       0.44438525       0.40696512
O       -0.40107164       1.29043234      -0.29962037
C       -2.51264856       0.04897617      -0.42774807
O       -3.39459069      -0.82502160       0.27315167
C       -3.33787714       1.26407669      -0.79871987
O       -2.55478139       2.11984225      -1.61200770
P       -3.33323086       3.39361767      -2.41931109
O       -4.45799013       3.87865605      -1.56247635
O       -2.21415049       4.21694177      -2.98277622
O       -4.01058428       2.51991530      -3.68055644
O        3.23529557      -3.77690509       1.65881013
H        3.35464572      -1.32335223       0.00378422
H        2.85095922       0.08025262       1.76052687
H        2.03372979       0.70424587       0.29723363
H       -0.07631183      -1.30477867      -0.03043830
H       -1.08183612      -1.32544113       2.56204710
H       -1.65133710       0.93287494       1.32134648
H       -0.95603558       1.86958861      -0.85806562
H       -2.14567801      -0.41234649      -1.35504896
H       -2.83526094      -1.40070036       0.82102496
H       -3.66383006       1.78260024       0.10579624
H       -4.23155487       0.93714487      -1.33106554
H       -3.35630023       2.55844875      -4.38847942
H        2.76783017      -3.04941685       1.22018617
H        4.15534029      -3.45977271       1.63259461
35
Properties=species:S:1:pos:R:3 relative_energy_eV=0.017102468089433387 branch=left pbc="F F F"
O        7.51882650      -1.14543648       0.01091976
P        6.16439545      -1.70582023       0.32752335
O        5.98905753      -2.72854370       1.41932322
O        4.96076915      -1.24756725      -0.46245888
O        2.38887620      -1.35988904       0.31484913
C        2.10446741      -0.15894402       1.01007458
C        0.75981107      -0.27880857       1.68514159
O        0.58665394      -0.03502522       2.86699092
C       -0.43545661      -0.76393225       0.86720890
O       -1.20058615      -1.65713762       1.68060298
C       -1.27976645       0.44277983       0.41386061
O       -0.39432588       1.28184567      -0.29325614
C       -2.50453468       0.04373009      -0.42694892
O       -3.39263848      -0.82421844       0.27467083
C       -3.32394470       1.25808051      -0.81143434
O       -2.53404646       2.11757823      -1.61464654
P       -3.31260707       3.39206328      -2.42280537
O       -4.44612628       3.86950157      -1.57338967
O       -2.19413136       4.22295199      -2.97576112
O       -3.97729528       2.51925793      -3.69046031
O        3.25598508      -3.78068066       1.68745739
H        3.32234977      -1.33622607       0.00035527
H        2.84242923       0.06168852       1.78510128
H        2.03265376       0.69028454       0.32144257
H       -0.07847670      -1.31591293       0.00101377
H       -1.13499988      -1.29133778       2.57785939
H       -1.65995170       0.93944316       1.32046970
H       -0.94610314       1.86335095      -0.85305365
H       -2.13168385      -0.42333947      -1.34842881
H       -2.83728877      -1.40019834       0.82708831
H       -3.66035055       1.77507743       0.08924198
H       -4.20962135       0.92941044      -1.35527888
H       -3.32015784       2.56357473      -4.39519697
H        2.77114828      -3.06750525       1.24471922
H        4.17496242      -3.46741103       1.60451717
35
Properties=species:S:1:pos:R:3 relative_energy_eV=0.01885081172804348 branch=left pbc="F F F"
O        7.49233798      -1.05942407      -0.02498383
P        6.16032989      -1.67582019       0.28270651
O        6.03615321      -2.77399430       1.30770920
O        4.92828996      -1.20087152      -0.45208418
O        2.37134056      -1.38446535       0.34592552
C        2.09136468      -0.17521828       1.02905829
C        0.74328874      -0.27305383       1.70147133
O        0.56530756      -0.00271469       2.87685403
C       -0.45223782      -0.76189790       0.88655113
O       -1.22963882      -1.63824032       1.70746196
C       -1.28800613       0.44212972       0.41474235
O       -0.39499438       1.26527637      -0.30140675
C       -2.51373229       0.03510280      -0.42250763
O       -3.40964239      -0.81526896       0.29170985
C       -3.32665638       1.24786609      -0.82379107
O       -2.52646315       2.10481534      -1.61835984
P       -3.28797141       3.38997253      -2.42343763
O       -4.43730475       3.85643148      -1.58938479
O       -2.15940250       4.22982048      -2.94084094
O       -3.92345176       2.53352048      -3.71698968
O        3.29854220      -3.80330988       1.69181355
H        3.29959451      -1.35220839       0.01798002
H        2.83195890       0.04986975       1.80081827
H        2.02261381       0.66589655       0.32996973
H       -0.09416149      -1.32626075       0.02883546
H       -1.17295021      -1.25740021       2.59874292
H       -1.66944296       0.95235247       1.31385242
H       -0.94110908       1.84164001      -0.87223943
H       -2.14245506      -0.45140986      -1.33479073
H       -2.85905406      -1.37778123       0.86289836
H       -3.67184343       1.76442101       0.07356279
H       -4.20636434       0.92018658      -1.37818389
H       -3.25539891       2.59228213      -4.41063588
H        2.80404366      -3.08579162       1.26656995
H        4.21540843      -3.49376813       1.58771444
35
Properties=species:S:1:pos:R:3 relative_energy_eV=0.021650663868058473 branch=left pbc="F F F"
O        7.47988394      -1.01455738      -0.05265441
P        6.15829927      -1.64784621       0.26096213
O        6.06551346      -2.79639808       1.23241284
O        4.90646497      -1.14434289      -0.42003648
O        2.36067900      -1.40486795       0.36429070
C        2.08559797      -0.18756627       1.03539245
C        0.73239349      -0.26734006       1.69981972
O        0.55151973       0.02476184       2.86981581
C       -0.46610686      -0.76577631       0.89388582
O       -1.24097477      -1.63235287       1.72804329
C       -1.29681182       0.44030911       0.41444563
O       -0.39967486       1.25112039      -0.31053721
C       -2.52944430       0.03264162      -0.41243691
O       -3.42642062      -0.80075391       0.32042798
C       -3.33797851       1.24196762      -0.83384124
O       -2.52662975       2.09123031      -1.62469877
P       -3.26963249       3.38953959      -2.42337952
O       -4.43321307       3.84976377      -1.60627993
O       -2.12780986       4.22950871      -2.91057279
O       -3.88709236       2.55518787      -3.73706992
O        3.33517147      -3.82350527       1.69604263
H        3.28795616      -1.36731898       0.03554351
H        2.82196842       0.03302523       1.81174129
H        2.04132541       0.65221856       0.33260268
H       -0.11850299      -1.34442589       0.04160910
H       -1.18536191      -1.23760351       2.61305115
H       -1.67043902       0.96500537       1.30803983
H       -0.94384811       1.82892320      -0.88212113
H       -2.16697491      -0.47135883      -1.31888655
H       -2.87355153      -1.36513211       0.88741659
H       -3.69994897       1.77010598       0.04979814
H       -4.20846552       0.90735424      -1.39912048
H       -3.19840536       2.61031898      -4.41033135
H        2.82908102      -3.10048972       1.29358210
H        4.24972615      -3.51866187       1.56035513
35
Properties=species:S:1:pos:R:3 relative_energy_eV=0.024573208851506934 branch=left pbc="F F F"
O        7.45653544      -0.94963119      -0.06896458
P        6.14946978      -1.62622449       0.21747253
O        6.08885699      -2.83168557       1.12178222
O        4.88117860      -1.11124748      -0.42343289
O        2.35369988      -1.42401495       0.41130779
C        2.07129168      -0.19420097       1.05633336
C        0.71695909      -0.26428383       1.71727430
O        0.53527111       0.04047367       2.88422055
C       -0.48008445      -0.76848081       0.91178103
O       -1.26016747      -1.61766343       1.75765310
C       -1.30411541       0.43343578       0.40954261
O       -0.39974705       1.21505567      -0.33858507
C       -2.54432625       0.02397054      -0.40651633
O       -3.44561139      -0.79582831       0.33706371
C       -3.34571043       1.23417168      -0.84347097
O       -2.52597865       2.07730977      -1.63330752
P       -3.24885028       3.39035529      -2.42756387
O       -4.42702995       3.83754983      -1.62466244
O       -2.09997989       4.24265230      -2.87620092
O       -3.83864068       2.57901166      -3.76899469
O        3.37867745      -3.83655763       1.70844900
H        3.27316215      -1.37916686       0.06079167
H        2.80311722       0.04606618       1.83130164
H        2.02380321       0.63024989       0.33571511
H       -0.12651916      -1.35729041       0.06892273
H       -1.18638242      -1.21380711       2.63757419
H       -1.66524514       0.97831399       1.29610075
H       -0.93607126       1.81516643      -0.89432800
H       -2.18492230      -0.49296587      -1.30585381
H       -2.89553551      -1.35775619       0.90975391
H       -3.71052942       1.76649008       0.03625843
H       -4.21408016       0.90137668      -1.41398806
H       -3.13786685       2.64410488      -4.42915558
H        2.85627311      -3.10996347       1.33380143
H        4.28739108      -3.54230158       1.51923623
35
Properties=species:S:1:pos:R:3 relative_energy_eV=0.02735818360815756 branch=left pbc="F F F"
O        7.40207019      -0.86653370      -0.06029751
P        6.12250987      -1.61478029       0.15879551
O        6.10105401      -2.87990351       0.97562899
O        4.83927814      -1.11086718      -0.45952795
O        2.34795305      -1.43949156       0.46645151
C        2.05679942      -0.19726087       1.08378609
C        0.70097129      -0.26110765       1.74513705
O        0.51551921       0.05279143       2.90906398
C       -0.49608374      -0.76790013       0.94017110
O       -1.28685928      -1.59672527       1.79600851
C       -1.30961195       0.42959309       0.40774826
O       -0.39589057       1.19605037      -0.34459730
C       -2.54522203       0.01360210      -0.41285457
O       -3.45526587      -0.79438300       0.33270191
C       -3.34088584       1.22447888      -0.85625749
O       -2.51615834       2.06661029      -1.63982955
P       -3.22778282       3.38793990      -2.42956860
O       -4.42362658       3.82455673      -1.64670040
O       -2.06675471       4.24235398      -2.84200146
O       -3.78869076       2.59241204      -3.79357438
O        3.43396046      -3.83589049       1.73060712
H        3.25487469      -1.38576032       0.08630588
H        2.79216951       0.06848635       1.84835740
H        1.99848657       0.60815089       0.34249644
H       -0.13931190      -1.37473997       0.11085366
H       -1.19984130      -1.19347724       2.67535875
H       -1.68129221       0.99330363       1.27775480
H       -0.92948218       1.78708792      -0.91285732
H       -2.18321603      -0.51466511      -1.30524771
H       -2.91366117      -1.34284648       0.92460677
H       -3.70798311       1.75817557       0.02185099
H       -4.20683791       0.89239995      -1.43041895
H       -3.08072886       2.68949098      -4.44175338
H        2.89637935      -3.11243168       1.37275947
H        4.33145357      -3.55603560       1.47635362
35
Properties=species:S:1:pos:R:3 relative_energy_eV=0.029552141597378068 branch=left pbc="F F F"
O        7.32047858      -0.77884291      -0.03314924
P        6.08020226      -1.60868647       0.10683287
O        6.11354102      -2.93129760       0.82841351
O        4.78515449      -1.13774547      -0.51388154
O        2.33478762      -1.44501186       0.51003367
C        2.04248800      -0.19199302       1.10435010
C        0.68896852      -0.25670507       1.76871683
O        0.50539998       0.05701564       2.93283485
C       -0.50618144      -0.76850808       0.96687642
O       -1.30593314      -1.58209005       1.82840562
C       -1.31030005       0.42514593       0.41535044
O       -0.38639186       1.18194271      -0.33378645
C       -2.53545243       0.00559142      -0.41791610
O       -3.44817507      -0.81124832       0.31434607
C       -3.32978199       1.21480646      -0.86928481
O       -2.49718478       2.05676850      -1.64654587
P       -3.20493528       3.38331893      -2.43207201
O       -4.40820882       3.80660167      -1.65357032
O       -2.04734074       4.24971898      -2.82945280
O       -3.74818991       2.59666165      -3.80829669
O        3.47131648      -3.82301523       1.75839863
H        3.22637724      -1.38788896       0.09364258
H        2.77620289       0.08845164       1.86518626
H        1.97898126       0.60032868       0.34928793
H       -0.14620184      -1.38685256       0.14764632
H       -1.22372523      -1.16842583       2.70348352
H       -1.69005690       0.99562446       1.27783875
H       -0.91312292       1.76491418      -0.91604894
H       -2.16140766      -0.51621502      -1.30902245
H       -2.91667804      -1.33532822       0.93748166
H       -3.70601109       1.74873504       0.00461335
H       -4.19113769       0.88396463      -1.45143812
H       -3.04185221       2.72199789      -4.45330760
H        2.93070234      -3.09992631       1.40404233
H        4.36196020      -3.56912346       1.45730230
35
Properties=species:S:1:pos:R:3 relative_energy_eV=0.031336251107859425 branch=left pbc="F F F"
O        7.24985123      -0.71724445       0.00470812
P        6.04552546      -1.60855975       0.06730799
O        6.11981113      -2.96538856       0.72071709
O        4.74611602      -1.16300879      -0.56382358
O        2.32281196      -1.44852750       0.52602031
C        2.03401298      -0.19445575       1.11979684
C        0.68238648      -0.25521157       1.78705800
O        0.49461856       0.06803936       2.94798437
C       -0.51073255      -0.76947862       0.98471536
O       -1.31501248      -1.57087923       1.85259918
C       -1.31069372       0.42364856       0.42482137
O       -0.38238414       1.18142365      -0.31739562
C       -2.52455153       0.00054144      -0.42135676
O       -3.44209578      -0.82524647       0.29449282
C       -3.31800758       1.20706328      -0.88072709
O       -2.48114596       2.05193662      -1.65035659
P       -3.18822497       3.38022021      -2.43299433
O       -4.39422002       3.79790537      -1.65547318
O       -2.03050771       4.24924036      -2.82400472
O       -3.72859003       2.60024970      -3.81411823
O        3.49725159      -3.80323390       1.79341304
H        3.20207250      -1.38694153       0.08460204
H        2.77513653       0.09153068       1.87151410
H        1.96070213       0.59507369       0.36279591
H       -0.15165111      -1.39689413       0.17174593
H       -1.23600075      -1.14118298       2.72047909
H       -1.69835937       0.99431548       1.28414182
H       -0.90387543       1.77107490      -0.89790672
H       -2.13527255      -0.51912693      -1.30665800
H       -2.91660426      -1.33742661       0.93189175
H       -3.70648736       1.74289222      -0.01324578
H       -4.17003316       0.87100020      -1.47297463
H       -3.02496594       2.73114827      -4.46092388
H        2.95771176      -3.08663312       1.42408895
H        4.37969959      -3.58518014       1.44437603
35
Properties=species:S:1:pos:R:3 relative_energy_eV=0.03456995666056173 branch=left pbc="F F F"
O        7.16691250      -0.66367317       0.05417309
P        5.99960620      -1.60461650       0.02734446
O        6.10317682      -2.98903495       0.61515697
O        4.70376952      -1.18335883      -0.62875800
O        2.31501836      -1.45212057       0.54419433
C        2.03102863      -0.19363528       1.13283288
C        0.68141421      -0.25125657       1.80583015
O        0.49739411       0.07340592       2.96701698
C       -0.50928607      -0.76899252       1.00269932
O       -1.32148742      -1.56570150       1.86771354
C       -1.30290604       0.42153722       0.42855739
O       -0.36900977       1.18511842      -0.30069266
C       -2.50704332      -0.00606547      -0.42942870
O       -3.43102452      -0.82615003       0.28448020
C       -3.30191059       1.19621980      -0.89426986
O       -2.46601643       2.04692437      -1.65665469
P       -3.17551183       3.37727764      -2.43356442
O       -4.38199162       3.79395518      -1.65593218
O       -2.01888300       4.24842597      -2.82316274
O       -3.71643388       2.60096457      -3.81649074
O        3.50646686      -3.78036862       1.82791152
H        3.17575154      -1.38951687       0.06778580
H        2.77107553       0.09525236       1.88457276
H        1.95902275       0.59211922       0.37162910
H       -0.14480733      -1.40222131       0.19654880
H       -1.25007608      -1.13631294       2.73612950
H       -1.70139817       0.99243178       1.28159026
H       -0.88552451       1.78787712      -0.87144191
H       -2.11415470      -0.52747163      -1.31228732
H       -2.91236435      -1.34993989       0.91725778
H       -3.69602024       1.72552979      -0.02604975
H       -4.15072100       0.85902569      -1.49052492
H       -3.01360262       2.73421613      -4.46360348
H        2.97644947      -3.05843490       1.45463340
H        4.38137838      -3.59872571       1.44211394
35
Properties=species:S:1:pos:R:3 relative_energy_eV=0.04043819161597639 branch=left pbc="F F F"
O        7.04518043      -0.61363483       0.13591083
P        5.93474404      -1.60853298      -0.01607236
O        6.07823997      -3.02733290       0.47345172
O        4.65061782      -1.21055202      -0.70865570
O        2.30871727      -1.46380384       0.56288688
C        2.03643344      -0.20144240       1.14721433
C        0.68393630      -0.24083731       1.82221702
O        0.50515207       0.08927188       2.98251535
C       -0.51253817      -0.76256724       1.02659716
O       -1.32361831      -1.55881237       1.89409407
C       -1.31074191       0.42074352       0.44588648
O       -0.36906566       1.19641910      -0.26073380
C       -2.49183481      -0.01584739      -0.43571923
O       -3.42136387      -0.84929108       0.25681808
C       -3.28510230       1.18438349      -0.91364756
O       -2.44099410       2.04606669      -1.65790696
P       -3.15400748       3.37890022      -2.43545371
O       -4.35611510       3.79489466      -1.65019628
O       -1.99997061       4.24951354      -2.83448584
O       -3.70389824       2.60586467      -3.81740908
O        3.54332341      -3.74117069       1.85726446
H        3.14798787      -1.39507423       0.04931776
H        2.78545906       0.07264123       1.89482455
H        1.97517011       0.58187928       0.38335154
H       -0.14738893      -1.40046200       0.22479056
H       -1.27204663      -1.11523679       2.75621670
H       -1.73704282       0.98302956       1.29165512
H       -0.87541211       1.80142620      -0.83844405
H       -2.07351362      -0.53733718      -1.30615651
H       -2.90977263      -1.36500890       0.90178055
H       -3.70350279       1.71197522      -0.05517716
H       -4.11891382       0.84338660      -1.52821001
H       -2.99824019       2.72664586      -4.46424577
H        3.00739495      -3.01563046       1.49782828
H        4.40101849      -3.58178318       1.42520341
35
Properties=species:S:1:pos:R:3 relative_energy_eV=0.04661833251884673 branch=left pbc="F F F"
O        6.91571176      -0.58809130       0.22833292
P        5.86524898      -1.61709147      -0.05421531
O        6.05569934      -3.05829403       0.34504007
O        4.59419348      -1.22941596      -0.77665111
O        2.28393087      -1.47947405       0.57050462
C        2.03832976      -0.21442275       1.16147515
C        0.68654262      -0.23042441       1.83401049
O        0.50904244       0.12100547       2.98826239
C       -0.51217034      -0.75559224       1.04517691
O       -1.31883727      -1.54496842       1.92264696
C       -1.31715993       0.42580335       0.47077614
O       -0.37947352       1.23085702      -0.20633966
C       -2.47351698      -0.01643211      -0.44240828
O       -3.40930576      -0.86841940       0.21858646
C       -3.27318016       1.16988773      -0.93760857
O       -2.42105386       2.03965172      -1.66195138
P       -3.12878182       3.37553334      -2.43408394
O       -4.32357331       3.80049745      -1.64301457
O       -1.97018363       4.23854815      -2.83490041
O       -3.69038369       2.60010262      -3.81020828
O        3.60810049      -3.68913817       1.89133875
H        3.09851627      -1.41422923       0.02082976
H        2.79287379       0.04594718       1.90811422
H        1.99070951       0.57449907       0.40310444
H       -0.15643178      -1.39948146       0.24361273
H       -1.27343923      -1.08702162       2.77778772
H       -1.75833490       0.96543182       1.32479427
H       -0.88844844       1.80414836      -0.81403651
H       -2.02949797      -0.51898099      -1.31181645
H       -2.91165122      -1.36753700       0.88537493
H       -3.71939885       1.69165866      -0.09030396
H       -4.08419816       0.81496738      -1.57540378
H       -2.98641062       2.71379946      -4.45986360
H        3.04876413      -2.98485888       1.52510742
H        4.43605871      -3.56578123       1.39524039
35
Properties=species:S:1:pos:R:3 relative_energy_eV=0.05155055331852054 branch=left pbc="F F F"
O        6.85961361      -0.58474152       0.27020592
P        5.83293590      -1.62208966      -0.06278058
O        6.04301130      -3.07050422       0.30023743
O        4.56945397      -1.23013661      -0.79625248
O        2.26070141      -1.48599428       0.56023986
C        2.03141312      -0.22142646       1.16051763
C        0.68021259      -0.21848928       1.83441584
O        0.50554629       0.14597270       2.98540258
C       -0.51926694      -0.74693368       1.05401700
O       -1.32706175      -1.53100619       1.93598117
C       -1.32428091       0.43303822       0.48046086
O       -0.38466805       1.25301774      -0.17675634
C       -2.46357355      -0.01894786      -0.44472503
O       -3.39359247      -0.88692600       0.20464806
C       -3.27078467       1.16134074      -0.94519289
O       -2.41641990       2.03679275      -1.66145523
P       -3.11647308       3.37613277      -2.43552491
O       -4.30774253       3.80863808      -1.64304411
O       -1.95029201       4.22835168      -2.83808667
O       -3.68772947       2.60799172      -3.81212310
O        3.65638496      -3.66322728       1.91539857
H        3.06235784      -1.41623795      -0.00718213
H        2.78444247       0.02215543       1.91321836
H        2.00163961       0.57223410       0.40651313
H       -0.16416723      -1.39558312       0.25554412
H       -1.26059889      -1.08424022       2.79545329
H       -1.78773114       0.96093285       1.32950427
H       -0.88875165       1.81865426      -0.79588353
H       -2.00009017      -0.51384303      -1.30857912
H       -2.90205361      -1.37058459       0.88785716
H       -3.73213714       1.68303358      -0.10517779
H       -4.07288046       0.79993326      -1.59056754
H       -2.97921398       2.70494641      -4.45967719
H        3.08959016      -2.98619818       1.51230901
H        4.47049709      -3.58337193       1.38839541
35
Properties=species:S:1:pos:R:3 relative_energy_eV=0.05660554468340706 branch=left pbc="F F F"
O        6.83191145      -0.58729582       0.29586216
P        5.81318738      -1.62363774      -0.06495285
O        6.02475915      -3.07754795       0.27516138
O        4.55813739      -1.22996644      -0.81176452
O        2.24915576      -1.48338500       0.54827526
C        2.02871681      -0.22345912       1.15980891
C        0.67971905      -0.21430890       1.83716818
O        0.51021585       0.16114378       2.98540602
C       -0.52600695      -0.74193484       1.06279026
O       -1.32427088      -1.52743508       1.95279821
C       -1.33346080       0.43799281       0.48752953
O       -0.39121877       1.26056071      -0.16358633
C       -2.46178469      -0.02101614      -0.45101494
O       -3.38608282      -0.90137247       0.19056257
C       -3.27295681       1.15460409      -0.95581819
O       -2.42050808       2.03277992      -1.66917631
P       -3.11014971       3.37821696      -2.43824477
O       -4.29748354       3.81885137      -1.64419418
O       -1.93509195       4.22012501      -2.83825769
O       -3.68615157       2.61161793      -3.81345601
O        3.68699910      -3.66771440       1.92412750
H        3.04442391      -1.41026456      -0.02602108
H        2.78808638       0.00116984       1.91076071
H        1.99922712       0.58089017       0.41581959
H       -0.18598863      -1.38793564       0.25586639
H       -1.25724370      -1.07516694       2.80927793
H       -1.80469364       0.96579058       1.33392842
H       -0.89259586       1.83904957      -0.77267115
H       -1.99313768      -0.51361393      -1.31246940
H       -2.89510413      -1.36620854       0.88673233
H       -3.73070919       1.66911235      -0.10997725
H       -4.07498717       0.79244508      -1.60170804
H       -2.97396861       2.69930891      -4.45817735
H        3.13029812      -2.99557599       1.50169023
H        4.50704847      -3.59313539       1.40523560
35
Properties=species:S:1:pos:R:3 relative_energy_eV=0.07123627288092393 branch=left pbc="F F F"
O        6.80267857      -0.59879327       0.32926031
P        5.78848188      -1.62247702      -0.07836401
O        5.98421744      -3.07984277       0.25547237
O        4.56175140      -1.21786420      -0.86505474
O        2.25874671      -1.47171891       0.53075212
C        2.03976349      -0.22166563       1.16065339
C        0.68884442      -0.21986871       1.83669228
O        0.52637620       0.14260766       2.98964862
C       -0.52511611      -0.73973549       1.06728958
O       -1.34073267      -1.49870832       1.96350552
C       -1.33763507       0.43481637       0.48744625
O       -0.40846987       1.27911076      -0.15151951
C       -2.46456778      -0.02583774      -0.45413820
O       -3.39613841      -0.91321240       0.16950620
C       -3.27818178       1.14935777      -0.95743916
O       -2.42612496       2.02656030      -1.67145158
P       -3.10296880       3.37769338      -2.44022856
O       -4.28739353       3.82881102      -1.64766348
O       -1.91591399       4.20543185      -2.83441630
O       -3.68688720       2.62077736      -3.81742497
O        3.71487889      -3.70476101       1.92965796
H        3.04254232      -1.38730976      -0.05534502
H        2.79608272      -0.00139595       1.91627916
H        2.01710881       0.59312633       0.42979457
H       -0.17976199      -1.40621254       0.27962487
H       -1.27169706      -1.02655192       2.80893071
H       -1.81701127       0.95200037       1.33452499
H       -0.92354846       1.86118734      -0.74659999
H       -1.98653816      -0.50342722      -1.31859630
H       -2.91814537      -1.36972239       0.87903678
H       -3.74278401       1.66537319      -0.11565951
H       -4.07553734       0.78250475      -1.60564920
H       -2.97014008       2.69045552      -4.45937543
H        3.17499711      -3.02123441       1.50591919
H        4.55711448      -3.59679015       1.45224221
35
Properties=species:S:1:pos:R:3 relative_energy_eV=0.1214053765143035 branch=left pbc="F F F"
O        6.67424733      -0.59028666       0.38705905
P        5.71865915      -1.61992591      -0.13536391
O        5.90817308      -3.08099759       0.18584620
O        4.56718548      -1.21114410      -1.02643763
O        2.30464712      -1.40256762       0.50163513
C        2.05590334      -0.18487205       1.17015926
C        0.69997510      -0.22503621       1.84145762
O        0.53828688       0.10874201       3.00330493
C       -0.51852419      -0.74754817       1.07975771
O       -1.32536396      -1.50643334       1.98387565
C       -1.33358026       0.42074481       0.49177634
O       -0.40222394       1.27588889      -0.12858310
C       -2.45018278      -0.03508463      -0.46549387
O       -3.38511844      -0.92651011       0.14944845
C       -3.25971256       1.14941679      -0.96006742
O       -2.40580664       2.03293676      -1.66766778
P       -3.09331631       3.38107568      -2.43874259
O       -4.27321625       3.82996322      -1.63816197
O       -1.91297873       4.21263420      -2.84498176
O       -3.68238029       2.61117221      -3.80624347
O        3.78123757      -3.71922722       2.05820413
H        3.04812173      -1.27600912      -0.13141382
H        2.79200546       0.02992370       1.94707776
H        2.02293339       0.65681581       0.47227949
H       -0.19117431      -1.40956246       0.28321112
H       -1.31397668      -0.99355532       2.80952521
H       -1.82337311       0.92566629       1.33860705
H       -0.89571853       1.82968684      -0.76782941
H       -1.96927454      -0.50730239      -1.33307584
H       -2.90032871      -1.40068714       0.84232012
H       -3.72542821       1.65866106      -0.11413238
H       -4.06264690       0.79495761      -1.60883353
H       -2.96672492       2.67132171      -4.45057394
H        3.14219313      -3.13137478       1.63481682
H        4.53577178      -3.63879874       1.44455180
35
Properties=species:S:1:pos:R:3 relative_energy_eV=0.1821307151039946 branch=left pbc="F F F"
O        6.37457675      -0.58077602       0.46336808
P        5.52558539      -1.61209192      -0.21845239
O        5.72450526      -3.08079137       0.06001731
O        4.44571014      -1.19146613      -1.18980163
O        2.28398711      -1.30693267       0.47393295
C        2.05114194      -0.11417854       1.18928652
C        0.70523398      -0.21072714       1.86688237
O        0.50765880       0.12428718       3.02368341
C       -0.46726714      -0.76560304       1.06860499
O       -1.28489384      -1.57286466       1.91461632
C       -1.27014913       0.40840123       0.48420248
O       -0.32460157       1.22803085      -0.16556713
C       -2.38879145      -0.04163041      -0.46706733
O       -3.32163195      -0.93701580       0.14182842
C       -3.19760447       1.14722315      -0.94568502
O       -2.34950884       2.04059076      -1.65217932
P       -3.07912115       3.36669768      -2.42537248
O       -4.25658327       3.79489205      -1.60980013
O       -1.93356413       4.22933291      -2.86291760
O       -3.67215609       2.57128553      -3.77670871
O        3.77882907      -3.74141137       2.16159948
H        3.01270615      -1.19734257      -0.17234414
H        2.80674561       0.05816126       1.96119131
H        1.96991878       0.77456481       0.54493048
H       -0.09810874      -1.39931812       0.26966065
H       -1.25479532      -1.13495123       2.77846857
H       -1.74787185       0.95112846       1.31456441
H       -0.82027073       1.78366532      -0.79901340
H       -1.90055503      -0.50165226      -1.33671657
H       -2.81927370      -1.45037863       0.79357690
H       -3.64701927       1.65358377      -0.08951874
H       -4.00501359       0.79985834      -1.59343532
H       -2.97269012       2.64918150      -4.43668964
H        3.07080393      -3.15258446       1.87102973
H        4.45235831      -3.60648447       1.46713658
35
Properties=species:S:1:pos:R:3 relative_energy_eV=0.26100468228105456 branch=left pbc="F F F"
O        6.18592294      -0.57521657       0.50477125
P        5.37675460      -1.60581412      -0.22771078
O        5.60147214      -3.07795408       0.00001415
O        4.31678339      -1.17170106      -1.21222524
O        2.27814871      -1.29447358       0.49586734
C        2.05806406      -0.10322665       1.22093874
C        0.72336257      -0.21001964       1.89340065
O        0.50186273       0.12600999       3.04661916
C       -0.41229548      -0.77009459       1.05815441
O       -1.22610446      -1.62341762       1.86038431
C       -1.21302062       0.40311724       0.46884278
O       -0.26754894       1.20521116      -0.20947798
C       -2.34538438      -0.04583217      -0.47248816
O       -3.27538258      -0.94327223       0.13719523
C       -3.16228622       1.14401832      -0.93493908
O       -2.32200733       2.04065652      -1.64608779
P       -3.07139738       3.35259636      -2.41639667
O       -4.24948859       3.76617737      -1.59298969
O       -1.94438457       4.23144985      -2.86773662
O       -3.66753330       2.54717381      -3.76165663
O        3.73029108      -3.74419137       2.18935146
H        2.90266199      -1.07676504      -0.24461259
H        2.82544421       0.08730485       1.98554704
H        1.99024086       0.74966105       0.53258174
H       -0.02685006      -1.36811130       0.24539011
H       -1.19122108      -1.23759363       2.74765742
H       -1.67520712       0.95070537       1.30387413
H       -0.76736445       1.78610866      -0.81717466
H       -1.87208793      -0.50193548      -1.35295022
H       -2.77340069      -1.47095537       0.77757809
H       -3.60462522       1.64958634      -0.07448437
H       -3.97766303       0.79843233      -1.57461627
H       -2.98015570       2.63923846      -4.43242533
H        3.03475526      -3.10577898       1.97914743
H        4.39793402      -3.56841023       1.49796772
35
Properties=species:S:1:pos:R:3 relative_energy_eV=0.3897444935864769 branch=left pbc="F F F"
O        5.84311315      -0.55791056       0.60210677
P        5.09764641      -1.54192584      -0.25016597
O        5.29054531      -3.02272606      -0.04203842
O        4.20240647      -1.06827933      -1.36982880
O        2.47713524      -1.32495344       0.66132912
C        2.14351599      -0.08903421       1.28355138
C        0.77476988      -0.24224240       1.89613662
O        0.49778043       0.01848355       3.05556749
C       -0.32674187      -0.78099013       1.00321145
O       -1.13460620      -1.67647137       1.76694230
C       -1.14161987       0.39720200       0.43471622
O       -0.19926275       1.19988842      -0.24642809
C       -2.29107185      -0.05464661      -0.48376655
O       -3.19377638      -0.95040941       0.16196766
C       -3.12120207       1.13311850      -0.92000749
O       -2.30294338       2.03319936      -1.64862825
P       -3.07271644       3.33719296      -2.41306495
O       -4.24906612       3.74156442      -1.58238531
O       -1.95588970       4.22483279      -2.87155963
O       -3.67096694       2.52801948      -3.75445233
O        3.57880715      -3.64488014       2.25473738
H        2.64008334      -1.17648503      -0.28640398
H        2.87792045       0.15762688       2.04953587
H        2.09829725       0.74375728       0.57387434
H        0.11997907      -1.32433843       0.17716230
H       -1.08387957      -1.33886051       2.67612975
H       -1.59984635       0.94413093       1.27408083
H       -0.70526063       1.79153862      -0.83794360
H       -1.84107551      -0.51608623      -1.37317635
H       -2.66316866      -1.48045960       0.78040703
H       -3.53909086       1.62652577      -0.04081457
H       -3.95399048       0.78726935      -1.53409197
H       -2.99058376       2.62944940      -4.43083319
H        3.02631551      -2.90190898       1.97685712
H        4.26673282      -3.61850733       1.56458623
35
Properties=species:S:1:pos:R:3 relative_energy_eV=0.47685011438443325 branch=left pbc="F F F"
O        5.67350615      -0.52507230       0.62032732
P        4.96417874      -1.51292813      -0.25384764
O        5.09916786      -2.99823141      -0.02825166
O        4.09156188      -1.01677173      -1.38760845
O        2.50941156      -1.34537235       0.72314192
C        2.18084548      -0.09619665       1.30642027
C        0.81275099      -0.25736941       1.88840205
O        0.53534709      -0.03605669       3.05475676
C       -0.28064276      -0.79002293       0.96675622
O       -1.08454732      -1.69097469       1.72817885
C       -1.10518546       0.38698143       0.41530447
O       -0.18337910       1.21117346      -0.26726855
C       -2.26876833      -0.05897010      -0.48640230
O       -3.16461240      -0.95027501       0.17386130
C       -3.10685813       1.12744367      -0.91324324
O       -2.30251945       2.03212268      -1.65065258
P       -3.07589565       3.33534735      -2.41405974
O       -4.25072307       3.74348089      -1.58445424
O       -1.95754038       4.22144173      -2.87420838
O       -3.67458791       2.52770349      -3.75558539
O        3.52370244      -3.57210579       2.28719086
H        2.72221901      -1.16763289      -0.21378770
H        2.90351821       0.14524036       2.07819162
H        2.13547626       0.70291749       0.56020873
H        0.16932558      -1.33461310       0.13974474
H       -1.04151052      -1.34133491       2.63403495
H       -1.54626220       0.91386106       1.27501116
H       -0.71148587       1.79405587      -0.84892633
H       -1.83161048      -0.52197418      -1.38198662
H       -2.62748012      -1.48092852       0.78750117
H       -3.52008096       1.61668420      -0.02959846
H       -3.94223616       0.77362986      -1.51824473
H       -2.99226908       2.62757228      -4.43042787
H        3.04695915      -2.81446928       1.91422166
H        4.19851377      -3.66567162       1.59261001
35
Properties=species:S:1:pos:R:3 relative_energy_eV=1.0321452220814535 branch=ts pbc="F F F"
O        5.63693820      -0.49724640       0.59763447
P        4.82081427      -1.51980161      -0.11183880
O        5.06672138      -2.99549355      -0.06962310
O        3.86040517      -1.01168652      -1.25380141
O        2.60263203      -1.33768364       0.70118876
C        2.22151099      -0.13588468       1.30509275
C        0.83703495      -0.26802822       1.88341722
O        0.54864478      -0.03316611       3.04590947
C       -0.25960161      -0.79165152       0.95900625
O       -1.06896524      -1.69408107       1.71968066
C       -1.09402256       0.38322317       0.41267088
O       -0.18101095       1.21219492      -0.27458193
C       -2.26381549      -0.06060286      -0.48552750
O       -3.16047017      -0.95195313       0.17529517
C       -3.10414087       1.12634064      -0.91109464
O       -2.30304086       2.03322026      -1.65113724
P       -3.07548228       3.33394068      -2.41363023
O       -4.25021991       3.74523152      -1.58532180
O       -1.95790405       4.22122673      -2.87513340
O       -3.67528763       2.52794039      -3.75593026
O        3.52061550      -3.57754107       2.30953342
H        2.96841388      -1.08499288      -0.55429307
H        2.89633946       0.16707058       2.10763268
H        2.15564629       0.67651294       0.56789073
H        0.19493836      -1.33882344       0.13421772
H       -1.02869691      -1.34133596       2.62482315
H       -1.53699276       0.90703249       1.27506062
H       -0.71244678       1.79484404      -0.85093930
H       -1.83280873      -0.52333558      -1.38391545
H       -2.61976645      -1.48203851       0.78722409
H       -3.51643530       1.61583367      -0.02728992
H       -3.94098525       0.77325604      -1.51489759
H       -2.99241511       2.62725138      -4.42989009
H        3.05609625      -2.80874205       1.92810506
H        4.18779863      -3.69106774       1.61446732
35
Properties=species:S:1:pos:R:3 relative_energy_eV=0.6083910653251223 branch=right pbc="F F F"
O        5.55581546      -0.48328636       0.61717785
P        4.61208865      -1.49454722       0.02962516
O        4.98204423      -2.95556598      -0.06638312
O        3.84722005      -0.97851727      -1.32413419
O        2.79492440      -1.36958778       0.77913589
C        2.28504198      -0.13694683       1.31500344
C        0.86877906      -0.29200339       1.86621590
O        0.58819301      -0.04362702       3.01658067
C       -0.24151398      -0.79828915       0.94991884
O       -1.04830864      -1.69909069       1.71223944
C       -1.08561850       0.38043377       0.41047461
O       -0.17690176       1.20815194      -0.28083421
C       -2.25939901      -0.06147628      -0.48532916
O       -3.15669498      -0.95167917       0.17489422
C       -3.10048741       1.12690652      -0.90910641
O       -2.29868060       2.03138716      -1.64828229
P       -3.07615611       3.33423990      -2.41373538
O       -4.25081006       3.74176439      -1.58430103
O       -1.95774991       4.22108858      -2.87413976
O       -3.67396138       2.52612523      -3.75456318
O        3.51422855      -3.59768113       2.33435194
H        2.96735224      -1.01793484      -0.84906041
H        2.91723713       0.18275521       2.12990832
H        2.19549997       0.66232745       0.56233733
H        0.20031164      -1.34720344       0.12056524
H       -1.02458879      -1.34293418       2.61727792
H       -1.52585819       0.90123789       1.27461782
H       -0.71149343       1.79618975      -0.85052311
H       -1.83006839      -0.52282328      -1.38387858
H       -2.61891772      -1.48469472       0.78459045
H       -3.51412044       1.61536072      -0.02522494
H       -3.93749452       0.77271728      -1.51280697
H       -2.99268368       2.62630209      -4.42956900
H        3.06937817      -2.82213964       1.95478992
H        4.18518650      -3.70971780       1.63486630
35
Properties=species:S:1:pos:R:3 relative_energy_eV=-0.17500916920835152 branch=right pbc="F F F"
O        5.32851008      -0.38630630       0.70390816
P        4.42689477      -1.41982083       0.10983414
O        4.75052977      -2.88762981       0.02156427
O        3.83710487      -0.89840131      -1.35956616
O        2.91384301      -1.39620591       0.96433923
C        2.37533704      -0.15122492       1.36243533
C        0.95391852      -0.32731058       1.84273671
O        0.66046246      -0.07557432       2.99924220
C       -0.19924999      -0.81916480       0.93051136
O       -1.01088132      -1.70865153       1.70273159
C       -1.05424252       0.36834958       0.41060654
O       -0.15941634       1.20248968      -0.28788903
C       -2.24689174      -0.06308803      -0.47919650
O       -3.15140590      -0.95045324       0.17577655
C       -3.09112896       1.12583845      -0.90523051
O       -2.29442213       2.03252610      -1.64660812
P       -3.07438624       3.33163429      -2.40991268
O       -4.25002746       3.73344039      -1.58029580
O       -1.95877156       4.22039997      -2.87355416
O       -3.67040753       2.52079685      -3.75137614
O        3.50314067      -3.67903352       2.37578517
H        2.86956753      -0.95430617      -1.38988746
H        2.93869996       0.29589854       2.18398626
H        2.35205923       0.55601604       0.53004272
H        0.18973980      -1.37291745       0.07571836
H       -1.00828905      -1.33246022       2.59826891
H       -1.48815541       0.88441635       1.28209004
H       -0.70801925       1.79144081      -0.84485774
H       -1.82582331      -0.52433009      -1.38249078
H       -2.61565647      -1.49112168       0.77946595
H       -3.50885642       1.61391644      -0.02321923
H       -3.92713704       0.77110997      -1.51118814
H       -2.99127265       2.62689162      -4.42810011
H        3.06236996      -2.87453570       2.04544055
H        4.17405734      -3.74538744       1.67158826
35
Properties=species:S:1:pos:R:3 relative_energy_eV=-0.32556492633739254 branch=right pbc="F F F"
O        5.17443286      -0.29033536       0.70267043
P        4.32277586      -1.36644689       0.10739587
O        4.69551741      -2.81987216      -0.00674330
O        3.82197574      -0.76384068      -1.36210919
O        2.82473768      -1.38261049       0.92411538
C        2.33737729      -0.10334539       1.32052669
C        0.92836055      -0.28886824       1.83247815
O        0.62126616      -0.09544028       3.00067797
C       -0.17899888      -0.81561202       0.92367272
O       -0.97130725      -1.71273379       1.70267143
C       -1.02968074       0.36047381       0.40185482
O       -0.13250233       1.19146880      -0.29770487
C       -2.22462053      -0.06606123      -0.47442631
O       -3.12542310      -0.94534165       0.19668617
C       -3.06606638       1.12389709      -0.89417369
O       -2.27681378       2.03351887      -1.63967369
P       -3.06618178       3.32525454      -2.40618037
O       -4.24551609       3.72270262      -1.57265272
O       -1.96254498       4.21999170      -2.87481313
O       -3.66401162       2.51225647      -3.74529016
O        3.50502040      -3.80757238       2.44211892
H        2.91553494      -1.03778842      -1.57415177
H        2.92500459       0.27218826       2.15355672
H        2.37913152       0.60898345       0.48883849
H        0.26314696      -1.36189015       0.09712544
H       -0.94166174      -1.32275363       2.59520845
H       -1.43343549       0.86429640       1.29367356
H       -0.67525004       1.79272812      -0.84393629
H       -1.81247185      -0.53137959      -1.38083762
H       -2.58522487      -1.50504845       0.77919025
H       -3.48209289       1.61188253      -0.01145515
H       -3.90047851       0.76006550      -1.49461761
H       -2.98720691       2.63017202      -4.42277304
H        3.01620934      -2.99452635       2.23472086
H        4.13279233      -3.80117185       1.69705648
35
Properties=species:S:1:pos:R:3 relative_energy_eV=-0.3737143837279291 branch=right pbc="F F F"
O        5.14848938      -0.27114338       0.72286960
P        4.29179686      -1.31902684       0.09017184
O        4.66729741      -2.76759259      -0.04284454
O        3.78251066      -0.70279111      -1.36876482
O        2.78785615      -1.35748439       0.87293206
C        2.32186831      -0.09963653       1.33059835
C        0.92941226      -0.28173899       1.84631748
O        0.62176409      -0.05606421       3.00967039
C       -0.16639669      -0.81483358       0.91892842
O       -0.96026384      -1.71400675       1.69486646
C       -1.01472686       0.36289665       0.39205788
O       -0.11389406       1.19140599      -0.30713725
C       -2.21181447      -0.06948683      -0.47658500
O       -3.10460139      -0.94856757       0.20567498
C       -3.05375816       1.12165412      -0.88945419
O       -2.26532671       2.03034696      -1.63774145
P       -3.06098523       3.31887967      -2.39984758
O       -4.23828419       3.71305852      -1.56569908
O       -1.96198116       4.22098071      -2.87192411
O       -3.65548295       2.50181236      -3.73831057
O        3.50408700      -3.86321329       2.46307993
H        2.96484400      -1.14473799      -1.63251158
H        2.93556949       0.28513807       2.14161072
H        2.29610213       0.63262666       0.52216151
H        0.26829266      -1.36582545       0.08665488
H       -0.90102948      -1.34854467       2.59515713
H       -1.43182866       0.87747798       1.27005587
H       -0.65837512       1.79365280      -0.84956286
H       -1.80402006      -0.54014694      -1.38073990
H       -2.55512395      -1.50570770       0.78301027
H       -3.45971492       1.60833526      -0.00128630
H       -3.89402621       0.76556363      -1.48551190
H       -2.98506859       2.62978412      -4.41995691
H        2.98591436      -3.05719594       2.32485589
H        4.09269186      -3.80862753       1.68990443
35
Properties=species:S:1:pos:R:3 relative_energy_eV=-0.4257551242917543 branch=right pbc="F F F"
O        5.15090888      -0.24928074       0.66842750
P        4.25553046      -1.29566856       0.08671490
O        4.58903337      -2.75458341      -0.07825820
O        3.73189837      -0.66762300      -1.36061217
O        2.78895674      -1.32498517       0.93956417
C        2.30181130      -0.06558486       1.37381951
C        0.90343498      -0.25867785       1.88719940
O        0.56875633      -0.03310503       3.04215444
C       -0.16867968      -0.80674503       0.94122965
O       -0.96036184      -1.72759924       1.69993042
C       -1.00877178       0.36807690       0.39022531
O       -0.09735177       1.17643652      -0.32225426
C       -2.19649186      -0.07810609      -0.48634304
O       -3.07867081      -0.96604861       0.19677031
C       -3.03928002       1.11411410      -0.88856005
O       -2.25109121       2.02308424      -1.63749212
P       -3.05113141       3.31130323      -2.39228556
O       -4.22736566       3.69661697      -1.55298465
O       -1.95605865       4.21942933      -2.86490547
O       -3.64402775       2.49089096      -3.72960672
O        3.50143147      -3.89917880       2.42137454
H        3.12119191      -1.29202858      -1.78144053
H        2.93059937       0.34782696       2.16156111
H        2.24780755       0.64091004       0.54312269
H        0.28077400      -1.33615148       0.10246864
H       -0.90009092      -1.40461594       2.61651277
H       -1.42729989       0.90800929       1.25388188
H       -0.63326434       1.78419028      -0.86759382
H       -1.79098411      -0.54627441      -1.39440463
H       -2.52697113      -1.49361593       0.80022172
H       -3.42666784       1.59610605       0.00963426
H       -3.89440787       0.77396306      -1.47298315
H       -2.97875847       2.62425708      -4.41500562
H        2.95278497      -3.10348696       2.38568173
H        4.03460058      -3.75461410       1.61693523
35
Properties=species:S:1:pos:R:3 relative_energy_eV=-0.4510271057297359 branch=right pbc="F F F"
O        5.17792405      -0.26194255       0.63506875
P        4.24127136      -1.29040059       0.08728679
O        4.54967409      -2.75929932      -0.07020117
O        3.68062877      -0.67816259      -1.36022696
O        2.79662069      -1.29246359       0.96832332
C        2.29151009      -0.03589301       1.38986801
C        0.89335366      -0.24686929       1.90603612
O        0.56332947      -0.03010343       3.06408015
C       -0.16572204      -0.80159508       0.95638873
O       -0.97044516      -1.72486896       1.69422821
C       -1.00574448       0.36549172       0.39586794
O       -0.09114287       1.16699186      -0.31901753
C       -2.19105023      -0.08305307      -0.48064691
O       -3.07671722      -0.97728660       0.18847703
C       -3.03608439       1.10884306      -0.88218604
O       -2.24679429       2.01463376      -1.63624520
P       -3.04794287       3.30913286      -2.39053886
O       -4.22251609       3.69430324      -1.54908677
O       -1.95041682       4.21656890      -2.86180846
O       -3.64373321       2.49376512      -3.73099828
O        3.50004841      -3.90090670       2.36797515
H        3.23718990      -1.39067994      -1.83384473
H        2.88341414       0.39319485       2.19913005
H        2.23775195       0.66379862       0.55209176
H        0.31789722      -1.33148796       0.13782299
H       -0.91662424      -1.40742647       2.61128668
H       -1.43529569       0.91390839       1.24891455
H       -0.62609575       1.76446909      -0.87552112
H       -1.77151500      -0.53810233      -1.38853568
H       -2.53100635      -1.49292636       0.80755430
H       -3.42545771       1.59988053       0.01211516
H       -3.88815747       0.76520339      -1.47015668
H       -2.97135057       2.61953309      -4.41106239
H        2.94587254      -3.11096801       2.38331367
H        3.99911870      -3.71804122       1.54694745
35
Properties=species:S:1:pos:R:3 relative_energy_eV=-0.4614303871494485 branch=right pbc="F F F"
O        5.15642060      -0.24335047       0.62924038
P        4.22195048      -1.27891164       0.09185680
O        4.52756976      -2.74966551      -0.06038589
O        3.64990250      -0.70439289      -1.36347598
O        2.78783421      -1.26499483       0.97763930
C        2.29213875      -0.00512288       1.39920159
C        0.89862920      -0.23947898       1.91094209
O        0.56769625      -0.03955491       3.07185133
C       -0.15622768      -0.80411766       0.95859268
O       -0.95623591      -1.72369360       1.70700270
C       -1.00302320       0.36185581       0.40128655
O       -0.09647480       1.17791507      -0.30680841
C       -2.18839229      -0.08312140      -0.47715802
O       -3.07887768      -0.97480222       0.19007000
C       -3.03358756       1.10532728      -0.88611365
O       -2.24678833       2.01192239      -1.63960831
P       -3.04457182       3.30835946      -2.38942220
O       -4.21863000       3.69552433      -1.54837316
O       -1.94322390       4.21158702      -2.85880255
O       -3.64287965       2.49744323      -3.73033484
O        3.48970982      -3.92078742       2.32930063
H        3.31312041      -1.46286108      -1.85273372
H        2.88928204       0.41964446       2.20610210
H        2.24436988       0.70603731       0.57124180
H        0.32160856      -1.33747277       0.13802094
H       -0.93205997      -1.37295143       2.61441883
H       -1.42611296       0.89602833       1.26558671
H       -0.63210957       1.76140108      -0.87793074
H       -1.76963449      -0.54073310      -1.38327818
H       -2.53288581      -1.50594062       0.79482565
H       -3.42979828       1.59381593       0.00552310
H       -3.88034675       0.75072825      -1.47490772
H       -2.96619674       2.61586639      -4.40738080
H        2.94950782      -3.12334427       2.38730285
H        3.97010905      -3.72091688       1.49940785
35
Properties=species:S:1:pos:R:3 relative_energy_eV=-0.46672578853031155 branch=right pbc="F F F"
O        5.14204548      -0.20541531       0.61499252
P        4.22296250      -1.26364388       0.09347275
O        4.55607692      -2.73131360      -0.03699669
O        3.64784144      -0.73178918      -1.37820614
O        2.78305387      -1.25406743       0.97071246
C        2.29388478       0.00455429       1.40332401
C        0.89717180      -0.22525445       1.91531320
O        0.56433342      -0.02242750       3.07466141
C       -0.15772015      -0.79150839       0.96430011
O       -0.95608591      -1.70683116       1.71672665
C       -1.01177412       0.36626249       0.40893106
O       -0.10742181       1.19338492      -0.28534448
C       -2.18835251      -0.08853704      -0.47383451
O       -3.07452221      -0.97847753       0.20117411
C       -3.03390939       1.09824982      -0.89292529
O       -2.24305829       2.00680506      -1.64236265
P       -3.04031870       3.30806030      -2.39020226
O       -4.21185212       3.69594838      -1.54592747
O       -1.93696242       4.21054697      -2.85687394
O       -3.64134630       2.49931204      -3.73217213
O        3.46447820      -3.95698419       2.29218164
H        3.35314721      -1.51392096      -1.86166391
H        2.90632022       0.41271807       2.20778194
H        2.24928139       0.71459853       0.57434069
H        0.32052428      -1.32864350       0.14647049
H       -0.93412628      -1.34576392       2.62011196
H       -1.45173620       0.89090354       1.27043134
H       -0.64722200       1.77350073      -0.85517351
H       -1.76528652      -0.55281598      -1.37435759
H       -2.51975684      -1.52766013       0.78231779
H       -3.43743966       1.58731852      -0.00493359
H       -3.87850532       0.74798037      -1.48766025
H       -2.96362542       2.61182233      -4.40933434
H        2.95478018      -3.14444691       2.39484818
H        3.94691215      -3.73522352       1.46857628
35
Properties=species:S:1:pos:R:3 relative_energy_eV=-0.4726415494515095 branch=right pbc="F F F"
O        5.12069161      -0.15762597       0.59091579
P        4.23186350      -1.25113391       0.09196312
O        4.60411648      -2.71256032      -0.00010209
O        3.65400857      -0.76489171      -1.39452418
O        2.78881687      -1.25487128       0.96515825
C        2.29783369       0.00130328       1.40157512
C        0.90182951      -0.21082659       1.91780476
O        0.57840393       0.01789350       3.07493336
C       -0.15957448      -0.77692766       0.97830780
O       -0.94735457      -1.69838390       1.73571088
C       -1.02157822       0.37760776       0.42297558
O       -0.12191562       1.22113739      -0.25905156
C       -2.18550992      -0.08937532      -0.47331504
O       -3.07334627      -0.98419896       0.19346658
C       -3.03830218       1.08772561      -0.90184047
O       -2.24651154       1.99666562      -1.64821220
P       -3.03612535       3.30344399      -2.39005091
O       -4.20598847       3.69508563      -1.54525344
O       -1.92876325       4.20217626      -2.85460199
O       -3.64035252       2.50153024      -3.73399222
O        3.42989654      -4.00239068       2.24238158
H        3.38924084      -1.56578893      -1.86581850
H        2.90086275       0.41132293       2.21059231
H        2.25641993       0.71962699       0.57966784
H        0.31523245      -1.31446500       0.15923234
H       -0.94483445      -1.32825624       2.63539086
H       -1.47444443       0.89127126       1.28609251
H       -0.66011572       1.80230408      -0.83048845
H       -1.75507765      -0.55601654      -1.36962560
H       -2.52130481      -1.53467668       0.77422611
H       -3.45046986       1.57725444      -0.01729246
H       -3.87456537       0.72728790      -1.50336394
H       -2.95986394       2.61036878      -4.40895710
H        2.95318552      -3.17746547       2.39301945
H        3.92538796      -3.74690885       1.43577612
35
Properties=species:S:1:pos:R:3 relative_energy_eV=-0.4756657818288659 branch=right pbc="F F F"
O        5.12009831      -0.13554154       0.57574653
P        4.23855772      -1.24227537       0.09387654
O        4.62623707      -2.70120878       0.02237711
O        3.65305234      -0.79014778      -1.40093189
O        2.79631133      -1.24530782       0.96762290
C        2.30239961       0.01096504       1.40167519
C        0.90403117      -0.19991700       1.92019960
O        0.58030320       0.04267112       3.07425666
C       -0.16051847      -0.77420821       0.98637590
O       -0.95183713      -1.69342796       1.74489747
C       -1.02522887       0.38023895       0.43559347
O       -0.12674850       1.23104807      -0.23897787
C       -2.18059680      -0.08698593      -0.47053034
O       -3.07080148      -0.99399459       0.17753062
C       -3.04004301       1.08175203      -0.90645478
O       -2.25070483       1.99210330      -1.65083458
P       -3.03694206       3.29895295      -2.39090979
O       -4.20720542       3.69328088      -1.54842248
O       -1.92607478       4.19371845      -2.85311775
O       -3.64251928       2.50682293      -3.73780204
O        3.41357845      -4.02587553       2.20437497
H        3.40799490      -1.60537332      -1.85459183
H        2.90710449       0.42180336       2.21016437
H        2.26015021       0.72563911       0.57595701
H        0.31112471      -1.31233117       0.16456792
H       -0.95434465      -1.32512333       2.64469258
H       -1.47952283       0.88862475       1.30008511
H       -0.66486431       1.80813984      -0.81371697
H       -1.72978864      -0.53955988      -1.36388891
H       -2.52988383      -1.52645037       0.78466437
H       -3.46528058       1.57241393      -0.02949636
H       -3.86780099       0.70769511      -1.51074509
H       -2.95810631       2.61117504      -4.40937088
H        2.93181595      -3.20894907       2.37647012
H        3.91784483      -3.74312566       1.41136358
35
Properties=species:S:1:pos:R:3 relative_energy_eV=-0.4790091462491546 branch=right pbc="F F F"
O        5.11429052      -0.10762101       0.55973270
P        4.24394112      -1.23285651       0.10045574
O        4.64210393      -2.69022804       0.05316068
O        3.65406839      -0.81093195      -1.40031662
O        2.80070271      -1.23548548       0.97144225
C        2.30268728       0.02297525       1.39502455
C        0.90875584      -0.18973483       1.92107898
O        0.59116729       0.05170972       3.07704824
C       -0.15828690      -0.76955863       0.99378952
O       -0.94089253      -1.68940394       1.76020522
C       -1.02816270       0.38315976       0.44642126
O       -0.13225167       1.24523201      -0.21676151
C       -2.17169122      -0.08741542      -0.47110510
O       -3.05124828      -1.01235892       0.16697426
C       -3.03516858       1.07797814      -0.91295214
O       -2.24719249       1.99703424      -1.64981402
P       -3.03970570       3.29884450      -2.39399288
O       -4.21224964       3.68613180      -1.55167485
O       -1.93382877       4.20153054      -2.85180828
O       -3.64042102       2.50270423      -3.74148013
O        3.40150402      -4.05970743       2.16993147
H        3.39225112      -1.63243775      -1.83353344
H        2.90624311       0.44554999       2.19796393
H        2.25122454       0.73062138       0.56391176
H        0.30969408      -1.31397918       0.17471029
H       -0.94326121      -1.30890015       2.65475692
H       -1.49196325       0.87953358       1.31442981
H       -0.66907645       1.81184003      -0.80316591
H       -1.70954378      -0.53394632      -1.36109086
H       -2.51061165      -1.51463673       0.80105467
H       -3.47488164       1.56384085      -0.04083574
H       -3.85323326       0.70113877      -1.52702611
H       -2.96303227       2.61313924      -4.41911506
H        2.86848006      -3.27567033       2.34150359
H        3.92138033      -3.73084997       1.40377798
35
Properties=species:S:1:pos:R:3 relative_energy_eV=-0.4814356836504885 branch=right pbc="F F F"
O        5.11165680      -0.09060607       0.54965929
P        4.24581899      -1.22367739       0.10247868
O        4.65512910      -2.67769445       0.07602547
O        3.65077509      -0.82389883      -1.40290816
O        2.80429443      -1.22523945       0.97611993
C        2.30333789       0.03583255       1.39049982
C        0.91297209      -0.18223658       1.92527078
O        0.59994671       0.04973107       3.08461430
C       -0.15495908      -0.76329755       1.00141938
O       -0.94012357      -1.67693411       1.77393205
C       -1.02444526       0.38590909       0.44814521
O       -0.13178192       1.25945608      -0.20459432
C       -2.16160536      -0.08945655      -0.47572709
O       -3.04330100      -1.01062883       0.16562523
C       -3.02924139       1.07155829      -0.91881967
O       -2.24333411       1.99785032      -1.64878092
P       -3.04185166       3.29570400      -2.39331215
O       -4.21814435       3.67605915      -1.55315617
O       -1.94189976       4.20489743      -2.85331072
O       -3.63627437       2.49321398      -3.73898191
O        3.38816551      -4.08611597       2.14660640
H        3.37458995      -1.65025585      -1.81933571
H        2.90601162       0.46950461       2.18852839
H        2.24532132       0.73398956       0.55175391
H        0.31626528      -1.30495365       0.18183449
H       -0.92944725      -1.29846848       2.67025707
H       -1.49998239       0.87260598       1.31440416
H       -0.67240242       1.81959174      -0.79401587
H       -1.69843319      -0.53544167      -1.36641354
H       -2.50375375      -1.51477055       0.79874934
H       -3.47200038       1.55108782      -0.04485442
H       -3.84335165       0.69105861      -1.53696000
H       -2.96256681       2.61924648      -4.41720494
H        2.81525226      -3.32976982       2.31233532
H        3.92115377      -3.72660961       1.40281811
35
Properties=species:S:1:pos:R:3 relative_energy_eV=-0.48287079531291965 branch=right pbc="F F F"
O        5.11081834      -0.07530184       0.53427481
P        4.24664190      -1.21647253       0.10553634
O        4.66020159      -2.66954040       0.09182270
O        3.64431157      -0.83458809      -1.40133015
O        2.81105907      -1.21296214       0.98879605
C        2.30597326       0.05088936       1.39121178
C        0.91881357      -0.17522695       1.93070871
O        0.61099563       0.04638138       3.09335100
C       -0.15099837      -0.75615735       1.00704488
O       -0.93645789      -1.66709923       1.78028566
C       -1.02388062       0.38953555       0.44990857
O       -0.13165269       1.26423097      -0.20180541
C       -2.15639532      -0.09264606      -0.47622512
O       -3.04289621      -1.01451098       0.15800946
C       -3.02443043       1.06636562      -0.92141533
O       -2.24018472       1.99622751      -1.64804552
P       -3.04531703       3.29077406      -2.39175569
O       -4.22249505       3.66576532      -1.55001277
O       -1.94919409       4.20444228      -2.85214786
O       -3.63311840       2.48753518      -3.74056190
O        3.36969084      -4.10676452       2.12460717
H        3.36958297      -1.66666918      -1.80677594
H        2.91130816       0.49305968       2.18244965
H        2.24072183       0.74032424       0.54600664
H        0.32060539      -1.30320014       0.19077904
H       -0.91839315      -1.29111060       2.67740084
H       -1.50467979       0.87972656       1.31156060
H       -0.67023992       1.83190291      -0.78587303
H       -1.68711842      -0.54130526      -1.36179278
H       -2.50696401      -1.52165395       0.79034481
H       -3.47136276       1.54352402      -0.04802942
H       -3.83544338       0.68420985      -1.54216590
H       -2.95768245       2.62204426      -4.41579529
H        2.77686829      -3.36507211       2.28496957
H        3.91310338      -3.72941610       1.39736609
35
Properties=species:S:1:pos:R:3 relative_energy_eV=-0.4834719871651032 branch=right pbc="F F F"
O        5.11418746      -0.06531289       0.52391693
P        4.24840993      -1.20989694       0.10757773
O        4.66356228      -2.66237224       0.10296648
O        3.63437749      -0.84165975      -1.39801810
O        2.81790674      -1.20229014       0.99750694
C        2.30674200       0.06157704       1.39115978
C        0.92230743      -0.16972673       1.93486397
O        0.61756883       0.04724354       3.09923676
C       -0.14793691      -0.75218475       1.01318964
O       -0.93034150      -1.66459145       1.78698251
C       -1.02218158       0.39044614       0.45263879
O       -0.12949859       1.26111972      -0.20325701
C       -2.15231172      -0.09454088      -0.47549651
O       -3.03649137      -1.02078725       0.15528786
C       -3.02252719       1.06266109      -0.92365450
O       -2.23766331       1.99387655      -1.64943661
P       -3.04631757       3.28885147      -2.39087969
O       -4.22708884       3.65581591      -1.55019219
O       -1.95309502       4.20857319      -2.84640995
O       -3.63063313       2.48646401      -3.74232379
O        3.34915121      -4.12231117       2.10661061
H        3.36676413      -1.67829805      -1.79808288
H        2.90950411       0.51177881       2.17897966
H        2.23819685       0.74513829       0.54207937
H        0.32341927      -1.29590223       0.19503154
H       -0.91236123      -1.28870824       2.68413144
H       -1.50138404       0.88562039       1.31209390
H       -0.66884073       1.83423700      -0.78095656
H       -1.67931548      -0.53906604      -1.36138613
H       -2.50208330      -1.52784012       0.78893720
H       -3.47396550       1.54033604      -0.05275902
H       -3.83261050       0.67968789      -1.54577519
H       -2.95530895       2.61991604      -4.41787114
H        2.75102204      -3.38489105       2.26529214
H        3.90062773      -3.73572193       1.39071867
35
Properties=species:S:1:pos:R:3 relative_energy_eV=-0.4841868164294283 branch=right pbc="F F F"
O        5.11522972      -0.05732621       0.51586010
P        4.24889964      -1.20596438       0.11181922
O        4.66504254      -2.65832590       0.11003773
O        3.62335495      -0.84447978      -1.39059463
O        2.82598479      -1.19353630       1.01333215
C        2.30903400       0.07218561       1.39438451
C        0.92537530      -0.16290749       1.93787710
O        0.61944343       0.05294366       3.10203193
C       -0.14243098      -0.74917754       1.01565687
O       -0.92446905      -1.66240626       1.78899650
C       -1.01718434       0.39249109       0.45224009
O       -0.12536530       1.26141096      -0.20712451
C       -2.14754497      -0.09415078      -0.47377078
O       -3.02704187      -1.02206218       0.15929114
C       -3.02250014       1.05888569      -0.92285180
O       -2.23948868       1.99043015      -1.64992080
P       -3.04938901       3.28547489      -2.38874057
O       -4.23499657       3.64475442      -1.55156751
O       -1.95614583       4.20985864      -2.83463440
O       -3.62754610       2.48653611      -3.74507289
O        3.31447426      -4.13476063       2.08336155
H        3.36299880      -1.68308965      -1.79078672
H        2.90889816       0.53305150       2.17854753
H        2.23653800       0.74599549       0.53827991
H        0.33137852      -1.29448529       0.19968985
H       -0.90478791      -1.29110565       2.68794624
H       -1.49731966       0.88909992       1.31018128
H       -0.66550200       1.82869316      -0.78982868
H       -1.67400086      -0.53778147      -1.35965177
H       -2.48681537      -1.53236912       0.78539987
H       -3.47552825       1.53827334      -0.05315346
H       -3.82895609       0.66929924      -1.54640625
H       -2.94732055       2.61721753      -4.41622619
H        2.73016044      -3.38788601       2.24954911
H        3.87931217      -3.74754544       1.37855146
35
Properties=species:S:1:pos:R:3 relative_energy_eV=-0.48507805959525285 branch=right pbc="F F F"
O        5.12373137      -0.05714013       0.51815694
P        4.25155240      -1.20393347       0.12087396
O        4.66557728      -2.65679702       0.11923033
O        3.61531795      -0.84219805      -1.37787219
O        2.83564527      -1.18941094       1.03370810
C        2.31287696       0.07874817       1.39787233
C        0.92898214      -0.15472651       1.93930658
O        0.61897390       0.06541600       3.10154002
C       -0.13371429      -0.74481270       1.01426353
O       -0.91211808      -1.66276071       1.78595512
C       -1.01064128       0.39431421       0.45003229
O       -0.12068876       1.26249753      -0.21405514
C       -2.14195904      -0.09915629      -0.47226676
O       -3.01803597      -1.02825194       0.16423490
C       -3.02081663       1.05106971      -0.92090053
O       -2.24198346       1.98661553      -1.64736519
P       -3.05528284       3.28073123      -2.38584561
O       -4.24638436       3.63272708      -1.55365506
O       -1.96457866       4.21225475      -2.82321325
O       -3.62112610       2.48458200      -3.74915780
O        3.26568352      -4.13783889       2.05200561
H        3.34507486      -1.68080564      -1.77155141
H        2.91125064       0.55066883       2.17608855
H        2.23953208       0.74002940       0.53253924
H        0.34488681      -1.28516849       0.19810552
H       -0.89505171      -1.28943630       2.68414719
H       -1.48803332       0.89376158       1.30799976
H       -0.66104022       1.82126977      -0.80495990
H       -1.66936453      -0.54458465      -1.35789768
H       -2.47680297      -1.53550292       0.79225317
H       -3.47445233       1.52564913      -0.04936135
H       -3.82887083       0.66127871      -1.54198338
H       -2.93141399       2.61811278      -4.41021710
H        2.70665428      -3.37334545       2.22662043
H        3.84841111      -3.75661542       1.35807273
35
Properties=species:S:1:pos:R:3 relative_energy_eV=-0.48583571921335533 branch=right pbc="F F F"
O        5.12993335      -0.04668404       0.51596014
P        4.25970834      -1.20065021       0.13582560
O        4.67877943      -2.65205872       0.14156996
O        3.61198650      -0.85205298      -1.36055648
O        2.85006166      -1.17839283       1.05885616
C        2.32253360       0.09545122       1.39909392
C        0.93916717      -0.13891911       1.94030826
O        0.62736676       0.08641355       3.10088661
C       -0.12081696      -0.73592712       1.01626414
O       -0.89257844      -1.65780251       1.78946205
C       -1.00459694       0.39505379       0.44926718
O       -0.11856030       1.26358383      -0.21898632
C       -2.13324763      -0.10667437      -0.47097883
O       -3.00466012      -1.03846676       0.16813252
C       -3.01783912       1.03829337      -0.92043996
O       -2.24405625       1.98143640      -1.64160807
P       -3.06160454       3.27211250      -2.38074140
O       -4.26302225       3.60892483      -1.55704732
O       -1.97609128       4.21551122      -2.80582057
O       -3.60744763       2.47586843      -3.75151327
O        3.19483557      -4.15202256       1.99503295
H        3.31883661      -1.69064913      -1.73826173
H        2.91681707       0.58310850       2.17099296
H        2.24874813       0.74276406       0.52304021
H        0.35934410      -1.27346690       0.19979902
H       -0.88280205      -1.28018098       2.68584479
H       -1.48656593       0.89494487       1.30412491
H       -0.66515279       1.82272582      -0.80364431
H       -1.65670765      -0.54965167      -1.35565575
H       -2.46101171      -1.53586844       0.80194175
H       -3.47605441       1.50911171      -0.04976993
H       -3.82010316       0.64455227      -1.54570825
H       -2.91631636       2.62002266      -4.40881220
H        2.65012664      -3.37941671       2.17831175
H        3.80278156      -3.76375374       1.32753445
35
Properties=species:S:1:pos:R:3 relative_energy_eV=-0.4871157283123466 branch=right pbc="F F F"
O        5.16455993      -0.03143860       0.50702662
P        4.28036705      -1.18869127       0.16826828
O        4.69179259      -2.64207621       0.20136036
O        3.60567700      -0.87369779      -1.32523627
O        2.88753924      -1.13844828       1.11355854
C        2.34635526       0.14275231       1.40470629
C        0.96206929      -0.09602488       1.94362650
O        0.64037773       0.14243263       3.09872212
C       -0.08622060      -0.71877785       1.02243280
O       -0.84417462      -1.64781144       1.80120076
C       -0.98514452       0.39707120       0.44613132
O       -0.10995284       1.27255482      -0.22768416
C       -2.11163059      -0.12443360      -0.46759843
O       -2.96851410      -1.06272320       0.18182901
C       -3.01209088       1.00741876      -0.91861295
O       -2.24794459       1.96611537      -1.62843001
P       -3.07803683       3.24555478      -2.36825958
O       -4.30575682       3.54326310      -1.56820258
O       -2.00515444       4.21961728      -2.75604844
O       -3.57466348       2.45111547      -3.75858972
O        3.00123095      -4.17537936       1.84692972
H        3.27885129      -1.71764338      -1.66285862
H        2.92987937       0.66066711       2.16573154
H        2.27659733       0.75820299       0.50543474
H        0.40248796      -1.26088491       0.21449729
H       -0.85139373      -1.26417562       2.69486367
H       -1.47007595       0.89862476       1.29881181
H       -0.66555381       1.83619241      -0.80008767
H       -1.63773453      -0.56860973      -1.35336893
H       -2.41627636      -1.54585316       0.81941645
H       -3.48701661       1.46661964      -0.05034551
H       -3.80105143       0.60633376      -1.55528235
H       -2.87924193       2.62480944      -4.40405688
H        2.49538968      -3.38268464       2.05551643
H        3.67624446      -3.78275287       1.24730549
35
Properties=species:S:1:pos:R:3 relative_energy_eV=-0.48945265136717353 branch=right pbc="F F F"
O        5.17923554      -0.00003708       0.46667794
P        4.29393149      -1.17199325       0.18963062
O        4.70425320      -2.62331043       0.28112498
O        3.60533696      -0.91766587      -1.30964878
O        2.91576356      -1.08934527       1.15132282
C        2.36087751       0.19324143       1.40589736
C        0.98204583      -0.05677169       1.95261146
O        0.66507143       0.18181632       3.10896845
C       -0.06339269      -0.70089540       1.03945822
O       -0.81177406      -1.62608273       1.83152541
C       -0.97571065       0.39975585       0.45860584
O       -0.10659051       1.29108046      -0.20077516
C       -2.08590679      -0.13548070      -0.46561226
O       -2.93378537      -1.08578135       0.17854764
C       -3.00167466       0.98066943      -0.92708295
O       -2.24756452       1.95999858      -1.61947644
P       -3.09338176       3.22668723      -2.36541263
O       -4.33500711       3.49693254      -1.57791408
O       -2.03645222       4.22414031      -2.73603357
O       -3.55658893       2.43437444      -3.76814386
O        2.87489347      -4.22373842       1.70436433
H        3.27792724      -1.77574554      -1.60936345
H        2.93710484       0.73916923       2.15270354
H        2.27945047       0.78492568       0.49271182
H        0.42888974      -1.24570325       0.23455828
H       -0.81677366      -1.23012864       2.72023832
H       -1.47435422       0.88565609       1.31189548
H       -0.66231434       1.85163467      -0.77462975
H       -1.59753977      -0.57570105      -1.34494445
H       -2.38308712      -1.55540029       0.82688970
H       -3.49908296       1.42376036      -0.06355072
H       -3.77402279       0.56575535      -1.57605958
H       -2.85829741       2.63338271      -4.40307957
H        2.32355716      -3.46743471       1.92817729
H        3.58675315      -3.77452617       1.19852769
35
Properties=species:S:1:pos:R:3 relative_energy_eV=-0.4919317787353066 branch=right pbc="F F F"
O        5.19401112       0.00751152       0.46216749
P        4.29938682      -1.16579389       0.22178766
O        4.70022456      -2.61693472       0.35581582
O        3.60574758      -0.95510604      -1.28285455
O        2.92783369      -1.05222804       1.18624912
C        2.37551641       0.23709901       1.41010193
C        0.99759884      -0.00577243       1.95985890
O        0.67383606       0.24924684       3.11038985
C       -0.03597120      -0.67633815       1.05473865
O       -0.76111495      -1.61680524       1.85140156
C       -0.96336927       0.40629081       0.46823862
O       -0.10605239       1.30666979      -0.19600407
C       -2.05804390      -0.14996800      -0.45694189
O       -2.89360823      -1.11149914       0.18648068
C       -2.98918856       0.94980945      -0.92539826
O       -2.24919592       1.94572408      -1.60880185
P       -3.10926336       3.20206569      -2.35681299
O       -4.36988424       3.44547626      -1.59061857
O       -2.06447595       4.22125648      -2.70182133
O       -3.53206894       2.41444887      -3.77380209
O        2.71223100      -4.23643752       1.53040306
H        3.31084374      -1.82965497      -1.56689481
H        2.95392001       0.79845123       2.14378556
H        2.29289769       0.80603990       0.48266979
H        0.46493586      -1.21532648       0.25247989
H       -0.78388865      -1.21395082       2.73640311
H       -1.47585361       0.89218548       1.31312193
H       -0.67264019       1.85654378      -0.77061438
H       -1.55922301      -0.58588917      -1.33141617
H       -2.33999039      -1.57221654       0.83847697
H       -3.49781232       1.38127824      -0.06278694
H       -3.74784666       0.51951759      -1.58072071
H       -2.82723112       2.63552616      -4.39430964
H        2.16849777      -3.49698527       1.81942751
H        3.46103128      -3.75699675       1.10851248
35
Properties=species:S:1:pos:R:3 relative_energy_eV=-0.4930626472996664 branch=right pbc="F F F"
O        5.19247716       0.00084606       0.47784827
P        4.29763683      -1.17085647       0.23219741
O        4.69628665      -2.62297894       0.36393141
O        3.60866623      -0.95819099      -1.27351641
O        2.92487959      -1.05178563       1.19265335
C        2.37838635       0.24177441       1.40946190
C        1.00185592       0.00207785       1.96354962
O        0.68181500       0.25970684       3.11440282
C       -0.03163585      -0.66925215       1.05863777
O       -0.75934607      -1.61073501       1.85187617
C       -0.96077518       0.41058792       0.46949946
O       -0.10539457       1.31013078      -0.19892022
C       -2.05513059      -0.15164557      -0.45547066
O       -2.88732485      -1.11664359       0.18761812
C       -2.98997827       0.94613857      -0.92376822
O       -2.25049232       1.94053255      -1.61083239
P       -3.11152989       3.19651753      -2.35599508
O       -4.37357622       3.43173640      -1.59010902
O       -2.07048000       4.22200114      -2.69366227
O       -3.52994229       2.40867144      -3.77425520
O        2.68753510      -4.23073836       1.49889942
H        3.31740010      -1.83267812      -1.56058911
H        2.96048107       0.80577498       2.13805104
H        2.29710169       0.80476251       0.47829628
H        0.47308012      -1.20609320       0.25707148
H       -0.77724957      -1.21548104       2.73999539
H       -1.47053144       0.89935564       1.31465199
H       -0.67254896       1.85671511      -0.77635726
H       -1.55276427      -0.58586821      -1.33007754
H       -2.32891902      -1.58066442       0.83314684
H       -3.50068231       1.37762490      -0.06148532
H       -3.74962599       0.51702870      -1.57847917
H       -2.82433300       2.63003644      -4.39355047
H        2.14502664      -3.49399819       1.79677133
H        3.44142164      -3.74717206       1.09122125
35
Properties=species:S:1:pos:R:3 relative_energy_eV=-0.49378894217079505 branch=right pbc="F F F"
O        5.20576529      -0.00988536       0.49516191
P        4.30649340      -1.17733576       0.24529282
O        4.69855420      -2.63105835       0.37777511
O        3.62454905      -0.96108305      -1.26295073
O        2.93037613      -1.05388678       1.20141069
C        2.38530187       0.24131403       1.41084529
C        1.00734272       0.00943858       1.96480994
O        0.68822839       0.27119057       3.11490712
C       -0.02765626      -0.66268496       1.06208831
O       -0.75059934      -1.60525876       1.85783495
C       -0.96023145       0.41450785       0.47247656
O       -0.10457879       1.31472572      -0.19521018
C       -2.05372516      -0.15092092      -0.45261428
O       -2.88228839      -1.11965797       0.18975638
C       -2.99355040       0.94169027      -0.92273127
O       -2.25543227       1.93603517      -1.61093009
P       -3.11802455       3.18995491      -2.35615132
O       -4.38190494       3.41765482      -1.59112744
O       -2.07818258       4.21812135      -2.68920466
O       -3.53221274       2.40568431      -3.77773643
O        2.65133442      -4.21967803       1.45886652
H        3.32207681      -1.83285504      -1.54781559
H        2.96866359       0.80843752       2.13559975
H        2.30565625       0.79788408       0.47597626
H        0.47628853      -1.19991181       0.26036751
H       -0.77941457      -1.20184674       2.74197354
H       -1.47236818       0.90334636       1.31628384
H       -0.67038914       1.85946255      -0.77516744
H       -1.55035077      -0.58008369      -1.32927426
H       -2.32032082      -1.58880805       0.82825959
H       -3.50721797       1.37599971      -0.06378133
H       -3.75054453       0.50549382      -1.57674476
H       -2.82138587       2.62308978      -4.39240152
H        2.12075535      -3.47484396       1.75848377
H        3.42078219      -3.74699463       1.06838522
35
Properties=species:S:1:pos:R:3 relative_energy_eV=-0.4945565868765698 branch=right pbc="F F F"
O        5.22252058      -0.02682233       0.52595311
P        4.31956472      -1.18720289       0.25706705
O        4.69971870      -2.64365912       0.39037380
O        3.66248879      -0.95659315      -1.25932973
O        2.92906127      -1.06012092       1.19137211
C        2.38998661       0.23651352       1.40744925
C        1.01092289       0.01223274       1.96326471
O        0.69371118       0.28370642       3.11167480
C       -0.02783703      -0.66061828       1.06657592
O       -0.75282438      -1.59663658       1.86864482
C       -0.95929770       0.41783289       0.47770919
O       -0.10694751       1.32222290      -0.18883476
C       -2.05050537      -0.14892291      -0.44867952
O       -2.87854230      -1.12179736       0.18854658
C       -2.99146019       0.94107721      -0.92132332
O       -2.25781053       1.93496643      -1.61453986
P       -3.12762631       3.18514194      -2.36019782
O       -4.39174716       3.41487481      -1.59602724
O       -2.09023690       4.21451329      -2.69696162
O       -3.54305067       2.39512622      -3.77819941
O        2.62196668      -4.21077812       1.43180934
H        3.34642709      -1.82119092      -1.55257819
H        2.97530239       0.79745091       2.13561763
H        2.31372783       0.79817887       0.47466664
H        0.46967434      -1.20411168       0.26459343
H       -0.78810934      -1.18560122       2.74906528
H       -1.47129834       0.90331610       1.32302006
H       -0.67660376       1.86968015      -0.76273831
H       -1.54343279      -0.57691993      -1.32296167
H       -2.31475192      -1.59254494       0.82395844
H       -3.50744374       1.37501735      -0.06365847
H       -3.74671222       0.50139728      -1.57373367
H       -2.83239233       2.61319039      -4.39270840
H        2.10029182      -3.45461458       1.71893133
H        3.40505502      -3.75106713       1.05489285
35
Properties=species:S:1:pos:R:3 relative_energy_eV=-0.496150861348724 branch=right pbc="F F F"
O        5.24578894      -0.06977709       0.60989762
P        4.33619368      -1.20790791       0.27588577
O        4.68924199      -2.67349956       0.38044353
O        3.74068999      -0.92793399      -1.25703828
O        2.91484617      -1.07887774       1.16336040
C        2.39447545       0.22103381       1.40510731
C        1.01178553       0.01517014       1.96208650
O        0.69703262       0.30906456       3.10569373
C       -0.03075604      -0.65998188       1.07145712
O       -0.76024060      -1.58996691       1.87746674
C       -0.95858934       0.42081546       0.48105793
O       -0.10711469       1.32589180      -0.18635211
C       -2.04745100      -0.14624154      -0.44638610
O       -2.87575212      -1.11865148       0.19126468
C       -2.99106399       0.94378607      -0.91319235
O       -2.26324927       1.93949896      -1.61039127
P       -3.14076641       3.17962510      -2.36578291
O       -4.40115835       3.40874041      -1.59458309
O       -2.11160524       4.21071888      -2.72317904
O       -3.56161160       2.37363182      -3.77376974
O        2.56493520      -4.18159013       1.40791802
H        3.42352173      -1.77997657      -1.58419122
H        2.98992799       0.76364840       2.13929407
H        2.32534729       0.79789042       0.48061460
H        0.46486373      -1.21145947       0.27325423
H       -0.80610273      -1.16789977       2.75163148
H       -1.46917568       0.90715021       1.32751947
H       -0.67854652       1.87385911      -0.75829489
H       -1.53941654      -0.57243334      -1.32218208
H       -2.31377476      -1.59071425       0.82755555
H       -3.49742992       1.37674000      -0.04956354
H       -3.75251550       0.50390593      -1.55831864
H       -2.85879148       2.58411604      -4.40013321
H        2.09393592      -3.38680708       1.67992913
H        3.37431478      -3.77433152       1.02463585
35
Properties=species:S:1:pos:R:3 relative_energy_eV=-0.49791285776154837 branch=right pbc="F F F"
O        5.27721815      -0.15142435       0.73873543
P        4.35660733      -1.24250275       0.29102646
O        4.67325459      -2.71974459       0.31650004
O        3.84106355      -0.84771667      -1.24726611
O        2.89471741      -1.12562723       1.12169682
C        2.39839139       0.17625900       1.40183497
C        1.01095109      -0.00204219       1.95498481
O        0.69401800       0.31099069       3.09279469
C       -0.03578902      -0.66853127       1.06589263
O       -0.77741330      -1.59160379       1.86868222
C       -0.95439464       0.41650011       0.47145131
O       -0.09538989       1.30628554      -0.20807073
C       -2.05763121      -0.13948269      -0.44554610
O       -2.88624978      -1.11033649       0.19354578
C       -2.99571068       0.96252112      -0.89506151
O       -2.26873430       1.94950954      -1.60585504
P       -3.15671031       3.17444679      -2.37321479
O       -4.40876645       3.41880586      -1.59352846
O       -2.13313499       4.20090654      -2.75910391
O       -3.59374535       2.34175437      -3.76216665
O        2.52831601      -4.11690971       1.46208876
H        3.48518062      -1.65878224      -1.63246007
H        3.00697180       0.69226373       2.14233857
H        2.33433007       0.77883733       0.49342538
H        0.45500409      -1.22483003       0.26860238
H       -0.82817120      -1.17194182       2.74347131
H       -1.45614987       0.91521573       1.31507665
H       -0.66228060       1.85499708      -0.78343132
H       -1.56317965      -0.56102096      -1.33121191
H       -2.32801410      -1.57111757       0.84212042
H       -3.48298129       1.40510562      -0.02512716
H       -3.77232242       0.53418412      -1.52867749
H       -2.89798812       2.54849398      -4.39756357
H        2.14242947      -3.25497205       1.66627466
H        3.35809314      -3.81125466       1.03045770
35
Properties=species:S:1:pos:R:3 relative_energy_eV=-0.5038115058196126 branch=right pbc="F F F"
O        5.29454110      -0.23115146       0.83042826
P        4.37068666      -1.27077493       0.28433395
O        4.65599129      -2.75160401       0.22682215
O        3.91681672      -0.75785354      -1.23537947
O        2.87950481      -1.16921611       1.06852980
C        2.40302139       0.12688061       1.40174961
C        1.00914493      -0.03843412       1.94181724
O        0.68769005       0.28702034       3.07498402
C       -0.04381110      -0.69172582       1.04876193
O       -0.79882002      -1.60381635       1.85102631
C       -0.95014216       0.40540995       0.45504871
O       -0.08372109       1.27160246      -0.24553477
C       -2.07836362      -0.13224938      -0.44433606
O       -2.91143417      -1.08965025       0.20788633
C       -3.00618018       0.98501843      -0.87996449
O       -2.27486304       1.96216533      -1.59979685
P       -3.16217588       3.17947296      -2.37851012
O       -4.40555170       3.44370236      -1.59131299
O       -2.13477500       4.18953844      -2.79579445
O       -3.61636576       2.32352054      -3.74646451
O        2.51967096      -4.02658851       1.57310918
H        3.53924692      -1.52132569      -1.68958997
H        3.01891581       0.59948960       2.16534814
H        2.35491526       0.76692577       0.51708271
H        0.44089416      -1.25364153       0.25175892
H       -0.83701621      -1.18398123       2.72637490
H       -1.43066917       0.91928984       1.30242581
H       -0.65001846       1.83115938      -0.81068479
H       -1.60928318      -0.56359955      -1.33882555
H       -2.35070350      -1.56062977       0.84793815
H       -3.47265384       1.43457334      -0.00270283
H       -3.80127898       0.56835345      -1.49948527
H       -2.92959622       2.52258791      -4.39366119
H        2.21493179      -3.11466360       1.69189181
H        3.34324153      -3.83856880       1.07744197
35
Properties=species:S:1:pos:R:3 relative_energy_eV=-0.5060108929683338 branch=right pbc="F F F"
O        5.29574560      -0.22463790       0.82384372
P        4.37223759      -1.26310024       0.27389605
O        4.66014783      -2.74209914       0.20099088
O        3.90399954      -0.74752249      -1.24116786
O        2.88657750      -1.17115647       1.07352518
C        2.40385656       0.12143575       1.40753861
C        1.00724435      -0.04681542       1.94076267
O        0.68400738       0.27025178       3.07604609
C       -0.04671108      -0.69595731       1.04607667
O       -0.80114773      -1.60717576       1.85057717
C       -0.95008004       0.40422503       0.45205388
O       -0.08393533       1.26773716      -0.25233020
C       -2.08173774      -0.13328161      -0.44222845
O       -2.91565740      -1.08666505       0.21461006
C       -3.00868501       0.98461995      -0.87751941
O       -2.27575335       1.95966498      -1.59955192
P       -3.15713459       3.18231832      -2.37970358
O       -4.39648962       3.45422715      -1.58923254
O       -2.12779645       4.19008059      -2.79633176
O       -3.61752047       2.33204575      -3.74991806
O        2.51762097      -4.01505722       1.59501594
H        3.54769566      -1.51949081      -1.69826962
H        3.01285426       0.59347596       2.17690678
H        2.36343265       0.76269703       0.52438732
H        0.43665769      -1.25876748       0.24926479
H       -0.83436188      -1.18648138       2.72600560
H       -1.42412334       0.92352488       1.29869943
H       -0.65188730       1.82498323      -0.81887857
H       -1.61144263      -0.56691662      -1.33537751
H       -2.35249301      -1.56177610       0.84922482
H       -3.47590464       1.43241870       0.00175334
H       -3.80096512       0.56624921      -1.49914183
H       -2.92694823       2.51835122      -4.39711105
H        2.21329441      -3.10247791       1.69550064
H        3.33719309      -3.84169140       1.09279945
35
Properties=species:S:1:pos:R:3 relative_energy_eV=-0.5072015044715954 branch=right pbc="F F F"
O        5.28244420      -0.21155337       0.80760045
P        4.36418822      -1.25761209       0.26354700
O        4.65753432      -2.73634244       0.19475107
O        3.88960224      -0.74949471      -1.25170035
O        2.88078815      -1.17316807       1.06429080
C        2.40251758       0.11725700       1.40984624
C        1.00611790      -0.05145166       1.94155886
O        0.68564476       0.25930834       3.07956251
C       -0.05001555      -0.69581256       1.04640604
O       -0.80450381      -1.60632054       1.85137850
C       -0.95393428       0.40468564       0.45529475
O       -0.08700926       1.26979560      -0.24551007
C       -2.08329001      -0.13495268      -0.44137323
O       -2.91863883      -1.08654831       0.21650471
C       -3.00842036       0.98186498      -0.88181426
O       -2.27261841       1.95603953      -1.60160596
P       -3.14731843       3.18423181      -2.37981501
O       -4.38451506       3.46556915      -1.58898631
O       -2.10941128       4.18274441      -2.79805222
O       -3.61818213       2.33735622      -3.74817677
O        2.53335721      -4.01157264       1.60607627
H        3.56520788      -1.53322616      -1.71216548
H        3.01244369       0.57852660       2.18492920
H        2.36594626       0.76666526       0.53257880
H        0.43064728      -1.25787643       0.24705709
H       -0.83034540      -1.18956050       2.72913047
H       -1.43060468       0.92118200       1.30277381
H       -0.65486703       1.82639595      -0.81259233
H       -1.61115597      -0.57101524      -1.33242903
H       -2.35547677      -1.55836291       0.85355174
H       -3.47823805       1.43057099      -0.00497487
H       -3.79993214       0.56292069      -1.50414557
H       -2.92892351       2.52041241      -4.39753314
H        2.19877473      -3.10881274       1.69625760
H        3.35397638      -3.81460689       1.11049515
35
Properties=species:S:1:pos:R:3 relative_energy_eV=-0.5076080191865913 branch=right pbc="F F F"
O        5.27649209      -0.20066449       0.78921137
P        4.35928817      -1.25375919       0.25645963
O        4.66225437      -2.73115258       0.19698615
O        3.87167863      -0.75389362      -1.25837610
O        2.87945063      -1.17046542       1.06436852
C        2.40014227       0.11884029       1.41349927
C        1.00364134      -0.05358110       1.94462596
O        0.67981935       0.25428051       3.08260649
C       -0.04970415      -0.69807980       1.04568917
O       -0.80364158      -1.61121466       1.84867285
C       -0.95415399       0.40385736       0.45575080
O       -0.08672327       1.26901433      -0.24474756
C       -2.08463189      -0.13627409      -0.43972365
O       -2.92067980      -1.08559137       0.22055199
C       -3.00939417       0.97918871      -0.88480305
O       -2.27164241       1.95081770      -1.60572708
P       -3.13996566       3.18596209      -2.37888833
O       -4.37465848       3.47029557      -1.58504897
O       -2.09672819       4.18038311      -2.79380860
O       -3.61418419       2.34522653      -3.75002078
O        2.54112715      -4.00882523       1.61440155
H        3.55167705      -1.53925925      -1.71965348
H        3.01109349       0.57729355       2.18917056
H        2.36307271       0.77148630       0.53854538
H        0.43208836      -1.25762322       0.24486154
H       -0.82787431      -1.19614378       2.72741709
H       -1.43151697       0.92009256       1.30292297
H       -0.65342908       1.82651749      -0.81215586
H       -1.61258676      -0.57521845      -1.32883218
H       -2.35729852      -1.55765076       0.85731757
H       -3.48073223       1.42934105      -0.00961966
H       -3.80046456       0.55856499      -1.50710862
H       -2.92204857       2.52275215      -4.39804995
H        2.20066932      -3.10772468       1.69748864
H        3.36135368      -3.80955587       1.11873256
35
Properties=species:S:1:pos:R:3 relative_energy_eV=-0.5082984678083449 branch=right pbc="F F F"
O        5.25862209      -0.17721575       0.76217595
P        4.34901678      -1.24295018       0.24201537
O        4.66177139      -2.71844496       0.19339639
O        3.85504141      -0.76207941      -1.27634891
O        2.87188533      -1.16381206       1.05587380
C        2.39402622       0.12176157       1.41958127
C        0.99855017      -0.05631908       1.95116592
O        0.67411702       0.24521072       3.09063559
C       -0.05163990      -0.70014173       1.04890117
O       -0.80579579      -1.61818347       1.84574262
C       -0.95607144       0.40098677       0.45939114
O       -0.08810326       1.26585535      -0.24003580
C       -2.08549747      -0.14069118      -0.43606630
O       -2.92493027      -1.08341812       0.22882301
C       -3.00590423       0.97473855      -0.89023290
O       -2.26365678       1.94010254      -1.61479449
P       -3.12348250       3.18700733      -2.37795984
O       -4.35324135       3.47820402      -1.57923127
O       -2.07213856       4.17363999      -2.79091688
O       -3.61178316       2.35912736      -3.75143745
O        2.55252842      -3.99992663       1.62626446
H        3.53100155      -1.55374582      -1.72391975
H        3.00614469       0.57336240       2.19857097
H        2.35325254       0.78342937       0.55173081
H        0.43431354      -1.25477707       0.24766592
H       -0.82951035      -1.20967553       2.72734776
H       -1.43367445       0.91751060       1.30624449
H       -0.65318973       1.82221833      -0.81014773
H       -1.61456732      -0.58684068      -1.32225653
H       -2.36144385      -1.55750210       0.86424161
H       -3.47953055       1.43288528      -0.02078870
H       -3.79509050       0.55250964      -1.51354420
H       -2.91382836       2.52332945      -4.39665826
H        2.21096155      -3.09744008       1.68798890
H        3.37363692      -3.81147902       1.12929740
