35
Properties=species:S:1:pos:R:3 relative_energy_eV=0.0 branch=left pbc="F F F"
O        5.07134168      -2.11397108      -0.57451203
P        5.16513530      -3.11850966       0.54977141
O        3.90329856      -3.50134408       1.27871316
O        6.48590041      -3.72822334       0.91112917
O        2.63031642      -1.00183700      -1.19171551
C        2.46632234       0.10001620      -0.32524653
C        1.40823602      -0.19045081       0.71649923
O        1.60174251      -0.05933333       1.91554485
C        0.05086032      -0.70115671       0.25254214
O       -0.41609536      -1.67425200       1.18485616
C       -0.93590618       0.47811007       0.13993325
O       -0.34093723       1.37841709      -0.76975496
C       -2.34835021       0.05005314      -0.29995824
O       -2.95120801      -0.86007615       0.61560050
C       -3.28491542       1.23796720      -0.38591293
O       -2.80137998       2.13830798      -1.36967531
P       -3.80360143       3.41666039      -1.85142277
O       -4.63486252       3.83859735      -0.68326854
O       -2.91632938       4.29607789      -2.68117552
O       -4.80738774       2.57466883      -2.89787273
O        3.46696215      -2.08868562       3.68761620
H        3.45072854      -1.46928838      -0.93264284
H        3.37999073       0.36973697       0.20782567
H        2.11843602       0.95900732      -0.90605086
H        0.16364595      -1.17798656      -0.71910051
H       -0.00997444      -1.43322440       2.03311798
H       -1.03270832       0.92886444       1.13991104
H       -1.05940150       1.93798049      -1.12381280
H       -2.26200866      -0.38930059      -1.30299807
H       -2.23621469      -1.42973700       0.94774541
H       -3.34911346       1.72930044       0.58665509
H       -4.28319449       0.88476806      -0.64699193
H       -4.39871508       2.67519330      -3.76571569
H        3.00330061      -1.33420832       3.30662448
H        3.62928097      -2.64503459       2.89962071
35
Properties=species:S:1:pos:R:3 relative_energy_eV=7.458079926436767e-05 branch=left pbc="F F F"
O        5.07279926      -2.11418838      -0.57554633
P        5.16551829      -3.11765111       0.54979074
O        3.90319014      -3.50015071       1.27807433
O        6.48623120      -3.72639396       0.91296558
O        2.63023442      -1.00264245      -1.19062950
C        2.46629883       0.09959726      -0.32470142
C        1.40801574      -0.19084556       0.71688640
O        1.60190434      -0.05866331       1.91568272
C        0.05035980      -0.70132726       0.25312322
O       -0.41644414      -1.67394739       1.18619769
C       -0.93589609       0.47867885       0.14004104
O       -0.34113461       1.37820898      -0.77087448
C       -2.34827751       0.05025276      -0.29975476
O       -2.95177506      -0.86014746       0.61514051
C       -3.28489845       1.23800055      -0.38570548
O       -2.80142896       2.13854682      -1.36928368
P       -3.80370910       3.41700431      -1.85137695
O       -4.63503577       3.83852710      -0.68302083
O       -2.91610490       4.29588003      -2.68154476
O       -4.80750059       2.57472193      -2.89790235
O        3.46673219      -2.09043643       3.68661010
H        3.45198434      -1.46882231      -0.93323053
H        3.38021116       0.36927226       0.20810454
H        2.11948921       0.95851866      -0.90640016
H        0.16245863      -1.17877129      -0.71850579
H       -0.01063161      -1.43297459       2.03468140
H       -1.03275777       0.92959403       1.14015843
H       -1.05993649       1.93698598      -1.12583979
H       -2.26151501      -0.38849001      -1.30305049
H       -2.23697495      -1.42952759       0.94795395
H       -3.34994151       1.72977759       0.58645992
H       -4.28309499       0.88512811      -0.64700686
H       -4.39889626       2.67530636      -3.76579204
H        3.00363706      -1.33557238       3.30568275
H        3.63008361      -2.64634187       2.89849170
35
Properties=species:S:1:pos:R:3 relative_energy_eV=0.000103527978353668 branch=left pbc="F F F"
O        5.07324577      -2.11440507      -0.57583724
P        5.16569533      -3.11735953       0.54994580
O        3.90306681      -3.49957780       1.27786157
O        6.48647749      -3.72565614       0.91359973
O        2.63031395      -1.00278078      -1.19024058
C        2.46630128       0.09940188      -0.32445549
C        1.40790963      -0.19097357       0.71689104
O        1.60186498      -0.05834515       1.91556364
C        0.05021216      -0.70136075       0.25349393
O       -0.41662452      -1.67379859       1.18678627
C       -0.93584427       0.47884179       0.14016761
O       -0.34126343       1.37812813      -0.77131759
C       -2.34827925       0.05018325      -0.29968126
O       -2.95212515      -0.86027403       0.61512236
C       -3.28482272       1.23803898      -0.38561899
O       -2.80148408       2.13874907      -1.36912804
P       -3.80378271       3.41712605      -1.85141345
O       -4.63504253       3.83842971      -0.68293282
O       -2.91596969       4.29579704      -2.68165596
O       -4.80756457       2.57470569      -2.89790920
O        3.46665015      -2.09113049       3.68625098
H        3.45262832      -1.46839445      -0.93352687
H        3.38040809       0.36883939       0.20806544
H        2.11977305       0.95817464      -0.90642603
H        0.16185798      -1.17885558      -0.71811413
H       -0.01087601      -1.43304701       2.03535701
H       -1.03281329       0.92996826       1.14026361
H       -1.06023160       1.93652360      -1.12674279
H       -2.26125717      -0.38805628      -1.30330413
H       -2.23719286      -1.42942124       0.94799471
H       -3.35030429       1.72998329       0.58639585
H       -4.28296547       0.88532414      -0.64703004
H       -4.39896189       2.67536553      -3.76578678
H        3.00382279      -1.33620810       3.30520410
H        3.63037219      -2.64682835       2.89803661
35
Properties=species:S:1:pos:R:3 relative_energy_eV=0.00018544749036664143 branch=left pbc="F F F"
O        5.07411662      -2.11494800      -0.57641662
P        5.16616646      -3.11667373       0.55040107
O        3.90246057      -3.49786538       1.27693368
O        6.48701676      -3.72417470       0.91508531
O        2.63099772      -1.00345600      -1.18962218
C        2.46659880       0.09872067      -0.32430913
C        1.40789747      -0.19088258       0.71677854
O        1.60133792      -0.05751132       1.91539751
C        0.05005197      -0.70118800       0.25453787
O       -0.41728337      -1.67332924       1.18787996
C       -0.93595061       0.47886117       0.14049964
O       -0.34175992       1.37769986      -0.77184221
C       -2.34845962       0.05010982      -0.29961752
O       -2.95264638      -0.86045422       0.61525827
C       -3.28473846       1.23841695      -0.38557062
O       -2.80149347       2.13927513      -1.36904017
P       -3.80386957       3.41708700      -1.85155538
O       -4.63489886       3.83819382      -0.68295580
O       -2.91581368       4.29563281      -2.68161474
O       -4.80773551       2.57474944      -2.89785098
O        3.46688707      -2.09276472       3.68541816
H        3.45451265      -1.46721017      -0.93358554
H        3.38091058       0.36754379       0.20789564
H        2.11974327       0.95705340      -0.90638832
H        0.16045476      -1.17860622      -0.71689047
H       -0.01189954      -1.43304177       2.03669136
H       -1.03282918       0.93094136       1.14009987
H       -1.06082756       1.93546343      -1.12832041
H       -2.26078869      -0.38717457      -1.30392962
H       -2.23736951      -1.42926138       0.94812616
H       -3.35088130       1.73034520       0.58646260
H       -4.28268205       0.88559633      -0.64727213
H       -4.39913255       2.67544950      -3.76569680
H        3.00410351      -1.33790537       3.30423937
H        3.63099819      -2.64758477       2.89665256
35
Properties=species:S:1:pos:R:3 relative_energy_eV=0.00023505109129473567 branch=left pbc="F F F"
O        5.07490520      -2.11510308      -0.57685164
P        5.16649721      -3.11621690       0.55052805
O        3.90198737      -3.49669390       1.27599081
O        6.48715393      -3.72357412       0.91617777
O        2.63159356      -1.00423995      -1.18939340
C        2.46685147       0.09814104      -0.32441658
C        1.40793684      -0.19069959       0.71688616
O        1.60093744      -0.05686096       1.91556208
C        0.04986878      -0.70093121       0.25509017
O       -0.41774843      -1.67301872       1.18831828
C       -0.93623541       0.47884511       0.14062970
O       -0.34205689       1.37733818      -0.77189968
C       -2.34861559       0.05026438      -0.29962006
O       -2.95263149      -0.86040494       0.61522719
C       -3.28480341       1.23868669      -0.38561007
O       -2.80137171       2.13942292      -1.36911410
P       -3.80383646       3.41695419      -1.85159609
O       -4.63480617       3.83812967      -0.68303327
O       -2.91585766       4.29560447      -2.68150421
O       -4.80783071       2.57480706      -2.89778934
O        3.46731921      -2.09367227       3.68486069
H        3.45578586      -1.46666272      -0.93331767
H        3.38113331       0.36683036       0.20788875
H        2.11938529       0.95625941      -0.90644397
H        0.15980606      -1.17839673      -0.71620727
H       -0.01280737      -1.43277553       2.03731772
H       -1.03282070       0.93153158       1.13982362
H       -1.06105567       1.93488488      -1.12882245
H       -2.26067970      -0.38684435      -1.30404152
H       -2.23735494      -1.42921900       0.94825668
H       -3.35101954       1.73047008       0.58656429
H       -4.28262880       0.88563980      -0.64750659
H       -4.39924274       2.67545054      -3.76564057
H        3.00408884      -1.33894509       3.30390372
H        3.63134750      -2.64789379       2.89566174
35
Properties=species:S:1:pos:R:3 relative_energy_eV=0.00036903133150190115 branch=left pbc="F F F"
O        5.07800352      -2.11489960      -0.57821921
P        5.16744799      -3.11504397       0.55028922
O        3.90102402      -3.49398121       1.27321246
O        6.48695144      -3.72297821       0.91942711
O        2.63309289      -1.00639494      -1.18907150
C        2.46710172       0.09637683      -0.32450550
C        1.40766761      -0.19040265       0.71774436
O        1.60035043      -0.05468417       1.91635397
C        0.04887499      -0.70015456       0.25609879
O       -0.41885734      -1.67234882       1.18913961
C       -0.93715438       0.47926383       0.14086854
O       -0.34238062       1.37652074      -0.77195546
C       -2.34892452       0.05092250      -0.29955650
O       -2.95220420      -0.86019317       0.61468890
C       -3.28515518       1.23898327      -0.38570279
O       -2.80092599       2.13921050      -1.36930364
P       -3.80363725       3.41678066      -1.85152573
O       -4.63469618       3.83819241      -0.68309077
O       -2.91617052       4.29582050      -2.68139537
O       -4.80793363       2.57479642      -2.89762714
O        3.46868962      -2.09540474       3.68340334
H        3.45892235      -1.46594680      -0.93301275
H        3.38134602       0.36536758       0.20802962
H        2.11816559       0.95411122      -0.90665775
H        0.15890130      -1.17792417      -0.71506626
H       -0.01506968      -1.43178994       2.03853853
H       -1.03314124       0.93310996       1.13931615
H       -1.06144943       1.93342144      -1.12937142
H       -2.26081023      -0.38635592      -1.30365003
H       -2.23722585      -1.42904707       0.94852962
H       -3.35100333       1.73061571       0.58665553
H       -4.28284369       0.88573550      -0.64813130
H       -4.39949037       2.67539382      -3.76556125
H        3.00370400      -1.34118659       3.30357126
H        3.63202459      -2.64877892       2.89341637
35
Properties=species:S:1:pos:R:3 relative_energy_eV=0.0005328392726369202 branch=left pbc="F F F"
O        5.08249176      -2.11414858      -0.57994273
P        5.16850950      -3.11378054       0.54951281
O        3.90062190      -3.49169790       1.27048513
O        6.48615502      -3.72310411       0.92330259
O        2.63462181      -1.00804482      -1.18880943
C        2.46662140       0.09419475      -0.32391362
C        1.40689796      -0.19059969       0.71891189
O        1.60035226      -0.05163943       1.91696255
C        0.04761208      -0.69957628       0.25704161
O       -0.42013109      -1.67181547       1.19009078
C       -0.93766298       0.48028443       0.14141845
O       -0.34208582       1.37597950      -0.77236356
C       -2.34914206       0.05138149      -0.29923631
O       -2.95217387      -0.86042476       0.61397952
C       -3.28560354       1.23875275      -0.38576618
O       -2.80071178       2.13869047      -1.36937169
P       -3.80346067       3.41700888      -1.85138152
O       -4.63461770       3.83836006      -0.68289129
O       -2.91655075       4.29639174      -2.68160989
O       -4.80770454       2.57445691      -2.89739532
O        3.47015516      -2.09669071       3.68180214
H        3.46214105      -1.46572003      -0.93396066
H        3.38097023       0.36396941       0.20804783
H        2.11690316       0.95146876      -0.90652750
H        0.15861299      -1.17723487      -0.71442330
H       -0.01689863      -1.43078687       2.03958295
H       -1.03424107       0.93531911       1.13948761
H       -1.06194394       1.93162684      -1.12982441
H       -2.26125199      -0.38585181      -1.30302978
H       -2.23693498      -1.42851519       0.94847321
H       -3.35078811       1.73066306       0.58636578
H       -4.28340138       0.88609739      -0.64872683
H       -4.39973083       2.67532947      -3.76553426
H        3.00307943      -1.34303207       3.30343609
H        3.63248451      -2.65020457       2.89168647
35
Properties=species:S:1:pos:R:3 relative_energy_eV=0.000626688968623057 branch=left pbc="F F F"
O        5.08432066      -2.11375659      -0.58070103
P        5.16878207      -3.11324699       0.54908335
O        3.90057493      -3.49109162       1.26954433
O        6.48562932      -3.72305659       0.92481410
O        2.63528337      -1.00857707      -1.18849434
C        2.46630546       0.09324935      -0.32351443
C        1.40667887      -0.19090224       0.71924104
O        1.60036523      -0.05029436       1.91700278
C        0.04742172      -0.69956571       0.25745722
O       -0.42074871      -1.67164775       1.19049807
C       -0.93750833       0.48069758       0.14180058
O       -0.34184749       1.37589807      -0.77263885
C       -2.34923741       0.05131640      -0.29902480
O       -2.95247212      -0.86072937       0.61395434
C       -3.28576854       1.23859078      -0.38584489
O       -2.80085649       2.13859596      -1.36942327
P       -3.80344695       3.41720587      -1.85137025
O       -4.63452147       3.83838036      -0.68275417
O       -2.91666916       4.29669372      -2.68173355
O       -4.80747094       2.57425699      -2.89726233
O        3.47083916      -2.09708945       3.68114618
H        3.46352177      -1.46571645      -0.93464654
H        3.38049900       0.36361207       0.20804022
H        2.11646955       0.95019452      -0.90636074
H        0.15866513      -1.17684270      -0.71426337
H       -0.01764556      -1.43030292       2.03992526
H       -1.03489042       0.93639848       1.13975551
H       -1.06212592       1.93104311      -1.13005398
H       -2.26146436      -0.38569003      -1.30291021
H       -2.23667297      -1.42816249       0.94831786
H       -3.35069796       1.73066165       0.58611778
H       -4.28368411       0.88631080      -0.64889602
H       -4.39983603       2.67528204      -3.76553137
H        3.00274460      -1.34372229       3.30350764
H        3.63265864      -2.65088585       2.89109703
35
Properties=species:S:1:pos:R:3 relative_energy_eV=0.000854473932122346 branch=left pbc="F F F"
O        5.08748458      -2.11299017      -0.58226928
P        5.16870034      -3.11210527       0.54811109
O        3.89973208      -3.49028745       1.26687684
O        6.48427922      -3.72190406       0.92744790
O        2.63664200      -1.01090846      -1.18664918
C        2.46621126       0.09125562      -0.32298504
C        1.40712193      -0.19176765       0.71945087
O        1.59959160      -0.04785181       1.91704100
C        0.04820151      -0.69984922       0.25822251
O       -0.42194971      -1.67133436       1.19094513
C       -0.93685893       0.48098379       0.14243487
O       -0.34170851       1.37598928      -0.77296649
C       -2.34954534       0.05074858      -0.29869976
O       -2.95315280      -0.86123548       0.61492445
C       -3.28603369       1.23853645      -0.38625370
O       -2.80151659       2.13885623      -1.36983499
P       -3.80352457       3.41754187      -1.85150803
O       -4.63407302       3.83827570      -0.68245938
O       -2.91685853       4.29730097      -2.68175662
O       -4.80694963       2.57396400      -2.89697975
O        3.47319942      -2.09793770       3.67982980
H        3.46689913      -1.46591066      -0.93570898
H        3.37886745       0.36433209       0.20876230
H        2.11558143       0.94698822      -0.90653452
H        0.15908409      -1.17609679      -0.71390484
H       -0.02059624      -1.42842462       2.04067863
H       -1.03594625       0.93827276       1.13992908
H       -1.06192367       1.93136431      -1.13047485
H       -2.26168428      -0.38606779      -1.30295902
H       -2.23581491      -1.42751213       0.94817324
H       -3.35076590       1.73070877       0.58553852
H       -4.28422254       0.88658212      -0.64886781
H       -4.40005154       2.67503594      -3.76553870
H        3.00160098      -1.34561262       3.30441121
H        3.63317417      -2.65183325       2.88945275
35
Properties=species:S:1:pos:R:3 relative_energy_eV=0.0010461862984811887 branch=left pbc="F F F"
O        5.08984474      -2.11251618      -0.58331600
P        5.16855760      -3.11134155       0.54745123
O        3.89832667      -3.48952025       1.26384281
O        6.48345588      -3.72071144       0.92923644
O        2.63735883      -1.01371108      -1.18469576
C        2.46658739       0.08983005      -0.32284292
C        1.40764238      -0.19216977       0.71962523
O        1.59857340      -0.04640354       1.91734854
C        0.04881348      -0.69983663       0.25855180
O       -0.42242044      -1.67112456       1.19095693
C       -0.93681742       0.48095616       0.14242236
O       -0.34195208       1.37616649      -0.77292638
C       -2.34977118       0.05043979      -0.29868446
O       -2.95312919      -0.86115196       0.61583929
C       -3.28618755       1.23866872      -0.38658103
O       -2.80183051       2.13905315      -1.37024206
P       -3.80356731       3.41763176      -1.85160635
O       -4.63368916       3.83823467      -0.68225208
O       -2.91705188       4.29767556      -2.68163194
O       -4.80678791       2.57385967      -2.89686347
O        3.47548871      -2.09857687       3.67896951
H        3.46952499      -1.46621882      -0.93613275
H        3.37772032       0.36570796       0.20992901
H        2.11481854       0.94443734      -0.90727626
H        0.15950706      -1.17583635      -0.71356042
H       -0.02371652      -1.42656837       2.04144736
H       -1.03623246       0.93897380       1.13951879
H       -1.06133898       1.93255187      -1.13068905
H       -2.26159792      -0.38686980      -1.30290804
H       -2.23527284      -1.42733733       0.94845160
H       -3.35107356       1.73084156       0.58522255
H       -4.28452782       0.88660074      -0.64859868
H       -4.40014912       2.67479996      -3.76554801
H        3.00053275      -1.34737683       3.30548003
H        3.63355563      -2.65205079       2.88794149
35
Properties=species:S:1:pos:R:3 relative_energy_eV=0.0015424494486069307 branch=left pbc="F F F"
O        5.09696559      -2.11147705      -0.58541937
P        5.16909507      -3.10993737       0.54610329
O        3.89420961      -3.48672182       1.25499046
O        6.48238648      -3.71902090       0.93378408
O        2.63802089      -1.02061041      -1.18007165
C        2.46734986       0.08678397      -0.32216073
C        1.40756167      -0.19198692       0.72062380
O        1.59649113      -0.04346326       1.91843744
C        0.04854682      -0.69896138       0.25880752
O       -0.42244643      -1.67084492       1.19087888
C       -0.93791769       0.48126755       0.14143207
O       -0.34257552       1.37682525      -0.77276726
C       -2.35003527       0.05040287      -0.29900214
O       -2.95198497      -0.86019007       0.61713093
C       -3.28647586       1.23883288      -0.38699066
O       -2.80176758       2.13889462      -1.37088957
P       -3.80355834       3.41761804      -1.85159966
O       -4.63298964       3.83845537      -0.68176298
O       -2.91773049       4.29840537      -2.68142780
O       -4.80696267       2.57365911      -2.89683894
O        3.48069884      -2.09979160       3.67732688
H        3.47485211      -1.46734464      -0.93728771
H        3.37605688       0.36893435       0.21294419
H        2.11300738       0.93859477      -0.90967441
H        0.16050916      -1.17583880      -0.71268333
H       -0.03103189      -1.42246349       2.04367403
H       -1.03627179       0.93929841       1.13806664
H       -1.05976472       1.93562240      -1.13112530
H       -2.26103650      -0.38902609      -1.30229196
H       -2.23474812      -1.42749890       0.94972095
H       -3.35218557       1.73135252       0.58474301
H       -4.28508238       0.88654829      -0.64776451
H       -4.40017578       2.67436297      -3.76553098
H        2.99814708      -1.35152098       3.30789057
H        3.63403719      -2.65205315       2.88461351
35
Properties=species:S:1:pos:R:3 relative_energy_eV=0.002035039862676058 branch=left pbc="F F F"
O        5.10466927      -2.11045299      -0.58698413
P        5.17067675      -3.10919207       0.54489290
O        3.89087703      -3.48345247       1.24682675
O        6.48211512      -3.71957634       0.93825775
O        2.63761606      -1.02473707      -1.17595227
C        2.46681892       0.08510536      -0.32055041
C        1.40545677      -0.19037753       0.72185588
O        1.59565933      -0.04160445       1.91915689
C        0.04664792      -0.69795123       0.25862808
O       -0.42205505      -1.67102460       1.19095465
C       -0.93883191       0.48217050       0.14011923
O       -0.34218605       1.37775225      -0.77330526
C       -2.34978466       0.05086045      -0.29928761
O       -2.95084662      -0.85902614       0.61746112
C       -3.28656314       1.23853116      -0.38689016
O       -2.80134380       2.13816279      -1.37091806
P       -3.80358676       3.41743881      -1.85135113
O       -4.63279894       3.83878548      -0.68145436
O       -2.91839229       4.29860472      -2.68156692
O       -4.80756814       2.57370987      -2.89693711
O        3.48408924      -2.10048947       3.67624364
H        3.47781832      -1.46843914      -0.93798712
H        3.37587107       0.36992721       0.21390082
H        2.11211503       0.93416835      -0.91188601
H        0.16113851      -1.17643289      -0.71201313
H       -0.03597077      -1.41959085       2.04542357
H       -1.03615349       0.93851112       1.13730491
H       -1.05884341       1.93749207      -1.13105193
H       -2.26071925      -0.39041928      -1.30150532
H       -2.23505335      -1.42771474       0.95077248
H       -3.35303334       1.73175585       0.58450290
H       -4.28524593       0.88645548      -0.64735829
H       -4.39997672       2.67423286      -3.76534759
H        2.99650180      -1.35420408       3.30950627
H        3.63407699      -2.65187214       2.88241830
35
Properties=species:S:1:pos:R:3 relative_energy_eV=0.002341254679777194 branch=left pbc="F F F"
O        5.10914238      -2.10963957      -0.58819423
P        5.17162594      -3.10868786       0.54376853
O        3.88902534      -3.48138418       1.24175169
O        6.48159645      -3.72008062       0.94128609
O        2.63744561      -1.02679150      -1.17245349
C        2.46603402       0.08466778      -0.31940461
C        1.40396818      -0.18908657       0.72253497
O        1.59507853      -0.04089736       1.91957414
C        0.04579134      -0.69774695       0.25840106
O       -0.42230435      -1.67118260       1.19087390
C       -0.93855777       0.48265679       0.13936165
O       -0.34136385       1.37838002      -0.77402264
C       -2.34945033       0.05107615      -0.29930537
O       -2.95048869      -0.85811662       0.61810817
C       -3.28650483       1.23825230      -0.38684078
O       -2.80139431       2.13773513      -1.37093636
P       -3.80373689       3.41725071      -1.85120460
O       -4.63289254       3.83876517      -0.68136951
O       -2.91863210       4.29833769      -2.68171147
O       -4.80811662       2.57412446      -2.89695435
O        3.48608211      -2.10100717       3.67537963
H        3.47950389      -1.46874042      -0.93691656
H        3.37598795       0.36957178       0.21317027
H        2.11202377       0.93167760      -0.91365542
H        0.16134969      -1.17715001      -0.71168997
H       -0.03923811      -1.41732835       2.04601178
H       -1.03600416       0.93772655       1.13718845
H       -1.05838265       1.93859510      -1.13025776
H       -2.26098475      -0.39111576      -1.30108367
H       -2.23519812      -1.42757168       0.95111183
H       -3.35313932       1.73179438       0.58437324
H       -4.28507795       0.88614412      -0.64753137
H       -4.39980868       2.67417592      -3.76508968
H        2.99541595      -1.35566560       3.31084554
H        3.63439932      -2.65163202       2.88076020
35
Properties=species:S:1:pos:R:3 relative_energy_eV=0.0032612635623081587 branch=left pbc="F F F"
O        5.11768642      -2.10722636      -0.59228882
P        5.17267873      -3.10666400       0.53992742
O        3.88447088      -3.47656494       1.22894138
O        6.47839693      -3.71949615       0.94911055
O        2.63812641      -1.03367915      -1.16125358
C        2.46466334       0.08423216      -0.31788684
C        1.40240360      -0.18698692       0.72395870
O        1.59198092      -0.03982006       1.92143567
C        0.04623733      -0.69838798       0.25765408
O       -0.42449653      -1.67092964       1.18982913
C       -0.93624416       0.48277516       0.13774348
O       -0.33918726       1.37940206      -0.77567421
C       -2.34864929       0.05115026      -0.29903342
O       -2.95003684      -0.85506798       0.62176617
C       -3.28619132       1.23783793      -0.38726203
O       -2.80248232       2.13721418      -1.37165324
P       -3.80440823       3.41677812      -1.85109676
O       -4.63346437       3.83794652      -0.68125621
O       -2.91853630       4.29695427      -2.68184538
O       -4.80986177       2.57608558      -2.89687281
O        3.49219178      -2.10316175       3.67203070
H        3.48491862      -1.46819673      -0.92886016
H        3.37614737       0.36833966       0.21003467
H        2.11216866       0.92590473      -0.91991891
H        0.16157145      -1.17974247      -0.71116206
H       -0.05030257      -1.40915096       2.04633113
H       -1.03505085       0.93563063       1.13684644
H       -1.05670519       1.94253500      -1.12623614
H       -2.26280083      -0.39315793      -1.30020686
H       -2.23472781      -1.42656045       0.95138754
H       -3.35233129       1.73131055       0.58404394
H       -4.28411827       0.88445952      -0.64883936
H       -4.39950691       2.67377176      -3.76426459
H        2.99198850      -1.36004447       3.31601322
H        3.63666559      -2.65038343       2.87443647
35
Properties=species:S:1:pos:R:3 relative_energy_eV=0.0037153667290112935 branch=left pbc="F F F"
O        5.11958088      -2.10627685      -0.59412849
P        5.17244964      -3.10558748       0.53830192
O        3.88284600      -3.47504690       1.22450589
O        6.47656204      -3.71844251       0.95183136
O        2.63871934      -1.03716331      -1.15685857
C        2.46474781       0.08407771      -0.31807508
C        1.40291533      -0.18703511       0.72444315
O        1.59022532      -0.03956994       1.92249007
C        0.04726586      -0.69887204       0.25727053
O       -0.42567744      -1.67046556       1.18911476
C       -0.93527339       0.48235465       0.13724033
O       -0.33873093       1.37940250      -0.77591452
C       -2.34845776       0.05104196      -0.29888230
O       -2.94980019      -0.85365714       0.62368941
C       -3.28603166       1.23782826      -0.38764046
O       -2.80304611       2.13721391      -1.37219325
P       -3.80471269       3.41668818      -1.85115616
O       -4.63377130       3.83743820      -0.68118175
O       -2.91822467       4.29632912      -2.68177186
O       -4.81063630       2.57699166      -2.89685290
O        3.49483067      -2.10428222       3.67041291
H        3.48730671      -1.46754225      -0.92406746
H        3.37624233       0.36827830       0.20907176
H        2.11216959       0.92407418      -0.92284565
H        0.16161729      -1.18091558      -0.71113068
H       -0.05536454      -1.40540806       2.04618955
H       -1.03440854       0.93494244       1.13649427
H       -1.05580817       1.94447000      -1.12420827
H       -2.26375665      -0.39407331      -1.29990057
H       -2.23424124      -1.42606786       0.95139022
H       -3.35175462       1.73095902       0.58391492
H       -4.28363767       0.88356392      -0.64948358
H       -4.39947897       2.67349938      -3.76397891
H        2.99053240      -1.36198308       3.31847370
H        3.63799600      -2.64965752       2.87131505
35
Properties=species:S:1:pos:R:3 relative_energy_eV=0.0044187319435877725 branch=left pbc="F F F"
O        5.12052183      -2.10520653      -0.59661324
P        5.17130715      -3.10386657       0.53646211
O        3.88117856      -3.47399688       1.22060627
O        6.47386376      -3.71641924       0.95436207
O        2.63920059      -1.04214775      -1.15269696
C        2.46582858       0.08345253      -0.31907656
C        1.40449078      -0.18853649       0.72488155
O        1.58795067      -0.03932988       1.92356624
C        0.04854794      -0.69944683       0.25645428
O       -0.42712689      -1.66939498       1.18815204
C       -0.93503289       0.48140336       0.13682666
O       -0.33913235       1.37869823      -0.77528692
C       -2.34844244       0.05088376      -0.29875256
O       -2.94909764      -0.85167153       0.62608127
C       -3.28567416       1.23789155      -0.38835682
O       -2.80332446       2.13734161      -1.37303079
P       -3.80510401       3.41678818      -1.85125356
O       -4.63425137       3.83683260      -0.68093742
O       -2.91752376       4.29562505      -2.68153056
O       -4.81179550       2.57795847      -2.89701926
O        3.49798876      -2.10586286       3.66840796
H        3.48998149      -1.46595037      -0.91677717
H        3.37696956       0.36938244       0.20882132
H        2.11218231       0.92230100      -0.92635698
H        0.16208150      -1.18237127      -0.71159193
H       -0.06167827      -1.40089969       2.04613201
H       -1.03313792       0.93454899       1.13573485
H       -1.05444441       1.94701876      -1.12159542
H       -2.26502297      -0.39518424      -1.29950840
H       -2.23340876      -1.42551701       0.95136594
H       -3.35097395       1.73029717       0.58363157
H       -4.28292589       0.88233684      -0.65004833
H       -4.39954204       2.67307517      -3.76379442
H        2.98889833      -1.36448384       3.32150762
H        3.63984218      -2.64844306       2.86711290
35
Properties=species:S:1:pos:R:3 relative_energy_eV=0.004994424292817712 branch=left pbc="F F F"
O        5.12235579      -2.10459909      -0.59856312
P        5.16978634      -3.10234342       0.53565331
O        3.87967221      -3.47352174       1.21941079
O        6.47202870      -3.71488508       0.95529659
O        2.63911796      -1.04504353      -1.15073454
C        2.46649412       0.08204454      -0.31906628
C        1.40419616      -0.18981109       0.72417113
O        1.58758709      -0.03923769       1.92222759
C        0.04752701      -0.69987367       0.25539744
O       -0.42807429      -1.66890679       1.18822555
C       -0.93610334       0.48090945       0.13675208
O       -0.33975388       1.37790696      -0.77441757
C       -2.34857091       0.05091270      -0.29875379
O       -2.94831546      -0.85020927       0.62736033
C       -3.28506727       1.23773051      -0.38907215
O       -2.80262848       2.13734391      -1.37346663
P       -3.80556405       3.41676165      -1.85098188
O       -4.63454719       3.83676130      -0.68088465
O       -2.91696329       4.29528949      -2.68118494
O       -4.81287475       2.57847884      -2.89742309
O        3.49978063      -2.10725737       3.66716120
H        3.49094799      -1.46475968      -0.91087732
H        3.37810263       0.37145891       0.20830397
H        2.11321084       0.92043038      -0.92690288
H        0.16378529      -1.18309334      -0.71265689
H       -0.06554100      -1.39822471       2.04686098
H       -1.03175345       0.93492321       1.13548176
H       -1.05359430       1.94842766      -1.11967127
H       -2.26601737      -0.39583292      -1.29919528
H       -2.23275972      -1.42509502       0.95123375
H       -3.35059715       1.72948720       0.58298945
H       -4.28216858       0.88158419      -0.64988227
H       -4.39969738       2.67273480      -3.76388389
H        2.98819779      -1.36637277       3.32309242
H        3.64099565      -2.64701186       2.86387946
35
Properties=species:S:1:pos:R:3 relative_energy_eV=0.005340442599845119 branch=left pbc="F F F"
O        5.12349636      -2.10446533      -0.59925781
P        5.16911369      -3.10171898       0.53560664
O        3.87844611      -3.47283953       1.21930391
O        6.47128821      -3.71393990       0.95524151
O        2.63974047      -1.04577363      -1.14973850
C        2.46639589       0.08121706      -0.31859323
C        1.40327478      -0.18987232       0.72341141
O        1.58805257      -0.03936532       1.92073967
C        0.04652273      -0.70017772       0.25492743
O       -0.42847964      -1.66912504       1.18852830
C       -0.93648810       0.48088860       0.13671052
O       -0.33968165       1.37771577      -0.77433217
C       -2.34862970       0.05093659      -0.29874348
O       -2.94804963      -0.84973449       0.62785559
C       -3.28475410       1.23757554      -0.38939960
O       -2.80226615       2.13726134      -1.37357265
P       -3.80536085       3.41672280      -1.85127308
O       -4.63478735       3.83694095      -0.68079869
O       -2.91697849       4.29514492      -2.68070931
O       -4.81331636       2.57875535      -2.89756372
O        3.50044185      -2.10818789       3.66645734
H        3.49119713      -1.46528494      -0.90799573
H        3.37820074       0.37269785       0.20753554
H        2.11413787       0.91936380      -0.92621269
H        0.16491376      -1.18323816      -0.71320384
H       -0.06720440      -1.39701991       2.04740164
H       -1.03112484       0.93516739       1.13560040
H       -1.05339850       1.94893339      -1.11859708
H       -2.26652147      -0.39623699      -1.29901055
H       -2.23240512      -1.42484944       0.95112941
H       -3.35047949       1.72912384       0.58258117
H       -4.28184172       0.88138455      -0.64974146
H       -4.39990186       2.67250432      -3.76404154
H        2.98803664      -1.36731956       3.32363061
H        3.64160492      -2.64607826       2.86200338
35
Properties=species:S:1:pos:R:3 relative_energy_eV=0.007009435379586648 branch=left pbc="F F F"
O        5.12260188      -2.10505389      -0.59924952
P        5.16613007      -3.10037564       0.53681901
O        3.87404840      -3.46785655       1.21993430
O        6.47016200      -3.70938194       0.95303131
O        2.64637639      -1.04718328      -1.14698228
C        2.46577061       0.07964382      -0.31796360
C        1.40148296      -0.18936173       0.72069890
O        1.58995516      -0.04037842       1.91803884
C        0.04550190      -0.70110912       0.25444193
O       -0.42890049      -1.67064802       1.18879917
C       -0.93557952       0.48093976       0.13615799
O       -0.33835467       1.37781815      -0.77553389
C       -2.34866949       0.05070806      -0.29856049
O       -2.94762626      -0.84944579       0.62928894
C       -3.28467519       1.23724551      -0.38987588
O       -2.80233300       2.13671052      -1.37415917
P       -3.80504120       3.41655283      -1.85140526
O       -4.63485875       3.83726606      -0.68172039
O       -2.91665618       4.29636238      -2.67925630
O       -4.81354436       2.57975141      -2.89764793
O        3.50196170      -2.11213940       3.66317033
H        3.49280334      -1.47347613      -0.89874644
H        3.37525023       0.37680429       0.20570046
H        2.11628011       0.91849552      -0.92388602
H        0.16684012      -1.18333547      -0.71376825
H       -0.07274375      -1.39302417       2.04823008
H       -1.03000194       0.93515623       1.13571630
H       -1.05321475       1.95066246      -1.11454995
H       -2.26789944      -0.39848926      -1.29806124
H       -2.23097032      -1.42422533       0.95104846
H       -3.35005418       1.72898627       0.58185574
H       -4.28181423       0.88145231      -0.65010999
H       -4.40149969       2.67117417      -3.76496032
H        2.98783222      -1.37029147       3.32527564
H        3.64463457      -2.64284753       2.85410895
35
Properties=species:S:1:pos:R:3 relative_energy_eV=0.008057749233557843 branch=left pbc="F F F"
O        5.12129126      -2.10518142      -0.59887618
P        5.16577118      -3.09935857       0.53730994
O        3.87209581      -3.46359972       1.21998879
O        6.46942720      -3.70798547       0.95265839
O        2.65048670      -1.04774979      -1.14664633
C        2.46628994       0.07939279      -0.31850049
C        1.40224948      -0.18972733       0.72013144
O        1.59047823      -0.04065491       1.91856295
C        0.04638806      -0.70126410       0.25458796
O       -0.42855885      -1.67105838       1.18840050
C       -0.93476896       0.48077976       0.13572797
O       -0.33804149       1.37786318      -0.77622264
C       -2.34869631       0.05042288      -0.29842521
O       -2.94739406      -0.84971071       0.62987485
C       -3.28507582       1.23721338      -0.38987708
O       -2.80283654       2.13644779      -1.37455980
P       -3.80475069       3.41685359      -1.85158859
O       -4.63485698       3.83735494      -0.68220756
O       -2.91634120       4.29754690      -2.67861725
O       -4.81329713       2.58006375      -2.89754626
O        3.50235143      -2.11461565       3.66080709
H        3.49290017      -1.47982802      -0.89363509
H        3.37351293       0.37863122       0.20668039
H        2.11626826       0.91866425      -0.92431233
H        0.16636884      -1.18357930      -0.71347657
H       -0.07562513      -1.39112564       2.04829061
H       -1.02998492       0.93473930       1.13531730
H       -1.05312210       1.95187990      -1.11270958
H       -2.26826123      -0.39981173      -1.29748546
H       -2.23032896      -1.42422402       0.95133972
H       -3.35003466       1.72943153       0.58181345
H       -4.28236842       0.88180743      -0.65056550
H       -4.40267715       2.67030367      -3.76558559
H        2.98781480      -1.37158394       3.32602602
H        3.64652051      -2.64123091       2.84919954
35
Properties=species:S:1:pos:R:3 relative_energy_eV=0.01273672359820921 branch=left pbc="F F F"
O        5.13147526      -2.10179617      -0.60085501
P        5.17102370      -3.09334850       0.53721134
O        3.87025567      -3.44161542       1.21322318
O        6.46534142      -3.71638368       0.96237858
O        2.65771464      -1.04705850      -1.14970889
C        2.47122077       0.07883532      -0.32000181
C        1.40757561      -0.19217040       0.72340327
O        1.59084321      -0.03880440       1.92119469
C        0.04975987      -0.70066227       0.25549029
O       -0.42673593      -1.67029658       1.18761637
C       -0.93438856       0.48013997       0.13484403
O       -0.33982455       1.37760303      -0.77707322
C       -2.34927327       0.04932385      -0.29809332
O       -2.94692139      -0.85126365       0.63062860
C       -3.28685425       1.23744462      -0.38970561
O       -2.80416536       2.13652383      -1.37525976
P       -3.80412629       3.41884305      -1.85232137
O       -4.63502120       3.83815013      -0.68304072
O       -2.91550226       4.30151675      -2.67751977
O       -4.81254997       2.57995445      -2.89711637
O        3.50106707      -2.12332351       3.65132314
H        3.48348138      -1.50145184      -0.87600965
H        3.37286532       0.38123180       0.21619410
H        2.11398985       0.91417028      -0.93121385
H        0.16131086      -1.18542733      -0.71163518
H       -0.08270050      -1.38701799       2.04961060
H       -1.03194677       0.93326506       1.13370033
H       -1.05311525       1.95624249      -1.10977896
H       -2.26790290      -0.40238148      -1.29630282
H       -2.22989182      -1.42548928       0.95334140
H       -3.35188335       1.73139303       0.58172836
H       -4.28509022       0.88388641      -0.65127988
H       -4.40678111       2.66776264      -3.76754492
H        2.98853133      -1.37438526       3.32661163
H        3.65141311      -2.63630400       2.83184057
35
Properties=species:S:1:pos:R:3 relative_energy_eV=0.017131776723545045 branch=left pbc="F F F"
O        5.09596440      -2.10164833      -0.60130913
P        5.15923830      -3.09578817       0.53980116
O        3.86803756      -3.45860802       1.22918815
O        6.47097407      -3.70117064       0.94934644
O        2.66335457      -1.04503092      -1.15012049
C        2.47356444       0.08012641      -0.32287756
C        1.41085817      -0.19488092       0.72243013
O        1.59155867      -0.04307211       1.92345305
C        0.05247616      -0.70092568       0.25400391
O       -0.42506056      -1.67111752       1.18408504
C       -0.93238573       0.47931536       0.13342072
O       -0.33906816       1.37724660      -0.77814430
C       -2.34821498       0.04875793      -0.29799767
O       -2.94495850      -0.85083338       0.63218950
C       -3.28643215       1.23706041      -0.38960507
O       -2.80442261       2.13537525      -1.37639724
P       -3.80305231       3.41918891      -1.85290134
O       -4.63488688       3.83703935      -0.68290588
O       -2.91436885       4.30252748      -2.67640679
O       -4.81178433       2.58038225      -2.89754689
O        3.50461430      -2.12136216       3.65431377
H        3.49703641      -1.49804913      -0.87889631
H        3.37048648       0.38695072       0.21806551
H        2.11184500       0.91808537      -0.93261243
H        0.16178487      -1.18551942      -0.71310601
H       -0.08516964      -1.38612238       2.04694728
H       -1.03009588       0.93193116       1.13207148
H       -1.05193360       1.95780890      -1.10816615
H       -2.26806686      -0.40476441      -1.29538287
H       -2.22759480      -1.42570010       0.95359411
H       -3.35016006       1.73191226       0.58187547
H       -4.28490941       0.88350037      -0.65156566
H       -4.40657221       2.66709973      -3.76823781
H        2.98736390      -1.37532571       3.32948636
H        3.65317440      -2.63728264       2.83578700
35
Properties=species:S:1:pos:R:3 relative_energy_eV=0.021261779955239035 branch=left pbc="F F F"
O        5.17064957      -2.10433293      -0.59698542
P        5.18347920      -3.09324828       0.53664913
O        3.87122964      -3.41647637       1.19206299
O        6.46016150      -3.73058927       0.97467580
O        2.65148274      -1.05522125      -1.15026413
C        2.46962541       0.07714757      -0.32326480
C        1.40846410      -0.19255462       0.72678417
O        1.58662491      -0.03316658       1.92526521
C        0.05030989      -0.69918691       0.25853172
O       -0.42737035      -1.66755641       1.18927802
C       -0.93510807       0.48019614       0.13605083
O       -0.34077227       1.37719345      -0.77510252
C       -2.35020277       0.05010194      -0.29805671
O       -2.94890091      -0.85153788       0.62810138
C       -3.28886104       1.23806682      -0.38877155
O       -2.80574347       2.13677104      -1.37464526
P       -3.80467622       3.41991502      -1.85246521
O       -4.63578074       3.83881542      -0.68287974
O       -2.91599085       4.30152642      -2.67916059
O       -4.81308286       2.57911676      -2.89624173
O        3.49686207      -2.12698003       3.64583351
H        3.47456460      -1.51339888      -0.86928170
H        3.37030210       0.37496474       0.21483925
H        2.11437332       0.92097497      -0.93088616
H        0.15846217      -1.18513815      -0.70751662
H       -0.08171550      -1.38665883       2.05096048
H       -1.03417248       0.93407122       1.13354301
H       -1.05395364       1.95438397      -1.10984327
H       -2.26833062      -0.40097356      -1.29615671
H       -2.23238645      -1.42482592       0.95295523
H       -3.35274428       1.73202133       0.58351229
H       -4.28668247       0.88405215      -0.65345906
H       -4.40778388       2.66806554      -3.76674679
H        2.98958413      -1.37343260       3.32418721
H        3.65127749      -2.63500008       2.82437699
35
Properties=species:S:1:pos:R:3 relative_energy_eV=0.031005612589069642 branch=left pbc="F F F"
O        5.14618005      -2.09487181      -0.60714531
P        5.17909634      -3.08277727       0.53477287
O        3.87748771      -3.42229362       1.20598832
O        6.45468174      -3.73230198       0.97905292
O        2.66657223      -1.04105651      -1.15552193
C        2.47579075       0.08102266      -0.31026476
C        1.40850186      -0.19236629       0.72199470
O        1.59621387      -0.03618446       1.92007548
C        0.04872112      -0.70094676       0.25449479
O       -0.42547501      -1.67028631       1.18961386
C       -0.93737987       0.48019823       0.13438334
O       -0.34369325       1.37790179      -0.77803330
C       -2.35041219       0.04763695      -0.29788310
O       -2.94607773      -0.85328884       0.63195378
C       -3.28678472       1.23741654      -0.39091428
O       -2.80269162       2.13826058      -1.37491876
P       -3.80343482       3.42008838      -1.85284819
O       -4.63503155       3.84017606      -0.68322269
O       -2.91567922       4.30441453      -2.67598534
O       -4.81261942       2.57947046      -2.89737944
O        3.49901161      -2.13088790       3.64321020
H        3.45860047      -1.51288608      -0.86126872
H        3.38283717       0.38320598       0.22992719
H        2.11261828       0.89171897      -0.94091404
H        0.15730719      -1.18848375      -0.71290445
H       -0.08766011      -1.38535157       2.05373436
H       -1.03457124       0.93243365       1.13407396
H       -1.05353372       1.96182750      -1.11027858
H       -2.26592270      -0.40288471      -1.29671223
H       -2.23018659      -1.42816434       0.95635120
H       -3.35627437       1.73221419       0.57890892
H       -4.28667127       0.88699059      -0.64814500
H       -4.41035859       2.66560610      -3.76994354
H        2.99004908      -1.37708135       3.32568776
H        3.65398255      -2.63136337       2.81593928
35
Properties=species:S:1:pos:R:3 relative_energy_eV=0.041854241862893105 branch=left pbc="F F F"
O        5.19923289      -2.08794757      -0.61419767
P        5.19715138      -3.07816058       0.53210140
O        3.87549207      -3.39519377       1.18597782
O        6.45001348      -3.75933194       1.00256126
O        2.65312706      -1.03532520      -1.15523555
C        2.47789208       0.07627007      -0.30654666
C        1.40469535      -0.18858404       0.72182178
O        1.59650032      -0.03010000       1.91691375
C        0.04420533      -0.70076829       0.25647899
O       -0.42769633      -1.66990927       1.19511167
C       -0.94042656       0.48145269       0.13621513
O       -0.34492173       1.37871042      -0.77733515
C       -2.35202338       0.04815177      -0.29809316
O       -2.94910557      -0.85453690       0.63046379
C       -3.28738652       1.23801560      -0.39130960
O       -2.80218757       2.14012632      -1.37328561
P       -3.80493686       3.41985155      -1.85267822
O       -4.63501289       3.84214561      -0.68373952
O       -2.91749535       4.30365086      -2.67671661
O       -4.81318554       2.57916471      -2.89671248
O        3.49397969      -2.13616256       3.63694931
H        3.43975062      -1.52380511      -0.85090676
H        3.38617837       0.37613841       0.22973136
H        2.11542734       0.88052287      -0.94081818
H        0.15570917      -1.18891138      -0.71100034
H       -0.08584801      -1.38572774       2.05829834
H       -1.03776082       0.93393757       1.13650334
H       -1.05545411       1.96112985      -1.11216723
H       -2.26531621      -0.40003129      -1.29803505
H       -2.23301767      -1.42857102       0.95673250
H       -3.35958247       1.73173126       0.57802666
H       -4.28733838       0.88829268      -0.64717286
H       -4.41177814       2.66583958      -3.76943533
H        2.99173567      -1.37628773       3.32155177
H        3.65257712      -2.62867189       2.80582631
35
Properties=species:S:1:pos:R:3 relative_energy_eV=0.06325706755160354 branch=left pbc="F F F"
O        5.35588223      -2.08647618      -0.61370545
P        5.24725934      -3.07438934       0.52661201
O        3.87561641      -3.31371515       1.11466880
O        6.43331520      -3.82349051       1.05700205
O        2.61960269      -1.04510803      -1.15216216
C        2.47271021       0.06578588      -0.30700742
C        1.39662793      -0.18118659       0.72608411
O        1.58814942      -0.01041012       1.91853228
C        0.03681144      -0.69806903       0.26550140
O       -0.43383147      -1.66450669       1.20771934
C       -0.94632248       0.48396543       0.14203463
O       -0.34719082       1.37948157      -0.77199624
C       -2.35611807       0.05126065      -0.29845939
O       -2.95826651      -0.85616151       0.62264511
C       -3.29149284       1.24007280      -0.39011907
O       -2.80414453       2.14345701      -1.36916942
P       -3.80854089       3.42031010      -1.85237104
O       -4.63647593       3.84610102      -0.68388502
O       -2.92194782       4.30011044      -2.68166293
O       -4.81558291       2.57725317      -2.89402143
O        3.47833155      -2.14688835       3.62120803
H        3.39712905      -1.55345938      -0.83192505
H        3.38546640       0.35083462       0.21969705
H        2.12245316       0.88100248      -0.93464423
H        0.15084780      -1.18770339      -0.70062713
H       -0.07731043      -1.38748092       2.06721057
H       -1.04598084       0.93887699       1.14105117
H       -1.06017488       1.95346327      -1.11629268
H       -2.26579084      -0.39148910      -1.30039300
H       -2.24267596      -1.42676333       0.95511497
H       -3.36512784       1.73108497       0.58044736
H       -4.28999325       0.88932288      -0.64999710
H       -4.41370895       2.66824021      -3.76588055
H        2.99617726      -1.37187281       3.31003677
H        3.64749054      -2.62434943       2.78463250
35
Properties=species:S:1:pos:R:3 relative_energy_eV=0.07097307307412848 branch=left pbc="F F F"
O        5.50077086      -2.09466085      -0.60267849
P        5.29074020      -3.07435880       0.52260777
O        3.88132495      -3.23585158       1.04116508
O        6.41632273      -3.87660421       1.10144015
O        2.59491054      -1.06920108      -1.14903084
C        2.46128229       0.05884460      -0.31180595
C        1.39039011      -0.17621533       0.73329973
O        1.57636138       0.00900367       1.92493902
C        0.03326932      -0.69451128       0.27516299
O       -0.43905480      -1.65716160       1.21771623
C       -0.95057285       0.48563748       0.14756468
O       -0.34922014       1.37937777      -0.76542720
C       -2.35970711       0.05469160      -0.29861036
O       -2.96658520      -0.85676519       0.61378411
C       -3.29647117       1.24205692      -0.38797670
O       -2.80745658       2.14567701      -1.36572109
P       -3.81137109       3.42140587      -1.85202812
O       -4.63860766       3.84902290      -0.68331723
O       -2.92551470       4.29657125      -2.68758569
O       -4.81827004       2.57485044      -2.89125918
O        3.46320809      -2.15481205       3.60757575
H        3.36046993      -1.57931625      -0.81967177
H        3.38142949       0.32554528       0.20757374
H        2.12806041       0.89631706      -0.92712828
H        0.14590238      -1.18572543      -0.68889274
H       -0.06833636      -1.38936794       2.07349989
H       -1.05320247       0.94362293       1.14393253
H       -1.06399000       1.94413517      -1.11949274
H       -2.26715412      -0.38356573      -1.30184450
H       -2.25233942      -1.42386132       0.95256825
H       -3.36859421       1.73096814       0.58491901
H       -4.29292327       0.88917961      -0.65508418
H       -4.41468022       2.67110815      -3.76186183
H        3.00021117      -1.36709392       3.29968398
H        3.64259056      -2.62184136       2.76786232
35
Properties=species:S:1:pos:R:3 relative_energy_eV=0.07205930673808325 branch=left pbc="F F F"
O        5.51667705      -2.09582485      -0.60114600
P        5.29525172      -3.07426754       0.52202687
O        3.88192867      -3.22710557       1.03276285
O        6.41488598      -3.88256835       1.10636140
O        2.59275574      -1.07300612      -1.14876041
C        2.45953067       0.05840641      -0.31240693
C        1.38976811      -0.17583353       0.73416096
O        1.57488950       0.01124740       1.92601360
C        0.03306905      -0.69404874       0.27628843
O       -0.43959013      -1.65621492       1.21871018
C       -0.95099695       0.48578602       0.14817392
O       -0.34946813       1.37931184      -0.76460776
C       -2.36010485       0.05509015      -0.29861324
O       -2.96747631      -0.85678366       0.61271725
C       -3.29707930       1.24227580      -0.38768847
O       -2.80789700       2.14587815      -1.36535847
P       -3.81158752       3.42158646      -1.85205053
O       -4.63892128       3.84932550      -0.68316826
O       -2.92589434       4.29616140      -2.68829217
O       -4.81861228       2.57453502      -2.89093670
O        3.46150717      -2.15560806       3.60611909
H        3.35635415      -1.58198896      -0.81862999
H        3.38095879       0.32267917       0.20618593
H        2.12863232       0.89875323      -0.92626329
H        0.14530551      -1.18547221      -0.68748410
H       -0.06730370      -1.38958524       2.07411734
H       -1.05398427       0.94415335       1.14417745
H       -1.06438005       1.94300993      -1.11981860
H       -2.26734524      -0.38269088      -1.30196424
H       -2.25345008      -1.42348461       0.95224244
H       -3.36890267       1.73098559       0.58552605
H       -4.29327855       0.88911478      -0.65576780
H       -4.41474716       2.67145561      -3.76139662
H        3.00064860      -1.36652664       3.29855168
H        3.64204974      -2.62164416       2.76609642
35
Properties=species:S:1:pos:R:3 relative_energy_eV=0.07277276382228592 branch=left pbc="F F F"
O        5.52522559      -2.09632291      -0.60045620
P        5.29790416      -3.07454153       0.52196684
O        3.88203740      -3.22232771       1.02816725
O        6.41412737      -3.88569474       1.10892305
O        2.59230015      -1.07608486      -1.14870219
C        2.45816605       0.05862115      -0.31256588
C        1.38953796      -0.17569573       0.73487080
O        1.57399155       0.01247542       1.92654059
C        0.03308074      -0.69375739       0.27689797
O       -0.43985500      -1.65563791       1.21917851
C       -0.95122435       0.48585565       0.14850183
O       -0.34962142       1.37924091      -0.76411694
C       -2.36032952       0.05530200      -0.29859997
O       -2.96791923      -0.85676700       0.61209542
C       -3.29743635       1.24239322      -0.38751196
O       -2.80815944       2.14596642      -1.36517992
P       -3.81174818       3.42168824      -1.85195430
O       -4.63908896       3.84946214      -0.68310442
O       -2.92603415       4.29598832      -2.68875194
O       -4.81882596       2.57433373      -2.89076521
O        3.46057349      -2.15599510       3.60536100
H        3.35372147      -1.58312607      -0.81835738
H        3.38077028       0.32110582       0.20545140
H        2.12893426       0.90037757      -0.92578169
H        0.14494659      -1.18532298      -0.68666642
H       -0.06672978      -1.38970102       2.07442517
H       -1.05439550       0.94443814       1.14426842
H       -1.06457294       1.94236640      -1.11998103
H       -2.26746442      -0.38222139      -1.30200779
H       -2.25407684      -1.42325441       0.95204825
H       -3.36903733       1.73101133       0.58590488
H       -4.29348429       0.88905978      -0.65618859
H       -4.41476695       2.67165280      -3.76114726
H        3.00088102      -1.36620747       3.29795003
H        3.64176547      -2.62157915       2.76516590
35
Properties=species:S:1:pos:R:3 relative_energy_eV=0.07296778060117504 branch=left pbc="F F F"
O        5.52580175      -2.09626878      -0.60050928
P        5.29814223      -3.07471186       0.52211078
O        3.88201965      -3.22199236       1.02783905
O        6.41403400      -3.88585945       1.10905720
O        2.59296335      -1.07690244      -1.14854693
C        2.45780042       0.05891330      -0.31256384
C        1.38960124      -0.17567973       0.73497875
O        1.57390540       0.01255578       1.92653943
C        0.03309443      -0.69372697       0.27692558
O       -0.43987897      -1.65559773       1.21919168
C       -0.95125277       0.48585667       0.14852477
O       -0.34962928       1.37923052      -0.76407860
C       -2.36034248       0.05531575      -0.29859354
O       -2.96793585      -0.85676885       0.61205126
C       -3.29746491       1.24240168      -0.38749921
O       -2.80817986       2.14597260      -1.36517215
P       -3.81178025       3.42168465      -1.85190993
O       -4.63909436       3.84946616      -0.68311157
O       -2.92602410       4.29599480      -2.68880393
O       -4.81884902       2.57431527      -2.89074571
O        3.46050337      -2.15600530       3.60531891
H        3.35297410      -1.58284744      -0.81861616
H        3.38083362       0.32098463       0.20542817
H        2.12898629       0.90046682      -0.92567639
H        0.14491609      -1.18531061      -0.68659933
H       -0.06668392      -1.38970378       2.07445531
H       -1.05442060       0.94445664       1.14427020
H       -1.06458582       1.94231973      -1.11999050
H       -2.26747472      -0.38219067      -1.30200974
H       -2.25412981      -1.42323017       0.95203005
H       -3.36904303       1.73101495       0.58593610
H       -4.29349938       0.88905418      -0.65622204
H       -4.41476240       2.67166769      -3.76114143
H        3.00089913      -1.36619024       3.29791247
H        3.64174945      -2.62158376       2.76509880
35
Properties=species:S:1:pos:R:3 relative_energy_eV=0.07571515564632136 branch=ts pbc="F F F"
O        5.56834460      -2.09961403      -0.59959396
P        5.30760007      -3.07157031       0.51811317
O        3.88053981      -3.19973420       1.00386496
O        6.40075037      -3.89895502       1.12526972
O        2.57536493      -1.08588482      -1.14597956
C        2.45456449       0.05011422      -0.31076648
C        1.38599781      -0.17387899       0.73915157
O        1.57058623       0.01926260       1.92980197
C        0.03012546      -0.69245723       0.28119991
O       -0.44308739      -1.65452904       1.22365907
C       -0.95339513       0.48682083       0.15023539
O       -0.35056661       1.37901955      -0.76279241
C       -2.36179463       0.05575950      -0.29792553
O       -2.97011834      -0.85593114       0.61244206
C       -3.29899127       1.24273547      -0.38782820
O       -2.80874892       2.14610432      -1.36518986
P       -3.81195426       3.42211511      -1.85218668
O       -4.63935600       3.84991549      -0.68339500
O       -2.92601175       4.29607207      -2.68894553
O       -4.81909267       2.57469813      -2.89109059
O        3.45912582      -2.15905987       3.59514839
H        3.26118729      -1.65088103      -0.75299187
H        3.38159927       0.30914885       0.20137285
H        2.13053084       0.88876681      -0.92929032
H        0.14282255      -1.18589243      -0.68098579
H       -0.07937796      -1.38259670       2.08090755
H       -1.05763775       0.94707599       1.14501829
H       -1.06493347       1.94248602      -1.11935006
H       -2.26797055      -0.38214957      -1.30105774
H       -2.25697244      -1.42345098       0.95225774
H       -3.37140245       1.73139968       0.58543045
H       -4.29465594       0.88922604      -0.65747766
H       -4.41508718       2.67211294      -3.76141909
H        2.99891968      -1.36780348       3.29203775
H        3.64308147      -2.61841340       2.75246707
35
Properties=species:S:1:pos:R:3 relative_energy_eV=0.07418445490475278 branch=right pbc="F F F"
O        5.61042033      -2.10307198      -0.59866007
P        5.31716057      -3.06854276       0.51427192
O        3.87936934      -3.17765624       0.97983055
O        6.38687209      -3.91151806       1.14119335
O        2.56361731      -1.09942890      -1.13987212
C        2.45098000       0.04128165      -0.30901160
C        1.38245822      -0.17170488       0.74342235
O        1.56736317       0.02579324       1.93290879
C        0.02699724      -0.69130229       0.28552779
O       -0.44638022      -1.65353242       1.22807835
C       -0.95550451       0.48776868       0.15184899
O       -0.35148953       1.37882591      -0.76156583
C       -2.36325350       0.05629745      -0.29727461
O       -2.97225079      -0.85521648       0.61305559
C       -3.30035112       1.24299759      -0.38830255
O       -2.80931078       2.14626182      -1.36521293
P       -3.81224142       3.42236473      -1.85243152
O       -4.63956498       3.85036613      -0.68372628
O       -2.92590790       4.29627009      -2.68906710
O       -4.81929624       2.57516806      -2.89135377
O        3.45781671      -2.16197331       3.58507280
H        3.16410197      -1.71449925      -0.69067468
H        3.38244826       0.29740675       0.19736881
H        2.13193466       0.87708557      -0.93288611
H        0.14075038      -1.18651854      -0.67555121
H       -0.09214609      -1.37543567       2.08735317
H       -1.06079727       0.94966986       1.14582990
H       -1.06527374       1.94277814      -1.11869333
H       -2.26843949      -0.38219040      -1.30012420
H       -2.25975326      -1.42367457       0.95249920
H       -3.37376697       1.73180707       0.58489259
H       -4.29581786       0.88940958      -0.65864362
H       -4.41537977       2.67252822      -3.76182660
H        2.99692307      -1.36952562       3.28626773
H        3.64449109      -2.61532800       2.73980114
35
Properties=species:S:1:pos:R:3 relative_energy_eV=0.07399449247895973 branch=right pbc="F F F"
O        5.61120643      -2.10315607      -0.59876808
P        5.31722814      -3.06832148       0.51412094
O        3.87948048      -3.17729505       0.97927714
O        6.38647723      -3.91162117       1.14152907
O        2.56240971      -1.09862785      -1.13990893
C        2.45124871       0.04076522      -0.30891790
C        1.38227416      -0.17156365       0.74344791
O        1.56739509       0.02584496       1.93293903
C        0.02687383      -0.69135422       0.28552068
O       -0.44651306      -1.65355715       1.22813881
C       -0.95553783       0.48778189       0.15184229
O       -0.35149373       1.37884047      -0.76160879
C       -2.36326828       0.05626994      -0.29726860
O       -2.97223834      -0.85521430       0.61319752
C       -3.30031902       1.24299648      -0.38834199
O       -2.80928958       2.14626225      -1.36524681
P       -3.81222791       3.42237368      -1.85247569
O       -4.63954530       3.85036650      -0.68375335
O       -2.92589366       4.29629888      -2.68898177
O       -4.81926128       2.57523011      -2.89140376
O        3.45791378      -2.16200714       3.58499260
H        3.16472009      -1.71505223      -0.69017673
H        3.38237188       0.29756098       0.19741997
H        2.13185652       0.87672841      -0.93302862
H        0.14074070      -1.18652213      -0.67561513
H       -0.09223010      -1.37539762       2.08735763
H       -1.06075109       0.94964071       1.14585326
H       -1.06525026       1.94289450      -1.11866543
H       -2.26842000      -0.38226552      -1.30010490
H       -2.25966149      -1.42370326       0.95253260
H       -3.37375951       1.73180260       0.58481340
H       -4.29580210       0.88942125      -0.65857186
H       -4.41538132       2.67249335      -3.76186455
H        2.99686085      -1.36956679       3.28633136
H        3.64456526      -2.61538538       2.73973361
35
Properties=species:S:1:pos:R:3 relative_energy_eV=0.07327555641677463 branch=right pbc="F F F"
O        5.62754931      -2.10411400      -0.60167291
P        5.32047450      -3.06513006       0.51132219
O        3.87940627      -3.16876510       0.96784122
O        6.37902155      -3.91380320       1.14867496
O        2.55467876      -1.10209612      -1.13410733
C        2.45007441       0.03887668      -0.30625972
C        1.38042642      -0.17003322       0.74468124
O        1.56679847       0.02719387       1.93388684
C        0.02522302      -0.69145697       0.28541217
O       -0.44870589      -1.65347303       1.22867251
C       -0.95628296       0.48788583       0.15160230
O       -0.35174927       1.37886929      -0.76213523
C       -2.36351991       0.05573953      -0.29690165
O       -2.97143382      -0.85489980       0.61558521
C       -3.29991134       1.24283139      -0.38900330
O       -2.80905451       2.14604060      -1.36609327
P       -3.81188922       3.42250466      -1.85281628
O       -4.63937343       3.85027641      -0.68418543
O       -2.92513216       4.29727569      -2.68778612
O       -4.81894805       2.57624385      -2.89226164
O        3.45989542      -2.16278637       3.58344106
H        3.16440369      -1.71502755      -0.68964111
H        3.38181120       0.29917710       0.19843887
H        2.13056787       0.87006584      -0.93447231
H        0.14020548      -1.18654359      -0.67602444
H       -0.09409632      -1.37464003       2.08758547
H       -1.06002903       0.94919784       1.14610267
H       -1.06463493       1.94501978      -1.11790673
H       -2.26827710      -0.38388772      -1.29941760
H       -2.25816999      -1.42398968       0.95317378
H       -3.37341005       1.73196538       0.58365318
H       -4.29573484       0.88956882      -0.65754562
H       -4.41514846       2.67187551      -3.76292469
H        2.99584366      -1.37102696       3.28732832
H        3.64590041      -2.61597351       2.73809865
35
Properties=species:S:1:pos:R:3 relative_energy_eV=0.07253495658369502 branch=right pbc="F F F"
O        5.64827493      -2.10563960      -0.60458623
P        5.32445620      -3.06208885       0.50768134
O        3.87871244      -3.15583553       0.95286945
O        6.37113743      -3.91664689       1.15798613
O        2.54920806      -1.10844775      -1.12836936
C        2.44690711       0.03776033      -0.30386591
C        1.37862737      -0.16966235       0.74713216
O        1.56421468       0.02903462       1.93618771
C        0.02446173      -0.69082166       0.28590337
O       -0.45039978      -1.65250171       1.22858344
C       -0.95674003       0.48815497       0.15139659
O       -0.35210117       1.37865123      -0.76233948
C       -2.36365266       0.05532751      -0.29636015
O       -2.97022675      -0.85406855       0.61781195
C       -3.29989241       1.24257349      -0.38939723
O       -2.80918123       2.14525081      -1.36728994
P       -3.81119457       3.42288762      -1.85317618
O       -4.63945738       3.84994202      -0.68451101
O       -2.92393311       4.29847026      -2.68667879
O       -4.81872536       2.57735050      -2.89333543
O        3.46243144      -2.16429158       3.58170006
H        3.16332652      -1.71681838      -0.68781777
H        3.38008059       0.29885164       0.19868349
H        2.12791788       0.86545615      -0.93673733
H        0.13928028      -1.18644364      -0.67513480
H       -0.09682687      -1.37381594       2.08789109
H       -1.05980570       0.94909135       1.14598984
H       -1.06378722       1.94712489      -1.11663687
H       -2.26859299      -0.38599858      -1.29812191
H       -2.25673010      -1.42391358       0.95399327
H       -3.37263654       1.73253471       0.58294124
H       -4.29606433       0.88957003      -0.65712015
H       -4.41458487       2.67127682      -3.76409983
H        2.99494396      -1.37374549       3.28791876
H        3.64733185      -2.61560770       2.73525429
35
Properties=species:S:1:pos:R:3 relative_energy_eV=0.07081125499826157 branch=right pbc="F F F"
O        5.69752827      -2.11068657      -0.60968929
P        5.33431110      -3.05627091       0.49976351
O        3.87751738      -3.12165321       0.91675993
O        6.35360418      -3.92270619       1.17948467
O        2.54128020      -1.12101098      -1.11789882
C        2.43956416       0.03397482      -0.30209473
C        1.37454339      -0.16926481       0.75318663
O        1.55588961       0.03294266       1.94259136
C        0.02320715      -0.68904469       0.28821805
O       -0.45368067      -1.65051283       1.22845969
C       -0.95715108       0.48922909       0.15128424
O       -0.35225929       1.37839980      -0.76257695
C       -2.36379241       0.05499632      -0.29510681
O       -2.96800022      -0.85180053       0.62243319
C       -3.30045948       1.24214315      -0.38985304
O       -2.81017532       2.14290239      -1.37014493
P       -3.80965482       3.42359765      -1.85409105
O       -4.63967997       3.84876396      -0.68533963
O       -2.92106780       4.30069718      -2.68434428
O       -4.81806695       2.58012732      -2.89571494
O        3.46825329      -2.16898231       3.57717905
H        3.16029064      -1.72556795      -0.67901372
H        3.37408343       0.29460679       0.19723526
H        2.12020361       0.85907609      -0.94118280
H        0.13751401      -1.18590375      -0.67149296
H       -0.10382350      -1.37186137       2.08902925
H       -1.06065909       0.95006510       1.14547611
H       -1.06206311       1.95106963      -1.11328665
H       -2.27005376      -0.39081273      -1.29483789
H       -2.25397356      -1.42291621       0.95597251
H       -3.37055542       1.73417322       0.58207221
H       -4.29715343       0.88931493      -0.65714619
H       -4.41275065       2.67025442      -3.76638717
H        2.99325069      -1.38115151       3.28853639
H        3.65075927      -2.61322682       2.72686678
35
Properties=species:S:1:pos:R:3 relative_energy_eV=0.06697395745868562 branch=right pbc="F F F"
O        5.87357316      -2.13173167      -0.62557114
P        5.37034001      -3.03471622       0.47301034
O        3.87678305      -2.99742200       0.78785098
O        6.28940992      -3.94281830       1.25397067
O        2.51675424      -1.16014956      -1.08404668
C        2.41600781       0.01744875      -0.29840197
C        1.35899948      -0.16596952       0.77203864
O        1.52706660       0.04575638       1.96348010
C        0.01648735      -0.68406895       0.29707624
O       -0.46658416      -1.64615980       1.23035000
C       -0.95899713       0.49348030       0.15146560
O       -0.35184797       1.37856208      -0.76363595
C       -2.36481473       0.05430514      -0.29080529
O       -2.96167649      -0.84386407       0.63924074
C       -3.30246234       1.24101947      -0.39168781
O       -2.81379536       2.13494676      -1.38000906
P       -3.80570368       3.42497689      -1.85630577
O       -4.63957366       3.84424544      -0.68923000
O       -2.91086494       4.30774361      -2.67625306
O       -4.81541110       2.59050389      -2.90416749
O        3.48807423      -2.18672682       3.55908323
H        3.14598171      -1.75972402      -0.64135828
H        3.35296939       0.27867129       0.19072510
H        2.09274312       0.83574500      -0.95354384
H        0.13288803      -1.18373550      -0.65896019
H       -0.12903687      -1.36463164       2.09429266
H       -1.06492047       0.95531645       1.14415729
H       -1.05660264       1.96427375      -1.10167340
H       -2.27545863      -0.40702786      -1.28376084
H       -2.24478628      -1.41862238       0.96320412
H       -3.36376470       1.73961473       0.57863379
H       -4.30053930       0.88834942      -0.65695704
H       -4.40566063       2.66711265      -3.77396567
H        2.98715122      -1.40724809       3.29103091
H        3.66405319      -2.60449453       2.69507426
35
Properties=species:S:1:pos:R:3 relative_energy_eV=0.046455493960820604 branch=right pbc="F F F"
O        5.96822742      -2.15603288      -0.62168665
P        5.39132963      -3.02149404       0.46119504
O        3.89293816      -2.92201618       0.71588922
O        6.24728795      -3.94447428       1.28385647
O        2.52190616      -1.17109066      -1.07759253
C        2.40664155       0.00262199      -0.30321826
C        1.34963651      -0.16372208       0.77734756
O        1.51108569       0.05043668       1.97044276
C        0.00983665      -0.68354631       0.30431645
O       -0.47431602      -1.64821842       1.23576758
C       -0.96054507       0.49674995       0.15339052
O       -0.35016480       1.38032551      -0.76304511
C       -2.36654003       0.05559248      -0.28867354
O       -2.96194398      -0.83882219       0.64730965
C       -3.30432722       1.24121653      -0.39246932
O       -2.81667223       2.13087872      -1.38452564
P       -3.80450043       3.42393250      -1.85735155
O       -4.63909726       3.84114550      -0.69146800
O       -2.90592342       4.30809230      -2.67247798
O       -4.81403494       2.59666390      -2.90866626
O        3.49557422      -2.19964337       3.54397482
H        3.12760472      -1.78923499      -0.60253735
H        3.34107018       0.26489450       0.18228158
H        2.07660627       0.82819890      -0.95201929
H        0.13384636      -1.18205113      -0.65087864
H       -0.14430357      -1.36040463       2.10050160
H       -1.07162238       0.96363042       1.14366818
H       -1.05515839       1.96810542      -1.09610803
H       -2.27978145      -0.41302245      -1.27848043
H       -2.24286794      -1.41349484       0.96783869
H       -3.36150970       1.74217521       0.57715694
H       -4.30203964       0.88735844      -0.65753487
H       -4.39959852       2.66726368      -3.77635932
H        2.98441458      -1.42195065       3.29205142
H        3.67372297      -2.59710253       2.67245742
35
Properties=species:S:1:pos:R:3 relative_energy_eV=0.026436317079060245 branch=right pbc="F F F"
O        6.03019957      -2.17271168      -0.62173005
P        5.40752789      -3.00550128       0.45311589
O        3.91011858      -2.88187438       0.67683417
O        6.21087869      -3.94398524       1.29852219
O        2.52286036      -1.17529415      -1.07364986
C        2.40641907      -0.00794337      -0.29690320
C        1.34260654      -0.16261528       0.77382940
O        1.51200820       0.05312584       1.96472597
C       -0.00017574      -0.68701569       0.30607786
O       -0.48286004      -1.65239187       1.24363620
C       -0.96583914       0.49771229       0.15533061
O       -0.35123900       1.38150578      -0.76163968
C       -2.36985142       0.05565595      -0.28731937
O       -2.96419937      -0.83605811       0.65370292
C       -3.30389893       1.24154145      -0.39481938
O       -2.81612129       2.13071828      -1.38603887
P       -3.80427612       3.42258207      -1.85813436
O       -4.63853078       3.84031650      -0.69215974
O       -2.90377097       4.30635229      -2.66967499
O       -4.81401178       2.60017618      -2.91220901
O        3.49645115      -2.20702414       3.53055620
H        3.10545105      -1.80105415      -0.57673841
H        3.34259654       0.26771308       0.18179971
H        2.07259861       0.80779943      -0.94574818
H        0.13552308      -1.18251086      -0.65137004
H       -0.15356804      -1.35735713       2.10690829
H       -1.07496937       0.96969831       1.14456361
H       -1.05488587       1.97094411      -1.09577185
H       -2.28078153      -0.41360343      -1.27726657
H       -2.24326765      -1.41053943       0.97189458
H       -3.36363743       1.74209677       0.57301934
H       -4.30157263       0.88739642      -0.65395336
H       -4.39508240       2.66810869      -3.77794619
H        2.98125035      -1.42701080       3.29534885
H        3.68283226      -2.59599157       2.65756136
35
Properties=species:S:1:pos:R:3 relative_energy_eV=0.016980835083813872 branch=right pbc="F F F"
O        6.07518088      -2.17876384      -0.62895898
P        5.41888278      -2.99389158       0.44616722
O        3.91919192      -2.85707583       0.65778071
O        6.18710760      -3.94804038       1.31112535
O        2.52766995      -1.18243644      -1.07043285
C        2.40785940      -0.01090279      -0.28792404
C        1.34195191      -0.16929280       0.77166301
O        1.51690880       0.05603760       1.95842584
C       -0.00451894      -0.68892156       0.30596661
O       -0.48699458      -1.65153056       1.24733662
C       -0.97066430       0.49718989       0.15699497
O       -0.35488939       1.38001075      -0.75856086
C       -2.37266180       0.05549530      -0.28602544
O       -2.96652839      -0.83370752       0.65590245
C       -3.30440769       1.24171880      -0.39609027
O       -2.81521584       2.13085064      -1.38646482
P       -3.80375010       3.42279792      -1.85874872
O       -4.63918775       3.84025510      -0.69112071
O       -2.90223722       4.30453240      -2.66921436
O       -4.81489240       2.60119487      -2.91481896
O        3.49407581      -2.21273359       3.52163947
H        3.08312051      -1.80732544      -0.56189941
H        3.34761706       0.27483251       0.18635586
H        2.07317170       0.79276987      -0.94353278
H        0.13239205      -1.18515021      -0.65191214
H       -0.15999560      -1.35545036       2.11158930
H       -1.07729151       0.97273126       1.14471195
H       -1.05463137       1.97151128      -1.09767147
H       -2.28104019      -0.41180147      -1.27668928
H       -2.24667835      -1.40834583       0.97592747
H       -3.36718380       1.74249067       0.57060767
H       -4.30255377       0.88762916      -0.65155210
H       -4.39127127       2.66961160      -3.77889321
H        2.97934495      -1.42931427       3.29618465
H        3.68890180      -2.59401435       2.64648597
35
Properties=species:S:1:pos:R:3 relative_energy_eV=0.008302309965074528 branch=right pbc="F F F"
O        6.03647848      -2.17120121      -0.62956571
P        5.41211563      -3.00006282       0.45112833
O        3.91714026      -2.88026230       0.69705241
O        6.20878033      -3.94839429       1.29469684
O        2.54978288      -1.16969732      -1.08548393
C        2.41877918      -0.00526903      -0.29238599
C        1.35283122      -0.17756613       0.76730808
O        1.52625649       0.05218946       1.95335372
C        0.00189058      -0.68961574       0.30481586
O       -0.48107086      -1.64924602       1.24569108
C       -0.96938041       0.49540247       0.15837023
O       -0.35641234       1.37781055      -0.75624553
C       -2.37295989       0.05699513      -0.28668642
O       -2.97227583      -0.83513856       0.64760603
C       -3.30687011       1.24271046      -0.39394972
O       -2.81586860       2.13249143      -1.38301245
P       -3.80585678       3.42281204      -1.85726595
O       -4.63970825       3.84108964      -0.68967075
O       -2.90461571       4.30089567      -2.67426513
O       -4.81553454       2.59751250      -2.91249380
O        3.48355777      -2.21262300       3.52459992
H        3.07438994      -1.81074135      -0.56134824
H        3.35373589       0.27945638       0.19175014
H        2.08230227       0.80617182      -0.94160800
H        0.12684174      -1.18899689      -0.65237338
H       -0.15512234      -1.35679024       2.11118726
H       -1.07931989       0.97144455       1.14486152
H       -1.05719781       1.96319354      -1.10303587
H       -2.28066164      -0.40405539      -1.27962873
H       -2.25557666      -1.40732221       0.97647376
H       -3.37197434       1.74268185       0.57387189
H       -4.30448280       0.88785057      -0.65419097
H       -4.39098006       2.67276062      -3.77547822
H        2.98220147      -1.42324817       3.29129730
H        3.68556715      -2.59027724       2.64897810
35
Properties=species:S:1:pos:R:3 relative_energy_eV=0.0028923779318574816 branch=right pbc="F F F"
O        6.04576212      -2.17247047      -0.63473322
P        5.41803255      -2.99793763       0.45071634
O        3.92339288      -2.86617729       0.70546139
O        6.21070357      -3.95394623       1.29176443
O        2.56648281      -1.16422440      -1.08565325
C        2.43278390      -0.00492227      -0.29317863
C        1.36067087      -0.17752158       0.76259835
O        1.53885527       0.04682193       1.95027664
C        0.00326967      -0.69211847       0.30493347
O       -0.48189290      -1.64922874       1.24911653
C       -0.96882227       0.49368215       0.16018683
O       -0.35632791       1.37612101      -0.75683828
C       -2.37564826       0.05848825      -0.28577107
O       -2.98254787      -0.83673210       0.64294087
C       -3.31065350       1.24431616      -0.39229010
O       -2.81808012       2.13410171      -1.37977674
P       -3.80693246       3.42225573      -1.85777473
O       -4.63982712       3.84252723      -0.68984165
O       -2.90676182       4.29744091      -2.67739268
O       -4.81436827       2.59643746      -2.91199098
O        3.47039124      -2.21945961       3.51787445
H        3.05205815      -1.82708460      -0.54853631
H        3.35927789       0.29004107       0.20292382
H        2.09371689       0.80472986      -0.94194810
H        0.11553060      -1.19533551      -0.65256600
H       -0.15582222      -1.35354332       2.11321531
H       -1.08083465       0.96762625       1.14820788
H       -1.06121452       1.95410422      -1.10877304
H       -2.28103191      -0.39699762      -1.28152136
H       -2.26761258      -1.40486480       0.98130428
H       -3.38026364       1.74436096       0.57513841
H       -4.30755744       0.88912295      -0.65578284
H       -4.38819695       2.67684046      -3.77365945
H        2.98291051      -1.42060328       3.28607313
H        3.68733992      -2.58288972       2.63964974
35
Properties=species:S:1:pos:R:3 relative_energy_eV=0.0008040145548875444 branch=right pbc="F F F"
O        6.04913050      -2.17513419      -0.63430919
P        5.42088516      -2.99760810       0.45083359
O        3.92691252      -2.85671316       0.70192889
O        6.21227997      -3.95604449       1.29014064
O        2.56345447      -1.16792000      -1.07907812
C        2.43348459      -0.00251446      -0.29044685
C        1.35991948      -0.17296668       0.76351298
O        1.54182164       0.04272786       1.95104672
C        0.00246582      -0.69183989       0.30489509
O       -0.48191607      -1.64864544       1.25039686
C       -0.96851742       0.49298522       0.15981948
O       -0.35575194       1.37533104      -0.75844000
C       -2.37657755       0.05853335      -0.28525573
O       -2.98531329      -0.83786344       0.64137460
C       -3.31170442       1.24458017      -0.39144523
O       -2.81847844       2.13453789      -1.37853717
P       -3.80687336       3.42258407      -1.85789523
O       -4.63982946       3.84410188      -0.69097674
O       -2.90745346       4.29862968      -2.67796995
O       -4.81353753       2.59595097      -2.91214802
O        3.46533058      -2.22140396       3.51511121
H        3.05212417      -1.83194880      -0.54757340
H        3.35990170       0.29317275       0.20719839
H        2.10071067       0.80317049      -0.94637235
H        0.11244070      -1.19648148      -0.65193325
H       -0.15465507      -1.35098280       2.11335708
H       -1.07760828       0.96287078       1.15018316
H       -1.06290248       1.95065846      -1.11018285
H       -2.28153257      -0.39627088      -1.28126589
H       -2.27128542      -1.40503698       0.98281645
H       -3.38306594       1.74522530       0.57552284
H       -4.30829293       0.88998055      -0.65639975
H       -4.38853209       2.67763337      -3.77422686
H        2.98247053      -1.41954886       3.28433087
H        3.68727776      -2.58078951       2.63634120
35
Properties=species:S:1:pos:R:3 relative_energy_eV=-0.0005698996101273224 branch=right pbc="F F F"
O        6.04762898      -2.17667635      -0.63415883
P        5.42232574      -2.99782543       0.45129761
O        3.93062240      -2.85281734       0.70427641
O        6.21590787      -3.95756169       1.28578506
O        2.56136698      -1.17045113      -1.07499190
C        2.43265045      -0.00089024      -0.28887688
C        1.35896765      -0.17358494       0.76364996
O        1.54219761       0.03898104       1.95179581
C        0.00237368      -0.69091005       0.30498598
O       -0.47982430      -1.64605793       1.25123671
C       -0.96966661       0.49171200       0.15995421
O       -0.35750093       1.37340298      -0.75751730
C       -2.37740426       0.05870111      -0.28494946
O       -2.98708581      -0.83847560       0.63897081
C       -3.31239889       1.24496444      -0.39070086
O       -2.81784154       2.13544649      -1.37719284
P       -3.80679337       3.42367793      -1.85803884
O       -4.64039009       3.84605765      -0.69154759
O       -2.90794983       4.29986586      -2.67885030
O       -4.81320271       2.59459817      -2.91230842
O        3.45964014      -2.22259217       3.51286834
H        3.05531252      -1.83283233      -0.54543310
H        3.35995278       0.29305811       0.20949155
H        2.10845708       0.80468247      -0.95075349
H        0.11257874      -1.19654241      -0.65072273
H       -0.15188465      -1.34877463       2.11413430
H       -1.07402287       0.95960596       1.15103837
H       -1.06427691       1.94705653      -1.11216941
H       -2.28251041      -0.39530207      -1.28099795
H       -2.27471572      -1.40542888       0.98348346
H       -3.38541789       1.74560082       0.57638364
H       -4.30879425       0.89048792      -0.65716383
H       -4.38949276       2.67843002      -3.77491471
H        2.98187487      -1.41763484       3.28236184
H        3.68609884      -2.57901075       2.63392783
35
Properties=species:S:1:pos:R:3 relative_energy_eV=-0.0022580201766686514 branch=right pbc="F F F"
O        6.05424139      -2.17870850      -0.63759480
P        5.42743401      -2.99624584       0.44991668
O        3.93774227      -2.84469512       0.70971930
O        6.21802770      -3.96144691       1.28022999
O        2.56126330      -1.17375139      -1.06964923
C        2.43371215      -0.00191672      -0.28926065
C        1.35872955      -0.17618170       0.76275384
O        1.54077669       0.03321819       1.95177216
C        0.00223686      -0.69104245       0.30590031
O       -0.47797409      -1.64264852       1.25490672
C       -0.97216624       0.48946727       0.16161557
O       -0.36117533       1.37051266      -0.75508964
C       -2.37958216       0.05906442      -0.28422393
O       -2.99149569      -0.83935116       0.63637167
C       -3.31363458       1.24637406      -0.39009699
O       -2.81716388       2.13819163      -1.37490627
P       -3.80716783       3.42528035      -1.85860879
O       -4.64131433       3.84909103      -0.69279741
O       -2.90861235       4.30090070      -2.68019895
O       -4.81206199       2.59285043      -2.91250433
O        3.44904187      -2.22555700       3.50740498
H        3.05749485      -1.83187559      -0.53588086
H        3.35915213       0.28992615       0.21247212
H        2.12026510       0.80539891      -0.95492298
H        0.11453227      -1.19692965      -0.64902455
H       -0.14706090      -1.34438442       2.11665798
H       -1.07081412       0.95738872       1.15271555
H       -1.06712912       1.94103971      -1.11620767
H       -2.28470873      -0.39290885      -1.28113835
H       -2.28053196      -1.40543724       0.98448778
H       -3.38940223       1.74578113       0.57750878
H       -4.30950126       0.89132564      -0.65838602
H       -4.39078305       2.68020021      -3.77599036
H        2.98022952      -1.41476251       3.27860425
H        3.68418275      -2.57520695       2.62779763
35
Properties=species:S:1:pos:R:3 relative_energy_eV=-0.003971417296270374 branch=right pbc="F F F"
O        6.06429962      -2.17982991      -0.64343275
P        5.43498099      -2.99468322       0.44675424
O        3.94638838      -2.83589063       0.71636208
O        6.22033607      -3.96723000       1.27471224
O        2.56217982      -1.17929515      -1.06497876
C        2.43518059      -0.00442311      -0.29038604
C        1.35739083      -0.17455692       0.76167296
O        1.53840916       0.02818415       1.95176640
C        0.00121458      -0.69336627       0.30750558
O       -0.47885283      -1.64202629       1.26138364
C       -0.97296925       0.48847591       0.16357142
O       -0.36243111       1.36980089      -0.75527133
C       -2.38212193       0.05928992      -0.28320828
O       -2.99695242      -0.84054554       0.63577116
C       -3.31491737       1.24800581      -0.38956247
O       -2.81763763       2.14188093      -1.37195245
P       -3.80769312       3.42666089      -1.85942608
O       -4.64254892       3.85213568      -0.69526144
O       -2.90936739       4.30183099      -2.68156062
O       -4.81003528       2.59176904      -2.91217292
O        3.43747366      -2.22826371       3.50132906
H        3.06337455      -1.82704177      -0.52419459
H        3.35907031       0.28145429       0.21535687
H        2.12878706       0.80414865      -0.95605703
H        0.11731922      -1.19877352      -0.64785192
H       -0.13986581      -1.33904541       2.11885093
H       -1.07233559       0.95741581       1.15544201
H       -1.07166824       1.93484779      -1.11969687
H       -2.28754292      -0.39049154      -1.28150304
H       -2.28535569      -1.40538290       0.98441053
H       -3.39231339       1.74563926       0.57840427
H       -4.30980737       0.89316693      -0.66043181
H       -4.39275243       2.68216675      -3.77714323
H        2.97705025      -1.41201195       3.27408494
H        3.68049620      -2.57105516       2.62106697
35
Properties=species:S:1:pos:R:3 relative_energy_eV=-0.004737140945508145 branch=right pbc="F F F"
O        6.06535660      -2.17996415      -0.64531344
P        5.43862215      -2.99542870       0.44562283
O        3.95126334      -2.83289859       0.71883987
O        6.22432497      -3.97026961       1.27102285
O        2.56331277      -1.18183181      -1.06283132
C        2.43516568      -0.00517075      -0.28868829
C        1.35614090      -0.17345456       0.76198707
O        1.53900360       0.02918717       1.95182306
C       -0.00009664      -0.69400762       0.30785321
O       -0.47946155      -1.64160840       1.26362942
C       -0.97296495       0.48917354       0.16316170
O       -0.36184756       1.37029350      -0.75662598
C       -2.38258805       0.05972441      -0.28306736
O       -2.99766258      -0.84015581       0.63580681
C       -3.31553408       1.24828038      -0.38892114
O       -2.81772172       2.14285766      -1.37038598
P       -3.80773063       3.42737083      -1.85961920
O       -4.64380333       3.85338577      -0.69653942
O       -2.90955764       4.30220905      -2.68248979
O       -4.80959886       2.59130744      -2.91194408
O        3.43303562      -2.22815116       3.49968699
H        3.06960246      -1.82494732      -0.52195875
H        3.36107583       0.27577606       0.21731639
H        2.12796775       0.80287713      -0.95503109
H        0.11621620      -1.20157583      -0.64685905
H       -0.13565841      -1.33793912       2.11895443
H       -1.07658101       0.95799935       1.15524192
H       -1.07379390       1.93283977      -1.12006256
H       -2.28859297      -0.38990094      -1.28117677
H       -2.28643484      -1.40568806       0.98378042
H       -3.39239042       1.74565635       0.57916059
H       -4.31025087       0.89483789      -0.66191265
H       -4.39385336       2.68309682      -3.77746602
H        2.97433505      -1.41100737       3.27212293
H        3.67748307      -2.56991266       2.61923613
35
Properties=species:S:1:pos:R:3 relative_energy_eV=-0.0056049538688967004 branch=right pbc="F F F"
O        6.07062225      -2.18154383      -0.64823518
P        5.44546698      -2.99575727       0.44393210
O        3.96023621      -2.82546917       0.72056331
O        6.22976390      -3.97517956       1.26488290
O        2.56469454      -1.18485525      -1.05759294
C        2.43621604      -0.00752135      -0.28534460
C        1.35597635      -0.17478540       0.76265729
O        1.53988194       0.03182039       1.95170980
C       -0.00165467      -0.69368137       0.30847612
O       -0.47963324      -1.63852357       1.26652703
C       -0.97503836       0.48911728       0.16237005
O       -0.36340332       1.36947668      -0.75669426
C       -2.38383541       0.06051179      -0.28331666
O       -2.99845071      -0.83882920       0.63545306
C       -3.31666694       1.24927488      -0.38823793
O       -2.81714182       2.14469895      -1.36831009
P       -3.80798515       3.42848585      -1.86002098
O       -4.64573375       3.85558803      -0.69831180
O       -2.90977722       4.30246679      -2.68384001
O       -4.80922343       2.59036078      -2.91203770
O        3.42541679      -2.22838470       3.49608459
H        3.07743821      -1.82465835      -0.51848677
H        3.36323856       0.26976721       0.22134696
H        2.12794344       0.79934612      -0.95354624
H        0.11251760      -1.20582680      -0.64423660
H       -0.13008893      -1.33697572       2.12014988
H       -1.08177029       0.95839509       1.15334284
H       -1.07604913       1.93026568      -1.12136487
H       -2.29008324      -0.38912371      -1.28093080
H       -2.28879209      -1.40602333       0.98358752
H       -3.39345383       1.74571534       0.58058885
H       -4.31148756       0.89737868      -0.66350340
H       -4.39510504       2.68486095      -3.77804618
H        2.96942575      -1.40952045       3.26913897
H        3.67331820      -2.56791083       2.61559962
35
Properties=species:S:1:pos:R:3 relative_energy_eV=-0.00621423426491674 branch=right pbc="F F F"
O        6.07915798      -2.18366232      -0.65094798
P        5.45179931      -2.99512925       0.44209337
O        3.96767502      -2.81845443       0.72035508
O        6.23283339      -3.97901315       1.26024127
O        2.56519605      -1.18779710      -1.05350252
C        2.43773208      -0.01110581      -0.28326318
C        1.35686914      -0.17618502       0.76345472
O        1.53876452       0.03445190       1.95208994
C       -0.00210698      -0.69307705       0.30980143
O       -0.48016719      -1.63547195       1.26933613
C       -0.97741742       0.48822343       0.16201061
O       -0.36577325       1.36821876      -0.75599268
C       -2.38555363       0.06062677      -0.28403154
O       -2.99964776      -0.83780331       0.63578406
C       -3.31743207       1.25061107      -0.38837797
O       -2.81690310       2.14685574      -1.36727559
P       -3.80852078       3.42909487      -1.86058094
O       -4.64679753       3.85721480      -0.69963934
O       -2.90992745       4.30233052      -2.68450587
O       -4.80885318       2.58974492      -2.91236785
O        3.41953939      -2.22874181       3.49287072
H        3.08233012      -1.82630827      -0.51635082
H        3.36293685       0.26809163       0.22468190
H        2.12900290       0.79517056      -0.95155075
H        0.10897878      -1.20778165      -0.64161804
H       -0.12690410      -1.33688775       2.12233908
H       -1.08419441       0.95888378       1.15141720
H       -1.07668538       1.92973432      -1.12282464
H       -2.29138286      -0.38919188      -1.28168008
H       -2.29034003      -1.40567188       0.98369688
H       -3.39474560       1.74547843       0.58143696
H       -4.31251339       0.89927924      -0.66369704
H       -4.39570397       2.68629592      -3.77858318
H        2.96487375      -1.40880860       3.26704427
H        3.67066351      -2.56625484       2.61249040
35
Properties=species:S:1:pos:R:3 relative_energy_eV=-0.006830733123933896 branch=right pbc="F F F"
O        6.08829606      -2.18557418      -0.65371432
P        5.45821202      -2.99481122       0.43967133
O        3.97485325      -2.81366713       0.72055070
O        6.23689431      -3.98265778       1.25514942
O        2.56624468      -1.19219002      -1.05180538
C        2.43846845      -0.01568824      -0.28162964
C        1.35662603      -0.17600989       0.76505721
O        1.53547025       0.03815668       1.95354636
C       -0.00269213      -0.69279608       0.31231246
O       -0.48161399      -1.63362231       1.27322823
C       -0.97886405       0.48784379       0.16166779
O       -0.36693273       1.36748674      -0.75675053
C       -2.38739561       0.06009788      -0.28524729
O       -3.00137352      -0.83721125       0.63657707
C       -3.31790873       1.25165027      -0.38893800
O       -2.81749474       2.14904214      -1.36664557
P       -3.80930844       3.42960109      -1.86124723
O       -4.64757850       3.85850595      -0.70077442
O       -2.91010589       4.30211923      -2.68511687
O       -4.80853576       2.58926731      -2.91278604
O        3.41459670      -2.22850205       3.49077447
H        3.08799570      -1.82901432      -0.51709342
H        3.36120076       0.26862706       0.22748780
H        2.12979442       0.79114890      -0.94840323
H        0.10601090      -1.20783880      -0.63892804
H       -0.12460270      -1.33775037       2.12561453
H       -1.08571255       0.96004765       1.15009681
H       -1.07621809       1.93121622      -1.12369653
H       -2.29329237      -0.39038999      -1.28325761
H       -2.29082403      -1.40428178       0.98342794
H       -3.39542595       1.74480004       0.58171423
H       -4.31342786       0.90130630      -0.66311988
H       -4.39611584       2.68755179      -3.77911209
H        2.95937331      -1.40878251       3.26521429
H        3.66816940      -2.56472051       2.61052965
35
Properties=species:S:1:pos:R:3 relative_energy_eV=-0.00743353438883787 branch=right pbc="F F F"
O        6.09474332      -2.18648464      -0.65662061
P        5.46522087      -2.99594484       0.43680254
O        3.98332011      -2.81173124       0.72281993
O        6.24417435      -3.98694332       1.24860090
O        2.56966918      -1.19584086      -1.05145765
C        2.43747788      -0.01919677      -0.27914462
C        1.35348434      -0.17574411       0.76731440
O        1.53162062       0.04290653       1.95527806
C       -0.00536151      -0.69312219       0.31533531
O       -0.48369730      -1.63321745       1.27815699
C       -0.97929202       0.48914869       0.16116669
O       -0.36576137       1.36664560      -0.75972060
C       -2.38847684       0.06027971      -0.28628363
O       -3.00299298      -0.83693333       0.63535706
C       -3.31877236       1.25160171      -0.38909786
O       -2.81831184       2.14985054      -1.36573352
P       -3.80998979       3.43047245      -1.86168727
O       -4.64885127       3.86000818      -0.70170727
O       -2.91075778       4.30235575      -2.68657063
O       -4.80854158       2.58876891      -2.91335418
O        3.40905168      -2.22781715       3.48969603
H        3.09442567      -1.83243153      -0.52000111
H        3.35990210       0.26831281       0.22996391
H        2.13052691       0.78847727      -0.94632651
H        0.10512803      -1.20731996      -0.63634339
H       -0.12279869      -1.33861677       2.12959851
H       -1.08695555       0.96189334       1.14990920
H       -1.07506972       1.93281285      -1.12320908
H       -2.29636315      -0.39164584      -1.28376824
H       -2.29193381      -1.40201243       0.98366352
H       -3.39508466       1.74402022       0.58178673
H       -4.31494214       0.90330920      -0.66305971
H       -4.39650119       2.68880798      -3.77971603
H        2.95256007      -1.40916767       3.26310071
H        3.66593320      -2.56254114       2.60960575
35
Properties=species:S:1:pos:R:3 relative_energy_eV=-0.007672801562875975 branch=right pbc="F F F"
O        6.09800263      -2.18665678      -0.65812979
P        5.46912839      -2.99661668       0.43544407
O        3.98779909      -2.81076190       0.72287926
O        6.24724438      -3.98918211       1.24621786
O        2.57088306      -1.19533117      -1.05026517
C        2.43715000      -0.01960869      -0.27787777
C        1.35224230      -0.17640614       0.76789768
O        1.53011900       0.04474662       1.95546348
C       -0.00660704      -0.69352877       0.31625358
O       -0.48510399      -1.63280996       1.27981546
C       -0.97977386       0.48939230       0.16129272
O       -0.36533963       1.36500165      -0.76051386
C       -2.38881345       0.06105308      -0.28618156
O       -3.00365416      -0.83698020       0.63378551
C       -3.31959203       1.25171673      -0.38911356
O       -2.81843026       2.14966715      -1.36565933
P       -3.81016309       3.43066648      -1.86186105
O       -4.64934578       3.86072857      -0.70220655
O       -2.91149340       4.30267197      -2.68725090
O       -4.80860031       2.58892265      -2.91375091
O        3.40618557      -2.22796753       3.48890286
H        3.09506115      -1.83370450      -0.52024182
H        3.35950480       0.26726616       0.23138978
H        2.13117831       0.78690925      -0.94711999
H        0.10580896      -1.20777549      -0.63526457
H       -0.12352616      -1.33823608       2.13104479
H       -1.08664398       0.96309076       1.14971801
H       -1.07385389       1.93291531      -1.12244161
H       -2.29743082      -0.39125138      -1.28302420
H       -2.29344101      -1.40105232       0.98518705
H       -3.39487176       1.74399172       0.58194239
H       -4.31597990       0.90344607      -0.66339618
H       -4.39645493       2.68927063      -3.78005260
H        2.94919012      -1.40958989       3.26230197
H        3.66640444      -2.56103701       2.60916931
35
Properties=species:S:1:pos:R:3 relative_energy_eV=-0.007953117783472408 branch=right pbc="F F F"
O        6.10401160      -2.18716919      -0.66010567
P        5.47490082      -2.99736706       0.43341440
O        3.99383692      -2.80933193       0.72108965
O        6.25101223      -3.99212244       1.24342885
O        2.57050896      -1.19532297      -1.04864749
C        2.43709572      -0.02034255      -0.27669260
C        1.35148120      -0.17623818       0.76866214
O        1.52753000       0.04732599       1.95603205
C       -0.00709220      -0.69412058       0.31738080
O       -0.48752498      -1.63187957       1.28131573
C       -0.98038714       0.48872124       0.16163815
O       -0.36512486       1.36226041      -0.76107779
C       -2.38967058       0.06144380      -0.28584186
O       -3.00511122      -0.83730766       0.63301767
C       -3.32042908       1.25235216      -0.38935975
O       -2.81891499       2.14989617      -1.36614409
P       -3.81054984       3.43072436      -1.86241566
O       -4.64963334       3.86134427      -0.70300994
O       -2.91238079       4.30315974      -2.68772806
O       -4.80874350       2.58943982      -2.91439617
O        3.40277362      -2.22821715       3.48784871
H        3.09533062      -1.83428230      -0.51995329
H        3.35856292       0.26597522       0.23390922
H        2.13120181       0.78416327      -0.94794374
H        0.10626668      -1.20909846      -0.63358138
H       -0.12598246      -1.33746008       2.13249286
H       -1.08590864       0.96511381       1.14875019
H       -1.07150301       1.93362065      -1.12116891
H       -2.29786018      -0.39034288      -1.28266302
H       -2.29511433      -1.39967842       0.98781213
H       -3.39479019       1.74428095       0.58204861
H       -4.31689210       0.90335819      -0.66352054
H       -4.39628653       2.68967699      -3.78054215
H        2.94406153      -1.41068991       3.26153460
H        3.66810806      -2.55892522       2.60877081
35
Properties=species:S:1:pos:R:3 relative_energy_eV=-0.008192892833903898 branch=right pbc="F F F"
O        6.10976089      -2.18780193      -0.66156646
P        5.48018665      -2.99835910       0.43132875
O        3.99929892      -2.80894021       0.71883544
O        6.25551156      -3.99456363       1.24033792
O        2.56884092      -1.19688231      -1.04778683
C        2.43662464      -0.02115735      -0.27595840
C        1.35058831      -0.17501131       0.76968000
O        1.52503536       0.05003172       1.95705326
C       -0.00729248      -0.69463620       0.31832536
O       -0.48970502      -1.63132248       1.28215533
C       -0.98052555       0.48792221       0.16168734
O       -0.36443139       1.35984481      -0.76215346
C       -2.39050196       0.06102684      -0.28545750
O       -3.00697459      -0.83769936       0.63351543
C       -3.32062431       1.25280616      -0.38945902
O       -2.81961688       2.15019658      -1.36673150
P       -3.81106474       3.43096157      -1.86313222
O       -4.64985298       3.86154462      -0.70359905
O       -2.91283502       4.30374121      -2.68805326
O       -4.80920107       2.58993140      -2.91517502
O        3.40006853      -2.22830576       3.48727974
H        3.09614784      -1.83365203      -0.51940363
H        3.35762681       0.26467462       0.23636603
H        2.13027137       0.78252675      -0.94782462
H        0.10620244      -1.21107363      -0.63178813
H       -0.12949670      -1.33643900       2.13352942
H       -1.08539405       0.96701635       1.14753102
H       -1.06901526       1.93473650      -1.11968314
H       -2.29744373      -0.38934449      -1.28308222
H       -2.29628541      -1.39804069       0.99041949
H       -3.39498188       1.74502480       0.58184304
H       -4.31694476       0.90342285      -0.66331916
H       -4.39614633       2.68983204      -3.78106074
H        2.93855088      -1.41237847       3.26085768
H        3.67040173      -2.55667259       2.60884371
35
Properties=species:S:1:pos:R:3 relative_energy_eV=-0.008472748260828666 branch=right pbc="F F F"
O        6.11457237      -2.18835381      -0.66259998
P        5.48444733      -2.99972165       0.42909035
O        4.00395308      -2.81035845       0.71796988
O        6.26172943      -3.99613477       1.23601655
O        2.56683495      -1.19900971      -1.04633904
C        2.43505063      -0.02170845      -0.27516435
C        1.34900841      -0.17461583       0.77057937
O        1.52427876       0.05247510       1.95751467
C       -0.00848605      -0.69522904       0.31882045
O       -0.49050167      -1.63210285       1.28262100
C       -0.98037419       0.48780398       0.16084695
O       -0.36327925       1.35811682      -0.76441519
C       -2.39054787       0.06085907      -0.28538652
O       -3.00833306      -0.83709338       0.63385100
C       -3.32000309       1.25290629      -0.38916902
O       -2.81956748       2.15009738      -1.36687811
P       -3.81147337       3.43130774      -1.86354200
O       -4.65039636       3.86127002      -0.70366170
O       -2.91278536       4.30396251      -2.68838460
O       -4.81002942       2.59035301      -2.91612359
O        3.39789466      -2.22854499       3.48696679
H        3.09699427      -1.83268754      -0.51740987
H        3.35666309       0.26327586       0.23726611
H        2.12971398       0.78407821      -0.94570275
H        0.10526941      -1.21383866      -0.63005299
H       -0.13496114      -1.33426949       2.13484412
H       -1.08523207       0.96749874       1.14650393
H       -1.06728122       1.93556845      -1.11878403
H       -2.29656147      -0.38848657      -1.28362996
H       -2.29784870      -1.39597337       0.99323453
H       -3.39609066       1.74668906       0.58111505
H       -4.31605216       0.90377133      -0.66276939
H       -4.39608145       2.68967733      -3.78171587
H        2.93242398      -1.41509118       3.25981329
H        3.67383448      -2.55353065       2.60902959
35
Properties=species:S:1:pos:R:3 relative_energy_eV=-0.008600987697718665 branch=right pbc="F F F"
O        6.11766247      -2.18839714      -0.66373374
P        5.48722302      -3.00023588       0.42766298
O        4.00682618      -2.81097429       0.71786009
O        6.26500352      -3.99711552       1.23357164
O        2.56593389      -1.19933362      -1.04426066
C        2.43425630      -0.02200257      -0.27428099
C        1.34843820      -0.17520190       0.77082364
O        1.52406224       0.05350171       1.95731819
C       -0.00910701      -0.69595681       0.31923713
O       -0.49096155      -1.63268183       1.28345184
C       -0.98044952       0.48765349       0.16037177
O       -0.36335481       1.35721020      -0.76545052
C       -2.39035008       0.06162283      -0.28565842
O       -3.00836377      -0.83601031       0.63333652
C       -3.31987400       1.25351792      -0.38933967
O       -2.81913086       2.15033251      -1.36704168
P       -3.81148707       3.43109201      -1.86359225
O       -4.65067453       3.86096290      -0.70386043
O       -2.91285613       4.30370739      -2.68835997
O       -4.81012341       2.59075612      -2.91645505
O        3.39678531      -2.22877329       3.48635418
H        3.09706858      -1.83296789      -0.51588462
H        3.35582831       0.26273808       0.23719775
H        2.13012487       0.78479843      -0.94403212
H        0.10432376      -1.21506759      -0.62930507
H       -0.13866802      -1.33251693       2.13621754
H       -1.08504367       0.96724627       1.14600664
H       -1.06677363       1.93589569      -1.11909655
H       -2.29665695      -0.38851071      -1.28342292
H       -2.29889289      -1.39482231       0.99477684
H       -3.39667044       1.74761249       0.58077524
H       -4.31593059       0.90387288      -0.66258005
H       -4.39608598       2.68954686      -3.78208062
H        2.92856824      -1.41691780       3.25910115
H        3.67613275      -2.55162086       2.60872691
35
Properties=species:S:1:pos:R:3 relative_energy_eV=-0.008669917588122189 branch=right pbc="F F F"
O        6.11910913      -2.18805053      -0.66475227
P        5.48919136      -3.00031866       0.42681216
O        4.00877409      -2.81111737       0.71740597
O        6.26643574      -3.99778257       1.23254930
O        2.56531329      -1.19955683      -1.04289920
C        2.43410096      -0.02215431      -0.27361515
C        1.34836025      -0.17530749       0.77116703
O        1.52333804       0.05369218       1.95763508
C       -0.00903998      -0.69657736       0.31962471
O       -0.49165922      -1.63272606       1.28425879
C       -0.98040032       0.48734067       0.16028684
O       -0.36377999       1.35691228      -0.76562713
C       -2.39033273       0.06217115      -0.28587488
O       -3.00817251      -0.83510085       0.63337667
C       -3.31995440       1.25419444      -0.38977097
O       -2.81900867       2.15080101      -1.36743073
P       -3.81136418       3.43090478      -1.86371720
O       -4.65069593       3.86050286      -0.70412600
O       -2.91273602       4.30362026      -2.68817493
O       -4.80987166       2.59092203      -2.91641256
O        3.39678673      -2.22873543       3.48580105
H        3.09718743      -1.83328377      -0.51517171
H        3.35553764       0.26259254       0.23743488
H        2.13011943       0.78449629      -0.94329115
H        0.10359186      -1.21547049      -0.62912701
H       -0.14119803      -1.33113186       2.13729078
H       -1.08486860       0.96709080       1.14578372
H       -1.06679507       1.93595273      -1.11973939
H       -2.29723458      -0.38898418      -1.28315808
H       -2.29894507      -1.39413613       0.99508930
H       -3.39640007       1.74793359       0.58065693
H       -4.31608212       0.90395371      -0.66283701
H       -4.39613906       2.68938968      -3.78217465
H        2.92601152      -1.41828799       3.25873375
H        3.67760350      -2.55078851       2.60834778
35
Properties=species:S:1:pos:R:3 relative_energy_eV=-0.008791680374997668 branch=right pbc="F F F"
O        6.12014546      -2.18714514      -0.66636721
P        5.49214965      -3.00042492       0.42551199
O        4.01191578      -2.81153343       0.71662934
O        6.26899483      -3.99855112       1.23082424
O        2.56450626      -1.20048658      -1.04129660
C        2.43399623      -0.02231122      -0.27253604
C        1.34798992      -0.17535153       0.77226733
O        1.52178132       0.05338329       1.95896538
C       -0.00917530      -0.69722152       0.32010649
O       -0.49279812      -1.63247888       1.28541713
C       -0.98027952       0.48709415       0.16007874
O       -0.36412676       1.35695393      -0.76577309
C       -2.39051356       0.06256003      -0.28607144
O       -3.00811090      -0.83348605       0.63443396
C       -3.31983203       1.25489709      -0.39042947
O       -2.81886041       2.15133528      -1.36813603
P       -3.81110861       3.43108358      -1.86406052
O       -4.65076521       3.85952115      -0.70435970
O       -2.91208619       4.30391702      -2.68797796
O       -4.80950007       2.59075931      -2.91630692
O        3.39778158      -2.22848331       3.48488549
H        3.09751397      -1.83347655      -0.51384591
H        3.35576760       0.26231930       0.23835159
H        2.12958980       0.78403829      -0.94249241
H        0.10247104      -1.21625260      -0.62881855
H       -0.14595433      -1.32811302       2.13901073
H       -1.08463357       0.96673405       1.14567891
H       -1.06734465       1.93525524      -1.12103481
H       -2.29846603      -0.38989922      -1.28290123
H       -2.29839497      -1.39287553       0.99475208
H       -3.39542944       1.74839366       0.58025545
H       -4.31597883       0.90449049      -0.66370912
H       -4.39623496       2.68900221      -3.78224508
H        2.92155298      -1.42115070       3.25799807
H        3.68021972      -2.54953606       2.60754991
35
Properties=species:S:1:pos:R:3 relative_energy_eV=-0.008976467361208051 branch=right pbc="F F F"
O        6.12116150      -2.18589096      -0.66858358
P        5.49561017      -3.00051548       0.42346686
O        4.01590970      -2.81219936       0.71656214
O        6.27420799      -3.99876120       1.22690421
O        2.56469885      -1.20148018      -1.03932556
C        2.43385317      -0.02286726      -0.27053207
C        1.34684792      -0.17631831       0.77422751
O        1.51959800       0.05222692       1.96119677
C       -0.01059117      -0.69695811       0.32063296
O       -0.49434504      -1.63151649       1.28651967
C       -0.98067840       0.48753457       0.15950290
O       -0.36384391       1.35724894      -0.76592181
C       -2.39118090       0.06251837      -0.28602891
O       -3.00842766      -0.83117444       0.63692601
C       -3.31913334       1.25507195      -0.39111606
O       -2.81785274       2.15114092      -1.36904650
P       -3.81069657       3.43171059      -1.86447785
O       -4.65091021       3.85871243      -0.70444303
O       -2.91142021       4.30494290      -2.68798474
O       -4.80912878       2.59023001      -2.91654250
O        3.40018788      -2.22811903       3.48338531
H        3.09760133      -1.83390349      -0.51127918
H        3.35624129       0.26188314       0.24030675
H        2.12907854       0.78306136      -0.94143265
H        0.10162241      -1.21784873      -0.62718603
H       -0.15385513      -1.32224095       2.14098385
H       -1.08450482       0.96628464       1.14573842
H       -1.06854219       1.93255940      -1.12308284
H       -2.30028968      -0.39088563      -1.28268896
H       -2.29774645      -1.39134546       0.99410588
H       -3.39416743       1.74910881       0.57910631
H       -4.31526037       0.90617131      -0.66505170
H       -4.39614327       2.68833879      -3.78263775
H        2.91450577      -1.42652602       3.25626660
H        3.68437636      -2.54723302       2.60588432
35
Properties=species:S:1:pos:R:3 relative_energy_eV=-0.009073403023649007 branch=right pbc="F F F"
O        6.12216405      -2.18532937      -0.66986120
P        5.49685219      -3.00030105       0.42217695
O        4.01723535      -2.81254618       0.71710839
O        6.27762702      -3.99820755       1.22397551
O        2.56542240      -1.20146266      -1.03803073
C        2.43366124      -0.02362807      -0.26898672
C        1.34616219      -0.17694819       0.77510426
O        1.51840125       0.05142948       1.96215039
C       -0.01136164      -0.69651437       0.32112744
O       -0.49578981      -1.63059552       1.28689396
C       -0.98104097       0.48779037       0.15933719
O       -0.36371203       1.35712785      -0.76580570
C       -2.39149993       0.06250247      -0.28584336
O       -3.00832670      -0.83020073       0.63829923
C       -3.31874048       1.25527913      -0.39159648
O       -2.81685257       2.15088312      -1.36975504
P       -3.81038575       3.43161286      -1.86464776
O       -4.65057634       3.85893644      -0.70471692
O       -2.91193583       4.30565830      -2.68796017
O       -4.80872228       2.59028735      -2.91689961
O        3.40217732      -2.22782413       3.48256518
H        3.09776562      -1.83452696      -0.51024290
H        3.35563029       0.26180697       0.24171609
H        2.12908778       0.78147977      -0.94050228
H        0.10193537      -1.21855961      -0.62562095
H       -0.15822119      -1.31853937       2.14143570
H       -1.08484125       0.96664289       1.14552065
H       -1.06890774       1.93087120      -1.12435348
H       -2.30106571      -0.39144359      -1.28234048
H       -2.29776463      -1.39144077       0.99433414
H       -3.39376139       1.74947605       0.57840801
H       -4.31511452       0.90733431      -0.66539771
H       -4.39585435       2.68793298      -3.78313382
H        2.91053025      -1.42997830       3.25507364
H        3.68660539      -2.54604405       2.60482324
35
Properties=species:S:1:pos:R:3 relative_energy_eV=-0.009146840762696229 branch=right pbc="F F F"
O        6.12250490      -2.18476605      -0.67083488
P        5.49753948      -2.99993899       0.42132030
O        4.01786973      -2.81290441       0.71727040
O        6.27953193      -3.99765488       1.22220801
O        2.56554167      -1.20186722      -1.03705364
C        2.43340434      -0.02419551      -0.26799814
C        1.34584756      -0.17700868       0.77565238
O        1.51769976       0.05096242       1.96280191
C       -0.01137442      -0.69666747       0.32153795
O       -0.49708803      -1.63007080       1.28731148
C       -0.98096927       0.48771167       0.15938313
O       -0.36385126       1.35691005      -0.76583795
C       -2.39139441       0.06260537      -0.28566005
O       -3.00800950      -0.82976715       0.63891311
C       -3.31866585       1.25572510      -0.39193558
O       -2.81652464       2.15104183      -1.37035694
P       -3.81014872       3.43146767      -1.86493491
O       -4.65001360       3.85900576      -0.70499098
O       -2.91239561       4.30617135      -2.68805263
O       -4.80832836       2.59045744      -2.91714551
O        3.40390089      -2.22746832       3.48208153
H        3.09839232      -1.83499839      -0.50990093
H        3.35481081       0.26180529       0.24293618
H        2.12890071       0.78044566      -0.93965170
H        0.10232228      -1.21878342      -0.62507608
H       -0.16086837      -1.31625412       2.14167908
H       -1.08540999       0.96726582       1.14516030
H       -1.06885274       1.93033535      -1.12539205
H       -2.30127339      -0.39208309      -1.28182406
H       -2.29798198      -1.39200325       0.99478915
H       -3.39357356       1.74988444       0.57816550
H       -4.31532953       0.90785877      -0.66540506
H       -4.39553855       2.68767324      -3.78345537
H        2.90806780      -1.43225830       3.25443246
H        3.68804017      -2.54567602       2.60421822
