16
Properties=species:S:1:pos:R:3 relative_energy_eV=0.0 branch=left pbc="F F F"
O       -2.31590006       0.92364189      -1.14402108
C       -1.41556362       0.41830938      -0.47988578
C       -0.02222557       0.23882094      -1.01598350
O        0.66196165      -0.82124550      -0.40696102
P        2.09971671      -0.42348420       0.40205902
O        2.47986952      -1.66271404       1.15597702
O        1.92089106       0.95322173       0.97320461
O        3.12754785      -0.27239104      -0.91131956
C       -1.70483745      -0.01622374       0.93548876
O       -3.03357013       0.28287517       1.30954891
H       -0.09620161       0.09302995      -2.09650982
H        0.48959168       1.19893450      -0.84152713
H        3.60329773      -1.10962249      -0.96019636
H       -1.49871718      -1.08922186       1.00782165
H       -0.96941007       0.46559360       1.59101852
H       -3.41166085       0.68686674       0.50719643
16
Properties=species:S:1:pos:R:3 relative_energy_eV=9.757473890203983e-05 branch=left pbc="F F F"
O       -2.31908709       0.92714216      -1.14083260
C       -1.41862753       0.41963255      -0.47862747
C       -0.02360478       0.24533655      -1.01075595
O        0.66103692      -0.81290747      -0.39892934
P        2.10607430      -0.41304762       0.39546525
O        2.48085705      -1.64172654       1.16914727
O        1.93949912       0.97444017       0.94402028
O        3.12976928      -0.29499999      -0.92508619
C       -1.71048068      -0.02428723       0.93396804
O       -3.03920965       0.27414687       1.30755832
H       -0.09009110       0.10130479      -2.09167120
H        0.48564625       1.20625473      -0.83153997
H        3.61099891      -1.13080453      -0.94757701
H       -1.50559312      -1.09821722       0.99902555
H       -0.97644581       0.45230597       1.59525211
H       -3.41595276       0.68181806       0.50649348
16
Properties=species:S:1:pos:R:3 relative_energy_eV=0.00030279536804300733 branch=left pbc="F F F"
O       -2.31876488       0.93338072      -1.13647016
C       -1.41897941       0.42170187      -0.47653442
C       -0.02394041       0.24900192      -1.00954801
O        0.66087557      -0.80812881      -0.39556231
P        2.10911213      -0.40926275       0.39296790
O        2.47619917      -1.63350930       1.17823709
O        1.95062592       0.98510935       0.92702703
O        3.13224311      -0.30709663      -0.92950461
C       -1.71346174      -0.02894837       0.93320591
O       -3.04359283       0.26462472       1.30515363
H       -0.09260725       0.10300311      -2.09077651
H        0.48594834       1.20994462      -0.83055953
H        3.62039857      -1.13880388      -0.94267720
H       -1.50667812      -1.10230249       0.99430083
H       -0.98304474       0.44708983       1.59907299
H       -3.41954421       0.68058743       0.50757779
16
Properties=species:S:1:pos:R:3 relative_energy_eV=0.0019423912708589341 branch=left pbc="F F F"
O       -2.32120309       0.97447975      -1.10780261
C       -1.42141023       0.43593199      -0.47151716
C       -0.03317921       0.26960621      -1.02184309
O        0.66745965      -0.78951458      -0.42984412
P        2.10425714      -0.38394319       0.38295975
O        2.42407031      -1.57467059       1.23926349
O        1.95875152       1.03717947       0.84822469
O        3.16622744      -0.36362379      -0.91300482
C       -1.70493216      -0.05656640       0.92651604
O       -3.03557481       0.21672830       1.31320636
H       -0.11435225       0.13720315      -2.10365157
H        0.47296416       1.23168708      -0.83709213
H        3.62274930      -1.21498190      -0.89301761
H       -1.48849723      -1.12994009       0.95822617
H       -0.97272543       0.40677452       1.60072229
H       -3.40981670       0.67004110       0.53456403
16
Properties=species:S:1:pos:R:3 relative_energy_eV=0.004968767629179638 branch=left pbc="F F F"
O       -2.33047767       1.04759820      -1.04742303
C       -1.42531677       0.45800624      -0.46246575
C       -0.05022859       0.30654572      -1.05339412
O        0.67956280      -0.74853352      -0.49431060
P        2.09235468      -0.33620133       0.35853179
O        2.33450647      -1.46532976       1.31401204
O        1.98055807       1.11532803       0.72179884
O        3.20785545      -0.46532951      -0.88090853
C       -1.68828824      -0.11451183       0.90833547
O       -3.00374717       0.16158261       1.34207567
H       -0.16553410       0.18197698      -2.13403442
H        0.45109154       1.27259320      -0.87633554
H        3.64438843      -1.31579024      -0.73764006
H       -1.49626195      -1.19148798       0.86989451
H       -0.93064531       0.28931101       1.59367882
H       -3.38503024       0.67063105       0.60409319
16
Properties=species:S:1:pos:R:3 relative_energy_eV=0.015175839642324718 branch=left pbc="F F F"
O       -2.33090302       1.15016714      -0.94335034
C       -1.40993499       0.50372341      -0.45065382
C       -0.07185686       0.36042215      -1.13588316
O        0.69951657      -0.69353441      -0.64097386
P        2.02694359      -0.29610117       0.34608900
O        2.10559526      -1.38048409       1.38541939
O        1.95624784       1.17782059       0.62521984
O        3.25401843      -0.55517677      -0.75655500
C       -1.61472788      -0.17071075       0.88487215
O       -2.91257831       0.06265642       1.39612969
H       -0.26304134       0.21991033      -2.20324089
H        0.43842824       1.32666264      -1.00461044
H        3.60554073      -1.42629515      -0.53337921
H       -1.41268866      -1.24028447       0.75980414
H       -0.83284343       0.18573070       1.56896975
H       -3.32292982       0.64187896       0.72804949
16
Properties=species:S:1:pos:R:3 relative_energy_eV=0.0189077320319484 branch=left pbc="F F F"
O       -2.33180994       1.17451687      -0.90272221
C       -1.40130116       0.51477569      -0.44552522
C       -0.07809398       0.38534234      -1.16786185
O        0.71848110      -0.66670784      -0.71116176
P        1.99595144      -0.28251242       0.34386666
O        1.98837157      -1.34706461       1.40710452
O        1.95402377       1.19944722       0.59003238
O        3.27105891      -0.58928614      -0.68837034
C       -1.57760899      -0.18751662       0.88013045
O       -2.87316825       0.01237543       1.40844614
H       -0.29743022       0.24608987      -2.22936675
H        0.42826557       1.35503688      -1.04770167
H        3.55684556      -1.48828653      -0.47895529
H       -1.34758435      -1.24960309       0.73936700
H       -0.80006372       0.17697559       1.56319224
H       -3.29115150       0.61280255       0.76543220
16
Properties=species:S:1:pos:R:3 relative_energy_eV=0.020703904792753747 branch=left pbc="F F F"
O       -2.33864314       1.19944937      -0.83349473
C       -1.39129159       0.52724792      -0.43355584
C       -0.09352785       0.43498735      -1.20674610
O        0.74178735      -0.60610312      -0.80062588
P        1.96773377      -0.23459753       0.31674117
O        1.81606721      -1.22489460       1.43757623
O        2.00783478       1.25610819       0.47398289
O        3.27643468      -0.69643502      -0.59834698
C       -1.52573343      -0.23197193       0.86221729
O       -2.80507429      -0.05988780       1.43722488
H       -0.35346294       0.30884353      -2.26227295
H        0.40296918       1.41021665      -1.09397911
H        3.48621514      -1.59159732      -0.30818675
H       -1.31362500      -1.28640946       0.66054967
H       -0.72147058       0.08972566       1.53711726
H       -3.24142841       0.57170199       0.83770498
16
Properties=species:S:1:pos:R:3 relative_energy_eV=0.02183968489043764 branch=left pbc="F F F"
O       -2.33276151       1.22975560      -0.79865515
C       -1.38818376       0.54050547      -0.42196672
C       -0.10007985       0.44972692      -1.21205268
O        0.74475630      -0.59026147      -0.82197011
P        1.96667214      -0.22026747       0.30156643
O        1.78420015      -1.17627576       1.44863801
O        2.04226524       1.27282734       0.42056515
O        3.26994614      -0.74208256      -0.58904552
C       -1.51857362      -0.24889694       0.85483835
O       -2.79648014      -0.09081431       1.43850993
H       -0.37558036       0.31866194      -2.26268154
H        0.39553587       1.42645384      -1.11275075
H        3.48109532      -1.61154736      -0.23071515
H       -1.31106978      -1.29886543       0.62414688
H       -0.71042441       0.05587680       1.53408111
H       -3.23653314       0.55158642       0.85339742
16
Properties=species:S:1:pos:R:3 relative_energy_eV=0.022432277437474113 branch=left pbc="F F F"
O       -2.33098883       1.23608299      -0.79185256
C       -1.38791989       0.54068346      -0.42200599
C       -0.10254219       0.45064364      -1.21812976
O        0.74868357      -0.58610444      -0.83273732
P        1.96352911      -0.21808859       0.29822813
O        1.77201959      -1.17026173       1.44679156
O        2.03736585       1.27457201       0.41697151
O        3.27130835      -0.74728974      -0.58023713
C       -1.51746437      -0.25521718       0.85069968
O       -2.78566244      -0.08208294       1.44949075
H       -0.38636354       0.31751974      -2.26674581
H        0.39134075       1.42872212      -1.12289566
H        3.49382514      -1.60660975      -0.20484970
H       -1.32486253      -1.30623506       0.61198701
H       -0.69909212       0.02974923       1.52464462
H       -3.22839176       0.56029859       0.86654614
16
Properties=species:S:1:pos:R:3 relative_energy_eV=0.022882891276822193 branch=left pbc="F F F"
O       -2.32962525       1.23722202      -0.78950076
C       -1.38566559       0.54185765      -0.42208656
C       -0.10354953       0.45033034      -1.22164884
O        0.74710247      -0.58650566      -0.83574061
P        1.95852523      -0.21906972       0.29946189
O        1.77227085      -1.17713832       1.44335038
O        2.02583557       1.27284266       0.42521134
O        3.26739344      -0.74367532      -0.57750298
C       -1.51200622      -0.25559184       0.84970088
O       -2.77806392      -0.07887906       1.45197457
H       -0.39094145       0.31488209      -2.26874984
H        0.39016123       1.42837854      -1.13087878
H        3.48681716      -1.60028727      -0.19468535
H       -1.32368413      -1.30698051       0.60769082
H       -0.69028655       0.02547420       1.52139611
H       -3.21949863       0.56352229       0.86791320
16
Properties=species:S:1:pos:R:3 relative_energy_eV=0.023807553305232432 branch=left pbc="F F F"
O       -2.34093500       1.22034673      -0.79350011
C       -1.38968604       0.53612139      -0.42342967
C       -0.10393868       0.45925888      -1.21637287
O        0.74649404      -0.58056687      -0.83533922
P        1.96427231      -0.20732896       0.29316674
O        1.76900743      -1.14186377       1.45651933
O        2.04827951       1.28656390       0.39046957
O        3.26313789      -0.76657974      -0.57702853
C       -1.51024214      -0.26280618       0.84783994
O       -2.77045326      -0.07542460       1.45869233
H       -0.38096747       0.33908865      -2.26829681
H        0.38905542       1.43704504      -1.10520034
H        3.46448524      -1.62190273      -0.18040897
H       -1.33355228      -1.31527011       0.59957664
H       -0.68106555       0.00687014       1.51505367
H       -3.21910704       0.55283068       0.86416400
16
Properties=species:S:1:pos:R:3 relative_energy_eV=0.028544934684759937 branch=left pbc="F F F"
O       -2.35107654       1.21943165      -0.77890695
C       -1.39181720       0.53786521      -0.42100401
C       -0.10755912       0.48026192      -1.21640767
O        0.75012023      -0.55408095      -0.84202441
P        1.96872569      -0.18773736       0.28046196
O        1.74261357      -1.08991186       1.46832475
O        2.08834930       1.31051345       0.34197572
O        3.25861357      -0.81857942      -0.56654135
C       -1.50183608      -0.27170831       0.84511014
O       -2.76649068      -0.11306454       1.45435701
H       -0.38238282       0.36841468      -2.26983523
H        0.38749568       1.45445674      -1.09336973
H        3.41471506      -1.67461112      -0.14602087
H       -1.29583369      -1.31713887       0.59048391
H       -0.68014141       0.00698779       1.51656804
H       -3.21871176       0.51528419       0.86273456
16
Properties=species:S:1:pos:R:3 relative_energy_eV=0.030793333393376088 branch=left pbc="F F F"
O       -2.37970929       1.18549708      -0.77696517
C       -1.40340420       0.53468949      -0.40977669
C       -0.10564660       0.53439349      -1.18263499
O        0.75792528      -0.51074772      -0.84473627
P        2.01412673      -0.14319609       0.24366006
O        1.72903493      -0.89057853       1.51953791
O        2.26422961       1.33169961       0.15471279
O        3.22651189      -0.95079986      -0.55211477
C       -1.50539688      -0.30202199       0.83967422
O       -2.78231014      -0.18971556       1.43445528
H       -0.36152191       0.47655973      -2.24522507
H        0.37508635       1.51101248      -1.01201574
H        3.31442036      -1.79074347      -0.08773414
H       -1.27618212      -1.34007192       0.57422879
H       -0.69680036      -0.01561791       1.52457520
H       -3.25558141       0.42602722       0.84626542
16
Properties=species:S:1:pos:R:3 relative_energy_eV=0.03132490530697396 branch=left pbc="F F F"
O       -2.38679140       1.17387513      -0.77931499
C       -1.40797666       0.52967128      -0.40715552
C       -0.10513480       0.54473785      -1.17100033
O        0.76417028      -0.49834158      -0.84402185
P        2.02960057      -0.13252146       0.23162052
O        1.73460827      -0.84451921       1.52490452
O        2.31167190       1.33401838       0.11163279
O        3.22336889      -0.97904349      -0.55014093
C       -1.51289449      -0.30929516       0.83903236
O       -2.79145641      -0.20388691       1.43148354
H       -0.35554642       0.49806036      -2.23497169
H        0.37063208       1.52087483      -0.98769788
H        3.29560493      -1.81474599      -0.07575930
H       -1.28023060      -1.34428992       0.56558153
H       -0.70948570      -0.01975130       1.52790746
H       -3.26535851       0.41154397       0.84380682
16
Properties=species:S:1:pos:R:3 relative_energy_eV=0.03158135254489025 branch=left pbc="F F F"
O       -2.38986621       1.17367992      -0.77822327
C       -1.41091141       0.53030400      -0.40536023
C       -0.10494661       0.54854496      -1.16611465
O        0.76671193      -0.49410747      -0.84254061
P        2.04017159      -0.12722264       0.22643180
O        1.73930052      -0.82734607       1.52523960
O        2.33449157       1.33589168       0.09290881
O        3.22374347      -0.99288009      -0.55110628
C       -1.51686453      -0.31210594       0.83818394
O       -2.79825948      -0.21417402       1.42633507
H       -0.35453926       0.50528014      -2.23080890
H        0.36694450       1.52613720      -0.97839387
H        3.28552967      -1.82447404      -0.06779906
H       -1.27766567      -1.34581128       0.56515710
H       -0.71656927      -0.01986905       1.52972435
H       -3.27248893       0.40453984       0.84227331
16
Properties=species:S:1:pos:R:3 relative_energy_eV=0.031813821242394624 branch=left pbc="F F F"
O       -2.39089865       1.17213172      -0.77927124
C       -1.41237908       0.52858401      -0.40491690
C       -0.10494604       0.55226346      -1.16193540
O        0.76650993      -0.48970545      -0.83769869
P        2.04665373      -0.12525565       0.22270740
O        1.74994324      -0.81727450       1.52679828
O        2.34984599       1.33484684       0.07930159
O        3.22345604      -1.00054591      -0.55375846
C       -1.52198178      -0.31493721       0.83841772
O       -2.80533525      -0.21908028       1.42211522
H       -0.35271234       0.51079182      -2.22692355
H        0.36443816       1.53061278      -0.97343749
H        3.28263195      -1.82857136      -0.06413360
H       -1.28054348      -1.34835466       0.56786519
H       -0.72353770      -0.02204533       1.53170559
H       -3.27636285       0.40292704       0.83907152
16
Properties=species:S:1:pos:R:3 relative_energy_eV=0.03205928471288644 branch=left pbc="F F F"
O       -2.39149843       1.17399180      -0.77605496
C       -1.41282247       0.53102292      -0.40193739
C       -0.10449899       0.55557195      -1.15814451
O        0.76592401      -0.48707167      -0.83337258
P        2.05143160      -0.12270035       0.22052502
O        1.75700677      -0.80689210       1.52931339
O        2.35991713       1.33571291       0.06956209
O        3.21696813      -1.01101110      -0.55889405
C       -1.52357115      -0.31722711       0.83818932
O       -2.81041397      -0.22707705       1.41547903
H       -0.35183546       0.51296073      -2.22344740
H        0.36524788       1.53451035      -0.97271518
H        3.28131481      -1.83368536      -0.06090418
H       -1.27715807      -1.35010541       0.56769518
H       -0.73103846      -0.01918428       1.53661434
H       -3.28019159       0.39757124       0.83399904
16
Properties=species:S:1:pos:R:3 relative_energy_eV=0.032278978138492675 branch=left pbc="F F F"
O       -2.39185227       1.17771282      -0.77249627
C       -1.41319869       0.53339918      -0.40000264
C       -0.10491270       0.55701218      -1.15612235
O        0.76364069      -0.48652492      -0.82998116
P        2.05334270      -0.12217513       0.21876384
O        1.76120571      -0.79777326       1.53247000
O        2.36821639       1.33431412       0.06292215
O        3.21193428      -1.01729691      -0.56329483
C       -1.52487756      -0.31627943       0.83896302
O       -2.81484175      -0.23454707       1.41020908
H       -0.35205987       0.51236454      -2.22128895
H        0.36672035       1.53479534      -0.96941656
H        3.28044769      -1.83567512      -0.05903227
H       -1.27151462      -1.34612724       0.56593411
H       -0.73417515      -0.01815188       1.53953036
H       -3.28329351       0.39134040       0.82874961
16
Properties=species:S:1:pos:R:3 relative_energy_eV=0.03254504815049586 branch=left pbc="F F F"
O       -2.39026348       1.18366357      -0.77059665
C       -1.41353278       0.53678227      -0.39767229
C       -0.10558322       0.55634143      -1.15219907
O        0.76087194      -0.48847785      -0.82466384
P        2.05500747      -0.12175386       0.21733040
O        1.76420327      -0.79289238       1.53371252
O        2.37251648       1.33306822       0.05140493
O        3.21082221      -1.02006575      -0.56429273
C       -1.52552287      -0.31552171       0.83851770
O       -2.81640931      -0.23743578       1.40728046
H       -0.35269610       0.51455290      -2.21739906
H        0.36781650       1.53263276      -0.96521850
H        3.28109992      -1.83708016      -0.05840227
H       -1.26788081      -1.34418065       0.56386085
H       -0.73800653      -0.01604693       1.54208632
H       -3.28766112       0.38280155       0.82215839
16
Properties=species:S:1:pos:R:3 relative_energy_eV=0.03284461299699615 branch=left pbc="F F F"
O       -2.38833659       1.19036740      -0.76552236
C       -1.41218830       0.54094127      -0.39536157
C       -0.10486035       0.55859434      -1.15261677
O        0.75852603      -0.49021231      -0.82611488
P        2.05461975      -0.12242552       0.21444649
O        1.76469861      -0.78896434       1.53315175
O        2.37034304       1.33248779       0.04490049
O        3.21296881      -1.02360247      -0.56126140
C       -1.52492422      -0.31421994       0.83977362
O       -2.81773326      -0.24426497       1.40611130
H       -0.35315074       0.51512093      -2.21759936
H        0.37179352       1.53436719      -0.96627383
H        3.27772180      -1.84129340      -0.05521368
H       -1.26215035      -1.34074670       0.56288090
H       -0.74041366      -0.01150425       1.54527698
H       -3.29213265       0.37174252       0.81932951
16
Properties=species:S:1:pos:R:3 relative_energy_eV=0.033382852816430386 branch=left pbc="F F F"
O       -2.38680911       1.19427802      -0.75869707
C       -1.41095304       0.54110858      -0.39351100
C       -0.10460996       0.55752151      -1.15328406
O        0.76233331      -0.48912014      -0.83145222
P        2.05487745      -0.12211241       0.21315658
O        1.76514487      -0.78660797       1.53322958
O        2.36923190       1.33260016       0.03970269
O        3.21318075      -1.02437158      -0.56070212
C       -1.52567820      -0.31381167       0.84190544
O       -2.81996430      -0.24488745       1.40465076
H       -0.35242135       0.51982614      -2.21806517
H        0.37666702       1.52958049      -0.96697950
H        3.27547103      -1.84177774      -0.05390074
H       -1.26270071      -1.34066081       0.56785368
H       -0.74190414      -0.01045684       1.54829673
H       -3.29708407       0.36527925       0.81370363
16
Properties=species:S:1:pos:R:3 relative_energy_eV=0.03539736421589623 branch=left pbc="F F F"
O       -2.37041962       1.20400797      -0.75205171
C       -1.40137887       0.54277520      -0.38648815
C       -0.10085496       0.55709336      -1.15634195
O        0.76736362      -0.49204606      -0.84658104
P        2.05080201      -0.11936993       0.20634938
O        1.74736495      -0.78053320       1.52476248
O        2.37165158       1.33470328       0.03983352
O        3.20861997      -1.02631928      -0.55933063
C       -1.52196181      -0.31606221       0.84619795
O       -2.82126517      -0.25086664       1.40190380
H       -0.36356182       0.52384984      -2.21933853
H        0.38244439       1.53002378      -0.97183254
H        3.26339619      -1.84101537      -0.04770943
H       -1.25151633      -1.34440812       0.58247870
H       -0.74845883      -0.00705734       1.56130816
H       -3.29744385       0.35161228       0.80274721
16
Properties=species:S:1:pos:R:3 relative_energy_eV=0.0420663319855521 branch=left pbc="F F F"
O       -2.36042376       1.21797865      -0.72126921
C       -1.38981649       0.54231564      -0.37810371
C       -0.10536469       0.56203806      -1.16525843
O        0.77621438      -0.47940104      -0.87447446
P        2.04221389      -0.12164005       0.20274825
O        1.70625529      -0.77838125       1.51552387
O        2.36843181       1.33074628       0.03374658
O        3.21339937      -1.03291140      -0.54105952
C       -1.50690504      -0.31932633       0.85800002
O       -2.81616363      -0.26729350       1.37850443
H       -0.38337454       0.51783912      -2.22099071
H        0.36304358       1.54208792      -0.98069496
H        3.25326154      -1.85501286      -0.04000093
H       -1.21903964      -1.34261343       0.60088532
H       -0.75030989       0.00706765       1.58306717
H       -3.27664071       0.34289428       0.77528352
16
Properties=species:S:1:pos:R:3 relative_energy_eV=0.05389705042762216 branch=left pbc="F F F"
O       -2.35070507       1.23797046      -0.68717617
C       -1.37761028       0.56452685      -0.35813090
C       -0.11152796       0.57241975      -1.18502900
O        0.78366575      -0.46336240      -0.91226205
P        2.01922285      -0.12374443       0.20522402
O        1.64435183      -0.78504531       1.50522204
O        2.36877300       1.32374752       0.05328138
O        3.20454368      -1.04821897      -0.49754676
C       -1.47639745      -0.31207748       0.85624749
O       -2.80523198      -0.33695773       1.35680696
H       -0.42812610       0.51985990      -2.23309666
H        0.35797934       1.55605937      -1.05189478
H        3.20726069      -1.88081731      -0.01105386
H       -1.11631285      -1.31136740       0.59282035
H       -0.74964932       0.03621903       1.60461374
H       -3.25545478       0.31717600       0.78788130
16
Properties=species:S:1:pos:R:3 relative_energy_eV=0.08589437315458781 branch=left pbc="F F F"
O       -2.35408977       1.26521824      -0.65689742
C       -1.36482175       0.59660844      -0.36311957
C       -0.11232936       0.59162794      -1.22049563
O        0.78328270      -0.45045325      -0.95001532
P        1.99645399      -0.12610560       0.21373273
O        1.58852294      -0.79370460       1.50110728
O        2.37825044       1.31535151       0.09075905
O        3.18588225      -1.06376968      -0.45425948
C       -1.43375943      -0.30105452       0.84154626
O       -2.75198904      -0.42234061       1.31884359
H       -0.49653189       0.50528768      -2.24378572
H        0.38472390       1.57109563      -1.12068579
H        3.14364996      -1.89932435       0.02568785
H       -1.02855464      -1.27900576       0.58557637
H       -0.76265975       0.08791695       1.61594527
H       -3.24124931       0.26903991       0.84196753
16
Properties=species:S:1:pos:R:3 relative_energy_eV=0.11881728584194207 branch=left pbc="F F F"
O       -2.32020185       1.32884415      -0.64166465
C       -1.35302238       0.62531742      -0.36421097
C       -0.11425156       0.60717027      -1.24616541
O        0.79605487      -0.41297891      -0.97064774
P        1.96648320      -0.12901434       0.22614653
O        1.52519297      -0.80692612       1.49703547
O        2.35290290       1.31329166       0.12246784
O        3.13838357      -1.09801242      -0.43676374
C       -1.39924824      -0.29093103       0.83523247
O       -2.72163457      -0.52142244       1.30414562
H       -0.48674516       0.46804573      -2.26684415
H        0.36366576       1.59425519      -1.19090660
H        3.06754927      -1.91782801       0.06730914
H       -0.91601355      -1.23119778       0.57293711
H       -0.74279135       0.13936738       1.60337509
H       -3.24154281       0.19840716       0.91446090
16
Properties=species:S:1:pos:R:3 relative_energy_eV=0.15656086675517145 branch=left pbc="F F F"
O       -2.30405703       1.36718935      -0.58647156
C       -1.34927306       0.62875937      -0.37523617
C       -0.12144552       0.59231408      -1.26975108
O        0.79102419      -0.42124991      -0.97597621
P        1.95532797      -0.12990271       0.23383043
O        1.51802647      -0.80409516       1.50973664
O        2.34759246       1.30904129       0.15149020
O        3.11666714      -1.11264672      -0.42569455
C       -1.37998046      -0.28432660       0.80496842
O       -2.68456070      -0.54050902       1.29979739
H       -0.45106350       0.47309217      -2.30586587
H        0.29963935       1.60184589      -1.21079933
H        3.04250616      -1.93061150       0.08153569
H       -0.87379062      -1.21521270       0.57824663
H       -0.74949668       0.16994482       1.57987438
H       -3.24233512       0.16275522       0.93622189
16
Properties=species:S:1:pos:R:3 relative_energy_eV=0.3340548456508259 branch=left pbc="F F F"
O       -2.28382289       1.45680321      -0.49730319
C       -1.39946377       0.59242730      -0.41522959
C       -0.15449923       0.59809070      -1.29288942
O        0.77803012      -0.39507689      -0.96244333
P        1.94792971      -0.13597669       0.26206941
O        1.51534157      -0.80833667       1.54117789
O        2.35827452       1.29771839       0.16754951
O        3.10485015      -1.11757805      -0.40300632
C       -1.38991191      -0.33342017       0.76795619
O       -2.66884047      -0.57984526       1.29769424
H       -0.47080520       0.46307764      -2.33824869
H        0.28953911       1.60574118      -1.19178277
H        3.03607824      -1.94578711       0.08660260
H       -0.83496951      -1.25136352       0.61207008
H       -0.71740762       0.28175877       1.47569054
H       -3.19554173       0.13815505       0.91599966
16
Properties=species:S:1:pos:R:3 relative_energy_eV=1.3392031481962476 branch=left pbc="F F F"
O       -2.25163324       1.46605733      -0.31934507
C       -1.40385713       0.58874268      -0.38951733
C       -0.14054600       0.63356238      -1.18864586
O        0.73667040      -0.41157633      -0.90495770
P        1.93449660      -0.13662320       0.27728373
O        1.45941310      -0.80047016       1.54101883
O        2.37336620       1.29174100       0.17991077
O        3.09986478      -1.11835876      -0.39046845
C       -1.35535480      -0.40730285       0.64941818
O       -2.67139843      -0.61718828       1.24502298
H       -0.58123720       0.44551239      -2.18154664
H        0.33541238       1.60948471      -1.19634599
H        3.03546183      -1.95322110       0.08697500
H       -0.76132664      -1.31660251       0.70752837
H       -0.72537636       0.45183452       1.04122599
H       -3.16917424       0.14079624       0.86834959
16
Properties=species:S:1:pos:R:3 relative_energy_eV=2.0291678285466332 branch=ts pbc="F F F"
O       -2.30138334       1.44031360      -0.30910701
C       -1.28159709       0.65912607      -0.18601893
C       -0.15323142       0.62114083      -1.19845322
O        0.74738281      -0.41706419      -0.90769080
P        1.93691957      -0.13624022       0.27208601
O        1.44711280      -0.79772459       1.54217648
O        2.38187659       1.28834672       0.18380965
O        3.10045767      -1.11743406      -0.39013588
C       -1.48347201      -0.52672127       0.60912218
O       -2.65688086      -0.64309298       1.20800849
H       -0.58336417       0.43833672      -2.18781689
H        0.33494236       1.59636323      -1.19628124
H        3.03498321      -1.95392608       0.08473174
H       -0.74552924      -1.28711997       0.77009574
H       -0.64911955       0.66727110       0.85410164
H       -3.12909551       0.16842673       0.85137146
16
Properties=species:S:1:pos:R:3 relative_energy_eV=1.9651187362833298 branch=right pbc="F F F"
O       -2.31816007       1.43115486      -0.30997587
C       -1.26540625       0.67579729      -0.14252794
C       -0.14801940       0.61397808      -1.20161450
O        0.75315209      -0.42096481      -0.91365704
P        1.94007223      -0.13821113       0.26849252
O        1.44738206      -0.79811386       1.54086693
O        2.38284161       1.28695311       0.18490685
O        3.10187323      -1.11757542      -0.38858318
C       -1.51076190      -0.55426669       0.59263448
O       -2.65769364      -0.64598950       1.19988627
H       -0.58179519       0.43486587      -2.19167225
H        0.33160140       1.59437067      -1.19847961
H        3.03471272      -1.95497349       0.08366293
H       -0.73369910      -1.27329261       0.79755178
H       -0.57620702       0.81202668       0.81016979
H       -3.11467035       0.18785610       0.84243129
16
Properties=species:S:1:pos:R:3 relative_energy_eV=1.931391540212644 branch=right pbc="F F F"
O       -2.34677668       1.40216954      -0.29253209
C       -1.25216761       0.68772414      -0.09642106
C       -0.14359245       0.60835379      -1.19192279
O        0.77067577      -0.43030367      -0.93125663
P        1.94543475      -0.14326873       0.26154741
O        1.44561510      -0.79998696       1.53278571
O        2.38549359       1.28321963       0.18649355
O        3.11128720      -1.12071832      -0.38635398
C       -1.53573804      -0.58385973       0.57218437
O       -2.67400952      -0.66605202       1.17472536
H       -0.59031473       0.42982822      -2.17907117
H        0.33093633       1.59014314      -1.20708555
H        3.03467550      -1.95813543       0.08401378
H       -0.73578069      -1.27695542       0.80618916
H       -0.54800959       0.90751090       0.80944227
H       -3.11250644       0.20394610       0.83135403
16
Properties=species:S:1:pos:R:3 relative_energy_eV=1.8145249524932296 branch=right pbc="F F F"
O       -2.38766926       1.34147947      -0.21460360
C       -1.23728432       0.67849091      -0.05911610
C       -0.14935971       0.60631961      -1.16522863
O        0.79138539      -0.42704096      -0.96142499
P        1.95170686      -0.15373342       0.25093954
O        1.43150397      -0.81102550       1.51011381
O        2.39208358       1.27590876       0.18553989
O        3.13831024      -1.13059225      -0.38082011
C       -1.52486114      -0.58314608       0.62055998
O       -2.70936956      -0.71963139       1.08891345
H       -0.62029432       0.41544286      -2.12685377
H        0.34036131       1.57678783      -1.22301292
H        3.03789574      -1.96977761       0.08495613
H       -0.75634260      -1.31163057       0.81192171
H       -0.52772234       1.10597654       0.77526495
H       -3.08512134       0.23978694       0.77694284
16
Properties=species:S:1:pos:R:3 relative_energy_eV=1.586330422134779 branch=right pbc="F F F"
O       -2.46525885       1.26524054      -0.09883456
C       -1.20735963       0.72449329       0.05551152
C       -0.15530297       0.60276021      -1.14762857
O        0.80047891      -0.41446856      -0.97818090
P        1.95736995      -0.16454424       0.23664246
O        1.40475883      -0.83784032       1.47548797
O        2.40522736       1.26152292       0.18071838
O        3.16133041      -1.14051351      -0.36609211
C       -1.49085108      -0.58910823       0.71189480
O       -2.70350323      -0.78007774       0.97936594
H       -0.69122903       0.38840905      -2.06896599
H        0.35264533       1.56283047      -1.23743357
H        3.04749421      -1.98713050       0.08379286
H       -0.76611660      -1.38706404       0.83554298
H       -0.55684073       1.31461883       0.69615479
H       -3.00762011       0.31448702       0.61611584
16
Properties=species:S:1:pos:R:3 relative_energy_eV=1.0735357189405477 branch=right pbc="F F F"
O       -2.45460938       1.23268049      -0.06458250
C       -1.19985495       0.69877553       0.03051428
C       -0.18728106       0.59898075      -1.14072045
O        0.78264746      -0.40995667      -0.97133999
P        1.95223473      -0.14124649       0.23706518
O        1.40855441      -0.84584718       1.48618364
O        2.40642815       1.24448135       0.18095304
O        3.15266402      -1.14158300      -0.36663201
C       -1.49712144      -0.58909924       0.71614355
O       -2.62906669      -0.87592120       1.02020410
H       -0.70482880       0.38756706      -2.06371467
H        0.33819921       1.55898508      -1.23613500
H        3.04930002      -1.98505912       0.08170862
H       -0.75717255      -1.37316625       0.84409675
H       -0.58958077       1.30013085       0.72288507
H       -2.98528953       0.47389312       0.49746233
16
Properties=species:S:1:pos:R:3 relative_energy_eV=0.5053350884190877 branch=right pbc="F F F"
O       -2.44434704       1.28824795      -0.12287741
C       -1.17952300       0.67376586       0.06697168
C       -0.20590921       0.59911062      -1.14293446
O        0.75961097      -0.41600654      -0.95861858
P        1.93777054      -0.16756639       0.25028260
O        1.42340622      -0.83898284       1.49602621
O        2.41189598       1.25882583       0.18094632
O        3.12975852      -1.13250624      -0.37391120
C       -1.46627946      -0.66737763       0.68281194
O       -2.59640571      -0.97100798       1.10213122
H       -0.72836684       0.38492827      -2.08115715
H        0.30186584       1.55661811      -1.23503867
H        3.04674486      -1.98006687       0.08121435
H       -0.68267436      -1.35055275       0.85462548
H       -0.61055834       1.25810542       0.78773806
H       -3.01176599       0.63808020       0.38588174
16
Properties=species:S:1:pos:R:3 relative_energy_eV=0.35160317844929523 branch=right pbc="F F F"
O       -2.42258649       1.31176838      -0.17103766
C       -1.18112752       0.65145008       0.07051636
C       -0.21955057       0.59521740      -1.13426108
O        0.74938040      -0.41898628      -0.94719628
P        1.93404628      -0.16456389       0.25038761
O        1.42838883      -0.83255997       1.50970462
O        2.39668693       1.25797165       0.17997517
O        3.11612721      -1.13544953      -0.38718079
C       -1.45197291      -0.70383132       0.72154544
O       -2.58282706      -0.97637289       1.10920100
H       -0.75157095       0.37999588      -2.06814137
H        0.27535141       1.56651520      -1.23700170
H        3.04329012      -1.97568798       0.08007333
H       -0.58343483      -1.36914819       0.84536132
H       -0.61628359       1.20727110       0.84112573
H       -3.04869423       0.74002534       0.31102052
16
Properties=species:S:1:pos:R:3 relative_energy_eV=0.31813572575265425 branch=right pbc="F F F"
O       -2.38938570       1.29696309      -0.20011504
C       -1.17355907       0.63816587       0.08852282
C       -0.21921158       0.58928569      -1.11446836
O        0.75693446      -0.41978307      -0.95218028
P        1.93432786      -0.16051868       0.24646582
O        1.43915964      -0.82408406       1.51365479
O        2.38117681       1.26301789       0.17828963
O        3.10812364      -1.13946411      -0.39798221
C       -1.44683258      -0.70026355       0.71510207
O       -2.57105070      -0.98746828       1.10280029
H       -0.76465748       0.37056531      -2.03668477
H        0.25178074       1.56753182      -1.23708305
H        3.03905632      -1.97406324       0.07977412
H       -0.58081862      -1.35557766       0.83874889
H       -0.60801503       1.18100333       0.86721440
H       -3.07180565       0.78830458       0.28203313
16
Properties=species:S:1:pos:R:3 relative_energy_eV=0.30466860363594606 branch=right pbc="F F F"
O       -2.38340262       1.29791144      -0.21486179
C       -1.16323082       0.64105008       0.10073066
C       -0.21367325       0.58354807      -1.10300941
O        0.76988074      -0.41698884      -0.95781533
P        1.93843207      -0.16035872       0.24268899
O        1.44637541      -0.81959428       1.51052807
O        2.37361532       1.27131157       0.17447878
O        3.10495655      -1.14141828      -0.40354379
C       -1.44990043      -0.69638328       0.71373123
O       -2.57681769      -0.98996481       1.08650986
H       -0.78222029       0.35542968      -2.00606704
H        0.24007358       1.56720395      -1.23279931
H        3.03649559      -1.97379282       0.07942128
H       -0.59521020      -1.35484582       0.83708909
H       -0.59815611       1.18013052       0.87921038
H       -3.06199482       0.79037648       0.26780059
16
Properties=species:S:1:pos:R:3 relative_energy_eV=0.29118036489307997 branch=right pbc="F F F"
O       -2.36637402       1.30667324      -0.21910418
C       -1.15247534       0.64868214       0.11367696
C       -0.21243265       0.57906898      -1.09251645
O        0.78288111      -0.41120613      -0.96423904
P        1.94711934      -0.15285258       0.23797570
O        1.45490751      -0.81518855       1.50595329
O        2.37173341       1.27925973       0.16782808
O        3.10888224      -1.14267642      -0.41008059
C       -1.46052670      -0.69630027       0.72077655
O       -2.60520186      -0.98342205       1.05237210
H       -0.81150344       0.32692528      -1.96756928
H        0.23133536       1.56659695      -1.22992023
H        3.03387312      -1.97178165       0.07814411
H       -0.60618565      -1.37095141       0.83852269
H       -0.59124546       1.19243561       0.89392573
H       -3.03956398       0.77835204       0.24834677
16
Properties=species:S:1:pos:R:3 relative_energy_eV=0.2816249336319743 branch=right pbc="F F F"
O       -2.33706293       1.32576470      -0.20317561
C       -1.14299791       0.64412715       0.12983534
C       -0.21958928       0.57406102      -1.08721701
O        0.78087966      -0.40903130      -0.96082806
P        1.95251405      -0.14641923       0.23463254
O        1.46471980      -0.80922346       1.50429971
O        2.38698094       1.28231309       0.16204981
O        3.11659599      -1.13509922      -0.41148528
C       -1.47007329      -0.70482502       0.71674241
O       -2.61987744      -0.98791760       1.02740881
H       -0.83128748       0.30416814      -1.95249305
H        0.22047009       1.56205863      -1.24140911
H        3.03389596      -1.96463149       0.07448266
H       -0.62060180      -1.38234556       0.84927366
H       -0.59666679       1.19322389       0.91354224
H       -3.03267670       0.78739108       0.21843310
16
Properties=species:S:1:pos:R:3 relative_energy_eV=0.2731617985882622 branch=right pbc="F F F"
O       -2.32092243       1.35147241      -0.18068145
C       -1.13529145       0.64419237       0.14571868
C       -0.22138921       0.56262030      -1.08021612
O        0.78465819      -0.41219373      -0.95489624
P        1.96119624      -0.14072259       0.23193794
O        1.47510228      -0.79921025       1.50278793
O        2.40577926       1.28553316       0.15403119
O        3.12527796      -1.12424557      -0.41236914
C       -1.47955500      -0.70669946       0.71105320
O       -2.63456384      -0.99391978       0.99400679
H       -0.84418281       0.28417268      -1.93506371
H        0.20084879       1.55334592      -1.26054031
H        3.03611951      -1.95553906       0.06845031
H       -0.64595295      -1.39263948       0.86332810
H       -0.58875456       1.18059522       0.93731507
H       -3.03314724       0.79685258       0.18922998
16
Properties=species:S:1:pos:R:3 relative_energy_eV=0.26082935647355043 branch=right pbc="F F F"
O       -2.31012369       1.38732873      -0.13628744
C       -1.13272822       0.65182723       0.16685851
C       -0.22465001       0.54608934      -1.06843320
O        0.79574437      -0.41517666      -0.94680854
P        1.98082560      -0.12831348       0.23177515
O        1.48830482      -0.77889018       1.50468745
O        2.42951782       1.29395013       0.13824383
O        3.14423311      -1.11190589      -0.41619177
C       -1.50360947      -0.70422046       0.71022138
O       -2.67353350      -0.99318251       0.92497723
H       -0.85668057       0.24914086      -1.90576011
H        0.17169473       1.53767402      -1.29045376
H        3.04502740      -1.94608453       0.05670513
H       -0.68047600      -1.40678824       0.88377252
H       -0.55221113       1.14924815       0.96612491
H       -3.03611273       0.80291805       0.15466089
16
Properties=species:S:1:pos:R:3 relative_energy_eV=0.250946341893723 branch=right pbc="F F F"
O       -2.29608396       1.40894968      -0.09675798
C       -1.13377493       0.64426200       0.17905218
C       -0.23556201       0.54023634      -1.06558627
O        0.79640812      -0.40629095      -0.93547900
P        1.99090762      -0.11795751       0.23353477
O        1.50040676      -0.75677240       1.51290711
O        2.43704802       1.30527675       0.12636035
O        3.15523891      -1.10759664      -0.41615348
C       -1.52847182      -0.70771042       0.70495443
O       -2.70564579      -0.99654105       0.87753388
H       -0.86319649       0.21529630      -1.89815378
H        0.16045958       1.53050906      -1.29906706
H        3.05999056      -1.94915777       0.04584277
H       -0.69732565      -1.39610705       0.89748107
H       -0.51892338       1.10915975       0.96875024
H       -3.03625317       0.81805837       0.13887296
16
Properties=species:S:1:pos:R:3 relative_energy_eV=0.2471845275722444 branch=right pbc="F F F"
O       -2.28237426       1.42468965      -0.08018717
C       -1.13187851       0.63689623       0.17872801
C       -0.23750642       0.53233235      -1.06783053
O        0.79583907      -0.40963226      -0.93056747
P        1.99102883      -0.11313198       0.23346478
O        1.51008980      -0.74324089       1.51877729
O        2.43728640       1.30980188       0.12076452
O        3.15154763      -1.10254123      -0.41383292
C       -1.53480527      -0.71228648       0.69462480
O       -2.71052095      -1.00716076       0.85892914
H       -0.86930152       0.20242046      -1.89706969
H        0.14991707       1.52875926      -1.29372695
H        3.06622750      -1.94881561       0.04096222
H       -0.70747890      -1.39270495       0.90888832
H       -0.51327479       1.09029621       0.96966298
H       -3.02957341       0.83793253       0.13250484
16
Properties=species:S:1:pos:R:3 relative_energy_eV=0.2454304982747999 branch=right pbc="F F F"
O       -2.27320341       1.43502751      -0.07185652
C       -1.13003699       0.63573718       0.18067444
C       -0.23837929       0.52558280      -1.06609263
O        0.79761770      -0.41473222      -0.93112191
P        1.99310219      -0.10939493       0.23424894
O        1.51507591      -0.73386710       1.52390627
O        2.43553165       1.31356527       0.11490358
O        3.15135010      -1.09962549      -0.41571873
C       -1.53862750      -0.71437155       0.69145922
O       -2.71694144      -1.00968131       0.83761752
H       -0.87381481       0.19481623      -1.89144065
H        0.14069664       1.52497281      -1.29128001
H        3.06798681      -1.94605313       0.03868670
H       -0.71347231      -1.39837205       0.91732688
H       -0.50673402       1.08156036       0.97331202
H       -3.02492900       0.84844998       0.12946706
16
Properties=species:S:1:pos:R:3 relative_energy_eV=0.2428646694861527 branch=right pbc="F F F"
O       -2.26496403       1.43688250      -0.06625496
C       -1.12564553       0.63236384       0.18602075
C       -0.24052103       0.51944641      -1.06426490
O        0.79624238      -0.42049482      -0.93254190
P        1.99149119      -0.10732301       0.23408352
O        1.51649693      -0.72174876       1.53075700
O        2.42424141       1.31774449       0.10490948
O        3.15248683      -1.09724714      -0.41827218
C       -1.54101721      -0.71740894       0.69033484
O       -2.72342333      -1.00956817       0.80704496
H       -0.87167661       0.19454055      -1.89452160
H        0.14062105       1.51698470      -1.28576334
H        3.06736495      -1.94175787       0.03973422
H       -0.72102777      -1.40633913       0.92663027
H       -0.49583391       1.07984938       0.97045036
H       -3.01961314       0.85769029       0.14574563
16
Properties=species:S:1:pos:R:3 relative_energy_eV=0.24120924739327165 branch=right pbc="F F F"
O       -2.25547377       1.44156768      -0.05751624
C       -1.12002203       0.62951826       0.19162990
C       -0.24006175       0.51498043      -1.06407038
O        0.79241306      -0.42696351      -0.92695585
P        1.98959502      -0.10347324       0.22974040
O        1.52028352      -0.71189870       1.52967722
O        2.41995770       1.32225878       0.09305660
O        3.15291100      -1.09060070      -0.41492659
C       -1.54545745      -0.72105059       0.68706620
O       -2.72966833      -1.01539074       0.77948471
H       -0.87334311       0.19086253      -1.89489787
H        0.14487254       1.51086287      -1.28861832
H        3.06725573      -1.93604816       0.04097720
H       -0.73507128      -1.41281908       0.93691217
H       -0.48790539       1.07221850       0.97641796
H       -3.01506324       0.86958996       0.15611504
16
Properties=species:S:1:pos:R:3 relative_energy_eV=0.2404523940240324 branch=right pbc="F F F"
O       -2.25300879       1.44313853      -0.05636661
C       -1.11944583       0.62945842       0.19135246
C       -0.23866233       0.51528137      -1.06388980
O        0.78978345      -0.43142485      -0.92523939
P        1.98937870      -0.10053023       0.22789060
O        1.52075867      -0.70974403       1.52788621
O        2.41708828       1.32539446       0.08563123
O        3.15360774      -1.08817018      -0.41301542
C       -1.54773299      -0.72255467       0.68456734
O       -2.73187547      -1.01732576       0.77038210
H       -0.87447964       0.19010588      -1.89175542
H        0.15141225       1.50950412      -1.29083340
H        3.06653689      -1.93325820       0.04336649
H       -0.73896075      -1.41551610       0.94051461
H       -0.48631836       1.06472908       0.98087886
H       -3.01285963       0.87452646       0.16272230
16
Properties=species:S:1:pos:R:3 relative_energy_eV=0.23998404586382094 branch=right pbc="F F F"
O       -2.25446340       1.44195044      -0.05949820
C       -1.12084611       0.62837764       0.18818539
C       -0.23724367       0.51674197      -1.06401191
O        0.78884392      -0.43370238      -0.92695873
P        1.98821534      -0.10120680       0.22738797
O        1.51903670      -0.70899157       1.52857771
O        2.41111012       1.32557388       0.08069089
O        3.15481380      -1.08879760      -0.41261372
C       -1.54729710      -0.72368768       0.68087214
O       -2.73152233      -1.01700301       0.77201784
H       -0.87285678       0.19497398      -1.89229689
H        0.15930679       1.50875827      -1.28814743
H        3.06561160      -1.93186510       0.04733358
H       -0.73626414      -1.41390828       0.93936565
H       -0.48868237       1.06077546       0.97970915
H       -3.01254014       0.87562510       0.17347875
16
Properties=species:S:1:pos:R:3 relative_energy_eV=0.23980260639291373 branch=right pbc="F F F"
O       -2.25500502       1.44227964      -0.05834696
C       -1.12130534       0.62772152       0.18773957
C       -0.23655756       0.51612132      -1.06443631
O        0.78884816      -0.43531296      -0.92750212
P        1.98774547      -0.10240846       0.22585431
O        1.51937371      -0.70707167       1.52832279
O        2.41008057       1.32427489       0.07771158
O        3.15616901      -1.08864718      -0.41096769
C       -1.54800778      -0.72405309       0.67963320
O       -2.73221647      -1.01795783       0.77317634
H       -0.87268387       0.19797001      -1.89431620
H        0.16163394       1.50763406      -1.28648402
H        3.06698886      -1.93096296       0.05009933
H       -0.73566888      -1.41249666       0.93629781
H       -0.49069054       1.05939921       0.98042024
H       -3.01348204       0.87712448       0.17689035
16
Properties=species:S:1:pos:R:3 relative_energy_eV=0.2396640789011144 branch=right pbc="F F F"
O       -2.25431533       1.44356881      -0.05627092
C       -1.12159947       0.62763542       0.18920413
C       -0.23675723       0.51498011      -1.06387180
O        0.78824196      -0.43767309      -0.92839772
P        1.98847738      -0.10195325       0.22417689
O        1.52040180      -0.70465854       1.52758747
O        2.41056786       1.32450719       0.07335481
O        3.15791768      -1.08877488      -0.40945710
C       -1.54988654      -0.72409574       0.67950839
O       -2.73396194      -1.01849223       0.77111989
H       -0.87401109       0.19869096      -1.89379628
H        0.16219931       1.50646499      -1.28495515
H        3.06965210      -1.93026909       0.05330331
H       -0.73679231      -1.41328567       0.93242816
H       -0.49126910       1.05776226       0.98307086
H       -3.01364289       0.87920707       0.17708727
16
Properties=species:S:1:pos:R:3 relative_energy_eV=0.2394600771185651 branch=right pbc="F F F"
O       -2.25263394       1.44598266      -0.05402331
C       -1.12199600       0.62737951       0.19208917
C       -0.23830276       0.51386416      -1.06133294
O        0.78665221      -0.43967516      -0.92875504
P        1.98995891      -0.10043974       0.22199782
O        1.52147460      -0.70047813       1.52680841
O        2.41126465       1.32582546       0.06529365
O        3.15977160      -1.09036642      -0.40884292
C       -1.55204188      -0.72472934       0.67769571
O       -2.73624021      -1.01773693       0.76739865
H       -0.87598019       0.19833983      -1.89077850
H        0.16169588       1.50503076      -1.28096291
H        3.07488077      -1.92948252       0.05921739
H       -0.74018845      -1.41729528       0.92630834
H       -0.49013573       1.05568003       0.98588195
H       -3.01295731       0.88171541       0.17609671
16
Properties=species:S:1:pos:R:3 relative_energy_eV=0.23922541254432872 branch=right pbc="F F F"
O       -2.25152108       1.44781083      -0.05056737
C       -1.12202180       0.62664132       0.19334296
C       -0.23886520       0.51404772      -1.05919957
O        0.78483557      -0.44039960      -0.92590013
P        1.99039467      -0.10013945       0.21906283
O        1.52228177      -0.69461883       1.52621968
O        2.41273250       1.32498785       0.05550400
O        3.15962100      -1.09226292      -0.40906762
C       -1.55370782      -0.72670290       0.67384945
O       -2.73862623      -1.01653598       0.76646160
H       -0.87629802       0.19957362      -1.88926765
H        0.16204299       1.50485325      -1.27687541
H        3.08126664      -1.92708017       0.06750255
H       -0.74468691      -1.42338984       0.91927966
H       -0.48888852       1.05285970       0.98724441
H       -3.01333743       0.88396969       0.17650274
16
Properties=species:S:1:pos:R:3 relative_energy_eV=0.23907672100904165 branch=right pbc="F F F"
O       -2.25129287       1.44783972      -0.04786068
C       -1.12196684       0.62577035       0.19329375
C       -0.23804274       0.51478369      -1.05918952
O        0.78395053      -0.44139367      -0.92490048
P        1.99045547      -0.10013620       0.21767592
O        1.52335318      -0.69053572       1.52692147
O        2.41439941       1.32392354       0.05001116
O        3.15796564      -1.09360619      -0.41001333
C       -1.55543038      -0.72806705       0.67251685
O       -2.74082208      -1.01571362       0.76723745
H       -0.87552995       0.20141006      -1.88971377
H        0.16326561       1.50611720      -1.27567119
H        3.08477090      -1.92472118       0.07340395
H       -0.74719125      -1.42708174       0.91449182
H       -0.48872521       1.05022945       0.98794169
H       -3.01393734       0.88479560       0.17794706
16
Properties=species:S:1:pos:R:3 relative_energy_eV=0.2388788534262858 branch=right pbc="F F F"
O       -2.25001346       1.44814124      -0.04506775
C       -1.12207954       0.62388015       0.19438973
C       -0.23779386       0.51552303      -1.05874357
O        0.78331087      -0.44202477      -0.92626896
P        1.99155854      -0.09842698       0.21611313
O        1.52676839      -0.68362993       1.52893349
O        2.41716545       1.32464616       0.04289604
O        3.15405490      -1.09735907      -0.41301063
C       -1.55878487      -0.72988883       0.67098849
O       -2.74466440      -1.01398889       0.76760576
H       -0.87478730       0.20356837      -1.88983198
H        0.16441889       1.50739636      -1.27397649
H        3.08939392      -1.92158297       0.08308533
H       -0.75230677      -1.43297277       0.90726875
H       -0.48792349       1.04495371       0.98996784
H       -3.01309522       0.88537935       0.17974297
16
Properties=species:S:1:pos:R:3 relative_energy_eV=0.23876243307313416 branch=right pbc="F F F"
O       -2.24890016       1.44886126      -0.04408223
C       -1.12228328       0.62270858       0.19479862
C       -0.23844604       0.51538787      -1.05826355
O        0.78386224      -0.44064715      -0.92667508
P        1.99280786      -0.09674810       0.21404994
O        1.52978476      -0.67895057       1.52870106
O        2.41888967       1.32602575       0.03972939
O        3.15170363      -1.10037971      -0.41452488
C       -1.56054593      -0.73122308       0.66910862
O       -2.74672399      -1.01330577       0.76800955
H       -0.87479772       0.20525893      -1.89082171
H        0.16455115       1.50645699      -1.27286094
H        3.09103942      -1.92011934       0.08954379
H       -0.75589564      -1.43672291       0.90401274
H       -0.48767942       1.04070202       0.99222742
H       -3.01214455       0.88630929       0.18113941
16
Properties=species:S:1:pos:R:3 relative_energy_eV=0.23870731899660314 branch=right pbc="F F F"
O       -2.24876451       1.44867611      -0.04274430
C       -1.12235398       0.62186289       0.19436679
C       -0.23821068       0.51535025      -1.05862956
O        0.78451584      -0.44018376      -0.92650930
P        1.99416353      -0.09599683       0.21263579
O        1.53056518      -0.67704888       1.52740258
O        2.42080844       1.32652894       0.03815906
O        3.15212830      -1.10167854      -0.41440298
C       -1.56149461      -0.73217427       0.66837390
O       -2.74796706      -1.01296684       0.76786597
H       -0.87464398       0.20592344      -1.89170109
H        0.16378544       1.50703293      -1.27223564
H        3.09042814      -1.91937466       0.09295909
H       -0.75722910      -1.43846115       0.90328775
H       -0.48780714       1.03879064       0.99249875
H       -3.01270188       0.88733376       0.18276536
16
Properties=species:S:1:pos:R:3 relative_energy_eV=0.23866174284921726 branch=right pbc="F F F"
O       -2.24824127       1.44860047      -0.04173369
C       -1.12242934       0.62060951       0.19464142
C       -0.23822672       0.51537055      -1.05858862
O        0.78549241      -0.43932409      -0.92768030
P        1.99585306      -0.09486405       0.21151386
O        1.53143803      -0.67519347       1.52644281
O        2.42347646       1.32738069       0.03623570
O        3.15273631      -1.10306915      -0.41428188
C       -1.56269633      -0.73311040       0.66785233
O       -2.74947836      -1.01260784       0.76684946
H       -0.87457743       0.20554444      -1.89147506
H        0.16206741       1.50813134      -1.27139150
H        3.08927786      -1.91869816       0.09633674
H       -0.75924709      -1.44030489       0.90277690
H       -0.48740764       1.03682585       0.99245699
H       -3.01281552       0.88832317       0.18413702
16
Properties=species:S:1:pos:R:3 relative_energy_eV=0.23861345303521375 branch=right pbc="F F F"
O       -2.24758919       1.44861658      -0.04193522
C       -1.12266949       0.61947257       0.19512294
C       -0.23855607       0.51568926      -1.05821949
O        0.78672967      -0.43748204      -0.92963845
P        1.99665492      -0.09396538       0.21048144
O        1.53188840      -0.67329183       1.52589589
O        2.42645639       1.32738439       0.03355174
O        3.15280085      -1.10391095      -0.41324417
C       -1.56369307      -0.73408931       0.66738764
O       -2.75052081      -1.01307187       0.76637285
H       -0.87427234       0.20518555      -1.89106072
H        0.16035880       1.50907832      -1.27040280
H        3.08815422      -1.91822317       0.09926138
H       -0.76102998      -1.44211016       0.90200554
H       -0.48699373       1.03479730       0.99273789
H       -3.01249678       0.88953470       0.18577572
