28
Properties=species:S:1:pos:R:3 relative_energy_eV=1.9039062105148332 branch=ts pbc="F F F"
O       -5.15598114       0.65746989      -0.84848051
C       -4.00548219       0.13715379      -1.03523086
C       -3.06437445       0.14994216       0.05075771
O       -3.50441728       0.70414672       1.17714598
C       -1.76719181      -0.55447704       0.04834587
O       -1.58250247      -1.06438762      -1.24988834
C       -0.59898429       0.34253760       0.52887912
O       -0.52342858       1.51491802      -0.25508653
C        0.71884099      -0.42808483       0.43310813
O        1.00155854      -0.52782540      -0.94502906
C        1.85882972       0.26530725       1.17917666
O        2.98071874      -0.59210670       1.34236779
P        4.12846432      -0.67365140       0.15964022
O        5.17639914      -1.61306409       0.62415202
O        3.39181166      -0.83935027      -1.18406924
O        4.69940645       0.88287930       0.13572697
H       -3.83850936      -0.59155718      -1.83830442
H       -3.02031634       0.91909396      -1.14271577
H       -4.43553406       0.97086883       0.92060323
H       -1.85881745      -1.38025712       0.77585067
H       -0.61426764      -1.03037478      -1.43701013
H       -0.78736891       0.63569154       1.55973096
H        0.07971162       1.24570713      -0.97513663
H        0.57989008      -1.42057404       0.88192342
H        2.08169334      -0.70328865      -1.07435578
H        1.54000371       0.51809351       2.19012618
H        2.12319924       1.19289374       0.66620559
H        4.39663980       1.28230428      -0.68843144
