28
Properties=species:S:1:pos:R:3 relative_energy_eV=1.9168507605572813 branch=ts pbc="F F F"
O       -4.63453099       1.38021359      -0.95451460
C       -3.63981049       0.59771570      -1.11090496
C       -3.07645615      -0.03095727       0.04631180
O       -3.67903713       0.22933870       1.19811981
C       -1.77144269      -0.73511628       0.06237894
O       -1.55587125      -1.18807694      -1.25358582
C       -0.64460668       0.21553050       0.58025429
O       -0.67184877       1.42750372      -0.13914891
C        0.72273789      -0.45582914       0.45937540
O        0.98443538      -0.54502236      -0.92517171
C        1.82082867       0.32313399       1.17949006
O        2.99508314      -0.45831838       1.35265136
P        4.12795437      -0.52687032       0.15238158
O        5.25202190      -1.35080006       0.65835038
O        3.38853129      -0.83574589      -1.16188868
O        4.57742146       1.06414508       0.02102814
H       -3.86444714      -0.72143460      -1.00757170
H       -3.00373270       0.63210742      -1.99416059
H       -4.39675735       0.87039445       0.91417054
H       -1.83926689      -1.58315549       0.76202390
H       -0.58783880      -1.11909898      -1.43321930
H       -0.85240348       0.44797799       1.62385245
H       -0.13864793       1.23040667      -0.92902063
H        0.66468734      -1.45087643       0.92003250
H        2.04874896      -0.70814133      -1.05965652
H        1.49407587       0.57923651       2.18696472
H        2.02441566       1.25344155       0.64439809
H        4.23310353       1.38499944      -0.82111787
