16
Properties=species:S:1:pos:R:3 relative_energy_eV=0.0 branch=left pbc="F F F"
O       -2.17925142       1.53644369       0.23965737
C       -1.09900121       0.62080650       0.29946453
C       -0.16705420       0.78424756      -0.91205285
O        0.80755139      -0.22544695      -0.99415164
P        1.97959010      -0.24394679       0.23285761
O        1.42243582      -1.08886294       1.35453216
O        2.49707745       1.14656699       0.41907633
O        3.10397200      -1.14801908      -0.58178624
C       -1.61427911      -0.78435637       0.40526877
O       -2.81458284      -1.01988660       0.39318296
H       -0.77931248       0.72391727      -1.81525362
H        0.28504335       1.77610530      -0.85817825
H        2.96766610      -2.05745569      -0.29130783
H       -0.85173872      -1.56719713       0.48206681
H       -0.48276706       0.79412079       1.19577001
H       -2.97385858       0.97611542       0.30419000
16
Properties=species:S:1:pos:R:3 relative_energy_eV=0.00015215669918688945 branch=left pbc="F F F"
O       -2.17905341       1.53740481       0.23743658
C       -1.09806301       0.62263743       0.30068647
C       -0.16834632       0.78281147      -0.91322137
O        0.80742299      -0.22587159      -0.99383169
P        1.97843953      -0.24567476       0.23448496
O        1.42112854      -1.09225214       1.35468147
O        2.49394665       1.14525253       0.42185459
O        3.10485414      -1.14772588      -0.57965786
C       -1.61069123      -0.78256974       0.40873648
O       -2.80979928      -1.02223665       0.38745973
H       -0.78415451       0.72017129      -1.81393814
H        0.28105796       1.77612649      -0.86464737
H        2.96417599      -2.05871416      -0.29681465
H       -0.84466200      -1.56123783       0.49234332
H       -0.48182910       0.79882579       1.19662454
H       -2.97293650       0.97620479       0.30113899
16
Properties=species:S:1:pos:R:3 relative_energy_eV=0.0002661320395418443 branch=left pbc="F F F"
O       -2.17734866       1.53943358       0.24295135
C       -1.09691157       0.62374950       0.30290039
C       -0.16998801       0.78179617      -0.91289565
O        0.80538974      -0.22750600      -0.99271262
P        1.97785522      -0.24597984       0.23489538
O        1.42403740      -1.09410115       1.35588208
O        2.49214343       1.14535364       0.42273337
O        3.10503120      -1.14604855      -0.58010873
C       -1.60980608      -0.78150662       0.40859420
O       -2.80915464      -1.02100523       0.38243737
H       -0.78799819       0.71441254      -1.81172395
H        0.27930276       1.77533529      -0.86836479
H        2.96430242      -2.05800668      -0.29935458
H       -0.84369756      -1.55983021       0.49487414
H       -0.47887061       0.79857495       1.19784052
H       -2.97279646       0.97848047       0.29538752
16
Properties=species:S:1:pos:R:3 relative_energy_eV=0.00035574966022977605 branch=left pbc="F F F"
O       -2.17561153       1.54130073       0.24356794
C       -1.09676519       0.62309323       0.30249416
C       -0.17036727       0.77881355      -0.91456307
O        0.80672490      -0.22883013      -0.99369925
P        1.97841013      -0.24480198       0.23425480
O        1.42331021      -1.09369752       1.35377190
O        2.49003724       1.14751070       0.42201227
O        3.10878940      -1.14385983      -0.57739461
C       -1.61124953      -0.78119908       0.40878235
O       -2.81079739      -1.01888502       0.38447253
H       -0.78941604       0.70689052      -1.81213729
H        0.27757529       1.77313481      -0.87270810
H        2.96674972      -2.05555820      -0.29703041
H       -0.84600356      -1.56080232       0.49450337
H       -0.47792671       0.79702122       1.19701524
H       -2.97196929       0.98302087       0.29999416
16
Properties=species:S:1:pos:R:3 relative_energy_eV=0.0006639577077294234 branch=left pbc="F F F"
O       -2.17051554       1.54513967       0.25269333
C       -1.09554583       0.62185092       0.30558681
C       -0.17186202       0.77377403      -0.91576631
O        0.80657612      -0.23242704      -0.99187400
P        1.98037054      -0.24337192       0.23464223
O        1.42781261      -1.09460431       1.35420791
O        2.48729269       1.15146341       0.41862904
O        3.11146061      -1.13886637      -0.58045281
C       -1.61578959      -0.78080395       0.41188034
O       -2.81603910      -1.01482783       0.37975943
H       -0.79122377       0.70005623      -1.81395333
H        0.27624171       1.76820754      -0.87883302
H        2.97173410      -2.05029310      -0.29670009
H       -0.85433029      -1.56420400       0.50014928
H       -0.47453659       0.79317128       1.19933367
H       -2.97015522       0.98888676       0.29403350
16
Properties=species:S:1:pos:R:3 relative_energy_eV=0.001617806738067884 branch=left pbc="F F F"
O       -2.16807577       1.54496326       0.25894676
C       -1.09504863       0.61989015       0.30886638
C       -0.17197984       0.77241805      -0.91383642
O        0.80499812      -0.23424880      -0.99610829
P        1.97959883      -0.24276954       0.22946012
O        1.42757021      -1.09563723       1.34722080
O        2.48811269       1.15056493       0.41706918
O        3.11518170      -1.13529356      -0.57936481
C       -1.61848314      -0.78107842       0.41842331
O       -2.81757518      -1.01538927       0.36741022
H       -0.78964405       0.70334703      -1.81228424
H        0.27506904       1.76686124      -0.87537436
H        2.97188446      -2.04806077      -0.30500552
H       -0.85926869      -1.56220485       0.53259368
H       -0.47291206       0.78969667       1.20156531
H       -2.96793725       0.99009240       0.27375381
16
Properties=species:S:1:pos:R:3 relative_energy_eV=0.002787044708384201 branch=left pbc="F F F"
O       -2.15714048       1.55057295       0.26648510
C       -1.09217154       0.61570400       0.31469333
C       -0.17417936       0.76345874      -0.91221601
O        0.80502404      -0.24133065      -0.99595241
P        1.98424146      -0.24146594       0.22668414
O        1.43862735      -1.09064807       1.35060237
O        2.47847080       1.15766112       0.40999179
O        3.12370230      -1.12708833      -0.58822178
C       -1.62874734      -0.78030430       0.42430893
O       -2.82983709      -1.00162885       0.35741446
H       -0.80160862       0.68979958      -1.80431040
H        0.27139534       1.75942187      -0.87453212
H        2.99057916      -2.04036530      -0.30844244
H       -0.88257643      -1.57269829       0.55198363
H       -0.46400661       0.78199772       1.20284150
H       -2.96028251       1.00006475       0.25200578
16
Properties=species:S:1:pos:R:3 relative_energy_eV=0.003540331876138225 branch=left pbc="F F F"
O       -2.14642627       1.55375233       0.27027918
C       -1.08831378       0.61219198       0.31478864
C       -0.17561080       0.75464318      -0.91427558
O        0.80202424      -0.25055714      -0.99330907
P        1.98368756      -0.23702258       0.22756246
O        1.45043557      -1.08773458       1.35587742
O        2.46812513       1.16691486       0.40197920
O        3.12362267      -1.11851525      -0.58905077
C       -1.63675354      -0.77974229       0.42528272
O       -2.83928196      -0.99099625       0.35631738
H       -0.80642069       0.67771009      -1.80379888
H        0.27199356       1.74884904      -0.87885167
H        3.00400402      -2.03200447      -0.30458166
H       -0.89766170      -1.58050994       0.54782232
H       -0.45641920       0.77433893       1.20117474
H       -2.95551425       1.01183268       0.25611941
16
Properties=species:S:1:pos:R:3 relative_energy_eV=0.006847409793408588 branch=left pbc="F F F"
O       -2.14294918       1.56366098       0.25725247
C       -1.09463632       0.61107838       0.32622466
C       -0.17945570       0.73618182      -0.90510481
O        0.79198032      -0.27567777      -0.97798256
P        1.98938747      -0.23790880       0.22522893
O        1.47611920      -1.08613919       1.36425057
O        2.46178714       1.17273636       0.37724124
O        3.13406704      -1.10402922      -0.59898034
C       -1.64585738      -0.77658527       0.43061523
O       -2.85129234      -0.97480190       0.35819589
H       -0.80613256       0.66005499      -1.79728121
H        0.27017866       1.73070682      -0.87913504
H        3.03642124      -2.01769003      -0.31008492
H       -0.91454785      -1.58567793       0.55866613
H       -0.46692925       0.78040142       1.21411551
H       -2.95664969       1.02683864       0.23011398
16
Properties=species:S:1:pos:R:3 relative_energy_eV=0.0123863100525341 branch=left pbc="F F F"
O       -2.14461473       1.57679088       0.27584215
C       -1.10239951       0.61731450       0.33145964
C       -0.18365034       0.71876514      -0.89605330
O        0.76429434      -0.31578169      -0.93889649
P        2.00196734      -0.23985683       0.22591708
O        1.54251415      -1.08086278       1.39212283
O        2.45059259       1.18134421       0.35124441
O        3.13847280      -1.08876255      -0.63246534
C       -1.67260036      -0.76653154       0.43557439
O       -2.87519737      -0.96436202       0.33835644
H       -0.80822166       0.63603435      -1.78939375
H        0.28793905       1.70218627      -0.88344027
H        3.07941624      -1.99906970      -0.32108342
H       -0.94378687      -1.57854517       0.56477699
H       -0.47454532       0.77450678       1.22386902
H       -2.95868932       1.04997844       0.19550528
16
Properties=species:S:1:pos:R:3 relative_energy_eV=0.01468624733024626 branch=left pbc="F F F"
O       -2.15228653       1.58277017       0.26164775
C       -1.11533177       0.61819355       0.33135774
C       -0.18299146       0.70595307      -0.89154015
O        0.76251437      -0.33073756      -0.92459572
P        2.01582407      -0.23776753       0.22276937
O        1.58253591      -1.08385971       1.39387803
O        2.44611179       1.19091307       0.33280510
O        3.14740133      -1.08566017      -0.64307631
C       -1.68923534      -0.75990353       0.44304876
O       -2.88801952      -0.96217373       0.32656934
H       -0.80334266       0.62207050      -1.78730346
H        0.29656271       1.68629772      -0.87671222
H        3.10199104      -1.99515834      -0.32688856
H       -0.96311499      -1.56786513       0.59999874
H       -0.48767494       0.78047641       1.22140156
H       -2.96945281       1.05959826       0.18997559
16
Properties=species:S:1:pos:R:3 relative_energy_eV=0.015705714373325463 branch=left pbc="F F F"
O       -2.14921812       1.58506089       0.25031223
C       -1.11755737       0.61573613       0.32626909
C       -0.18350075       0.69837899      -0.89473776
O        0.76326695      -0.33823937      -0.92452676
P        2.01876696      -0.23688606       0.22176793
O        1.59674725      -1.08114682       1.39904273
O        2.44005216       1.19468374       0.32430638
O        3.15491661      -1.07860436      -0.64348074
C       -1.69580303      -0.75950675       0.44365526
O       -2.89530507      -0.95708480       0.32806142
H       -0.80136596       0.61332788      -1.79226658
H        0.29981004       1.67578678      -0.88074125
H        3.10866965      -1.98484390      -0.32036334
H       -0.97546362      -1.56889631       0.61311662
H       -0.48922487       0.77667007       1.21568022
H       -2.97329942       1.06870996       0.20724003
16
Properties=species:S:1:pos:R:3 relative_energy_eV=0.018952607053506654 branch=left pbc="F F F"
O       -2.13086631       1.59326011       0.22946085
C       -1.11848839       0.60505454       0.31640694
C       -0.18590086       0.66917289      -0.90532899
O        0.77137240      -0.35556274      -0.91752608
P        2.03325120      -0.22418142       0.21608074
O        1.62556021      -1.06927568       1.39687873
O        2.43616153       1.21321428       0.31175729
O        3.17946088      -1.06144773      -0.64316345
C       -1.72979282      -0.75291797       0.45061860
O       -2.93438564      -0.92434626       0.35206303
H       -0.79841190       0.55956657      -1.80216355
H        0.27228651       1.65933440      -0.90535560
H        3.15410563      -1.95897291      -0.29126997
H       -1.02407568      -1.58063519       0.60789949
H       -0.48162256       0.75768816       1.20371229
H       -2.96716236       1.09319217       0.25326497
16
Properties=species:S:1:pos:R:3 relative_energy_eV=0.02142790172365494 branch=left pbc="F F F"
O       -2.12991797       1.59454749       0.22733664
C       -1.12119919       0.60172662       0.31394504
C       -0.18965601       0.66516403      -0.90920864
O        0.78122396      -0.34748432      -0.91617528
P        2.04478472      -0.22075920       0.21996228
O        1.64018207      -1.07094880       1.39911781
O        2.45292234       1.21562692       0.31370289
O        3.18203520      -1.06085711      -0.64881518
C       -1.74094201      -0.75199036       0.44853474
O       -2.94970388      -0.90853228       0.36049443
H       -0.80729383       0.53996279      -1.80323546
H        0.25936361       1.65991020      -0.92061274
H        3.17398462      -1.95301846      -0.28468955
H       -1.04335677      -1.58404920       0.61344343
H       -0.48659735       0.75041204       1.20428773
H       -2.96433760       1.09343209       0.25524710
16
Properties=species:S:1:pos:R:3 relative_energy_eV=0.025178756441164296 branch=left pbc="F F F"
O       -2.10553097       1.60597114       0.23119163
C       -1.11943863       0.59082662       0.30439663
C       -0.19413600       0.64228677      -0.92376429
O        0.78500916      -0.36152438      -0.91678554
P        2.04475944      -0.21093997       0.22117704
O        1.64842452      -1.04570791       1.41312494
O        2.43934138       1.22918874       0.30829072
O        3.19537244      -1.04268089      -0.64027639
C       -1.76542684      -0.75238108       0.44255974
O       -2.97647728      -0.88708550       0.38505855
H       -0.81423298       0.50278646      -1.81346734
H        0.25181133       1.63618322      -0.96128651
H        3.22434447      -1.92952171      -0.26434724
H       -1.08360725      -1.60418370       0.58476711
H       -0.47462236       0.71621490       1.19077978
H       -2.95409810       1.13370787       0.31191630
16
Properties=species:S:1:pos:R:3 relative_energy_eV=0.02935414408420911 branch=left pbc="F F F"
O       -2.09668357       1.60581860       0.22385217
C       -1.11593454       0.58266110       0.29526494
C       -0.18996757       0.62965073      -0.93595846
O        0.78569366      -0.38222562      -0.92020087
P        2.04634179      -0.20538948       0.22324189
O        1.65858716      -1.03695947       1.42035922
O        2.42484011       1.23986018       0.30268899
O        3.20029542      -1.03087151      -0.63543827
C       -1.77140990      -0.75407286       0.44024615
O       -2.98332179      -0.87524604       0.40284361
H       -0.81883215       0.48956520      -1.82056871
H        0.25570716       1.62832035      -0.97882216
H        3.23168874      -1.91243859      -0.24765657
H       -1.10251937      -1.61327218       0.57728682
H       -0.47392610       0.70726509       1.18432169
H       -2.94906640       1.15047371       0.34187462
16
Properties=species:S:1:pos:R:3 relative_energy_eV=0.04713348880613921 branch=left pbc="F F F"
O       -2.05384088       1.61944524       0.20109838
C       -1.11271316       0.56196220       0.27106670
C       -0.19342208       0.58595243      -0.95583382
O        0.78001980      -0.42515742      -0.91251636
P        2.02849352      -0.18940974       0.22123592
O        1.64808393      -1.00069282       1.43482968
O        2.34384237       1.27391285       0.24564792
O        3.23519161      -0.98827328      -0.59809139
C       -1.80532956      -0.75566162       0.42948243
O       -3.02273525      -0.84894858       0.45097806
H       -0.79654132       0.42400444      -1.85112669
H        0.25474614       1.57804336      -1.00923842
H        3.29980415      -1.86934136      -0.21183998
H       -1.14521061      -1.62737183       0.53548325
H       -0.45675102       0.65966029       1.15704637
H       -2.90214395       1.22501095       0.46511266
16
Properties=species:S:1:pos:R:3 relative_energy_eV=0.058292398523917655 branch=left pbc="F F F"
O       -2.02296111       1.63242984       0.21086519
C       -1.11210441       0.55092881       0.27210225
C       -0.20268899       0.54951159      -0.96964438
O        0.78537602      -0.45472303      -0.92330072
P        2.02611525      -0.17867329       0.21570675
O        1.66578426      -0.98191428       1.43892503
O        2.31918445       1.28836378       0.23296088
O        3.25038078      -0.95845934      -0.58033222
C       -1.82970406      -0.74900914       0.42368310
O       -3.04638262      -0.81494803       0.47681028
H       -0.81561199       0.37965008      -1.86153562
H        0.25052417       1.54263540      -1.02358057
H        3.32234700      -1.82942823      -0.17443703
H       -1.18155907      -1.64292467       0.46786342
H       -0.44573071       0.63590564       1.14484104
H       -2.86147482       1.25378857       0.52240730
16
Properties=species:S:1:pos:R:3 relative_energy_eV=0.07190550486484426 branch=left pbc="F F F"
O       -2.00491000       1.62546564       0.21526197
C       -1.09830297       0.53897735       0.25427850
C       -0.20186372       0.53325049      -0.98296421
O        0.77876106      -0.46987804      -0.91466502
P        2.02679080      -0.16616588       0.21870670
O        1.69468043      -0.97976490       1.44626718
O        2.29677345       1.30611805       0.22637775
O        3.25557241      -0.94165856      -0.58187792
C       -1.83966053      -0.74876428       0.40718191
O       -3.05859049      -0.78612150       0.50138015
H       -0.82751119       0.36029502      -1.86374065
H        0.25448591       1.51706664      -1.04876952
H        3.30880968      -1.79430538      -0.13474356
H       -1.21310063      -1.65070545       0.43526893
H       -0.43217639       0.61513942       1.13450173
H       -2.83826333       1.26418367       0.56087070
16
Properties=species:S:1:pos:R:3 relative_energy_eV=0.08810877010546392 branch=left pbc="F F F"
O       -1.97455586       1.63859655       0.23248795
C       -1.09236590       0.53176363       0.26827995
C       -0.20752946       0.50809973      -0.98562238
O        0.79556701      -0.47751868      -0.90834989
P        2.03540229      -0.14867581       0.21422540
O        1.72111178      -0.96187766       1.44389626
O        2.26909111       1.32994495       0.22969618
O        3.26028153      -0.93428459      -0.57934131
C       -1.86298383      -0.74119192       0.40349065
O       -3.07245934      -0.73817833       0.56863650
H       -0.83641703       0.29860772      -1.85660818
H        0.22465187       1.50235401      -1.10927490
H        3.34462393      -1.76075268      -0.08801746
H       -1.28148733      -1.67910220       0.33287706
H       -0.40846428       0.57413078       1.13471917
H       -2.81297170       1.28121501       0.57223958
16
Properties=species:S:1:pos:R:3 relative_energy_eV=0.1001786736487702 branch=left pbc="F F F"
O       -1.95667533       1.64262053       0.23877518
C       -1.08567802       0.52515757       0.26601936
C       -0.20888916       0.50166663      -0.99713049
O        0.80490602      -0.47001630      -0.91609102
P        2.03206605      -0.14560071       0.22047274
O        1.72947968      -0.95334421       1.45902689
O        2.26108951       1.33374320       0.22030192
O        3.26121066      -0.92629190      -0.57526120
C       -1.87970391      -0.73755068       0.41337494
O       -3.07997023      -0.71677262       0.62893312
H       -0.83405628       0.24297182      -1.85747853
H        0.20445313       1.50455246      -1.13725002
H        3.37788417      -1.73869093      -0.06862070
H       -1.32050235      -1.68125727       0.27618086
H       -0.40063025       0.55221414       1.13822621
H       -2.80348858       1.28972706       0.56385519
16
Properties=species:S:1:pos:R:3 relative_energy_eV=0.11473659758485155 branch=left pbc="F F F"
O       -1.93034386       1.65024499       0.26342775
C       -1.08176811       0.51483109       0.26842596
C       -0.21450733       0.47793287      -0.99478103
O        0.82198342      -0.46689518      -0.92107337
P        2.03747811      -0.14331000       0.22263453
O        1.70874438      -0.94107839       1.46073019
O        2.27555094       1.33364590       0.21576633
O        3.27419472      -0.91719707      -0.56860903
C       -1.89486704      -0.72634078       0.39709320
O       -3.08189887      -0.69717777       0.68365128
H       -0.85180000       0.19796826      -1.84041955
H        0.16209758       1.48796835      -1.14903494
H        3.43439606      -1.72115371      -0.06220471
H       -1.35902985      -1.66739748       0.21105528
H       -0.40457552       0.53667051       1.14433667
H       -2.79415934       1.30441644       0.54233581
16
Properties=species:S:1:pos:R:3 relative_energy_eV=0.12628282894729637 branch=left pbc="F F F"
O       -1.92961015       1.65728507       0.25565855
C       -1.08491010       0.51656473       0.27762244
C       -0.22268291       0.45954177      -0.99197721
O        0.82520194      -0.47730270      -0.92862460
P        2.04328129      -0.13777638       0.21873068
O        1.68844774      -0.92965383       1.45192137
O        2.29227153       1.33874829       0.22330439
O        3.29155934      -0.91159931      -0.56317041
C       -1.89947380      -0.72482154       0.41588322
O       -3.08085518      -0.68748665       0.71139890
H       -0.86411870       0.18139893      -1.83517346
H        0.14715457       1.47007419      -1.14942691
H        3.46499428      -1.71569474      -0.06052274
H       -1.37193667      -1.66832748       0.17355700
H       -0.39826574       0.53310748       1.14537751
H       -2.79956203       1.31906958       0.52877557
16
Properties=species:S:1:pos:R:3 relative_energy_eV=0.15862990732784965 branch=left pbc="F F F"
O       -1.94275861       1.63622706       0.17189126
C       -1.08894670       0.50259861       0.27299835
C       -0.22403061       0.45261843      -0.99253377
O        0.82461589      -0.48626807      -0.92439106
P        2.04452102      -0.13635663       0.20847631
O        1.66033564      -0.92825522       1.43162372
O        2.30664248       1.33626596       0.20236283
O        3.32480877      -0.88297244      -0.54121343
C       -1.89858811      -0.72305925       0.44239143
O       -3.07014809      -0.69574531       0.79135813
H       -0.88517737       0.16548319      -1.81850913
H        0.17513855       1.45811840      -1.16110528
H        3.47615084      -1.69835739      -0.05215748
H       -1.38594187      -1.65993747       0.18295108
H       -0.40756431       0.54779862       1.16063289
H       -2.80756142       1.33496564       0.49855811
16
Properties=species:S:1:pos:R:3 relative_energy_eV=0.2207054894133762 branch=left pbc="F F F"
O       -1.97670630       1.63481638       0.07328330
C       -1.08991697       0.52682369       0.24249979
C       -0.20239137       0.44325409      -1.00044281
O        0.83401857      -0.51041506      -0.93005604
P        2.04297555      -0.13227489       0.21715341
O        1.64832798      -0.93841927       1.43272034
O        2.30139377       1.34282137       0.16769484
O        3.33333142      -0.85858265      -0.52321798
C       -1.89466867      -0.71475889       0.45795727
O       -3.03893812      -0.69860641       0.88820833
H       -0.88088186       0.16305524      -1.81530656
H        0.19099593       1.44837796      -1.16674610
H        3.46857061      -1.68025038      -0.04323834
H       -1.38203211      -1.66534888       0.22899574
H       -0.44339403       0.53728015       1.16569385
H       -2.80918737       1.32534718       0.47813444
16
Properties=species:S:1:pos:R:3 relative_energy_eV=0.4054600340896286 branch=left pbc="F F F"
O       -2.01553614       1.58987621      -0.08736034
C       -1.10273964       0.49163328       0.19986322
C       -0.17244484       0.42531255      -1.00579086
O        0.86078785      -0.52334376      -0.98013172
P        2.04393728      -0.12850495       0.18305131
O        1.66888029      -0.92306373       1.40806312
O        2.20581939       1.35802975       0.12536275
O        3.38950875      -0.84894570      -0.47460813
C       -1.86646910      -0.73977427       0.52307891
O       -2.96616643      -0.65426495       1.03063869
H       -0.85365676       0.16016167      -1.80246944
H        0.22261463       1.42160394      -1.18853523
H        3.45927522      -1.69746112      -0.01906277
H       -1.37173703      -1.69339787       0.30396336
H       -0.60653382       0.65522004       1.22115589
H       -2.79404086       1.33003027       0.43611389
16
Properties=species:S:1:pos:R:3 relative_energy_eV=0.6267127057653852 branch=left pbc="F F F"
O       -2.11312775       1.49475249      -0.20280269
C       -1.12792723       0.49805672       0.12801896
C       -0.18030199       0.40227693      -1.08577752
O        0.84680215      -0.56426346      -0.94949880
P        2.03153291      -0.11370385       0.20041832
O        1.69448275      -0.86849440       1.45851337
O        2.13146218       1.38116585       0.14634405
O        3.37002767      -0.85911914      -0.47671682
C       -1.82950119      -0.70929289       0.56338010
O       -2.85633548      -0.57309474       1.19303076
H       -0.75933078       0.14387937      -1.99331069
H        0.23760310       1.41309427      -1.16024209
H        3.43464306      -1.70018478      -0.00115074
H       -1.29907137      -1.65879459       0.42100748
H       -0.63612435       0.60735244       1.20448666
H       -2.84333265       1.32947065       0.42763130
16
Properties=species:S:1:pos:R:3 relative_energy_eV=0.8940406462861574 branch=left pbc="F F F"
O       -2.21465705       1.51621429      -0.26641049
C       -1.21865086       0.44645918      -0.03845218
C       -0.18362008       0.37916994      -1.14383430
O        0.81487394      -0.58313084      -0.90174312
P        1.99332142      -0.10095650       0.25353033
O        1.71379470      -0.82917707       1.54978464
O        2.12560835       1.38419327       0.16394496
O        3.27398297      -0.84678286      -0.48504918
C       -1.80230863      -0.69837614       0.62283507
O       -2.76741008      -0.55134845       1.34877754
H       -0.61324878       0.16606258      -2.12010266
H        0.24656775       1.37655094      -1.15469627
H        3.40216946      -1.66646452       0.00376030
H       -1.23006695      -1.61077878       0.54811990
H       -0.56051143       0.55104855       1.06244424
H       -2.87834143       1.29040695       0.43042184
16
Properties=species:S:1:pos:R:3 relative_energy_eV=1.0355623013529112 branch=left pbc="F F F"
O       -2.20117175       1.51223424      -0.26080853
C       -1.25579597       0.42348766      -0.09214027
C       -0.19792668       0.39489935      -1.16082053
O        0.76771641      -0.58466114      -0.82537500
P        1.97932880      -0.09495957       0.27528133
O        1.71147805      -0.82319323       1.56513198
O        2.12980456       1.39011120       0.16403689
O        3.24169553      -0.84073289      -0.48893218
C       -1.81485130      -0.69578854       0.61524116
O       -2.70415952      -0.49547638       1.41021182
H       -0.57004989       0.18363344      -2.14907432
H        0.27172135       1.39844221      -1.17536709
H        3.39268286      -1.65217862       0.00518620
H       -1.17715881      -1.56857362       0.59489745
H       -0.60192053       0.43010442       0.97400765
H       -2.86988908       1.24573870       0.42185377
16
Properties=species:S:1:pos:R:3 relative_energy_eV=1.3388882926919905 branch=left pbc="F F F"
O       -2.19298850       1.50360320      -0.26150889
C       -1.24328429       0.42696161      -0.12141107
C       -0.19485452       0.41688172      -1.17153676
O        0.72747361      -0.57858075      -0.78223531
P        1.97333973      -0.08682712       0.28414049
O        1.71425573      -0.82688575       1.57131398
O        2.12786326       1.39788639       0.16426829
O        3.23543045      -0.84075567      -0.49454060
C       -1.76494120      -0.66336696       0.65449851
O       -2.68685447      -0.44777950       1.43077053
H       -0.55496410       0.19060245      -2.16561489
H        0.28168619       1.40891996      -1.18369209
H        3.38979573      -1.64828599       0.00720407
H       -1.15485834      -1.53682168       0.60363741
H       -0.69634521       0.29417347       0.91711747
H       -2.85924977       1.21336036       0.42091906
16
Properties=species:S:1:pos:R:3 relative_energy_eV=1.8660397935091169 branch=ts pbc="F F F"
O       -2.17859693       1.47210402      -0.25794808
C       -1.32438457       0.45215070      -0.21628510
C       -0.17529837       0.42061022      -1.16062714
O        0.73678794      -0.57039732      -0.79834855
P        1.97704660      -0.08876165       0.28800968
O        1.72881744      -0.82971461       1.57113463
O        2.11963350       1.39655617       0.16529908
O        3.23213583      -0.84024425      -0.49420419
C       -1.65572774      -0.57129250       0.73184389
O       -2.72796454      -0.44130441       1.42183677
H       -0.55241662       0.19299066      -2.16688595
H        0.28999340       1.41148427      -1.18948841
H        3.39143599      -1.64850568       0.00703043
H       -1.19020401      -1.55531890       0.57452058
H       -0.73853280       0.13937013       1.06050515
H       -2.84749949       1.19389989       0.43770176
16
Properties=species:S:1:pos:R:3 relative_energy_eV=1.5110277900093934 branch=right pbc="F F F"
O       -2.21453261       1.42629919      -0.32109710
C       -1.39490673       0.43228849      -0.32410632
C       -0.17100919       0.42642801      -1.19242098
O        0.77018743      -0.54945947      -0.85690613
P        1.98466206      -0.09031291       0.27160807
O        1.75231407      -0.83385622       1.56087904
O        2.12765274       1.39754387       0.16396261
O        3.24544840      -0.83968236      -0.49646564
C       -1.60335438      -0.47555559       0.81972670
O       -2.81751296      -0.33388884       1.35777408
H       -0.52523663       0.21063763      -2.20430266
H        0.29947660       1.42826560      -1.20284132
H        3.39930991      -1.64946938       0.00451853
H       -1.25137176      -1.47635058       0.54316405
H       -0.69083668      -0.12439265       1.46289422
H       -2.84134341       1.09567285       0.48847191
16
Properties=species:S:1:pos:R:3 relative_energy_eV=0.8944797937401745 branch=right pbc="F F F"
O       -2.24673481       1.30586981      -0.49647040
C       -1.25631086       0.57162612      -0.24395779
C       -0.15698373       0.43352910      -1.22584176
O        0.76038634      -0.53645044      -0.87135614
P        1.98225450      -0.08155055       0.23564687
O        1.71796770      -0.82868888       1.51315496
O        2.13578982       1.40594396       0.13733032
O        3.26395561      -0.83711917      -0.51050024
C       -1.51114540      -0.37822127       0.92547364
O       -2.81959847      -0.04273330       1.26762157
H       -0.49669831       0.24999531      -2.27329092
H        0.26250911       1.43259312      -1.19407003
H        3.41040504      -1.64491443      -0.00190106
H       -1.33185225      -1.41674883       0.54309049
H       -0.78015110      -0.41278881       1.71223191
H       -2.86484631       0.82382571       0.55769781
16
Properties=species:S:1:pos:R:3 relative_energy_eV=0.09685550290669198 branch=right pbc="F F F"
O       -2.13150560       1.37660243      -0.58978366
C       -1.24645923       0.57748169      -0.26751219
C       -0.07145156       0.48514325      -1.18990746
O        0.81356296      -0.54499515      -0.89598288
P        1.97611089      -0.09440663       0.23625424
O        1.64777138      -0.81450720       1.50745658
O        2.14846061       1.39661006       0.09048944
O        3.26284164      -0.81913689      -0.51097873
C       -1.53373754      -0.38165666       0.90189240
O       -2.80757925      -0.11255934       1.34667430
H       -0.52217020       0.28816795      -2.16208348
H        0.44481707       1.46451177      -1.26681822
H        3.41621077      -1.63019823      -0.01712500
H       -1.47018398      -1.37127807       0.47484674
H       -0.78593573      -0.40992242       1.70348425
H       -3.07180385       0.63431116       0.71395242
16
Properties=species:S:1:pos:R:3 relative_energy_eV=-0.1490490111937106 branch=right pbc="F F F"
O       -2.13737736       1.47948331      -0.50391501
C       -1.29034921       0.60708485      -0.31228973
C       -0.07658858       0.46115764      -1.21126959
O        0.81601453      -0.56028177      -0.87807593
P        2.01265836      -0.08543421       0.25150878
O        1.69189563      -0.81446425       1.52598149
O        2.19144726       1.39905078       0.14037364
O        3.29757293      -0.83272905      -0.47898972
C       -1.55299547      -0.39010346       0.80353463
O       -2.84020792      -0.17573554       1.35491672
H       -0.52322028       0.27069126      -2.19417746
H        0.43426733       1.43355125      -1.23974884
H        3.42655799      -1.66310787      -0.00792225
H       -1.46617153      -1.41830212       0.42151416
H       -0.74737821      -0.26274593       1.54969645
H       -3.16717643       0.59605307       0.85372106
16
Properties=species:S:1:pos:R:3 relative_energy_eV=-0.18690759081800934 branch=right pbc="F F F"
O       -2.14191789       1.50146826      -0.52197934
C       -1.31853582       0.61052454      -0.32919982
C       -0.09354470       0.46518361      -1.21139205
O        0.80197375      -0.53940313      -0.84378259
P        2.01698405      -0.09232896       0.26298579
O        1.72792718      -0.83574340       1.53955241
O        2.21058295       1.38741380       0.14444251
O        3.29704008      -0.84442754      -0.47638307
C       -1.56058327      -0.37503421       0.78617735
O       -2.83709172      -0.19917554       1.37146297
H       -0.46869389       0.25008871      -2.21933211
H        0.38361271       1.45065451      -1.24384621
H        3.41899084      -1.67233029       0.00077266
H       -1.43368436      -1.38925421       0.39382598
H       -0.74412441      -0.25624966       1.51208021
H       -3.18998634       0.58278158       0.90947367
16
Properties=species:S:1:pos:R:3 relative_energy_eV=-0.194275667949114 branch=right pbc="F F F"
O       -2.18031804       1.47672374      -0.54754256
C       -1.32924014       0.61613419      -0.33948619
C       -0.09576149       0.47780694      -1.20960347
O        0.78962288      -0.52587855      -0.81873273
P        2.02000030      -0.09149285       0.27072895
O        1.74613295      -0.83810868       1.54888214
O        2.21755960       1.38904289       0.16572440
O        3.27697825      -0.86356930      -0.49522308
C       -1.54857156      -0.36869421       0.77832496
O       -2.82461147      -0.21015165       1.36622388
H       -0.45638802       0.24003076      -2.21808304
H        0.38853695       1.45969888      -1.24818012
H        3.40910873      -1.67681494       0.00507927
H       -1.42996438      -1.37967545       0.37649530
H       -0.73504560      -0.24893913       1.50600753
H       -3.17908985       0.58805552       0.93424319
16
Properties=species:S:1:pos:R:3 relative_energy_eV=-0.19635419197220472 branch=right pbc="F F F"
O       -2.19513884       1.46246352      -0.57095968
C       -1.33639456       0.61319720      -0.34654499
C       -0.09625113       0.47943962      -1.20664485
O        0.78666500      -0.52657384      -0.81414475
P        2.02076649      -0.09239589       0.27731748
O        1.75226949      -0.83762571       1.55803413
O        2.22557046       1.38717162       0.17101587
O        3.26823868      -0.86653008      -0.49845361
C       -1.54758474      -0.36714684       0.77619587
O       -2.81753735      -0.20466986       1.37425379
H       -0.45952428       0.25634324      -2.21787713
H        0.39105613       1.46019017      -1.24004788
H        3.40504396      -1.67862681       0.00160922
H       -1.42451145      -1.38003467       0.37832486
H       -0.72665789      -0.24954530       1.49529762
H       -3.17706094       0.58851188       0.93748249
16
Properties=species:S:1:pos:R:3 relative_energy_eV=-0.20052064875198994 branch=right pbc="F F F"
O       -2.24592521       1.38895871      -0.63997451
C       -1.35470164       0.58726068      -0.36993363
C       -0.09253752       0.49214224      -1.19950463
O        0.78363730      -0.52447047      -0.81381553
P        2.02131133      -0.09831645       0.27557127
O        1.74858088      -0.83407332       1.56006293
O        2.22709192       1.38113250       0.16665800
O        3.27019666      -0.87567480      -0.49606165
C       -1.54082739      -0.35750809       0.78532649
O       -2.78939328      -0.16660198       1.41785190
H       -0.42364011       0.30812026      -2.22918711
H        0.38909007       1.47960316      -1.16725009
H        3.39681882      -1.70235895      -0.01704662
H       -1.44129059      -1.37763657       0.39670111
H       -0.69612715      -0.23478972       1.47597049
H       -3.18333549       0.57838177       0.92949034
16
Properties=species:S:1:pos:R:3 relative_energy_eV=-0.2024238371377578 branch=right pbc="F F F"
O       -2.26937764       1.35881123      -0.66488190
C       -1.36424581       0.57733791      -0.38093676
C       -0.09070040       0.49574240      -1.19649445
O        0.78461952      -0.52291571      -0.81657040
P        2.02340900      -0.09961219       0.27101979
O        1.74711490      -0.83976779       1.55230863
O        2.23546927       1.37903702       0.16341531
O        3.27116353      -0.87689438      -0.49935843
C       -1.54050714      -0.35279013       0.78969096
O       -2.78195693      -0.15424141       1.43408568
H       -0.39613659       0.33782117      -2.23696152
H        0.39490845       1.47877942      -1.13956935
H        3.38405129      -1.70524393      -0.02016466
H       -1.44699956      -1.38013936       0.41873005
H       -0.69221843      -0.22259193       1.47291657
H       -3.18964505       0.57083691       0.92762927
16
Properties=species:S:1:pos:R:3 relative_energy_eV=-0.20352377900053398 branch=right pbc="F F F"
O       -2.27594053       1.34555669      -0.67413479
C       -1.36773477       0.56941957      -0.38476562
C       -0.09152155       0.49863023      -1.19569649
O        0.78390672      -0.52047371      -0.81856730
P        2.02593263      -0.10205965       0.26752165
O        1.75720382      -0.84880183       1.54717588
O        2.23592137       1.37770311       0.16340587
O        3.26576491      -0.88559029      -0.51029743
C       -1.54044547      -0.35243733       0.79498137
O       -2.79356369      -0.16067784       1.42130679
H       -0.38900269       0.35161744      -2.24095740
H        0.39197683       1.48273203      -1.12290115
H        3.38010438      -1.70708109      -0.01918229
H       -1.42709526      -1.38457946       0.44376520
H       -0.70014924      -0.19707423       1.48353037
H       -3.18640927       0.57728570       0.91967409
16
Properties=species:S:1:pos:R:3 relative_energy_eV=-0.2054520144847629 branch=right pbc="F F F"
O       -2.31422195       1.28304870      -0.72835058
C       -1.38195040       0.55335699      -0.39970616
C       -0.08981583       0.51021933      -1.18356682
O        0.77922940      -0.52311297      -0.82586433
P        2.02991210      -0.11832668       0.25745321
O        1.76247381      -0.85966408       1.53999148
O        2.24983294       1.36077545       0.16197164
O        3.26213637      -0.90515454      -0.52997659
C       -1.53779964      -0.33110225       0.80876420
O       -2.80123452      -0.16066150       1.41890996
H       -0.35941873       0.40988103      -2.23930738
H        0.39086523       1.49179491      -1.06034035
H        3.38595660      -1.72518126      -0.03903493
H       -1.38637383      -1.36880034       0.49257639
H       -0.71080109      -0.12858520       1.50008786
H       -3.20984296       0.55568226       0.90125111
16
Properties=species:S:1:pos:R:3 relative_energy_eV=-0.20705189109867206 branch=right pbc="F F F"
O       -2.31940178       1.27934044      -0.73811625
C       -1.38295428       0.55956309      -0.39758661
C       -0.08916759       0.51558596      -1.17961151
O        0.77466953      -0.52127996      -0.82054393
P        2.03140810      -0.12635726       0.25577943
O        1.75909762      -0.87575661       1.53261287
O        2.25995927       1.35154472       0.15719680
O        3.26037809      -0.91093415      -0.53837726
C       -1.53611231      -0.31716454       0.81788884
O       -2.81080972      -0.17330369       1.40991845
H       -0.36134899       0.41788528      -2.23615400
H        0.39933052       1.49295790      -1.04971295
H        3.39695650      -1.73050674      -0.05061431
H       -1.35560018      -1.35345413       0.51090750
H       -0.72267863      -0.08993716       1.51938183
H       -3.23477889       0.52598679       0.88188959
16
Properties=species:S:1:pos:R:3 relative_energy_eV=-0.20855553140791017 branch=right pbc="F F F"
O       -2.33553134       1.25890128      -0.75262897
C       -1.38776889       0.55905292      -0.40016298
C       -0.08995922       0.52378442      -1.17382644
O        0.76718502      -0.51901417      -0.81603406
P        2.03330013      -0.13779887       0.25310398
O        1.77022080      -0.89593483       1.52651051
O        2.26211575       1.34062795       0.16809498
O        3.25405964      -0.92268887      -0.55481654
C       -1.52879780      -0.29962584       0.83010636
O       -2.81319448      -0.17409532       1.40539280
H       -0.35215365       0.43946028      -2.23328917
H        0.39774086       1.50031573      -1.03251001
H        3.38822880      -1.74138847      -0.06450120
H       -1.31676852      -1.33643873       0.54921347
H       -0.72618611      -0.03604648       1.53133773
H       -3.25354416       0.48505922       0.83886777
16
Properties=species:S:1:pos:R:3 relative_energy_eV=-0.20893663062088308 branch=right pbc="F F F"
O       -2.34471193       1.23773919      -0.76796124
C       -1.38937141       0.55534239      -0.40386609
C       -0.08928732       0.52757215      -1.17320355
O        0.76803970      -0.51603133      -0.81904117
P        2.03256185      -0.14006838       0.25409959
O        1.77260059      -0.90200390       1.52596764
O        2.26337677       1.33852278       0.17495483
O        3.24845976      -0.92568493      -0.55875309
C       -1.52473858      -0.29221623       0.83504266
O       -2.80928580      -0.16679435       1.41132470
H       -0.34511264       0.45129238      -2.23465867
H        0.39784972       1.50220370      -1.01888882
H        3.38083676      -1.74758448      -0.07341993
H       -1.30862822      -1.32977497       0.55880700
H       -0.72434361      -0.02044839       1.53510830
H       -3.25929891       0.47210477       0.82934604
16
Properties=species:S:1:pos:R:3 relative_energy_eV=-0.20957035237006494 branch=right pbc="F F F"
O       -2.35327684       1.21347487      -0.78810164
C       -1.39069355       0.54908188      -0.40987842
C       -0.08774458       0.52898904      -1.17359040
O        0.77201119      -0.51378397      -0.82406304
P        2.02926126      -0.14396206       0.26023273
O        1.75731843      -0.92348120       1.51869968
O        2.26120754       1.33542108       0.20024675
O        3.25334699      -0.91492599      -0.55408985
C       -1.51607995      -0.27895654       0.84167327
O       -2.80281493      -0.16324311       1.41376758
H       -0.34090781       0.45589800      -2.23533701
H        0.39370648       1.50627880      -1.01130697
H        3.35864037      -1.76054613      -0.10371165
H       -1.28211690      -1.31702329       0.58307678
H       -0.72093880       0.01562184       1.53886784
H       -3.26197205       0.45532812       0.81837240
16
Properties=species:S:1:pos:R:3 relative_energy_eV=-0.20996630109948455 branch=right pbc="F F F"
O       -2.35494315       1.20584765      -0.79184705
C       -1.38853777       0.54821845      -0.41190472
C       -0.08639710       0.52906128      -1.17892222
O        0.77439887      -0.51265072      -0.82766980
P        2.02504737      -0.14681864       0.26681296
O        1.75098264      -0.93476235       1.51959070
O        2.24937747       1.33379930       0.21510582
O        3.25794374      -0.90552880      -0.54622731
C       -1.51131980      -0.27501266       0.84382807
O       -2.80009804      -0.16502637       1.41362295
H       -0.34191474       0.45441537      -2.24045052
H        0.39486060       1.50698137      -1.02107666
H        3.35000873      -1.76497164      -0.11975641
H       -1.27238844      -1.31328608       0.59146127
H       -0.71869626       0.02668609       1.54074887
H       -3.25937709       0.45721951       0.82154198
16
Properties=species:S:1:pos:R:3 relative_energy_eV=-0.21027443264392787 branch=right pbc="F F F"
O       -2.34262371       1.22934595      -0.77791121
C       -1.38373063       0.55361839      -0.40979235
C       -0.08669605       0.52113742      -1.18633985
O        0.77486567      -0.51801369      -0.82997435
P        2.01733211      -0.14734377       0.27209169
O        1.74525446      -0.94386196       1.51956309
O        2.22803674       1.33556106       0.23086630
O        3.25984800      -0.89154426      -0.54002258
C       -1.50857055      -0.27761566       0.84105915
O       -2.79696075      -0.16871929       1.41195757
H       -0.34979911       0.43370230      -2.24523892
H        0.39809531       1.49906529      -1.04295673
H        3.35214348      -1.75576230      -0.12295369
H       -1.26838912      -1.31442160       0.58257687
H       -0.71802632       0.02177372       1.54151039
H       -3.25183211       0.46725042       0.83042239
16
Properties=species:S:1:pos:R:3 relative_energy_eV=-0.21118698358623078 branch=right pbc="F F F"
O       -2.34800518       1.20903521      -0.80013358
C       -1.38215174       0.54998785      -0.42148128
C       -0.08549709       0.51229671      -1.19646823
O        0.76769579      -0.53307737      -0.83726599
P        1.99220313      -0.16769885       0.28418696
O        1.72866127      -1.00295045       1.50716459
O        2.17066029       1.32019342       0.28606432
O        3.25651307      -0.85857416      -0.53763133
C       -1.49134979      -0.25417292       0.84794801
O       -2.78124946      -0.15783215       1.41707241
H       -0.33813975       0.43396454      -2.25767105
H        0.40425919       1.48523661      -1.03814448
H        3.35502567      -1.73947170      -0.15908892
H       -1.23182330      -1.29117332       0.61455220
H       -0.70181321       0.07466386       1.53692042
H       -3.24604098       0.46374640       0.82883305
16
Properties=species:S:1:pos:R:3 relative_energy_eV=-0.21324110574278166 branch=right pbc="F F F"
O       -2.36573489       1.17021888      -0.83125310
C       -1.38851296       0.54094193      -0.43451703
C       -0.08841046       0.50797833      -1.20136697
O        0.75614781      -0.54530884      -0.84053628
P        1.97823319      -0.19479009       0.29071544
O        1.73090466      -1.07894726       1.48356876
O        2.12638387       1.29712130       0.34003339
O        3.26068516      -0.83278844      -0.55239553
C       -1.48380870      -0.23031185       0.85511003
O       -2.76670224      -0.11821887       1.43596006
H       -0.33308052       0.44345268      -2.26535850
H        0.40479864       1.47767306      -1.02810274
H        3.39798307      -1.70654265      -0.16694335
H       -1.22590685      -1.27153445       0.63618079
H       -0.69321384       0.11785977       1.53297158
H       -3.24081765       0.46737153       0.82078966
16
Properties=species:S:1:pos:R:3 relative_energy_eV=-0.21610203642921988 branch=right pbc="F F F"
O       -2.36188021       1.16699387      -0.84302587
C       -1.38593254       0.53870240      -0.43907006
C       -0.08776974       0.49397702      -1.21443985
O        0.76421382      -0.55335721      -0.85700962
P        1.96590035      -0.21887941       0.29848912
O        1.73311924      -1.16322022       1.44565591
O        2.07373084       1.27149681       0.41728360
O        3.27251993      -0.78849423      -0.55244904
C       -1.48365153      -0.21452904       0.86122283
O       -2.76419122      -0.08634547       1.44550364
H       -0.34755949       0.41248499      -2.27367764
H        0.40043268       1.46856991      -1.05844653
H        3.44767104      -1.65782722      -0.17482652
H       -1.23127740      -1.26034948       0.66060074
H       -0.68735302       0.13629601       1.53012731
H       -3.23902370       0.49865780       0.82891714
16
Properties=species:S:1:pos:R:3 relative_energy_eV=-0.21667529689875664 branch=right pbc="F F F"
O       -2.35493560       1.17806081      -0.84030336
C       -1.38558868       0.53736157      -0.43961909
C       -0.08728300       0.48772939      -1.21426572
O        0.76342618      -0.55766318      -0.85065617
P        1.96669604      -0.22043226       0.30271035
O        1.74113015      -1.16945840       1.44837172
O        2.07085963       1.27068070       0.42659903
O        3.27167533      -0.77923396      -0.56082590
C       -1.49058084      -0.21870797       0.85994911
O       -2.76999279      -0.07952478       1.44381657
H       -0.34402190       0.40068121      -2.27350270
H        0.39856088       1.46399421      -1.06419357
H        3.46793182      -1.64442976      -0.18442642
H       -1.24892655      -1.26757746       0.66266395
H       -0.69130973       0.12797639       1.52766566
H       -3.23869185       0.51472019       0.83087163
16
Properties=species:S:1:pos:R:3 relative_energy_eV=-0.2187496870137693 branch=right pbc="F F F"
O       -2.36169172       1.13871188      -0.89033092
C       -1.39119266       0.52956611      -0.44961218
C       -0.07774363       0.46728888      -1.19846682
O        0.75082580      -0.58524061      -0.80702224
P        1.97363624      -0.24779878       0.32128870
O        1.80775438      -1.25582314       1.42513996
O        2.02488889       1.23986223       0.50888463
O        3.27945479      -0.71464720      -0.59744643
C       -1.50861362      -0.18561351       0.87284814
O       -2.79355680      -0.03068419       1.43988783
H       -0.31452693       0.37370490      -2.26203450
H        0.41656130       1.43977865      -1.04686438
H        3.50094912      -1.60186752      -0.29097843
H       -1.25915112      -1.23971204       0.70852712
H       -0.71935147       0.18146626       1.54221119
H       -3.25929294       0.53518723       0.79882240
16
Properties=species:S:1:pos:R:3 relative_energy_eV=-0.22211919383335044 branch=right pbc="F F F"
O       -2.36142945       1.10811718      -0.94386686
C       -1.40201982       0.51382237      -0.45784155
C       -0.06657516       0.43245985      -1.15928491
O        0.72604081      -0.63304043      -0.72944828
P        2.00546394      -0.28586972       0.33314435
O        1.95026581      -1.34639560       1.39602396
O        2.01013707       1.19534674       0.57586861
O        3.27615639      -0.64647583      -0.68176240
C       -1.55455247      -0.14689390       0.89090636
O       -2.85816575       0.02505734       1.40931841
H       -0.25704690       0.35186682      -2.23232031
H        0.43197429       1.39732480      -0.97224535
H        3.55857057      -1.53222206      -0.42386129
H       -1.29312487      -1.20386798       0.78548879
H       -0.78818680       0.26453029       1.56030257
H       -3.30855810       0.55042171       0.72443084
16
Properties=species:S:1:pos:R:3 relative_energy_eV=-0.23269618459016783 branch=right pbc="F F F"
O       -2.31115368       1.08789903      -1.03897998
C       -1.40329845       0.48665631      -0.46810146
C       -0.03584179       0.31435953      -1.08071024
O        0.68653525      -0.75168765      -0.52969237
P        2.06320230      -0.35811892       0.38805338
O        2.27916741      -1.52912893       1.30548188
O        1.93155463       1.07869861       0.79971486
O        3.22591602      -0.41119718      -0.81611643
C       -1.65473151      -0.08873564       0.90403559
O       -2.96486098       0.18765796       1.35275627
H       -0.16721141       0.17814991      -2.15848191
H        0.47914445       1.27518587      -0.91920057
H        3.64973045      -1.28006642      -0.72855194
H       -1.46682892      -1.16704976       0.85180580
H       -0.89053658       0.30894994       1.58560817
H       -3.35183650       0.71261590       0.62722902
16
Properties=species:S:1:pos:R:3 relative_energy_eV=-0.23752595555924927 branch=right pbc="F F F"
O       -2.28841676       1.07086317      -1.07032482
C       -1.39884967       0.47624635      -0.46738815
C       -0.02399395       0.28056439      -1.04962805
O        0.67509004      -0.78045611      -0.46239028
P        2.08300569      -0.38292877       0.39739113
O        2.38258762      -1.58721358       1.23942608
O        1.92141924       1.02824601       0.88433174
O        3.18352043      -0.34635836      -0.86386459
C       -1.68478676      -0.06556335       0.91191391
O       -2.99778196       0.24406264       1.33087786
H       -0.14007334       0.12332581      -2.12517816
H        0.50162199       1.23706451      -0.90462696
H        3.66169482      -1.18187681      -0.81109883
H       -1.51309955      -1.14731054       0.89362088
H       -0.92589346       0.33548059       1.59497956
H       -3.36709357       0.74004503       0.57680764
16
Properties=species:S:1:pos:R:3 relative_energy_eV=-0.23872446620225674 branch=right pbc="F F F"
O       -2.28422257       0.99271428      -1.12656121
C       -1.39795131       0.44741245      -0.47545218
C       -0.00826466       0.24985845      -1.01548346
O        0.66943366      -0.81301580      -0.40445286
P        2.10329262      -0.41589208       0.41185331
O        2.48088059      -1.65440416       1.16806503
O        1.92046820       0.96074427       0.98137501
O        3.13912377      -0.26818967      -0.89653146
C       -1.70262934      -0.02075927       0.92581270
O       -3.02400259       0.30277900       1.30572589
H       -0.08834592       0.09781724      -2.09475726
H        0.51335032       1.20568543      -0.85048369
H        3.61755728      -1.10521528      -0.93588181
H       -1.52589131      -1.10080786       0.96693355
H       -0.95643068       0.42079415       1.59725407
H       -3.38741712       0.74467336       0.51743211
16
Properties=species:S:1:pos:R:3 relative_energy_eV=-0.23895964289840776 branch=right pbc="F F F"
O       -2.27452209       0.99566568      -1.13001291
C       -1.39259921       0.44641911      -0.47667313
C       -0.00420900       0.23631287      -1.01647240
O        0.66971138      -0.82417839      -0.39730916
P        2.09961121      -0.42294488       0.42274977
O        2.49127715      -1.67001425       1.15739725
O        1.90530095       0.94308041       1.01461142
O        3.12658692      -0.23625873      -0.88665102
C       -1.70021766      -0.01544225       0.92556035
O       -3.02137181       0.31058260       1.30419220
H       -0.08757664       0.07277934      -2.09407125
H        0.52152625       1.19166352      -0.86445939
H        3.59625092      -1.07473910      -0.96674357
H       -1.52595434      -1.09590426       0.96970707
H       -0.95333642       0.42748303       1.59538694
H       -3.38152641       0.75969098       0.51763525
16
Properties=species:S:1:pos:R:3 relative_energy_eV=-0.2453639920349815 branch=right pbc="F F F"
O       -2.23994589       1.09771293      -1.07468793
C       -1.36373031       0.47043325      -0.48180116
C       -0.01445717       0.20126470      -1.10137947
O        0.67730973      -0.85833624      -0.50352392
P        2.01009182      -0.44877419       0.46072081
O        2.40189152      -1.72208642       1.14568147
O        1.71281484       0.86854615       1.11428244
O        3.12949359      -0.12530092      -0.73798102
C       -1.63659456      -0.03724726       0.90776932
O       -2.90926198       0.36828684       1.36813727
H       -0.18462714      -0.00665742      -2.16175913
H        0.53764690       1.14826348      -1.03252666
H        3.60013685      -0.95038815      -0.88859637
H       -1.54557251      -1.13056464       0.89082167
H       -0.82264863       0.31329673       1.55687217
H       -3.28359417       0.85574975       0.61281695
16
Properties=species:S:1:pos:R:3 relative_energy_eV=-0.25155411020023166 branch=right pbc="F F F"
O       -2.22289239       1.12451256      -1.06358194
C       -1.35242445       0.47998016      -0.48455185
C       -0.02179014       0.18277565      -1.13757407
O        0.67656401      -0.88621865      -0.56136245
P        1.96772299      -0.49911242       0.46104098
O        2.38758647      -1.80092135       1.07534647
O        1.59987561       0.75221413       1.20275119
O        3.10651638      -0.06122387      -0.68443544
C       -1.60857719      -0.01557121       0.90997937
O       -2.88221859       0.37733151       1.38102952
H       -0.22838053      -0.03376523      -2.18995462
H        0.54490647       1.12181424      -1.10297203
H        3.64854023      -0.84449098      -0.82874489
H       -1.50354566      -1.10572300       0.91276486
H       -0.79247674       0.35661539       1.54152708
H       -3.25045314       0.89598419       0.64358251
16
Properties=species:S:1:pos:R:3 relative_energy_eV=-0.25220449917469523 branch=right pbc="F F F"
O       -2.21019451       1.14566657      -1.05467130
C       -1.34788643       0.48495986      -0.48134057
C       -0.02264508       0.17503405      -1.13903045
O        0.67515451      -0.89049839      -0.55653273
P        1.96741525      -0.49781211       0.46187778
O        2.40687348      -1.80008143       1.06052121
O        1.59262257       0.74577334       1.21356794
O        3.09933931      -0.04690411      -0.68756649
C       -1.61264901      -0.02160080       0.90835171
O       -2.88230912       0.38381391       1.38033519
H       -0.23851224      -0.05363317      -2.18684736
H        0.54789984       1.11170697      -1.12240904
H        3.65472943      -0.82554791      -0.81106682
H       -1.52465029      -1.11331423       0.89911277
H       -0.79393947       0.33465807       1.54497320
H       -3.24229474       0.91198051       0.64556953
