12
Properties=species:S:1:pos:R:3 pbc="F F F"
O        1.03227896      -0.15584148      -2.11249127
C        0.69594743       0.38583113      -1.76814615
C        0.31940183       0.30425376       1.10718940
O        0.98401317       0.85335918       2.11473654
C       -0.52387377      -0.34467051       1.08471430
O       -1.20042707      -0.70165913      -0.22908343
H        0.87390118       0.73858624      -0.44784672
H        0.79548806       0.68954940      -0.35425225
H       -0.31257821       1.09178090      -2.04497667
H       -1.48663854       0.01506581       1.65829059
H       -0.36630742      -1.39470412       1.83869996
H       -0.81578701      -1.48335526      -0.86341492
