16
Properties=species:S:1:pos:R:3 pbc="F F F"
C       -0.92472800       1.12885851      -1.21134329
C       -0.08489995      -0.09149711      -0.66039839
O       -0.67049065      -0.99170800      -1.55943347
N        1.04962338       0.01091459      -1.50868284
C        0.01802074      -0.85472868       1.91474058
N       -0.25062891      -0.20650080       0.60837548
H       -0.68753282       1.42821515      -0.18999290
H       -0.69172615       1.98555727      -1.84413034
H       -1.99312406       0.95773898      -1.27881282
H        1.61793790       0.84019581      -1.32735936
H        1.66878104      -0.71294520      -1.83422481
H        0.90096557      -0.97548394       2.57201878
H       -0.55152579      -0.93123887       2.85344825
H       -0.03292962      -1.95378894       1.84901149
H       -0.11941968       0.55440841       1.29320567
H        0.75167700      -0.18799719       0.32357796
