16
Properties=species:S:1:pos:R:3 pbc="F F F"
C       -1.39905920       1.08208020      -1.72415012
C        0.29639498       0.16290398      -1.33938774
O       -0.47062572      -0.52039978      -2.09013328
N        1.58299785       0.19311536      -1.69241804
C        0.01982854      -1.18252697       2.55311736
N       -0.12650179       0.07535176       1.82425717
H       -1.57594563       1.36137860      -0.68969254
H       -0.93201923       1.84346791      -2.34111247
H       -2.29603931       0.68341144      -2.19233864
H        2.27613489       0.63622010      -1.11686307
H        1.89003344      -0.40699521      -2.45102571
H        0.97489677      -1.70510071       2.39879033
H       -0.09094940      -1.01038407       3.62481708
H       -0.78065196      -1.86451041       2.26549174
H        0.57463164       0.73198484       2.13983751
H        0.05687843      -0.07999528       0.83079631
