35
Properties=species:S:1:pos:R:3 pbc="F F F"
O       -1.51018991      -5.41732799      -2.70840893
P       -0.16348116      -5.10208666      -2.13252026
O        1.16624624      -5.43650264      -2.74171753
O       -0.17822414      -5.67567287      -0.55275902
O       -0.08418251      -3.44563446      -1.82559004
C       -1.20420494      -2.85048453      -1.19902530
C       -1.41554464      -1.49476349      -1.81665178
O       -2.48267901      -1.11780078      -2.28169966
C       -0.23039094      -0.53634269      -1.91648040
O       -0.33204455       0.13553228      -3.17371949
C       -0.28013070       0.47819395      -0.75632235
O       -0.31579679      -0.28758315       0.42904543
C        0.89207986       1.47478015      -0.77175197
O        0.96888167       2.22878874      -1.98017922
C        0.75986102       2.49789132       0.33766978
O        0.78402963       1.83542066       1.59723417
P        0.93476680       2.78943332       2.97296037
O        0.29769908       4.12126023       2.70572296
O        0.59532529       1.88237129       4.12571928
O        2.58673234       3.01962764       2.96899749
O       -1.39842087       3.88948413       5.18129071
H        0.75027907      -5.79499701      -0.32061522
H       -2.11308224      -3.44314967      -1.31927083
H       -1.00109221      -2.69857783      -0.13263172
H        0.70346593      -1.09254711      -1.88988032
H       -1.29060039       0.16400066      -3.34512093
H       -1.20525536       1.06189092      -0.87657197
H       -0.06798395       0.31107958       1.15733921
H        1.81349969       0.90133193      -0.60399871
H        0.61710961       1.65922659      -2.68559234
H       -0.17147501       3.05267384       0.21918816
H        1.58192086       3.20990542       0.26954110
H        2.94661973       2.33416490       3.54399846
H       -0.90090699       3.05417321       5.15645301
H       -1.05282323       4.29225654       4.36534543
