16
Properties=species:S:1:pos:R:3 pbc="F F F"
O       -1.32259009       1.84441149      -2.12466166
C       -1.63027156       0.72133228      -1.33557264
C       -2.02368417       0.98383177       0.03793984
O       -3.17602158       0.32056773       0.49675774
C       -0.70591940       0.26022796      -0.21120282
O        4.36510525      -1.39442015       1.36993886
C        0.43717988      -0.27724567       0.23488875
O        0.68119594      -1.57731728       0.55838921
H       -3.09986943       0.21282068       1.45018747
H       -1.93459886       2.01850067       0.37447870
H       -0.68247880       1.57603118      -2.79257019
H       -2.19534548      -0.05486769      -1.85672877
H        5.00381447      -2.11600113       1.39411988
H        4.88555910      -0.59169987       1.52037206
H        1.39133856       0.19414989       0.43335004
H       -0.16987124      -2.01545819       0.41273315
