16
Properties=species:S:1:pos:R:3 pbc="F F F"
O        1.33907866       3.33999882       1.56527146
C        0.88848209       2.66486962       0.66922419
C        0.49878972       2.55211090      -0.74227726
O        0.81616505       3.84597699      -1.12248391
O       -0.57174182      -0.85551775       0.79510110
C       -1.13655059      -1.85165010       0.41037545
C       -0.41536161      -3.10763342       0.01070641
O       -1.27355133      -3.88213666      -0.80755627
H        0.73658114       1.75704332       1.27053929
H        1.04117610       1.70984233      -1.16591674
H       -0.46512048       2.54377673      -0.26058595
H        1.24714555       4.36270438      -0.41880496
H       -2.24070656      -1.91374396       0.34141344
H        0.52055187      -2.82810121      -0.48148069
H       -0.15146505      -3.62313091       0.94492351
H       -0.83347181      -4.71440767      -1.00844975
