16
Properties=species:S:1:pos:R:3 pbc="F F F"
O        1.48725771       3.48267012       1.40480906
C        0.93041570       2.55022669       0.85868341
C        0.49998791       2.63741870      -0.57255881
O        0.82128199       3.87894441      -1.13465649
O       -0.73416641      -0.87358088       0.93731068
C       -0.92350085      -1.96246104       0.41329052
C       -0.45191218      -3.22612894      -0.13549231
O       -1.39196616      -3.96293424      -0.88366101
H        0.71903579       1.60684982       1.38770382
H        0.97440026       1.80995182      -1.12309156
H       -0.58293376       2.44179338      -0.61620222
H        1.25249178       4.36855133      -0.41124247
H       -2.02899310      -1.93606274       0.34759203
H        0.49745117      -2.84098721      -0.47528070
H       -0.23986279      -3.25697762       1.01029642
H       -0.82898611      -4.71727216      -1.00750104
