16
Properties=species:S:1:pos:R:3 pbc="F F F"
C       -0.53030651       0.38365404      -1.77720313
C       -1.51564361      -0.67064955      -1.35671000
O       -2.57976297      -1.51678249      -1.42975580
N       -1.30884886      -1.15774106      -0.11286916
C        1.78930599       0.83174709       0.85373637
N        0.81818213       0.25076870       1.77795581
H       -1.45340158       0.63878790      -1.10015359
H        0.45810251      -0.00512063      -1.66385922
H       -1.06166167       0.42184323      -2.69347530
H       -0.66465306      -0.78222332       0.56647879
H       -1.71861400      -1.90142529       0.41320554
H        2.60927540       1.38021958       1.33056879
H        2.21788999       0.03699644       0.24575724
H        1.27256608       1.50791903       0.17532715
H        1.26968468      -0.38769016       2.41912659
H        0.39787926       0.96969201       2.35188319
