16
Properties=species:S:1:pos:R:3 pbc="F F F"
C        1.32881789       0.77516564      -1.49560087
C        0.22285180      -0.23184600      -1.24003575
O        0.34999534      -1.36208599      -1.82842143
N       -1.02200303       0.28909241      -0.87400708
C       -0.61417877      -0.84717451       1.97528265
N        0.27994697       0.17487295       1.51625133
H        1.21779363       1.63603829      -0.84187991
H        2.28580646       0.29966762      -1.30714538
H        1.28678670       1.09723641      -2.53562461
H       -1.05902007       0.95204604      -0.11981487
H       -1.86944982      -0.14661308      -1.23582370
H       -1.66763921      -0.53437553       2.02153485
H       -0.55999032      -1.72800075       1.32882672
H       -0.34786761      -1.18524547       2.98121074
H        0.03330840      -0.17453575      -0.47791167
H        0.13484012       0.98575690       2.13316084
