12
Properties=species:S:1:pos:R:3 pbc="F F F"
C       -0.53633513      -0.77067035      -0.55798083
O       -1.46279618      -1.19860822      -1.62355164
O        0.05287491       2.94491664      -0.12157489
C       -0.04249131      -1.26599866      -0.03018071
C        0.95187527      -0.82590172       1.11286741
O        1.10990650       0.36973613       1.35544431
H        0.66945293       1.79365892       0.66845479
H       -0.67211551       0.44775747      -0.64274738
H        0.25395269       3.23402142       0.21605013
H        0.05621812      -2.47622049       0.01521675
H        1.51669097      -1.56517535       1.70993323
H       -1.93120815      -0.51673084      -2.12094262
