16
Properties=species:S:1:pos:R:3 pbc="F F F"
O        0.37257602      -0.52251861      -2.02201173
C       -0.35407887      -0.45776794      -0.82721531
C       -0.74806784       0.90696176      -0.47156973
O       -2.00984963       1.40269468      -0.09116300
C       -0.16815448       0.00172381       0.55321483
O       -0.97785949      -0.54782552       1.54145749
C        1.31179541       0.00663836       0.77651402
O        1.65736955      -1.32807346       0.70755399
H       -2.65569906       1.30941215      -0.79167957
H       -0.17137103       1.74174733      -0.83598615
H        0.98164491      -1.14011432      -1.59854964
H       -1.28015708      -0.96956124      -0.96847996
H       -1.72813076       0.05707781       1.58521217
H        1.45598954       0.23746250       1.83478025
H        1.80908493       0.74605046       0.14264667
H        2.49434768      -1.25199209       0.42408281
