16
Properties=species:S:1:pos:R:3 pbc="F F F"
O       -2.68970901       0.27042286       0.14868299
C       -2.43346072       1.14533945      -0.97688558
C       -0.69093635      -0.85882023       0.72115748
O       -1.12279230      -1.22620191       1.52214069
C        0.25010924       0.07209192       0.19096058
O        0.15144899       0.43220447      -1.19206480
C        1.63607288      -0.45165745       0.50606949
O        2.53256529       0.60063992       0.14926081
H       -1.83540790       1.34620724      -1.79764054
H       -1.30801790      -1.71841278      -0.49262007
H       -2.55562071       0.42386726       0.00578380
H        0.08464098       0.95252807       0.82367156
H        0.92280290       0.97953180      -1.39328074
H        1.83301802      -1.34800742      -0.08837627
H        1.70236459      -0.70753900       1.56516516
H        3.43632118       0.28489608       0.24041730
