12
Properties=species:S:1:pos:R:3 pbc="F F F"
C        1.06020723      -0.86074371      -0.89883757
C       -0.05775785      -0.26685973      -1.61930455
O       -0.29312685      -1.22321079      -0.56984974
O        0.19556464       1.72420195       1.10059601
C       -0.57840327       1.23009286       1.88976250
O       -1.15875204       0.03051339       1.80737826
H        1.57255088      -0.26923837      -0.15229980
H        1.63837130      -1.65485605      -1.35515278
H       -0.31152121      -0.61910174      -2.61157084
H       -0.34583073       0.74975874      -1.38863472
H       -0.87263912      -0.43178752       0.98402085
H       -0.91150381       1.73179813       2.80988484
