12
Properties=species:S:1:pos:R:3 pbc="F F F"
C        0.56851764       0.12022175      -1.79640303
C       -0.00339636      -1.07414811      -1.84119056
O        0.01689591      -1.02105588       1.35729227
O       -0.18062615      -0.18310211       2.51764896
C       -0.41182428       1.09852910       2.19340583
O       -0.45661253       1.54486590       1.07466849
H        0.00283801       1.03272729      -1.92493209
H        1.62998688       0.23316502      -1.62533678
H        0.57096951      -1.98489245      -1.73590547
H       -1.07076233      -1.19045065      -1.97176704
H       -0.05493976      -0.36449533       0.62405538
H       -0.54819099       1.64805304       3.13245847
