12
Properties=species:S:1:pos:R:3 pbc="F F F"
C        0.56453396       0.10267931      -1.60909933
C       -0.17900796      -1.09449513      -1.27215269
O        0.42664819      -0.28850043      -0.18310080
O        0.14516930      -0.12179293       1.94287701
C       -0.54879809       0.77357475       2.48241239
O       -0.64527883       1.61158315       1.43430345
H        0.24088293       0.56080618      -2.54393953
H        1.65249027       0.09901224      -1.62113023
H        0.35525282      -1.99231397      -0.97666413
H       -0.94696573      -1.36097132      -1.99594602
H       -0.16283937       0.96528856       0.82477724
H       -0.90208748       0.74512959       3.51766265
