16
Properties=species:S:1:pos:R:3 pbc="F F F"
C        1.47911815      -1.07248040      -1.37281728
C        0.71856204       0.17996514      -1.42140712
O        0.65723480       1.39497339      -1.24712982
N       -0.55464328      -0.04761990      -1.86472774
C       -1.25980971       0.41423281       1.96956709
N        0.16632697       0.23057042       1.72895209
H        2.44594755      -0.61067516      -1.32345192
H        1.13719072      -0.96033103      -0.32316101
H        1.28925383      -1.82224846      -2.13350923
H       -1.00701726      -0.93438180      -1.83463487
H       -1.29929511       0.61545487      -1.91843765
H       -1.65922247      -0.45658840       2.48900598
H       -1.51911510       1.30112267       2.56255959
H       -1.79224239       0.48691835       1.02150373
H        0.67540487       0.24194219       2.60325726
H        0.52319738       1.00789610       1.18686340
