16
Properties=species:S:1:pos:R:3 pbc="F F F"
C        1.48011700      -0.65270234      -0.79381670
C        0.34656915       0.28912145      -0.47676587
O        0.75267994       1.64881257      -0.65631786
N       -0.76720961      -0.53614656      -0.96004592
C       -1.10890198       0.54287080       1.52235261
N        0.12857018       0.05780548       0.92625311
H        2.35052042      -0.24856792      -0.28092980
H        1.47914526      -1.71668293      -0.56287893
H        1.70512656      -0.60063186      -1.85741416
H       -0.72167406      -0.74837917      -1.94478070
H       -1.69346403      -0.14500695      -0.92239652
H       -1.98064159      -0.10533632       1.36892723
H       -1.02964697       0.70696801       2.59552206
H       -1.35280821       1.50692698       1.08250101
H        0.30153630      -0.84436072       1.35109506
H        0.16338772       0.95732283      -0.68906686
