16
Properties=species:S:1:pos:R:3 pbc="F F F"
C        1.58381713      -0.57473006      -0.81993495
C        0.36084619       0.11864954      -0.32506511
O        0.56512841       1.49978117      -0.53196480
N       -0.80562085      -0.66698898      -1.01378466
C       -1.05469052       0.63302751       1.49709696
N        0.14649860      -0.08135139       1.14024284
H        2.44969692      -0.21428387      -0.26941927
H        1.52523214      -1.65514705      -0.72298509
H        1.71492137      -0.29891252      -1.86231128
H       -0.69063123      -0.60735070      -2.02081459
H       -1.69154246      -0.21735013      -0.78138256
H       -1.98432350       0.05695378       1.38543282
H       -1.01607928       1.00326418       2.52696772
H       -1.07842123       1.48819443       0.82643084
H        0.09950633      -1.07171740       1.33797453
H       -0.07103075       0.69997388      -0.66424501
