16
Properties=species:S:1:pos:R:3 pbc="F F F"
O       -1.22997244       0.26461263      -2.92983285
C       -0.61384111      -0.40309917      -1.73577565
C       -0.06433581       0.58396134      -0.62874963
O       -1.04680220       1.77294215      -0.47595691
C        0.10612976       0.06244751       0.78658000
O       -1.01740180      -0.26920621       1.46746363
C        1.39018063      -0.45440423       1.41338712
O        1.31311891      -0.29881043       2.89178815
H       -1.57605844       1.75616727      -1.31406353
H        0.96041904       0.95747192      -0.95000518
H        2.01641246      -0.85130071       3.29311051
H       -1.23171585      -1.27564848      -1.31260321
H       -1.75892830       0.19358009       1.02164561
H        2.31215533       0.02291701       0.96086343
H        1.39891524      -1.56956242       1.19172657
H       -1.13006689      -0.41405488      -3.66346941
