16
Properties=species:S:1:pos:R:3 pbc="F F F"
C       -0.85282391      -0.95135637      -1.00443676
C       -0.03890407       0.14009320      -1.22985222
C        1.05931845       0.24907472      -0.34593814
C        1.58777220       1.49994290      -0.15795093
C       -0.80190625      -0.97001365       1.44685617
C       -0.80788123       0.26364531       0.85754959
H       -0.57820944      -1.80942023      -0.41223885
H       -1.55850972      -1.11261751      -1.80348586
H       -0.23412185       0.92082633      -1.95825696
H        1.31079545      -0.41561617       0.47066909
H        1.65271689       2.20032790      -0.97068332
H        2.54923818       1.62065943       0.30296358
H       -1.49562928      -1.36840000       2.17391042
H        0.15212956      -1.43252352       1.65485618
H       -1.84556955       0.56120412       0.85248298
H       -0.09841544       0.60417356       0.12355503
