16
Properties=species:S:1:pos:R:3 pbc="F F F"
C        0.43110523      -1.08302921      -2.16834240
C        0.36060248       0.33434190      -1.57177507
O        1.30691928       1.11028476      -1.59993418
N       -0.94137308       0.72660771      -1.10977355
C        0.25543052      -0.41219078       2.53694191
N       -0.42182941       1.00348014       2.17779939
H        1.46395013      -1.31917225      -2.44965092
H        0.07305103      -1.86489141      -1.48485165
H       -0.21354385      -1.12494591      -3.06655903
H       -1.58623779       0.78442708      -1.90592160
H       -0.85517559       1.63949021      -0.65084712
H        0.03707046      -0.72999694       3.59615085
H       -0.15064336      -1.17675507       1.80875627
H        1.36375223      -0.55376523       2.50048322
H       -1.27606816       0.71845672       1.45339068
H        0.15301311       1.94783798       1.93383302
