16
Properties=species:S:1:pos:R:3 pbc="F F F"
O        0.01946527      -0.78265942      -2.54740267
C        0.52274138       0.21041296      -1.66880234
C        1.85452718      -0.02146867      -0.97546878
O        2.75488767       1.05878448      -0.84687103
C        0.61510056       0.01281907      -0.24395752
O       -2.56446971       0.21464253       2.76351103
C       -0.05863185      -0.22345388       0.88558685
O       -1.36609912      -0.31370997       1.02630447
H        3.28954368       1.07485449      -1.64729790
H        2.33536539      -0.98395483      -1.15426284
H       -0.66469073      -1.24055778      -2.05110796
H        0.36463267       1.21847553      -2.04178472
H       -2.08863182       0.65008621       1.86670739
H       -3.51268077       0.14680437       2.59730690
H        0.56147461      -0.37481181       1.76860309
H       -2.06255018      -0.64626687       2.26891162
