12
Properties=species:S:1:pos:R:3 pbc="F F F"
O        1.02283463      -1.01621990       1.00030780
C        1.09190612       0.33198427       0.52162918
C        0.14753897       0.65004873      -0.62507144
O        0.48717423       1.39299540      -1.52286102
C       -1.23026799       0.02078336      -0.60280563
O       -1.66456004      -0.46350709       0.64739791
H        1.42923129      -1.59085552       0.34045419
H        2.10196168       0.61757189       0.23292566
H        0.79397044       0.95819527       1.36400286
H       -1.22074294      -0.76133413      -1.37549421
H       -1.93597325       0.77587552      -0.94468542
H       -0.95975049      -1.03519878       0.99287144
