12
Properties=species:S:1:pos:R:3 pbc="F F F"
O        1.14929355       0.81345280      -1.59418289
C       -0.03634603       0.80494007      -1.44010148
C       -0.69501649      -0.49024462      -1.04420664
O       -1.74116206      -0.40488670      -0.09584744
C        0.31370431       1.14387372       2.98737649
O       -0.26697640       0.19908815       2.75262878
H       -0.60916691       1.74821177      -1.31257171
H        0.10659496      -1.21682560      -0.90707875
H       -1.19348654      -0.77093560      -1.97887584
H       -0.74954584      -0.21062616       0.53868231
H        1.97826856      -0.60030071       1.16161869
H        1.87428676      -1.20332754       0.76586218
