12
Properties=species:S:1:pos:R:3 pbc="F F F"
O        2.06813963      -1.80056831       0.29387809
C        1.69431868      -0.52190289       0.51708526
C        0.35104931      -0.21275015       0.54929059
O       -0.05162429       1.07941072       0.84142016
C       -0.69378036      -1.11692497       0.38731724
O       -1.95932650      -0.68926254       0.45146456
H        3.02947413      -1.85462730       0.30950534
H        2.46359832       0.21880070       0.68806796
H        0.24243592       1.68997399       0.15127376
H       -0.54843399      -2.17341084       0.23098090
H       -4.70629106       5.11972124      -5.08683779
H       -1.88973544       0.26151303       0.66674691
