11
Properties=species:S:1:pos:R:3 relative_energy_eV=0.0 branch=left pbc="F F F"
C        0.32813049       0.18000277      -1.95365969
C       -0.01068513       0.88424861      -0.72455852
O       -0.35150137      -0.49549113      -0.89226601
N       -0.42922752      -1.04885264       2.41374702
H        1.35248110      -0.13358026      -2.12723370
H       -0.26129162       0.34960937      -2.84900825
H       -0.84970471       1.57225744      -0.70886992
H       -0.49810627      -0.94936943       1.40788738
H       -0.57363544      -0.13255589       2.81305756
H        0.52387000      -1.31311579       2.61844011
H        0.76927318       1.08384086       0.00521415
11
Properties=species:S:1:pos:R:3 relative_energy_eV=3.072579602303449e-06 branch=left pbc="F F F"
C        0.32841325       0.18028190      -1.95391543
C       -0.01035347       0.88390087      -0.72450123
O       -0.35087934      -0.49576624      -0.89267096
N       -0.42955976      -1.04906817       2.41432740
H        1.35287431      -0.13288410      -2.12786986
H       -0.26108933       0.35011184      -2.84912079
H       -0.84948887       1.57181874      -0.70836158
H       -0.50029988      -0.94885658       1.40868184
H       -0.57382028      -0.13305706       2.81447208
H        0.52396523      -1.31296534       2.61683242
H        0.76984085       1.08347801       0.00487625
11
Properties=species:S:1:pos:R:3 relative_energy_eV=1.5570977666357066e-05 branch=left pbc="F F F"
C        0.32882166       0.18080043      -1.95468954
C       -0.00975940       0.88326596      -0.72455794
O       -0.34955199      -0.49639215      -0.89347005
N       -0.43013080      -1.04933651       2.41541697
H        1.35330916      -0.13160722      -2.12949766
H       -0.26110459       0.35064049      -2.84949331
H       -0.84911649       1.57088997      -0.70766147
H       -0.50350905      -0.94741109       1.40991659
H       -0.57443388      -0.13410091       2.81749218
H        0.52431041      -1.31296423       2.61521419
H        0.77076772       1.08320910       0.00408020
11
Properties=species:S:1:pos:R:3 relative_energy_eV=7.776042275509099e-05 branch=left pbc="F F F"
C        0.33037440       0.18269531      -1.95747049
C       -0.00823876       0.88100479      -0.72487030
O       -0.34645936      -0.49853714      -0.89742957
N       -0.43163469      -1.04998210       2.41912388
H        1.35493874      -0.12840361      -2.13399264
H       -0.26047235       0.35390808      -2.85128612
H       -0.84811082       1.56793184      -0.70594255
H       -0.51323675      -0.94337196       1.41426301
H       -0.57531879      -0.13709119       2.82666757
H        0.52529320      -1.31194028       2.60997309
H        0.77246800       1.08078000       0.00371432
11
Properties=species:S:1:pos:R:3 relative_energy_eV=0.00028595679486898007 branch=left pbc="F F F"
C        0.33362747       0.18563605      -1.96002731
C       -0.00559111       0.87784568      -0.72373658
O       -0.34203521      -0.50153348      -0.90249138
N       -0.43440168      -1.05091422       2.42219158
H        1.35806196      -0.12465819      -2.13798028
H       -0.25834370       0.35984037      -2.85267676
H       -0.84629291       1.56359611      -0.70220675
H       -0.53218690      -0.93864537       1.41882576
H       -0.57479784      -0.14150709       2.83803466
H        0.52715186      -1.30948024       2.59635424
H        0.77441113       1.07681381       0.00646306
11
Properties=species:S:1:pos:R:3 relative_energy_eV=0.0005576803223448223 branch=left pbc="F F F"
C        0.33798871       0.18891692      -1.96033561
C       -0.00308737       0.87532622      -0.72098445
O       -0.34046301      -0.50301029      -0.90748758
N       -0.43700793      -1.05243307       2.42352246
H        1.36229829      -0.12221155      -2.13741864
H       -0.25253061       0.36839109      -2.85314569
H       -0.84342236       1.56148953      -0.69784133
H       -0.55660615      -0.93864760       1.42285650
H       -0.57222277      -0.14488198       2.84494499
H        0.52939850      -1.30627162       2.57595866
H        0.77525813       1.07032523       0.01268091
11
Properties=species:S:1:pos:R:3 relative_energy_eV=0.0007753060426693992 branch=left pbc="F F F"
C        0.34155730       0.19130351      -1.95866722
C       -0.00199693       0.87413771      -0.71794229
O       -0.34266178      -0.50256352      -0.91100962
N       -0.43827375      -1.05374606       2.42306810
H        1.36573282      -0.12199632      -2.13299999
H       -0.24528602       0.37629074      -2.85290119
H       -0.84076332       1.56227109      -0.69479355
H       -0.57550008      -0.94268207       1.42476330
H       -0.56895109      -0.14577534       2.84521822
H        0.53132776      -1.30394977       2.55860734
H        0.77441886       1.06370236       0.01940707
11
Properties=species:S:1:pos:R:3 relative_energy_eV=0.0009024150422192179 branch=left pbc="F F F"
C        0.34370415       0.19261524      -1.95654318
C       -0.00210135       0.87379233      -0.71562053
O       -0.34649415      -0.50130140      -0.91314113
N       -0.43843732      -1.05448714       2.42192366
H        1.36772262      -0.12310037      -2.12781936
H       -0.23910033       0.38193246      -2.85252121
H       -0.83900193       1.56425998      -0.69334277
H       -0.58583989      -0.94745698       1.42495016
H       -0.56620805      -0.14507762       2.84209168
H        0.53266977      -1.30280650       2.54825442
H        0.77269050       1.05862199       0.02451837
11
Properties=species:S:1:pos:R:3 relative_energy_eV=0.0009639000254537677 branch=left pbc="F F F"
C        0.34484214       0.19329318      -1.95489457
C       -0.00266658       0.87373374      -0.71417895
O       -0.35014471      -0.50006556      -0.91455585
N       -0.43815755      -1.05484654       2.42098778
H        1.36870855      -0.12441867      -2.12369652
H       -0.23462074       0.38566433      -2.85234855
H       -0.83796878       1.56617948      -0.69288184
H       -0.59056116      -0.95127591       1.42460462
H       -0.56431665      -0.14402305       2.83873941
H        0.53352254      -1.30237565       2.54321063
H        0.77096708       1.05512641       0.02776391
11
Properties=species:S:1:pos:R:3 relative_energy_eV=0.0009892579937513801 branch=left pbc="F F F"
C        0.34543428       0.19368319      -1.95389021
C       -0.00325698       0.87370434      -0.71340403
O       -0.35298241      -0.49913552      -0.91565995
N       -0.43781372      -1.05504307       2.42053017
H        1.36918891      -0.12544562      -2.12096835
H       -0.23156535       0.38816898      -2.85241900
H       -0.83736805       1.56761969      -0.69288032
H       -0.59257578      -0.95388326       1.42437324
H       -0.56314273      -0.14317796       2.83636399
H        0.53404610      -1.30225271       2.54108336
H        0.76963998       1.05275359       0.02962111
11
Properties=species:S:1:pos:R:3 relative_energy_eV=0.0010078647765112692 branch=left pbc="F F F"
C        0.34577826       0.19396420      -1.95332946
C       -0.00377679       0.87363761      -0.71300458
O       -0.35519857      -0.49845908      -0.91665830
N       -0.43750858      -1.05518231       2.42043535
H        1.36946081      -0.12615512      -2.11920501
H       -0.22934059       0.39004448      -2.85266864
H       -0.83696582       1.56868876      -0.69308497
H       -0.59350094      -0.95566750       1.42434823
H       -0.56239225      -0.14259362       2.83487787
H        0.53440860      -1.30225073       2.54033548
H        0.76864014       1.05096491       0.03070400
11
Properties=species:S:1:pos:R:3 relative_energy_eV=0.0010218260113106226 branch=left pbc="F F F"
C        0.34598757       0.19418629      -1.95305035
C       -0.00421078       0.87355595      -0.71282513
O       -0.35703954      -0.49794062      -0.91758676
N       -0.43726525      -1.05534771       2.42062626
H        1.36964929      -0.12658197      -2.11810126
H       -0.22753522       0.39160207      -2.85303498
H       -0.83665012       1.56955341      -0.69343476
H       -0.59403966      -0.95697279       1.42452956
H       -0.56191575      -0.14225431       2.83405107
H        0.53467488      -1.30233021       2.54027056
H        0.76794888       1.04952142       0.03130578
11
Properties=species:S:1:pos:R:3 relative_energy_eV=0.0010301766596967354 branch=left pbc="F F F"
C        0.34610464       0.19435753      -1.95298738
C       -0.00452091       0.87340176      -0.71277082
O       -0.35840365      -0.49768080      -0.91835822
N       -0.43708618      -1.05548604       2.42100229
H        1.36984131      -0.12655074      -2.11771516
H       -0.22631462       0.39264895      -2.85354327
H       -0.83637157       1.57018925      -0.69387902
H       -0.59439221      -0.95765906       1.42484482
H       -0.56167282      -0.14213961       2.83388676
H        0.53490609      -1.30244431       2.54064366
H        0.76751425       1.04835457       0.03162630
11
Properties=species:S:1:pos:R:3 relative_energy_eV=0.001063930154487025 branch=left pbc="F F F"
C        0.34570850       0.19376015      -1.95251040
C       -0.00401635       0.87425112      -0.71271502
O       -0.35785366      -0.49725574      -0.91633084
N       -0.43746663      -1.05615076       2.42087575
H        1.36960554      -0.12570141      -2.11866244
H       -0.22666369       0.39101516      -2.85281516
H       -0.83606937       1.57093134      -0.69451754
H       -0.59501554      -0.95824275       1.42454189
H       -0.56228543      -0.14288837       2.83354919
H        0.53464565      -1.30322473       2.54082922
H        0.76901529       1.05049750       0.03050531
11
Properties=species:S:1:pos:R:3 relative_energy_eV=0.0011515784326547873 branch=left pbc="F F F"
C        0.34469047       0.19213002      -1.95119871
C       -0.00197476       0.87556721      -0.71231685
O       -0.35155844      -0.49788180      -0.90957455
N       -0.43855141      -1.05643633       2.41914684
H        1.36937100      -0.12185599      -2.12255098
H       -0.23269304       0.38257473      -2.85002594
H       -0.83606556       1.56993964      -0.69373603
H       -0.59648624      -0.95566358       1.42311063
H       -0.56408164      -0.14442789       2.83409029
H        0.53388173      -1.30352254       2.53845598
H        0.77307215       1.05656814       0.02734934
11
Properties=species:S:1:pos:R:3 relative_energy_eV=0.0013198393908169237 branch=left pbc="F F F"
C        0.34306631       0.18921204      -1.94796403
C        0.00107165       0.87870962      -0.71105846
O       -0.34157707      -0.49794954      -0.89751303
N       -0.44028991      -1.05666852       2.41398408
H        1.36812119      -0.11946033      -2.12485634
H       -0.24157946       0.36992982      -2.84340466
H       -0.83688534       1.56822520      -0.69116481
H       -0.59745189      -0.95358964       1.41838376
H       -0.56615171      -0.14574619       2.83068209
H        0.53222213      -1.30395267       2.53254587
H        0.77905827       1.06828195       0.02311564
11
Properties=species:S:1:pos:R:3 relative_energy_eV=0.0014423970324060065 branch=left pbc="F F F"
C        0.34226748       0.18769603      -1.94576259
C        0.00244126       0.87988427      -0.70992333
O       -0.33595905      -0.49845415      -0.89094292
N       -0.44091791      -1.05611683       2.41019423
H        1.36772457      -0.11831006      -2.12506995
H       -0.24697363       0.36277044      -2.83957544
H       -0.83769836       1.56659512      -0.68879104
H       -0.59766373      -0.95161823       1.41502884
H       -0.56683306      -0.14568851       2.82815796
H        0.53147076      -1.30349603       2.52798908
H        0.78174580       1.07372976       0.02144532
11
Properties=species:S:1:pos:R:3 relative_energy_eV=0.0016953531021499657 branch=left pbc="F F F"
C        0.34145471       0.18565489      -1.94128180
C        0.00242820       0.88008342      -0.70679271
O       -0.33150198      -0.49954714      -0.88364937
N       -0.44055401      -1.05368299       2.40214682
H        1.36710502      -0.11990365      -2.12009215
H       -0.25112864       0.35655323      -2.83325836
H       -0.84027635       1.56328502      -0.68350353
H       -0.59616510      -0.94838916       1.40730320
H       -0.56564369      -0.14308768       2.82059546
H        0.53121910      -1.30162390       2.51926533
H        0.78266682       1.07764980       0.02201729
11
Properties=species:S:1:pos:R:3 relative_energy_eV=0.0018255239601785433 branch=left pbc="F F F"
C        0.34134700       0.18516101      -1.93981013
C        0.00150982       0.87879299      -0.70542001
O       -0.33107323      -0.50073734      -0.88276759
N       -0.43990360      -1.05207518       2.39916365
H        1.36707249      -0.12031071      -2.11803381
H       -0.25149828       0.35588825      -2.83154945
H       -0.84160615       1.56123399      -0.68116378
H       -0.59520358      -0.94562446       1.40440540
H       -0.56473677      -0.14164400       2.81876557
H        0.53154535      -1.30030306       2.51615895
H        0.78215102       1.07661038       0.02300138
11
Properties=species:S:1:pos:R:3 relative_energy_eV=0.0022368480558725423 branch=left pbc="F F F"
C        0.34045238       0.18456947      -1.94166898
C       -0.00067813       0.87186182      -0.70404992
O       -0.33086189      -0.50815410      -0.88838601
N       -0.43763700      -1.04638674       2.39724908
H        1.36892474      -0.11632928      -2.11941382
H       -0.25067045       0.35963937      -2.83161349
H       -0.84624002       1.55213747      -0.67586773
H       -0.59359897      -0.92988570       1.40252557
H       -0.56241588      -0.13959112       2.82575790
H        0.53405651      -1.29475551       2.51281925
H        0.77827271       1.06388635       0.02539839
11
Properties=species:S:1:pos:R:3 relative_energy_eV=0.0023594636331836227 branch=left pbc="F F F"
C        0.34040222       0.18462271      -1.94027947
C        0.00705224       0.88766673      -0.70783794
O       -0.32561228      -0.49520906      -0.87425092
N       -0.44268046      -1.05734040       2.40142999
H        1.36695166      -0.12135168      -2.11814976
H       -0.25803325       0.34799499      -2.83042640
H       -0.83788233       1.56799598      -0.68445398
H       -0.59856375      -0.95807762       1.40770537
H       -0.56807956      -0.14440899       2.81432971
H        0.52887871      -1.30458962       2.51702064
H        0.78717088       1.08968877       0.01766292
11
Properties=species:S:1:pos:R:3 relative_energy_eV=0.0031691572521594935 branch=left pbc="F F F"
C        0.34293472       0.18461916      -1.92926604
C       -0.00133487       0.88109042      -0.69927752
O       -0.33886092      -0.49316808      -0.87734460
N       -0.43938026      -1.05176270       2.38859497
H        1.36484009      -0.13368087      -2.10060428
H       -0.24617626       0.35615114      -2.82483613
H       -0.84164703       1.56646592      -0.67939676
H       -0.59073529      -0.95873578       1.39153302
H       -0.56008208      -0.13588245       2.79335372
H        0.53193684      -1.30247358       2.50890368
H        0.77810938       1.08436834       0.03108995
11
Properties=species:S:1:pos:R:3 relative_energy_eV=0.006756882931767905 branch=left pbc="F F F"
C        0.33717767       0.17454551      -1.91721064
C       -0.00007644       0.88261905      -0.68924786
O       -0.32534573      -0.50549204      -0.84301209
N       -0.44011524      -1.04515486       2.36104852
H        1.36342902      -0.13344510      -2.09374434
H       -0.26571551       0.33314930      -2.81015641
H       -0.85066030       1.55721453      -0.67093822
H       -0.57601768      -0.93829345       1.35944476
H       -0.55967687      -0.13280184       2.77794411
H        0.52955516      -1.30270169       2.49583685
H        0.78705009       1.10735244       0.03278548
11
Properties=species:S:1:pos:R:3 relative_energy_eV=0.014032001926352677 branch=left pbc="F F F"
C        0.33733652       0.17207915      -1.92213017
C       -0.00318806       0.86868596      -0.68558384
O       -0.31999399      -0.51960161      -0.85715080
N       -0.42795544      -1.02879887       2.35989645
H        1.36510228      -0.12516117      -2.09944095
H       -0.25799876       0.34722791      -2.80702998
H       -0.85605172       1.53870054      -0.65683871
H       -0.58212150      -0.92260430       1.37475180
H       -0.55496747      -0.11768402       2.78925593
H        0.53305728      -1.28619769       2.47136686
H        0.76638471       1.07034631       0.03565369
11
Properties=species:S:1:pos:R:3 relative_energy_eV=0.0072943319582918775 branch=left pbc="F F F"
C        0.34316851       0.19174115      -1.95259198
C        0.00308918       0.87478451      -0.71205489
O       -0.33623724      -0.50657704      -0.89722835
N       -0.44663522      -1.05838795       2.41318553
H        1.37049888      -0.11939746      -2.12825878
H       -0.25296790       0.37032696      -2.84978810
H       -0.84106943       1.55935628      -0.68934280
H       -0.59182762      -0.93121060       1.40978527
H       -0.56980522      -0.15666765       2.84760877
H        0.52992585      -1.30414180       2.53862873
H        0.79146438       1.07716540       0.02280680
11
Properties=species:S:1:pos:R:3 relative_energy_eV=0.0016524606116945506 branch=left pbc="F F F"
C        0.35250461       0.20502908      -1.97064466
C       -0.00428502       0.86591202      -0.72159125
O       -0.36709876      -0.49792548      -0.95405150
N       -0.43851065      -1.05987261       2.44755589
H        1.37380363      -0.12598398      -2.12968097
H       -0.21057594       0.42448625      -2.87264088
H       -0.83027784       1.56914799      -0.69845892
H       -0.61227247      -0.96100237       1.45479838
H       -0.56296764      -0.14870721       2.86537046
H        0.53746325      -1.29906172       2.54979605
H        0.76182128       1.02496922       0.03229729
11
Properties=species:S:1:pos:R:3 relative_energy_eV=0.0018633425770531176 branch=left pbc="F F F"
C        0.35530300       0.21034583      -1.97913813
C       -0.00522220       0.86408541      -0.72725300
O       -0.37563731      -0.49488192      -0.97305640
N       -0.43800299      -1.06298033       2.46277172
H        1.37542962      -0.12536384      -2.13465642
H       -0.19965795       0.44020977      -2.88308535
H       -0.82600137       1.57323631      -0.70399276
H       -0.61939637      -0.96876441       1.47167189
H       -0.56303756      -0.15066944       2.87781260
H        0.53899408      -1.29898888       2.55916566
H        0.75683358       1.01076253       0.03251002
11
Properties=species:S:1:pos:R:3 relative_energy_eV=0.0019210313221265096 branch=left pbc="F F F"
C        0.34794793       0.19697874      -1.96300239
C       -0.00253734       0.86273009      -0.71429256
O       -0.34822700      -0.50987916      -0.93019355
N       -0.43958386      -1.05271914       2.42815135
H        1.37243246      -0.12180950      -2.13145842
H       -0.23081859       0.40384698      -2.86001416
H       -0.83964152       1.55378244      -0.68733170
H       -0.60125589      -0.93392333       1.43366522
H       -0.56524348      -0.14843031       2.86270548
H        0.53520141      -1.29593293       2.53600193
H        0.77133005       1.04234780       0.02851892
11
Properties=species:S:1:pos:R:3 relative_energy_eV=0.001976387206923391 branch=left pbc="F F F"
C        0.35782762       0.21606071      -1.98953174
C       -0.00594083       0.86174483      -0.73432848
O       -0.38367786      -0.49263885      -0.99378112
N       -0.43800148      -1.06669170       2.48054329
H        1.37770175      -0.12224987      -2.14247931
H       -0.18940091       0.45589804      -2.89575443
H       -0.82187291       1.57679989      -0.71008993
H       -0.62742615      -0.97406384       1.49061727
H       -0.56400998      -0.15436759       2.89533289
H        0.54063071      -1.29892251       2.57114731
H        0.75377459       0.99542183       0.03107402
11
Properties=species:S:1:pos:R:3 relative_energy_eV=0.0020273079007893102 branch=left pbc="F F F"
C        0.35996076       0.21993597      -1.99412376
C       -0.00704372       0.86167751      -0.73788576
O       -0.39207202      -0.48863342      -1.00672872
N       -0.43733484      -1.06926274       2.49057202
H        1.37870967      -0.12297184      -2.14312837
H       -0.17998225       0.46673312      -2.90255022
H       -0.81807849       1.58223775      -0.71480054
H       -0.63279350      -0.98367645       1.50163862
H       -0.56289157      -0.15472561       2.89938589
H        0.54207123      -1.29936727       2.57754514
H        0.74905940       0.98504374       0.03282537
11
Properties=species:S:1:pos:R:3 relative_energy_eV=0.002091024896799354 branch=left pbc="F F F"
C        0.36151932       0.22287973      -1.99784898
C       -0.00786724       0.86104400      -0.74049202
O       -0.39794594      -0.48654432      -1.01645993
N       -0.43671392      -1.07064469       2.49757173
H        1.37961326      -0.12273251      -2.14438971
H       -0.17371990       0.47425765      -2.90751099
H       -0.81571059       1.58509255      -0.71799292
H       -0.63627586      -0.98893340       1.50931988
H       -0.56210902      -0.15487453       2.90393472
H        0.54305818      -1.29932875       2.58219723
H        0.74575642       0.97677492       0.03442059
11
Properties=species:S:1:pos:R:3 relative_energy_eV=0.0022067986046749866 branch=left pbc="F F F"
C        0.36369300       0.22614453      -2.00065163
C       -0.00904587       0.86068281      -0.74254785
O       -0.40559160      -0.48346143      -1.02654111
N       -0.43585269      -1.07192319       2.50434069
H        1.38052343      -0.12425394      -2.14423640
H       -0.16605752       0.48305016      -2.91174202
H       -0.81283644       1.58913549      -0.72207277
H       -0.63959301      -0.99697792       1.51632143
H       -0.56017539      -0.15380298       2.90532704
H        0.54436152      -1.29947840       2.58641146
H        0.74017936       0.96787534       0.03814068
11
Properties=species:S:1:pos:R:3 relative_energy_eV=0.0024339655119547388 branch=left pbc="F F F"
C        0.36669432       0.23008217      -2.00296208
C       -0.01111775       0.86067126      -0.74434340
O       -0.41724239      -0.47842128      -1.03893364
N       -0.43450917      -1.07375062       2.51117688
H        1.38125598      -0.12910647      -2.14164931
H       -0.15427392       0.49597446      -2.91637124
H       -0.80898900       1.59544742      -0.72722516
H       -0.64268359      -1.00947435       1.52290694
H       -0.55718702      -0.15144825       2.90405157
H        0.54615237      -1.30065097       2.59205606
H        0.73150517       0.95766682       0.04404276
11
Properties=species:S:1:pos:R:3 relative_energy_eV=0.0027270351311017293 branch=left pbc="F F F"
C        0.36955761       0.23312798      -2.00203590
C       -0.01412877       0.86250936      -0.74449474
O       -0.43173454      -0.47063597      -1.04876203
N       -0.43275893      -1.07623241       2.51469993
H        1.38083935      -0.13827619      -2.13273928
H       -0.13932882       0.50969878      -2.91915576
H       -0.80459493       1.60517454      -0.73204116
H       -0.64502763      -1.02786849       1.52619031
H       -0.55301307      -0.14760784       2.89370570
H        0.54811714      -1.30310427       2.59632262
H        0.72167782       0.95020427       0.05105950
11
Properties=species:S:1:pos:R:3 relative_energy_eV=0.0029730675714745303 branch=left pbc="F F F"
C        0.37109798       0.23466492      -2.00013745
C       -0.01544954       0.86688788      -0.74472920
O       -0.44176880      -0.46255850      -1.05217358
N       -0.43221331      -1.07999487       2.51657027
H        1.37978282      -0.14642289      -2.12384860
H       -0.12898069       0.51753334      -2.92050352
H       -0.80031051       1.61555173      -0.73624372
H       -0.64726126      -1.04629926       1.52816809
H       -0.55081766      -0.14565369       2.88188288
H        0.54873680      -1.30669303       2.59962528
H        0.71678962       0.94997378       0.05413855
11
Properties=species:S:1:pos:R:3 relative_energy_eV=0.0031031732933115563 branch=left pbc="F F F"
C        0.37150606       0.23512419      -1.99864175
C       -0.01528621       0.87138168      -0.74528519
O       -0.44616323      -0.45670988      -1.05132039
N       -0.43264853      -1.08357751       2.51762893
H        1.37880722      -0.15116300      -2.11832149
H       -0.12456925       0.51962365      -2.92101207
H       -0.79728507       1.62320573      -0.73915767
H       -0.64894744      -1.05911022       1.52935153
H       -0.55058332      -0.14567072       2.87373931
H        0.54830532      -1.30989269       2.60189700
H        0.71647002       0.95377796       0.05387067
11
Properties=species:S:1:pos:R:3 relative_energy_eV=0.0031777264039192232 branch=left pbc="F F F"
C        0.37140037       0.23510780      -1.99766788
C       -0.01460588       0.87492810      -0.74581428
O       -0.44753376      -0.45304451      -1.04914697
N       -0.43327063      -1.08622046       2.51812721
H        1.37814352      -0.15343737      -2.11517880
H       -0.12336821       0.51901600      -2.92112546
H       -0.79535282       1.62817593      -0.74090974
H       -0.65016965      -1.06702451       1.53004310
H       -0.55102561      -0.14627050       2.86867772
H        0.54766637      -1.31214253       2.60317913
H        0.71772192       0.95790114       0.05256481
11
Properties=species:S:1:pos:R:3 relative_energy_eV=0.003209183604667487 branch=left pbc="F F F"
C        0.37118410       0.23498665      -1.99709666
C       -0.01399970       0.87719137      -0.74620832
O       -0.44766385      -0.45099978      -1.04722843
N       -0.43378396      -1.08788993       2.51834842
H        1.37772317      -0.15437160      -2.11360405
H       -0.12341743       0.51774424      -2.92105597
H       -0.79432925       1.63095950      -0.74184666
H       -0.65088943      -1.07127449       1.53036257
H       -0.55152952      -0.14690465       2.86590269
H        0.54710926      -1.31347594       2.60382626
H        0.71920225       0.96102366       0.05134897
11
Properties=species:S:1:pos:R:3 relative_energy_eV=0.003226053304388188 branch=left pbc="F F F"
C        0.37097840       0.23483513      -1.99662683
C       -0.01352273       0.87872396      -0.74637401
O       -0.44744694      -0.44981023      -1.04561110
N       -0.43409365      -1.08887995       2.51825915
H        1.37748899      -0.15469720      -2.11252588
H       -0.12389892       0.51631675      -2.92085954
H       -0.79367629       1.63271236      -0.74235876
H       -0.65140074      -1.07384539       1.53040820
H       -0.55180447      -0.14722358       2.86384704
H        0.54678767      -1.31423903       2.60396987
H        0.72019434       0.96309622       0.05062068
11
Properties=species:S:1:pos:R:3 relative_energy_eV=0.0032327034223271767 branch=left pbc="F F F"
C        0.37081963       0.23473820      -1.99632712
C       -0.01312024       0.87987807      -0.74656997
O       -0.44709850      -0.44894574      -1.04434677
N       -0.43437443      -1.08967600       2.51825972
H        1.37728563      -0.15484164      -2.11192741
H       -0.12445391       0.51503651      -2.92060730
H       -0.79324581       1.63391772      -0.74279102
H       -0.65176078      -1.07561031       1.53044523
H       -0.55206840      -0.14753526       2.86247985
H        0.54647332      -1.31480688       2.60409659
H        0.72114916       0.96483435       0.05003700
11
Properties=species:S:1:pos:R:3 relative_energy_eV=0.003243737844968564 branch=left pbc="F F F"
C        0.37068337       0.23459076      -1.99580748
C       -0.01264690       0.88111324      -0.74660726
O       -0.44656609      -0.44812857      -1.04270921
N       -0.43462726      -1.09035381       2.51796814
H        1.37712356      -0.15486298      -2.11124460
H       -0.12540687       0.51322697      -2.92004795
H       -0.79271487       1.63520688      -0.74331549
H       -0.65209792      -1.07748693       1.53017837
H       -0.55214780      -0.14756384       2.86057324
H        0.54624412      -1.31533175       2.60392528
H        0.72176232       0.96657903       0.04983576
11
Properties=species:S:1:pos:R:3 relative_energy_eV=0.0032628546996420482 branch=left pbc="F F F"
C        0.37061241       0.23446357      -1.99532311
C       -0.01198272       0.88257132      -0.74680542
O       -0.44571683      -0.44713950      -1.04081599
N       -0.43509077      -1.09123112       2.51789246
H        1.37690216      -0.15493883      -2.11110826
H       -0.12668588       0.51112470      -2.91915760
H       -0.79205875       1.63661573      -0.74425711
H       -0.65231412      -1.07976988       1.52989186
H       -0.55231672      -0.14760823       2.85887386
H        0.54580199      -1.31606784       2.60387917
H        0.72245489       0.96896909       0.04967896
11
Properties=species:S:1:pos:R:3 relative_energy_eV=0.0032993053609970957 branch=left pbc="F F F"
C        0.37063829       0.23428278      -1.99477736
C       -0.01130765       0.88380645      -0.74688185
O       -0.44480202      -0.44636310      -1.03887450
N       -0.43567889      -1.09180561       2.51772863
H        1.37675116      -0.15510290      -2.11157126
H       -0.12801495       0.50923962      -2.91813753
H       -0.79139192       1.63776419      -0.74533016
H       -0.65206822      -1.08192045       1.52926794
H       -0.55237243      -0.14742794       2.85769901
H        0.54528042      -1.31679883       2.60373018
H        0.72257188       0.97131479       0.04989571
11
Properties=species:S:1:pos:R:3 relative_energy_eV=0.00337811798635812 branch=left pbc="F F F"
C        0.37065268       0.23382372      -1.99388442
C       -0.01098042       0.88443682      -0.74648255
O       -0.44430725      -0.44600878      -1.03686397
N       -0.43631681      -1.09159864       2.51683122
H        1.37650077      -0.15585958      -2.11227181
H       -0.12855083       0.50823495      -2.91695165
H       -0.79124886       1.63806236      -0.74590782
H       -0.65063656      -1.08348191       1.52765517
H       -0.55214381      -0.14689274       2.85708158
H        0.54446974      -1.31729189       2.60294084
H        0.72216703       0.97356467       0.05060222
11
Properties=species:S:1:pos:R:3 relative_energy_eV=0.0035422586206550477 branch=left pbc="F F F"
C        0.37020402       0.23193427      -1.98960507
C       -0.01281556       0.88286729      -0.74267758
O       -0.44610400      -0.44754452      -1.03310363
N       -0.43536061      -1.08810950       2.50982122
H        1.37594921      -0.15827171      -2.10809877
H       -0.12701127       0.50761829      -2.91368842
H       -0.79344341       1.63597923      -0.74308824
H       -0.64611965      -1.08152351       1.52002056
H       -0.54953410      -0.14347654       2.85080694
H        0.54445579      -1.31601870       2.59755951
H        0.71938531       0.97353436       0.05480224
11
Properties=species:S:1:pos:R:3 relative_energy_eV=0.0037305193682186655 branch=left pbc="F F F"
C        0.36939337       0.22947427      -1.98371856
C       -0.01599804       0.88004357      -0.73714694
O       -0.44931493      -0.45022120      -1.02903246
N       -0.43301879      -1.08320920       2.49960897
H        1.37533507      -0.16106474      -2.10003460
H       -0.12450776       0.50692896      -2.90942997
H       -0.79697138       1.63277721      -0.73813266
H       -0.64101868      -1.07672871       1.50955771
H       -0.54568694      -0.13865149       2.84037458
H        0.54562130      -1.31361323       2.59001939
H        0.71577253       0.97125350       0.06068328
11
Properties=species:S:1:pos:R:3 relative_energy_eV=0.003917149230801442 branch=left pbc="F F F"
C        0.36847733       0.22699357      -1.97721667
C       -0.01990986       0.87646735      -0.73086792
O       -0.45327048      -0.45349547      -1.02541522
N       -0.42975688      -1.07774841       2.48816540
H        1.37482414      -0.16360165      -2.08964730
H       -0.12170825       0.50601180      -2.90481766
H       -0.80098201       1.62919252      -0.73210053
H       -0.63630661      -1.07026393       1.49811632
H       -0.54117377      -0.13297100       2.82750728
H        0.54787704      -1.31050654       2.58151315
H        0.71153514       0.96691065       0.06751187
11
Properties=species:S:1:pos:R:3 relative_energy_eV=0.004109593276552914 branch=left pbc="F F F"
C        0.36767951       0.22510737      -1.97172395
C       -0.02371764       0.87272814      -0.72530583
O       -0.45713383      -0.45672086      -1.02334269
N       -0.42644054      -1.07282827       2.47815538
H        1.37451548      -0.16538177      -2.07966925
H       -0.11902676       0.50538396      -2.90085156
H       -0.80464798       1.62573967      -0.72630121
H       -0.63261732      -1.06331717       1.48801164
H       -0.53705059      -0.12757240       2.81592025
H        0.55065253      -1.30744486       2.57404389
H        0.70739296       0.96129506       0.07381201
11
Properties=species:S:1:pos:R:3 relative_energy_eV=0.004434831658727489 branch=left pbc="F F F"
C        0.36710148       0.22376864      -1.96676795
C       -0.02824798       0.86747800      -0.71971540
O       -0.46163160      -0.46073150      -1.02362900
N       -0.42256681      -1.06740465       2.46859856
H        1.37460217      -0.16653752      -2.06943371
H       -0.11570765       0.50594666      -2.89715961
H       -0.80862132       1.62128270      -0.71974944
H       -0.62887578      -1.05380136       1.47752199
H       -0.53263713      -0.12127161       2.80567211
H        0.55444743      -1.30376493       2.56671667
H        0.70174304       0.95202443       0.08069444
11
Properties=species:S:1:pos:R:3 relative_energy_eV=0.004556036868052615 branch=left pbc="F F F"
C        0.36692147       0.22361046      -1.96601934
C       -0.02929024       0.86597365      -0.71866121
O       -0.46258194      -0.46183545      -1.02419370
N       -0.42182248      -1.06624351       2.46654226
H        1.37471963      -0.16653969      -2.06755887
H       -0.11507189       0.50626757      -2.89651917
H       -0.80956149       1.61995093      -0.71824843
H       -0.62761607      -1.05058090       1.47472293
H       -0.53185041      -0.12001278       2.80481328
H        0.55535829      -1.30306618       2.56585524
H        0.70040102       0.94946477       0.08201564
11
Properties=species:S:1:pos:R:3 relative_energy_eV=0.00471581007604982 branch=left pbc="F F F"
C        0.36691954       0.22363591      -1.96477242
C       -0.03073400       0.86370865      -0.71734688
O       -0.46427384      -0.46250634      -1.02608451
N       -0.42055427      -1.06369243       2.46380085
H        1.37431600      -0.16704968      -2.06466500
H       -0.11265549       0.50767020      -2.89543243
H       -0.81073929       1.61818231      -0.71646820
H       -0.62825787      -1.04994335       1.47461930
H       -0.52947812      -0.11808271       2.80161473
H        0.55679318      -1.30075066       2.56294036
H        0.69827006       0.94581694       0.08454281
11
Properties=species:S:1:pos:R:3 relative_energy_eV=0.005017554922233103 branch=left pbc="F F F"
C        0.36564093       0.22214118      -1.96369962
C       -0.02575052       0.87405984      -0.71848902
O       -0.45941552      -0.45846596      -1.01170284
N       -0.42383074      -1.07079809       2.46451150
H        1.37333112      -0.16717673      -2.06533792
H       -0.12153595       0.49539274      -2.89580034
H       -0.80682619       1.62683158      -0.72129409
H       -0.62848030      -1.05905131       1.47363674
H       -0.53573300      -0.12379166       2.79489529
H        0.55305211      -1.30861533       2.56655502
H        0.70915394       0.96646256       0.07947390
11
Properties=species:S:1:pos:R:3 relative_energy_eV=0.005195830674892932 branch=left pbc="F F F"
C        0.36777067       0.22381680      -1.96422442
C       -0.03295773       0.86074681      -0.71547396
O       -0.46572707      -0.46515472      -1.02888955
N       -0.41814592      -1.06238891       2.46435375
H        1.37555265      -0.16687346      -2.06322951
H       -0.11167598       0.51045135      -2.89439073
H       -0.81164485       1.61600976      -0.71436200
H       -0.62560917      -1.04245727       1.47064432
H       -0.52925490      -0.11486661       2.80082335
H        0.55803539      -1.29982419       2.56026116
H        0.69326281       0.93752930       0.08723620
11
Properties=species:S:1:pos:R:3 relative_energy_eV=0.006518486993627448 branch=left pbc="F F F"
C        0.36852206       0.22359628      -1.95887928
C       -0.03631232       0.85652418      -0.71064045
O       -0.47125905      -0.46566691      -1.03175927
N       -0.41358913      -1.05451382       2.45764176
H        1.37483622      -0.16980336      -2.05332748
H       -0.10415234       0.51349959      -2.89069787
H       -0.81357515       1.61436596      -0.71130451
H       -0.63573507      -1.05431246       1.47724318
H       -0.51894361      -0.10556156       2.78036823
H        0.56428051      -1.29159771       2.54664198
H        0.68553377       0.93045865       0.09746225
11
Properties=species:S:1:pos:R:3 relative_energy_eV=0.009154202018180513 branch=left pbc="F F F"
C        0.36201267       0.22048536      -1.96939227
C       -0.01715051       0.88297827      -0.72531855
O       -0.44405932      -0.45792736      -0.99659669
N       -0.43525547      -1.08625847       2.45903668
H        1.37118198      -0.16285609      -2.08247713
H       -0.14457814       0.47863142      -2.89558763
H       -0.80512469       1.62888751      -0.72884396
H       -0.59825146      -1.02264866       1.44958549
H       -0.55884127      -0.14906030       2.83130730
H        0.53939877      -1.33010845       2.60062653
H        0.73027338       0.99486552       0.06040908
11
Properties=species:S:1:pos:R:3 relative_energy_eV=0.006272683403949486 branch=left pbc="F F F"
C        0.37040427       0.22372248      -1.95546802
C       -0.04027763       0.85244797      -0.70571096
O       -0.47588319      -0.46931328      -1.03442590
N       -0.40835579      -1.05074174       2.45726159
H        1.37582124      -0.17183947      -2.04789576
H       -0.10062534       0.51652074      -2.88745529
H       -0.81501886       1.61204652      -0.70966640
H       -0.64196214      -1.05688605       1.47317922
H       -0.51306801      -0.09459118       2.76769448
H        0.57076822      -1.28791102       2.53836489
H        0.67780311       0.92353394       0.10687063
11
Properties=species:S:1:pos:R:3 relative_energy_eV=0.007217368021883885 branch=left pbc="F F F"
C        0.37339386       0.22479795      -1.95020652
C       -0.04892421       0.84126623      -0.69837926
O       -0.48781490      -0.47354994      -1.04811593
N       -0.39841234      -1.03758565       2.45651808
H        1.37753463      -0.17522681      -2.03468073
H       -0.08424844       0.53035062      -2.88452704
H       -0.81889995       1.60579642      -0.70239471
H       -0.65827909      -1.06992000       1.48149864
H       -0.49579834      -0.07418062       2.74378121
H        0.58246180      -1.27215043       2.51520016
H        0.65859285       0.89739116       0.12405444
11
Properties=species:S:1:pos:R:3 relative_energy_eV=0.00874803363058163 branch=left pbc="F F F"
C        0.36790949       0.22179808      -1.95292880
C       -0.04219743       0.85188662      -0.70248130
O       -0.47611084      -0.47334140      -1.02839974
N       -0.40920286      -1.04941517       2.44983294
H        1.37512921      -0.16965043      -2.04084434
H       -0.10441288       0.50789628      -2.88827004
H       -0.81877418       1.60979119      -0.70638819
H       -0.63431329      -1.04714239       1.45539435
H       -0.50956518      -0.09187444       2.76591612
H        0.57224220      -1.28774359       2.54016544
H        0.67890169       0.92478417       0.11075203
11
Properties=species:S:1:pos:R:3 relative_energy_eV=0.008090925100077584 branch=left pbc="F F F"
C        0.37667165       0.22652421      -1.94409727
C       -0.06214283       0.82466375      -0.68878924
O       -0.50651470      -0.47973296      -1.06957848
N       -0.38461468      -1.01824676       2.45690587
H        1.37996996      -0.17866505      -2.01336815
H       -0.05824605       0.55111590      -2.88354932
H       -0.82563684       1.59581199      -0.68966133
H       -0.68171714      -1.08879830       1.49299483
H       -0.46916970      -0.04434980       2.71247587
H        0.59916120      -1.24722244       2.48164237
H        0.63184498       0.85588849       0.14777296
11
Properties=species:S:1:pos:R:3 relative_energy_eV=0.008451244746538578 branch=left pbc="F F F"
C        0.37944856       0.22803520      -1.94129481
C       -0.06861591       0.81604445      -0.68463884
O       -0.51691294      -0.48129862      -1.08321680
N       -0.37671840      -1.00798953       2.46013998
H        1.38177784      -0.18160876      -2.00391690
H       -0.04230765       0.56582353      -2.88270992
H       -0.82788611       1.59150432      -0.68379453
H       -0.69840319      -1.10445941       1.50644525
H       -0.45535590      -0.02861249       2.69480117
H        0.60801375      -1.23331084       2.46190014
H        0.61656578       0.83286122       0.15903325
11
Properties=species:S:1:pos:R:3 relative_energy_eV=0.008634686297227745 branch=left pbc="F F F"
C        0.38132618       0.22906734      -1.94027728
C       -0.07187373       0.81156308      -0.68292677
O       -0.52289024      -0.48152033      -1.09167584
N       -0.37225514      -1.00277214       2.46322605
H        1.38284570      -0.18379615      -1.99980474
H       -0.03261395       0.57539035      -2.88224852
H       -0.82860790       1.58950263      -0.68092384
H       -0.70914634      -1.11522680       1.51692407
H       -0.44839084      -0.02029615       2.68527310
H        0.61268444      -1.22582956       2.45084792
H        0.60852761       0.82090681       0.16433379
11
Properties=species:S:1:pos:R:3 relative_energy_eV=0.008791797229605436 branch=left pbc="F F F"
C        0.38257786       0.22944955      -1.93912717
C       -0.07349786       0.80983136      -0.68190252
O       -0.52638985      -0.48095367      -1.09561391
N       -0.36983192      -1.00018504       2.46537329
H        1.38361766      -0.18557252      -1.99743473
H       -0.02708883       0.58025728      -2.88173808
H       -0.82879365       1.58929968      -0.67934173
H       -0.71671890      -1.12414595       1.52379499
H       -0.44427666      -0.01538007       2.67809150
H        0.61545547      -1.22168702       2.44400633
H        0.60455246       0.81607549       0.16663992
11
Properties=species:S:1:pos:R:3 relative_energy_eV=0.008945437469265016 branch=left pbc="F F F"
C        0.38370511       0.22949316      -1.93772009
C       -0.07420118       0.80988538      -0.68102900
O       -0.52867212      -0.47972930      -1.09706885
N       -0.36808388      -0.99889931       2.46687242
H        1.38418366      -0.18760399      -1.99583968
H       -0.02357416       0.58254415      -2.88032156
H       -0.82845593       1.59045336      -0.67861867
H       -0.72361220      -1.13354711       1.52987914
H       -0.44165628      -0.01185408       2.67021712
H        0.61743954      -1.21935642       2.43844396
H        0.60253322       0.81560326       0.16793306
11
Properties=species:S:1:pos:R:3 relative_energy_eV=0.009094263712540851 branch=left pbc="F F F"
C        0.38451654       0.22914196      -1.93555653
C       -0.07395670       0.81171136      -0.68002740
O       -0.52907614      -0.47806465      -1.09484465
N       -0.36727705      -0.99890907       2.46677971
H        1.38444971      -0.18926260      -1.99459591
H       -0.02343828       0.58072254      -2.87817370
H       -0.82764473       1.59304131      -0.67900639
H       -0.72840831      -1.14174160       1.53292839
H       -0.44040060      -0.00992535       2.66176630
H        0.61846303      -1.21901694       2.43469793
H        0.60237828       0.81929214       0.16878008
11
Properties=species:S:1:pos:R:3 relative_energy_eV=0.009218776091074687 branch=left pbc="F F F"
C        0.38492920       0.22865144      -1.93361832
C       -0.07333453       0.81398686      -0.67911953
O       -0.52845750      -0.47665998      -1.09134715
N       -0.36690728      -0.99927487       2.46561074
H        1.38446589      -0.19050541      -1.99355621
H       -0.02485679       0.57753333      -2.87571404
H       -0.82693281       1.59550028      -0.67988609
H       -0.73106474      -1.14728094       1.53377500
H       -0.43992853      -0.00905153       2.65454539
H        0.61885950      -1.21959287       2.43239773
H        0.60283336       0.82368278       0.16966031
11
Properties=species:S:1:pos:R:3 relative_energy_eV=0.009310439301771112 branch=left pbc="F F F"
C        0.38508513       0.22818611      -1.93188620
C       -0.07259453       0.81608488      -0.67835237
O       -0.52723248      -0.47561160      -1.08736226
N       -0.36687143      -0.99983787       2.46396781
H        1.38435171      -0.19117114      -1.99273482
H       -0.02722638       0.57390575      -2.87376871
H       -0.82631268       1.59759793      -0.68111947
H       -0.73201209      -1.15040483       1.53302941
H       -0.43981468      -0.00888382       2.64902664
H        0.61878997      -1.22049364       2.43127821
H        0.60344319       0.82761732       0.17066956
11
Properties=species:S:1:pos:R:3 relative_energy_eV=0.009376210562550114 branch=left pbc="F F F"
C        0.38509432       0.22782119      -1.93074025
C       -0.07206544       0.81744819      -0.67776331
O       -0.52623970      -0.47504938      -1.08441719
N       -0.36671446      -0.99994513       2.46250402
H        1.38420142      -0.19175333      -1.99197124
H       -0.02887009       0.57182931      -2.87216346
H       -0.82606222       1.59866379      -0.68223767
H       -0.73244076      -1.15204555       1.53227482
H       -0.43950487      -0.00872694       2.64502538
H        0.61876490      -1.22094349       2.43037411
H        0.60344264       0.82969041       0.17186259
11
Properties=species:S:1:pos:R:3 relative_energy_eV=0.009427557184608304 branch=left pbc="F F F"
C        0.38509173       0.22758534      -1.92991837
C       -0.07163047       0.81829559      -0.67737213
O       -0.52547745      -0.47469381      -1.08217920
N       -0.36653104      -1.00001399       2.46161933
H        1.38403594      -0.19221865      -1.99143761
H       -0.02997493       0.57092773      -2.87126975
H       -0.82580908       1.59927685      -0.68344954
H       -0.73289532      -1.15333974       1.53208809
H       -0.43912288      -0.00857625       2.64203227
H        0.61871587      -1.22108252       2.42959130
H        0.60320338       0.83082854       0.17304341
11
Properties=species:S:1:pos:R:3 relative_energy_eV=0.009479492775426479 branch=left pbc="F F F"
C        0.38509465       0.22746453      -1.92953499
C       -0.07148381       0.81833483      -0.67710135
O       -0.52531068      -0.47466653      -1.08139899
N       -0.36612084      -0.99960520       2.46142774
H        1.38387524      -0.19280809      -1.99098580
H       -0.02979550       0.57195083      -2.87067169
H       -0.82575522       1.59904697      -0.68440122
H       -0.73373826      -1.15443150       1.53284054
H       -0.43843717      -0.00808027       2.63991978
H        0.61896652      -1.22062722       2.42847066
H        0.60231083       0.83041075       0.17418311
11
Properties=species:S:1:pos:R:3 relative_energy_eV=0.009522085645585321 branch=left pbc="F F F"
C        0.38513630       0.22741356      -1.92936930
C       -0.07143036       0.81795578      -0.67695109
O       -0.52552128      -0.47477344      -1.08142700
N       -0.36564437      -0.99924067       2.46204537
H        1.38368117      -0.19339450      -1.99078108
H       -0.02889880       0.57406738      -2.87052410
H       -0.82550426       1.59862447      -0.68541020
H       -0.73508442      -1.15601527       1.53463379
H       -0.43775711      -0.00738480       2.63820567
H        0.61931963      -1.21996715       2.42714354
H        0.60130924       0.82970375       0.17518221
11
Properties=species:S:1:pos:R:3 relative_energy_eV=0.009580953552358551 branch=left pbc="F F F"
C        0.38528261       0.22745960      -1.92935667
C       -0.07183151       0.81659388      -0.67667941
O       -0.52636927      -0.47530902      -1.08309694
N       -0.36484769      -0.99828078       2.46316918
H        1.38351959      -0.19399812      -1.99057330
H       -0.02686418       0.57767115      -2.87025194
H       -0.82533897       1.59753726      -0.68604798
H       -0.73679769      -1.15738800       1.53712044
H       -0.43673030      -0.00603924       2.63689293
H        0.62013268      -1.21874489       2.42520119
H        0.59945046       0.82748726       0.17637028
11
Properties=species:S:1:pos:R:3 relative_energy_eV=0.009632851221795136 branch=left pbc="F F F"
C        0.38549737       0.22750897      -1.92932614
C       -0.07248748       0.81484319      -0.67625599
O       -0.52744877      -0.47619927      -1.08540144
N       -0.36398764      -0.99724935       2.46441748
H        1.38340799      -0.19437196      -1.99046252
H       -0.02474344       0.58126883      -2.86989592
H       -0.82504243       1.59651418      -0.68657644
H       -0.73844858      -1.15861060       1.53957148
H       -0.43570883      -0.00436352       2.63578055
H        0.62107945      -1.21751768       2.42317291
H        0.59748808       0.82516631       0.17772381
11
Properties=species:S:1:pos:R:3 relative_energy_eV=0.009685857993645186 branch=left pbc="F F F"
C        0.38600194       0.22778738      -1.92918545
C       -0.07383668       0.81204003      -0.67550129
O       -0.52897767      -0.47753799      -1.08922469
N       -0.36268518      -0.99535189       2.46517245
H        1.38355443      -0.19452706      -1.99010636
H       -0.02218503       0.58527979      -2.86902745
H       -0.82511597       1.59494521      -0.68639376
H       -0.73976960      -1.15848892       1.54152390
H       -0.43417532      -0.00198451       2.63514256
H        0.62243863      -1.21565534       2.42068540
H        0.59435619       0.82048241       0.17966245
11
Properties=species:S:1:pos:R:3 relative_energy_eV=0.009737318322549982 branch=left pbc="F F F"
C        0.38640642       0.22788913      -1.92884614
C       -0.07507870       0.80987316      -0.67456356
O       -0.53006053      -0.47912529      -1.09169399
N       -0.36171005      -0.99368238       2.46491405
H        1.38385105      -0.19447417      -1.98969887
H       -0.02103329       0.58746362      -2.86801958
H       -0.82537655       1.59398401      -0.68642859
H       -0.74014229      -1.15775083       1.54170223
H       -0.43277865       0.00003458       2.63456678
H        0.62348963      -1.21437677       2.41904799
H        0.59203869       0.81715405       0.18176745
11
Properties=species:S:1:pos:R:3 relative_energy_eV=0.009809182113713177 branch=left pbc="F F F"
C        0.38757294       0.22860726      -1.92850598
C       -0.07757524       0.80549147      -0.67327620
O       -0.53235283      -0.48118603      -1.09750140
N       -0.35952702      -0.99028001       2.46441464
H        1.38468077      -0.19455962      -1.98891023
H       -0.01795615       0.59239341      -2.86652627
H       -0.82638020       1.59149500      -0.68526933
H       -0.74098518      -1.15543091       1.54284655
H       -0.43008534       0.00352995       2.63455070
H        0.62536016      -1.21121734       2.41583731
H        0.58685381       0.80814595       0.18508795
11
Properties=species:S:1:pos:R:3 relative_energy_eV=0.009906260423122148 branch=left pbc="F F F"
C        0.38850338       0.22899231      -1.92810730
C       -0.07960919       0.80229687      -0.67198496
O       -0.53403267      -0.48330396      -1.10104021
N       -0.35789058      -0.98729011       2.46293345
H        1.38566191      -0.19496812      -1.98830598
H       -0.01623345       0.59569331      -2.86541841
H       -0.82792913       1.58942763      -0.68435772
H       -0.74095622      -1.15273047       1.54212836
H       -0.42743533       0.00618512       2.63450475
H        0.62679764      -1.20868019       2.41385893
H        0.58272938       0.80136674       0.18853684
11
Properties=species:S:1:pos:R:3 relative_energy_eV=0.010068419207527768 branch=left pbc="F F F"
C        0.39029494       0.22994773      -1.92813110
C       -0.08283904       0.79674713      -0.67062230
O       -0.53725443      -0.48572299      -1.10862184
N       -0.35488104      -0.98265054       2.46211764
H        1.38716387      -0.19619732      -1.98793384
H       -0.01119453       0.60338006      -2.86461593
H       -0.83046013       1.58517073      -0.68166119
H       -0.74219226      -1.14885590       1.54378931
H       -0.42320966       0.01031539       2.63496588
H        0.62921625      -1.20366965       2.41000305
H        0.57496176       0.78852451       0.19345806
11
Properties=species:S:1:pos:R:3 relative_energy_eV=0.01041319483465486 branch=left pbc="F F F"
C        0.39211918       0.23072057      -1.92872269
C       -0.08609905       0.79081868      -0.66938694
O       -0.54070517      -0.48832741      -1.11723612
N       -0.35163758      -0.97779389       2.46216510
H        1.38857784      -0.19856296      -1.98871941
H       -0.00410695       0.61292295      -2.86504085
H       -0.83383711       1.57960482      -0.67749481
H       -0.74408113      -1.14445559       1.54620070
H       -0.41810698       0.01458601       2.63529667
H        0.63220476      -1.19759954       2.40597538
H        0.56527790       0.77507551       0.19971066
11
Properties=species:S:1:pos:R:3 relative_energy_eV=0.010916261442616815 branch=left pbc="F F F"
C        0.39398475       0.23172684      -1.93003539
C       -0.08946068       0.78399364      -0.66860369
O       -0.54444771      -0.49048147      -1.12878273
N       -0.34786542      -0.97311793       2.46440416
H        1.38921804      -0.20108465      -1.99036312
H        0.00578173       0.62456254      -2.86606809
H       -0.83663433       1.57321693      -0.67198073
H       -0.74756359      -1.14077288       1.55163313
H       -0.41312533       0.01940863       2.63565580
H        0.63580792      -1.19073923       2.40089874
H        0.55391036       0.76027676       0.20598960
11
Properties=species:S:1:pos:R:3 relative_energy_eV=0.011599557777117298 branch=left pbc="F F F"
C        0.39492333       0.23256215      -1.93154645
C       -0.09142399       0.77926401      -0.66821967
O       -0.54624960      -0.49190612      -1.13798328
N       -0.34512481      -0.97030963       2.46749699
H        1.38830259      -0.20284847      -1.99278914
H        0.01416123       0.63233397      -2.86782840
H       -0.83794873       1.56870293      -0.66730654
H       -0.75120742      -1.13914357       1.55661999
H       -0.40989351       0.02301701       2.63561914
H        0.63902114      -1.18608598       2.39749658
H        0.54504548       0.75140290       0.21118844
11
Properties=species:S:1:pos:R:3 relative_energy_eV=0.012292968483052391 branch=left pbc="F F F"
C        0.39562584       0.23430361      -1.93297877
C       -0.09308581       0.77464768      -0.66805636
O       -0.54773628      -0.49256921      -1.14755426
N       -0.34211177      -0.96758491       2.47045758
H        1.38692904      -0.20322250      -1.99423414
H        0.02155068       0.63861721      -2.86879557
H       -0.83773428       1.56546584      -0.66392566
H       -0.75560904      -1.13933862       1.56287207
H       -0.40795163       0.02673007       2.63620367
H        0.64196795      -1.18248681       2.39404290
H        0.53776098       0.74242686       0.21471621
11
Properties=species:S:1:pos:R:3 relative_energy_eV=0.013264891787912347 branch=left pbc="F F F"
C        0.39631746       0.23782491      -1.93547288
C       -0.09097055       0.77577462      -0.66858300
O       -0.54706904      -0.49092585      -1.15095609
N       -0.34074393      -0.96718389       2.47418037
H        1.38484299      -0.20198066      -1.99714816
H        0.02295024       0.63681300      -2.87410727
H       -0.83422112       1.56750414      -0.66519392
H       -0.76222735      -1.14759756       1.57149541
H       -0.41036155       0.02789644       2.63738708
H        0.64399611      -1.18453276       2.39421581
H        0.53709244       0.74339682       0.21693029
11
Properties=species:S:1:pos:R:3 relative_energy_eV=0.014230681506887777 branch=left pbc="F F F"
C        0.39878862       0.24306228      -1.93775176
C       -0.09321607       0.76805518      -0.66872173
O       -0.55238703      -0.49000777      -1.16737197
N       -0.33506601      -0.96112483       2.47819489
H        1.38531584      -0.20160860      -1.99699189
H        0.03267018       0.64822990      -2.87511208
H       -0.83301618       1.56323749      -0.66288753
H       -0.77051631      -1.15111971       1.58595936
H       -0.40911087       0.03387293       2.64026202
H        0.64785170      -1.17979692       2.38713148
H        0.52829178       0.72418926       0.22003683
11
Properties=species:S:1:pos:R:3 relative_energy_eV=0.016846699748384708 branch=left pbc="F F F"
C        0.40451982       0.25086597      -1.94242875
C       -0.09297259       0.76374556      -0.66967707
O       -0.56134934      -0.48554384      -1.18388743
N       -0.32985940      -0.95586905       2.48678156
H        1.38844445      -0.20284945      -1.99879280
H        0.04114249       0.66135004      -2.88109980
H       -0.83187576       1.55975716      -0.66364215
H       -0.78139446      -1.16119594       1.60901931
H       -0.41152442       0.03899794       2.64411543
H        0.65107476      -1.17794019       2.37889070
H        0.52340005       0.70567103       0.22346858
11
Properties=species:S:1:pos:R:3 relative_energy_eV=0.02103397885821323 branch=left pbc="F F F"
C        0.41381067       0.25906444      -1.94514327
C       -0.10332456       0.74158789      -0.66828714
O       -0.57908262      -0.48457525      -1.22438050
N       -0.31756829      -0.94051465       2.49637580
H        1.39418669      -0.20627961      -1.99547871
H        0.06677792       0.69942522      -2.87771479
H       -0.83727885       1.54192906      -0.65455994
H       -0.79170257      -1.15506551       1.63517806
H       -0.40382635       0.05447906       2.64926877
H        0.65910627      -1.16083823       2.35678095
H        0.49850722       0.64777687       0.23070828
11
Properties=species:S:1:pos:R:3 relative_energy_eV=0.025020826270520047 branch=left pbc="F F F"
C        0.42108580       0.26422789      -1.94552449
C       -0.11906817       0.71221088      -0.66583534
O       -0.59653737      -0.48768308      -1.27039904
N       -0.30371724      -0.92237182       2.50294403
H        1.39879671      -0.21028457      -1.98888834
H        0.09868509       0.74416806      -2.86666254
H       -0.84611134       1.51883158      -0.63998309
H       -0.79844039      -1.13779464       1.65359333
H       -0.38993914       0.07264079       2.65361575
H        0.66839709      -1.13684075       2.33198113
H        0.46645443       0.57988503       0.23790602
11
Properties=species:S:1:pos:R:3 relative_energy_eV=0.027721440341338166 branch=left pbc="F F F"
C        0.42443434       0.26597577      -1.94507241
C       -0.13120148       0.69100476      -0.66417809
O       -0.60711108      -0.49164252      -1.30157797
N       -0.29459846      -0.91044143       2.50641447
H        1.40096376      -0.21273774      -1.98355438
H        0.12154191       0.77484086      -2.85690593
H       -0.85271865       1.50274710      -0.62853089
H       -0.80175690      -1.12299302       1.66239099
H       -0.37852174       0.08494563       2.65585788
H        0.67478124      -1.11871460       2.31561684
H        0.44379249       0.53400460       0.24228685
11
Properties=species:S:1:pos:R:3 relative_energy_eV=0.029354433720072848 branch=left pbc="F F F"
C        0.42544484       0.26615844      -1.94478543
C       -0.13917277       0.67790707      -0.66349198
O       -0.61260765      -0.49516903      -1.32055086
N       -0.28932666      -0.90351194       2.50843263
H        1.40148906      -0.21362586      -1.97995719
H        0.13610097       0.79338404      -2.85019192
H       -0.85631946       1.49347230      -0.62093953
H       -0.80408202      -1.11367826       1.66679758
H       -0.37067655       0.09210608       2.65698846
H        0.67885400      -1.10683806       2.30620222
H        0.42990169       0.50678465       0.24424334
11
Properties=species:S:1:pos:R:3 relative_energy_eV=0.030373586721907486 branch=left pbc="F F F"
C        0.42543639       0.26603455      -1.94487514
C       -0.14406845       0.67023640      -0.66369485
O       -0.61518539      -0.49781825      -1.33217909
N       -0.28637015      -0.90005798       2.51016461
H        1.40113546      -0.21336164      -1.97791562
H        0.14531144       0.80429358      -2.84626175
H       -0.85728684       1.48917798      -0.61629488
H       -0.80678932      -1.10955799       1.67065861
H       -0.36579859       0.09598289       2.65768662
H        0.68132222      -1.09932382       2.30105579
H        0.42189866       0.49138374       0.24440300
11
Properties=species:S:1:pos:R:3 relative_energy_eV=0.031056091983373335 branch=left pbc="F F F"
C        0.42511913       0.26619443      -1.94543345
C       -0.14671382       0.66641417      -0.66452283
O       -0.61610264      -0.49952743      -1.33903436
N       -0.28483720      -0.89857795       2.51185571
H        1.40029168      -0.21256212      -1.97702800
H        0.15099738       0.81040524      -2.84447817
H       -0.85643070       1.48819332      -0.61390324
H       -0.81021255      -1.10969987       1.67510496
H       -0.36331209       0.09759965       2.65841046
H        0.68276546      -1.09508304       2.29863025
H        0.41804077       0.48363307       0.24314596
11
Properties=species:S:1:pos:R:3 relative_energy_eV=0.03149939718514361 branch=left pbc="F F F"
C        0.42489798       0.26677626      -1.94615372
C       -0.14773764       0.66503329      -0.66563986
O       -0.61622170      -0.50035709      -1.34250133
N       -0.28419914      -0.89851859       2.51333337
H        1.39942094      -0.21164212      -1.97701859
H        0.15407393       0.81329780      -2.84430744
H       -0.85457786       1.48924464      -0.61313258
H       -0.81374224      -1.11242088       1.67988891
H       -0.36260171       0.09787108       2.65912461
H        0.68335962      -1.09319489       2.29791367
H        0.41693323       0.48089996       0.24124024
11
Properties=species:S:1:pos:R:3 relative_energy_eV=0.031803685562408646 branch=left pbc="F F F"
C        0.42488045       0.26766753      -1.94693286
C       -0.14792989       0.66488613      -0.66671661
O       -0.61616239      -0.50073780      -1.34389753
N       -0.28397069      -0.89873200       2.51428504
H        1.39871214      -0.21088521      -1.97728748
H        0.15561953       0.81457771      -2.84489898
H       -0.85252703       1.49091323      -0.61322831
H       -0.81701463      -1.11606837       1.68423758
H       -0.36278413       0.09748765       2.65992876
H        0.68361773      -1.09267211       2.29807228
H        0.41716430       0.48055270       0.23918537
11
Properties=species:S:1:pos:R:3 relative_energy_eV=0.0320559691708695 branch=left pbc="F F F"
C        0.42505329       0.26863796      -1.94750790
C       -0.14783808       0.66478235      -0.66755940
O       -0.61641493      -0.50099109      -1.34422939
N       -0.28379990      -0.89893821       2.51444183
H        1.39848226      -0.21014141      -1.97746510
H        0.15619756       0.81512030      -2.84577645
H       -0.85057755       1.49240116      -0.61358188
H       -0.81960844      -1.11922868       1.68761533
H       -0.36310532       0.09715280       2.66066866
H        0.68373322      -1.09256700       2.29851390
H        0.41748328       0.48076128       0.23762769
11
Properties=species:S:1:pos:R:3 relative_energy_eV=0.032492872743205226 branch=left pbc="F F F"
C        0.42539244       0.26960718      -1.94805705
C       -0.14795046       0.66345186      -0.66800448
O       -0.61795929      -0.50167215      -1.34434886
N       -0.28318965      -0.89779373       2.51289814
H        1.39931755      -0.20859986      -1.97658538
H        0.15606726       0.81577104      -2.84667798
H       -0.84828854       1.49277972      -0.61379864
H       -0.82203915      -1.12133434       1.68972615
H       -0.36255809       0.09746518       2.66168081
H        0.68445398      -1.09191700       2.29892034
H        0.41635934       0.47923157       0.23699421
11
Properties=species:S:1:pos:R:3 relative_energy_eV=0.03362501535229967 branch=left pbc="F F F"
C        0.42546742       0.26925108      -1.94805300
C       -0.14894942       0.65827425      -0.66711099
O       -0.62220385      -0.50315140      -1.34614943
N       -0.28137231      -0.89418689       2.50846038
H        1.40270848      -0.20455591      -1.97308420
H        0.15468840       0.81667985      -2.84677032
H       -0.84600334       1.48983817      -0.61299339
H       -0.82283281      -1.11861331       1.68775408
H       -0.35898412       0.10026539       2.66238132
H        0.68651893      -1.08865196       2.29823591
H        0.41056803       0.47184020       0.24007691
11
Properties=species:S:1:pos:R:3 relative_energy_eV=0.03569176736800728 branch=left pbc="F F F"
C        0.42472973       0.26666681      -1.94735026
C       -0.15082642       0.65061247      -0.66451539
O       -0.62740487      -0.50494697      -1.35084860
N       -0.27886213      -0.88855369       2.50323721
H        1.40741782      -0.19854709      -1.96749004
H        0.15251336       0.81715566      -2.84508937
H       -0.84527328       1.48357579      -0.61114512
H       -0.82087547      -1.11009304       1.68071337
H       -0.35249076       0.10526506       2.66206906
H        0.68982387      -1.08292100       2.29589283
H        0.40085358       0.45877546       0.24727359
11
Properties=species:S:1:pos:R:3 relative_energy_eV=0.03819378801563289 branch=left pbc="F F F"
C        0.42341085       0.26334273      -1.94592128
C       -0.15271920       0.64385960      -0.66139733
O       -0.63067064      -0.50642652      -1.35726036
N       -0.27659413      -0.88385060       2.49986598
H        1.41094780      -0.19252648      -1.96246284
H        0.15039860       0.81626426      -2.84238657
H       -0.84588308       1.47769953      -0.60928538
H       -0.81735820      -1.09992279       1.67249484
H       -0.34590518       0.11056843       2.66079157
H        0.69275373      -1.07697242       2.29277391
H        0.39122491       0.44495374       0.25553471
11
Properties=species:S:1:pos:R:3 relative_energy_eV=0.0408005894123562 branch=left pbc="F F F"
C        0.42211161       0.26101296      -1.94397106
C       -0.15429421       0.63967925      -0.65828606
O       -0.63098264      -0.50789430      -1.36375206
N       -0.27493129      -0.88014256       2.49824142
H        1.41219731      -0.18747079      -1.95890355
H        0.14856041       0.81388520      -2.83934180
H       -0.84696818       1.47411993      -0.60814331
H       -0.81368662      -1.09102605       1.66531901
H       -0.34070017       0.11495816       2.65936467
H        0.69502576      -1.07226787       2.28968326
H        0.38327350       0.43213555       0.26253674
11
Properties=species:S:1:pos:R:3 relative_energy_eV=0.04395726141410705 branch=left pbc="F F F"
C        0.42125826       0.26079302      -1.94065085
C       -0.15596828       0.63698245      -0.65470795
O       -0.62825922      -0.51032229      -1.36986551
N       -0.27324009      -0.87669015       2.49622121
H        1.41145852      -0.18283208      -1.95645398
H        0.14637073       0.80968205      -2.83590050
H       -0.84764965       1.47335349      -0.60759403
H       -0.80952564      -1.08248555       1.65866822
H       -0.33664400       0.11924862       2.65810220
H        0.69671347      -1.06854867       2.28646592
H        0.37509140       0.41780860       0.26846254
11
Properties=species:S:1:pos:R:3 relative_energy_eV=0.04892148415365227 branch=left pbc="F F F"
C        0.42168291       0.26379924      -1.93511286
C       -0.15886227       0.63426089      -0.64972441
O       -0.62267040      -0.51540553      -1.37413398
N       -0.27092855      -0.87084736       2.49037408
H        1.40932091      -0.17866050      -1.95420136
H        0.14323023       0.80406238      -2.83133571
H       -0.84759175       1.47490738      -0.60689449
H       -0.80364432      -1.07174748       1.64996113
H       -0.33331871       0.12418228       2.65753867
H        0.69867613      -1.06581548       2.28267058
H        0.36371137       0.39825368       0.27360560
11
Properties=species:S:1:pos:R:3 relative_energy_eV=0.05580892160196527 branch=left pbc="F F F"
C        0.42371417       0.26867110      -1.92820295
C       -0.16335850       0.62953366      -0.64449743
O       -0.61737465      -0.52291046      -1.37403722
N       -0.26748942      -0.86276672       2.47936099
H        1.40826505      -0.17627654      -1.95177789
H        0.13973021       0.80009280      -2.82611891
H       -0.84684108       1.47675945      -0.60449439
H       -0.79592483      -1.05816700       1.63843708
H       -0.33125775       0.12965454       2.65773050
H        0.70069569      -1.06452211       2.27871735
H        0.34944667       0.37692080       0.27763012
11
Properties=species:S:1:pos:R:3 relative_energy_eV=0.06450240225240123 branch=left pbc="F F F"
C        0.42691756       0.27223420      -1.92133592
C       -0.16973324       0.62178210      -0.63975034
O       -0.61491941      -0.53204067      -1.36939522
N       -0.26325937      -0.85224298       2.46441679
H        1.41015301      -0.17617490      -1.94842803
H        0.13670805       0.80034132      -2.81989954
H       -0.84649539       1.47567633      -0.59877697
H       -0.78582176      -1.04015231       1.62226532
H       -0.32996067       0.13556508       2.65807960
H        0.70355591      -1.06434267       2.27427086
H        0.33246091       0.35634403       0.28130071
11
Properties=species:S:1:pos:R:3 relative_energy_eV=0.07493936054561345 branch=left pbc="F F F"
C        0.42969444       0.27118235      -1.91520402
C       -0.17763493       0.61037299      -0.63581182
O       -0.61605376      -0.54115853      -1.36279677
N       -0.25879799      -0.84141907       2.44819986
H        1.41539357      -0.17800983      -1.94390972
H        0.13522874       0.80552452      -2.81185806
H       -0.84813628       1.46919600      -0.58882336
H       -0.77247814      -1.01600776       1.60054928
H       -0.32819013       0.14263669       2.65737870
H        0.70729604      -1.06380191       2.26884585
H        0.31328408       0.33847409       0.28617729
11
Properties=species:S:1:pos:R:3 relative_energy_eV=0.08685511264957313 branch=left pbc="F F F"
C        0.43074443       0.26408173      -1.91014353
C       -0.18642522       0.59631525      -0.63198209
O       -0.61997049      -0.54899737      -1.35819950
N       -0.25562961      -0.83131443       2.43299134
H        1.42165164      -0.18145468      -1.93802849
H        0.13669596       0.81474482      -2.80080621
H       -0.85406671       1.45547450      -0.57539343
H       -0.75555288      -0.98529885       1.57327302
H       -0.32391594       0.15056562       2.65500685
H        0.71225471      -1.06116411       2.26254262
H        0.29381978       0.32403709       0.29348663
11
Properties=species:S:1:pos:R:3 relative_energy_eV=0.10207443817671447 branch=left pbc="F F F"
C        0.42904368       0.25173796      -1.90536479
C       -0.19544988       0.58012001      -0.62751998
O       -0.62558792      -0.55566014      -1.35880095
N       -0.25407813      -0.82302056       2.41903333
H        1.42671488      -0.18624170      -1.93081011
H        0.14197272       0.82629616      -2.78565858
H       -0.86575319       1.43437339      -0.55950915
H       -0.73453876      -0.94753500       1.54078514
H       -0.31565627       0.15953667       2.65067179
H        0.71773588      -1.05495357       2.25564182
H        0.27520275       0.31233639       0.30427868
11
Properties=species:S:1:pos:R:3 relative_energy_eV=0.12416727274285222 branch=left pbc="F F F"
C        0.42488635       0.23691571      -1.89943993
C       -0.20399738       0.56367557      -0.62110454
O       -0.63204397      -0.56260570      -1.36693317
N       -0.25501155      -0.81633075       2.40666341
H        1.42734298      -0.19277906      -1.92236423
H        0.15183899       0.83863389      -2.76665839
H       -0.88498651       1.40601486      -0.54330465
H       -0.70956334      -0.90329843       1.50354657
H       -0.30155320       0.16855054       2.64467316
H        0.72331767      -1.04380582       2.24901767
H        0.25937579       0.30201883       0.31865127
11
Properties=species:S:1:pos:R:3 relative_energy_eV=0.14644429882991972 branch=left pbc="F F F"
C        0.42028594       0.22836409      -1.89232208
C       -0.20930403       0.55189602      -0.61376304
O       -0.63734437      -0.56974195      -1.37923288
N       -0.25683420      -0.81211747       2.39659084
H        1.42271432      -0.19977823      -1.91530433
H        0.16273560       0.84702371      -2.75054911
H       -0.90545234       1.38069035      -0.53311382
H       -0.68881421      -0.86715365       1.47367001
H       -0.28598121       0.17448161       2.63981806
H        0.72606232      -1.03125902       2.24559060
H        0.25153808       0.29458421       0.33136290
11
Properties=species:S:1:pos:R:3 relative_energy_eV=0.18042379002508824 branch=left pbc="F F F"
C        0.41673922       0.22753271      -1.87917650
C       -0.21559413       0.53777634      -0.60041235
O       -0.64454381      -0.58129658      -1.39821664
N       -0.25946203      -0.80491940       2.37947176
H        1.40912379      -0.21168441      -1.90630572
H        0.17899732       0.85508774      -2.73213985
H       -0.93607448       1.34772727      -0.52655918
H       -0.66481326      -0.82511299       1.43788736
H       -0.26145241       0.17859142       2.63583891
H        0.72699886      -1.01196177       2.24553598
H        0.24968695       0.28524937       0.34682339
11
Properties=species:S:1:pos:R:3 relative_energy_eV=0.1982577295466399 branch=left pbc="F F F"
C        0.41655808       0.23195085      -1.87231715
C       -0.21892326       0.53023824      -0.59351550
O       -0.64788558      -0.58644414      -1.40543568
N       -0.25988330      -0.80045555       2.36896498
H        1.40148437      -0.21813628      -1.90241104
H        0.18637683       0.85776427      -2.72544677
H       -0.95016637       1.33399257      -0.52615213
H       -0.65625427      -0.80932357       1.42328318
H       -0.24978811       0.17945424       2.63562614
H        0.72656320      -1.00307407       2.24732145
H        0.25152446       0.28102315       0.35282965
11
Properties=species:S:1:pos:R:3 relative_energy_eV=0.2322378123390081 branch=left pbc="F F F"
C        0.42144306       0.24621625      -1.85923531
C       -0.22910219       0.51245422      -0.57943920
O       -0.65387234      -0.59312179      -1.41179672
N       -0.25667466      -0.78451024       2.34005367
H        1.38637188      -0.23117213      -1.89471842
H        0.19784346       0.86275356      -2.71697882
H       -0.97275827       1.31189745      -0.52938627
H       -0.64776059      -0.78980066       1.39990981
H       -0.23105409       0.17845125       2.64001040
H        0.72557602      -0.99040506       2.25408535
H        0.25959383       0.27422688       0.36024261
11
Properties=species:S:1:pos:R:3 relative_energy_eV=0.2810545118700247 branch=left pbc="F F F"
C        0.42413517       0.25768036      -1.84800482
C       -0.23994086       0.49505114      -0.56777773
O       -0.65719349      -0.59545258      -1.41351390
N       -0.25014502      -0.76592216       2.31042986
H        1.37581910      -0.24341327      -1.88682558
H        0.20641447       0.86868034      -2.71017037
H       -0.99000331       1.29337880      -0.53227407
H       -0.64397792      -0.77675811       1.37946370
H       -0.21805718       0.17743516       2.64643757
H        0.72522548      -0.98285354       2.26074803
H        0.26732972       0.26916361       0.36423438
11
Properties=species:S:1:pos:R:3 relative_energy_eV=0.324016796068463 branch=left pbc="F F F"
C        0.42601869       0.26953186      -1.84709483
C       -0.24134009       0.49841804      -0.56667700
O       -0.64764422      -0.58658843      -1.39749764
N       -0.26563259      -0.77336119       2.30872083
H        1.36694882      -0.25505795      -1.88580335
H        0.21072355       0.87662488      -2.72423506
H       -1.00671279       1.28460051      -0.54582816
H       -0.65103822      -0.78322042       1.37188429
H       -0.20223463       0.18552352       2.66124309
H        0.73730488      -0.97464606       2.27081500
H        0.27321279       0.25516498       0.35721993
11
Properties=species:S:1:pos:R:3 relative_energy_eV=0.38978793380374555 branch=left pbc="F F F"
C        0.41925702       0.26502224      -1.84110369
C       -0.24874870       0.49755693      -0.56431963
O       -0.63978362      -0.58160224      -1.38595094
N       -0.24515465      -0.74566392       2.29302567
H        1.35805834      -0.27474075      -1.86897529
H        0.21998909       0.89738954      -2.71567043
H       -1.03300566       1.25354444      -0.54556184
H       -0.65618258      -0.77280645       1.32894012
H       -0.19674998       0.19315772       2.67891128
H        0.74317403      -0.97888786       2.27840500
H        0.27875297       0.24402012       0.34504683
11
Properties=species:S:1:pos:R:3 relative_energy_eV=0.5168194893067266 branch=left pbc="F F F"
C        0.40630555       0.24948724      -1.84986821
C       -0.23676990       0.52610298      -0.57361543
O       -0.62680071      -0.57960458      -1.37091823
N       -0.24014633      -0.73620124       2.29181329
H        1.35133859      -0.29130051      -1.85293063
H        0.22647037       0.92115564      -2.71033213
H       -1.06078274       1.22886485      -0.54575584
H       -0.66117735      -0.77160551       1.30116445
H       -0.19369477       0.20816132       2.70046442
H        0.75560003      -0.98633806       2.28586676
H        0.27926359       0.22826766       0.32685861
11
Properties=species:S:1:pos:R:3 relative_energy_eV=0.7178556036687951 branch=left pbc="F F F"
C        0.38852461       0.21277506      -1.86685628
C       -0.21938212       0.56449355      -0.58036781
O       -0.62734572      -0.60093507      -1.37609935
N       -0.21720275      -0.70153041       2.25353908
H        1.34307076      -0.30869516      -1.82107058
H        0.23695186       0.95298941      -2.67146431
H       -1.09665757       1.18975538      -0.52820925
H       -0.64999656      -0.75016704       1.26509559
H       -0.19934721       0.22347002       2.72108182
H        0.76168450      -1.00366431       2.29018288
H        0.27930659       0.21849841       0.31691527
11
Properties=species:S:1:pos:R:3 relative_energy_eV=1.010675264148631 branch=left pbc="F F F"
C        0.37747048       0.17561906      -1.88191256
C       -0.20449066       0.57962584      -0.58415672
O       -0.64883879      -0.63840863      -1.39766162
N       -0.18118607      -0.64314815       2.18077707
H        1.33531385      -0.32212440      -1.78306853
H        0.24923650       0.98041453      -2.60814420
H       -1.13358698       1.14933407      -0.49726511
H       -0.62442939      -0.71049938       1.22751804
H       -0.21052591       0.22971131       2.73180492
H        0.75911371      -1.02410727       2.28987624
H        0.28152976       0.22057291       0.32497949
11
Properties=species:S:1:pos:R:3 relative_energy_eV=1.2270454497074752 branch=left pbc="F F F"
C        0.37336077       0.15614689      -1.87496521
C       -0.20949771       0.55385452      -0.57749830
O       -0.67448369      -0.66468667      -1.42364403
N       -0.13922121      -0.58517112       2.11093714
H        1.33189796      -0.32985729      -1.75563261
H        0.25900423       0.99356530      -2.55391672
H       -1.15212859       1.11769341      -0.46806189
H       -0.60011198      -0.66785397       1.19055479
H       -0.22167421       0.22663077       2.72920276
H        0.74797609      -1.03748512       2.28448676
H        0.28448495       0.23415320       0.34128429
11
Properties=species:S:1:pos:R:3 relative_energy_eV=1.404572455779089 branch=left pbc="F F F"
C        0.37174687       0.14575376      -1.85268820
C       -0.22886890       0.50154219      -0.56144060
O       -0.70148146      -0.68302848      -1.45313023
N       -0.09417414      -0.52629246       2.04382482
H        1.33089486      -0.33532492      -1.73311547
H        0.26800808       0.99919450      -2.50339047
H       -1.15931741       1.08793054      -0.43912453
H       -0.57500891      -0.62013230       1.14857189
H       -0.23267738       0.21917523       2.71841932
H        0.73351640      -1.04741731       2.27533319
H        0.28696869       0.25558919       0.35948722
11
Properties=species:S:1:pos:R:3 relative_energy_eV=1.593531154716402 branch=left pbc="F F F"
C        0.37323378       0.14146815      -1.81588039
C       -0.25900404       0.42694806      -0.53685249
O       -0.72978902      -0.69472029      -1.48577066
N       -0.04128524      -0.46765151       1.98247335
H        1.33074539      -0.33884513      -1.71366363
H        0.27666548       0.99909956      -2.45476678
H       -1.15825245       1.05886725      -0.40954533
H       -0.55086427      -0.56790357       1.09881679
H       -0.24413814       0.20944395       2.70078314
H        0.71451615      -1.05351564       2.26152859
H        0.28777916       0.28379914       0.37562433
11
Properties=species:S:1:pos:R:3 relative_energy_eV=1.7022502273257487 branch=left pbc="F F F"
C        0.37331782       0.14387328      -1.78600608
C       -0.27970133       0.37666105      -0.52164568
O       -0.74317982      -0.69573228      -1.50350778
N       -0.01584575      -0.43524858       1.94946740
H        1.33181037      -0.33995261      -1.70604314
H        0.28070543       0.99546779      -2.43270993
H       -1.15279982       1.04575208      -0.39494008
H       -0.53984312      -0.54033751       1.07041639
H       -0.24974941       0.20424509       2.68964416
H        0.70743179      -1.05774643       2.25422474
H        0.28746070       0.30000813       0.38384689
11
Properties=species:S:1:pos:R:3 relative_energy_eV=1.8800504294940765 branch=left pbc="F F F"
C        0.37566934       0.15534286      -1.73575990
C       -0.33421754       0.30640680      -0.49318146
O       -0.75366617      -0.68798084      -1.52381875
N        0.02722487      -0.39563118       1.91912478
H        1.33654183      -0.34189750      -1.70287480
H        0.28458895       0.98566799      -2.41470751
H       -1.12878174       1.02731855      -0.38146167
H       -0.53821705      -0.51043918       1.02517802
H       -0.25756801       0.19794959       2.67257539
H        0.69604109      -1.05980549       2.24174582
H        0.29199137       0.32005841       0.39592694
11
Properties=species:S:1:pos:R:3 relative_energy_eV=1.9428546581902992 branch=left pbc="F F F"
C        0.37278992       0.15690245      -1.72144557
C       -0.34661735       0.29182652      -0.48932966
O       -0.75358137      -0.68430580      -1.52729435
N        0.03505134      -0.38645914       1.91383499
H        1.33880824      -0.34286450      -1.70302039
H        0.28521018       0.98455436      -2.41335816
H       -1.12276124       1.02347540      -0.37949917
H       -0.53931738      -0.50536621       1.01509309
H       -0.25867872       0.19637461       2.66880921
H        0.69480802      -1.06089868       2.23979305
H        0.29389530       0.32375101       0.39916382
11
Properties=species:S:1:pos:R:3 relative_energy_eV=2.1485625123941645 branch=left pbc="F F F"
C        0.37345855       0.15539486      -1.72093721
C       -0.31222161       0.29380561      -0.44915194
O       -0.75749221      -0.68750083      -1.53100683
N        0.02188739      -0.39369393       1.90151839
H        1.33822588      -0.34250717      -1.70215990
H        0.28526024       0.98587184      -2.41299463
H       -1.12836528       1.02579704      -0.38106299
H       -0.52784377      -0.50294656       1.03114456
H       -0.25803217       0.19722292       2.67085540
H        0.69529957      -1.06018001       2.24086444
H        0.26943036       0.32572627       0.35567755
11
Properties=species:S:1:pos:R:3 relative_energy_eV=2.41564809605552 branch=left pbc="F F F"
C        0.37530195       0.15940960      -1.71073825
C       -0.36438943       0.25219740      -0.45813749
O       -0.76316005      -0.68575654      -1.54418329
N        0.06251831      -0.36125167       1.89657929
H        1.33998711      -0.34292666      -1.70046131
H        0.28591538       0.98435168      -2.40991330
H       -1.11906310       1.02618267      -0.37932301
H       -0.56676224      -0.49537743       0.94002781
H       -0.25412119       0.19894547       2.67360385
H        0.70133104      -1.05975258       2.24520434
H        0.30204919       0.32096810       0.45008820
11
Properties=species:S:1:pos:R:3 relative_energy_eV=3.1239286725376587 branch=left pbc="F F F"
C        0.37698379       0.16270529      -1.70077900
C       -0.41068096       0.21096152      -0.46092995
O       -0.76990574      -0.68494176      -1.55861961
N        0.10122278      -0.33002542       1.88975647
H        1.34144076      -0.34322798      -1.69836818
H        0.28654223       0.98331204      -2.40631434
H       -1.11073978       1.02696633      -0.37791931
H       -0.60500977      -0.48718995       0.84799471
H       -0.24929138       0.20092200       2.67714279
H        0.70785512      -1.05852145       2.25027171
H        0.33118991       0.31602939       0.54051159
11
Properties=species:S:1:pos:R:3 relative_energy_eV=3.287430452210174 branch=left pbc="F F F"
C        0.37931125       0.16290059      -1.69785350
C       -0.42616687       0.19752934      -0.46109693
O       -0.77078817      -0.68286984      -1.56140867
N        0.11415272      -0.32201355       1.89165882
H        1.34119461      -0.34291436      -1.69821160
H        0.28656892       0.98314956      -2.40615578
H       -1.10797135       1.02718324      -0.37759802
H       -0.61693872      -0.48546325       0.82195492
H       -0.24834476       0.20105868       2.67743774
H        0.70852159      -1.05762058       2.25087495
H        0.34006775       0.31605018       0.56314491
11
Properties=species:S:1:pos:R:3 relative_energy_eV=3.4994219610771324 branch=ts pbc="F F F"
C        0.37954020       0.16268645      -1.69684048
C       -0.43077837       0.19385749      -0.46076378
O       -0.77079535      -0.68252796      -1.56231832
N        0.11783988      -0.31935170       1.89178110
H        1.34099618      -0.34284818      -1.69799663
H        0.28669457       0.98347985      -2.40642260
H       -1.10269813       1.03201687      -0.37870595
H       -0.64189621      -0.46749847       0.71942861
H       -0.24727665       0.20263483       2.67737322
H        0.71069481      -1.05651579       2.25068030
H        0.35768230       0.29406353       0.66378854
11
Properties=species:S:1:pos:R:3 relative_energy_eV=3.2824472536512985 branch=right pbc="F F F"
C        0.37976914       0.16247231      -1.69582746
C       -0.43538987       0.19018565      -0.46043062
O       -0.77080254      -0.68218608      -1.56322798
N        0.12152705      -0.31668985       1.89190337
H        1.34079774      -0.34278200      -1.69778165
H        0.28682022       0.98381015      -2.40668942
H       -1.09742490       1.03685050      -0.37981389
H       -0.66685371      -0.44953370       0.61690229
H       -0.24620853       0.20421099       2.67730869
H        0.71286803      -1.05541101       2.25048564
H        0.37529685       0.27207688       0.76443218
11
Properties=species:S:1:pos:R:3 relative_energy_eV=3.1096718133367176 branch=right pbc="F F F"
C        0.37886370       0.16082798      -1.69265337
C       -0.45033104       0.17959319      -0.45759784
O       -0.76986420      -0.68158349      -1.56944339
N        0.13332847      -0.30711540       1.89127925
H        1.34092689      -0.34310198      -1.69783049
H        0.28696165       0.98412216      -2.40678158
H       -1.09674672       1.04003610      -0.38067338
H       -0.66600368      -0.44205775       0.59237219
H       -0.24595429       0.20531512       2.67652708
H        0.71385679      -1.05505067       2.24948374
H        0.37536193       0.26201857       0.79257894
11
Properties=species:S:1:pos:R:3 relative_energy_eV=2.397473300347883 branch=right pbc="F F F"
C        0.37357897       0.15893548      -1.68177178
C       -0.49247248       0.14804915      -0.44984805
O       -0.77133865      -0.68454757      -1.59085944
N        0.17289464      -0.27925127       1.89778000
H        1.34107035      -0.34455613      -1.69687034
H        0.28813655       0.98340158      -2.40372251
H       -1.09608241       1.05037513      -0.38373857
H       -0.66732406      -0.41880174       0.50131713
H       -0.24414781       0.21033904       2.67276532
H        0.71778114      -1.05201192       2.24458484
H        0.37830327       0.23107207       0.88762452
11
Properties=species:S:1:pos:R:3 relative_energy_eV=2.068482941360344 branch=right pbc="F F F"
C        0.36845123       0.15741282      -1.67120119
C       -0.53585447       0.11333044      -0.43781194
O       -0.77268255      -0.68738481      -1.61250515
N        0.21339695      -0.25061286       1.90372611
H        1.34162555      -0.34612267      -1.69607607
H        0.28934763       0.98284213      -2.40121757
H       -1.09545576       1.06136930      -0.38703205
H       -0.66814997      -0.39343035       0.40728450
H       -0.24253614       0.21506087       2.66944814
H        0.72144218      -1.04918487       2.24009563
H        0.38081485       0.19972383       0.98255070
11
Properties=species:S:1:pos:R:3 relative_energy_eV=1.9237804554195463 branch=right pbc="F F F"
C        0.36815266       0.15685417      -1.66897672
C       -0.53531570       0.12674381      -0.46363005
O       -0.77214062      -0.68529398      -1.61097005
N        0.21079614      -0.25602581       1.91462317
H        1.34217550      -0.34609533      -1.69618498
H        0.28899256       0.98283258      -2.40178300
H       -1.09507751       1.05977132      -0.38671453
H       -0.66798473      -0.40590584       0.43286661
H       -0.24273796       0.21342930       2.67096203
H        0.72031362      -1.04970258       2.24190644
H        0.38322553       0.20639619       0.96516217
11
Properties=species:S:1:pos:R:3 relative_energy_eV=1.8121662161493077 branch=right pbc="F F F"
C        0.37004939       0.15905417      -1.66563595
C       -0.56027357       0.12249193      -0.48445617
O       -0.77446368      -0.68391740      -1.62298469
N        0.22689344      -0.24924409       1.93166693
H        1.34423936      -0.34685680      -1.69558685
H        0.28909582       0.98139855      -2.40223082
H       -1.09678906       1.06661911      -0.39026763
H       -0.66377052      -0.40993623       0.42776931
H       -0.24471401       0.21252566       2.67835691
H        0.72070037      -1.05364353       2.24753439
H        0.38943200       0.20451245       0.97309563
11
Properties=species:S:1:pos:R:3 relative_energy_eV=1.555066936318326 branch=right pbc="F F F"
C        0.37592793       0.16568626      -1.65761263
C       -0.64091081       0.10801072      -0.54179665
O       -0.78596484      -0.68061893      -1.67074783
N        0.28534156      -0.21721338       1.97320240
H        1.34895932      -0.34870476      -1.69095783
H        0.29049462       0.97581956      -2.40215533
H       -1.10830437       1.09048790      -0.40691077
H       -0.64695789      -0.42299895       0.40440805
H       -0.25375529       0.21018070       2.70853374
H        0.72351747      -1.07194119       2.27009311
H        0.41205186       0.19429578       1.01120466
11
Properties=species:S:1:pos:R:3 relative_energy_eV=1.340047906491236 branch=right pbc="F F F"
C        0.37382240       0.16920226      -1.64998727
C       -0.71556079       0.09556581      -0.58687045
O       -0.80190099      -0.67710104      -1.73252170
N        0.35825475      -0.18151646       2.03159243
H        1.35012126      -0.35013562      -1.68157046
H        0.29433467       0.96974439      -2.39924787
H       -1.12913880       1.11243117      -0.43290311
H       -0.63011305      -0.43521582       0.36198610
H       -0.26030821       0.20249837       2.73398022
H        0.72019021      -1.08500642       2.29160157
H        0.44069816       0.18253696       1.06120127
11
Properties=species:S:1:pos:R:3 relative_energy_eV=1.1552764608368307 branch=right pbc="F F F"
C        0.36613212       0.16881182      -1.64537555
C       -0.77119441       0.08711903      -0.62302418
O       -0.81643781      -0.67092408      -1.78844760
N        0.43087376      -0.14660694       2.09081916
H        1.34728848      -0.35074543      -1.67047177
H        0.29929383       0.96540425      -2.39523230
H       -1.15220445       1.12670051      -0.46065095
H       -0.61810193      -0.44535879       0.31776782
H       -0.26630518       0.19288607       2.75419638
H        0.71426683      -1.09654578       2.31074875
H        0.46678842       0.17226287       1.10693080
11
Properties=species:S:1:pos:R:3 relative_energy_eV=0.9961621005086272 branch=right pbc="F F F"
C        0.35385271       0.16604036      -1.64581737
C       -0.80761074       0.08271565      -0.65156423
O       -0.83092964      -0.66259325      -1.83919051
N        0.50280832      -0.11439559       2.15236466
H        1.33965888      -0.35075745      -1.65702696
H        0.30555752       0.96270521      -2.38972388
H       -1.17797693       1.13296377      -0.49044438
H       -0.60981226      -0.45340045       0.27372052
H       -0.26956925       0.18050206       2.76798983
H        0.70500769      -1.10323537       2.32763109
H        0.48941342       0.16245849       1.14932159
11
Properties=species:S:1:pos:R:3 relative_energy_eV=0.7587600089027546 branch=right pbc="F F F"
C        0.33189956       0.15719582      -1.65696425
C       -0.80830439       0.08749881      -0.66696672
O       -0.84760748      -0.64852828      -1.88385236
N        0.57357749      -0.08652060       2.21728545
H        1.32076516      -0.34986000      -1.63680752
H        0.31528130       0.96426068      -2.38152637
H       -1.21401513       1.12298202      -0.52837914
H       -0.60576941      -0.45881159       0.22757484
H       -0.26434802       0.16125435       2.77135232
H        0.68958298      -1.09937188       2.34374849
H        0.50933770       0.15290400       1.19179543
11
Properties=species:S:1:pos:R:3 relative_energy_eV=0.4998118989797149 branch=right pbc="F F F"
C        0.30386739       0.14180447      -1.68736728
C       -0.76766530       0.10598969      -0.67479911
O       -0.87002791      -0.62400045      -1.91490048
N        0.64235232      -0.06303734       2.27852155
H        1.28507080      -0.34964165      -1.60635279
H        0.33083745       0.97566262      -2.37257302
H       -1.26850856       1.08913130      -0.57969243
H       -0.60481783      -0.46667386       0.18792349
H       -0.24732680       0.13290386       2.76408576
H        0.66707589      -1.08434063       2.36298271
H        0.52954240       0.14520519       1.23943153
11
Properties=species:S:1:pos:R:3 relative_energy_eV=0.37851587110071705 branch=right pbc="F F F"
C        0.30079191       0.13913983      -1.71249049
C       -0.72663823       0.12498332      -0.66918042
O       -0.88006026      -0.61408822      -1.90277061
N        0.64108383      -0.06855989       2.27691059
H        1.26485964      -0.35320817      -1.59347143
H        0.33975993       0.98862060      -2.37262692
H       -1.29337901       1.05942915      -0.59699305
H       -0.60852608      -0.47274507       0.19548139
H       -0.23326958       0.12394711       2.75348661
H        0.66078036      -1.07349803       2.36848745
H        0.53499737       0.14898255       1.25042671
11
Properties=species:S:1:pos:R:3 relative_energy_eV=0.315315898501467 branch=right pbc="F F F"
C        0.29964292       0.14140815      -1.73223669
C       -0.70987359       0.13687705      -0.68210593
O       -0.89136430      -0.60410129      -1.89698699
N        0.65763726      -0.06279037       2.28038639
H        1.24781478      -0.36212119      -1.58114283
H        0.35124802       1.00527089      -2.37772893
H       -1.32241209       1.03455541      -0.61468713
H       -0.60914594      -0.48048406       0.19794137
H       -0.22807123       0.11981148       2.75153417
H        0.65820100      -1.07623571       2.37790925
H        0.54672307       0.15081276       1.27437703
11
Properties=species:S:1:pos:R:3 relative_energy_eV=0.2768846629805921 branch=right pbc="F F F"
C        0.30451652       0.14923271      -1.73934473
C       -0.70764275       0.13890071      -0.68630953
O       -0.89291711      -0.60417155      -1.88584347
N        0.64861701      -0.07218811       2.27652454
H        1.24220150      -0.37240152      -1.57985070
H        0.35867025       1.01713723      -2.38521188
H       -1.33440066       1.02129897      -0.61379421
H       -0.61243953      -0.47950950       0.20116416
H       -0.22420317       0.12816698       2.74754083
H        0.66608334      -1.07793999       2.37729795
H        0.55191452       0.15447713       1.28508670
11
Properties=species:S:1:pos:R:3 relative_energy_eV=0.22587885132361407 branch=right pbc="F F F"
C        0.30759092       0.16164716      -1.74519521
C       -0.72284981       0.13832097      -0.70497860
O       -0.89570234      -0.60412856      -1.88941335
N        0.65621035      -0.07909165       2.29577621
H        1.23103190      -0.39034491      -1.57699065
H        0.37331469       1.03392065      -2.39609247
H       -1.36262337       1.00532674      -0.61698521
H       -0.61491898      -0.47759161       0.18904164
H       -0.22103359       0.14390339       2.74678189
H        0.68113829      -1.08654140       2.37964526
H        0.56824191       0.15758223       1.31567002
11
Properties=species:S:1:pos:R:3 relative_energy_eV=0.17995715597771778 branch=right pbc="F F F"
C        0.30677346       0.17388109      -1.74759951
C       -0.74537494       0.13638727      -0.72745464
O       -0.89574162      -0.60528324      -1.91049138
N        0.66955238      -0.08718083       2.33219930
H        1.21558496      -0.40877832      -1.57570307
H        0.39095267       1.04714153      -2.40495840
H       -1.40006211       0.99215874      -0.62074412
H       -0.61826217      -0.47382090       0.16565406
H       -0.21647001       0.16374365       2.74856657
H        0.70090713      -1.09664725       2.38310993
H        0.59254028       0.16140118       1.35468061
11
Properties=species:S:1:pos:R:3 relative_energy_eV=0.15094888105431892 branch=right pbc="F F F"
C        0.30174281       0.17952096      -1.74917657
C       -0.76431063       0.13599501      -0.74555287
O       -0.89305724      -0.60394805      -1.94055601
N        0.68402158      -0.09170277       2.36740557
H        1.20007878      -0.41884400      -1.57601165
H        0.40520805       1.05079253      -2.40709150
H       -1.43384163       0.98347048      -0.62608280
H       -0.62208746      -0.47087820       0.14236016
H       -0.21200046       0.17759374       2.75403820
H        0.71608412      -1.10428481       2.38870583
H        0.61856214       0.16528794       1.38922082
11
Properties=species:S:1:pos:R:3 relative_energy_eV=0.13208172229042248 branch=right pbc="F F F"
C        0.29460034       0.17962624      -1.75199178
C       -0.77666513       0.13687551      -0.75867631
O       -0.88924562      -0.59917773      -1.96919831
N        0.69372468      -0.09445282       2.39311323
H        1.18710212      -0.42122486      -1.57762083
H        0.41539953       1.04748401      -2.40400469
H       -1.46013946       0.97673481      -0.63232529
H       -0.62725211      -0.46932922       0.12447108
H       -0.20720513       0.18475118       2.76202173
H        0.72596733      -1.10818380       2.39572857
H        0.64411356       0.16989944       1.41574167
11
Properties=species:S:1:pos:R:3 relative_energy_eV=0.11967859319429408 branch=right pbc="F F F"
C        0.28860253       0.17647218      -1.75590855
C       -0.78412997       0.13875476      -0.76769558
O       -0.88754017      -0.59275932      -1.99091620
N        0.69836151      -0.09596757       2.40747806
H        1.17910176      -0.41835380      -1.57971069
H        0.42148484       1.04132850      -2.39834729
H       -1.47657541       0.97104308      -0.63914333
H       -0.63367614      -0.46986141       0.11350629
H       -0.20303925       0.18598451       2.77154451
H        0.73073647      -1.10880125       2.40342216
H        0.66707398       0.17516303       1.43302960
11
Properties=species:S:1:pos:R:3 relative_energy_eV=0.11110764382920024 branch=right pbc="F F F"
C        0.28454556       0.17289136      -1.75980991
C       -0.78828240       0.13966113      -0.77498858
O       -0.88985911      -0.58664557      -2.00482854
N        0.69979227      -0.09672592       2.41439719
H        1.17635099      -0.41427596      -1.58128746
H        0.42511647       1.03699048      -2.39324560
H       -1.48589949       0.96620094      -0.64650970
H       -0.64159322      -0.47206942       0.10693864
H       -0.19953226       0.18380436       2.78122041
H        0.73232210      -1.10782888       2.41112739
H        0.68743923       0.18100017       1.44424506
11
Properties=species:S:1:pos:R:3 relative_energy_eV=0.10350471811398165 branch=right pbc="F F F"
C        0.28239219       0.16993298      -1.76361647
C       -0.79374412       0.13883685      -0.78339865
O       -0.89606487      -0.58127049      -2.01609756
N        0.70068596      -0.09748743       2.42059160
H        1.17703948      -0.41080771      -1.58261666
H        0.42826557       1.03571628      -2.38934859
H       -1.49255696       0.96162013      -0.65552639
H       -0.65260090      -0.47582877       0.10035079
H       -0.19625574       0.18060425       2.79217338
H        0.73329225      -1.10679634       2.41972541
H        0.70994731       0.18848290       1.45502200
11
Properties=species:S:1:pos:R:3 relative_energy_eV=0.09699045527031558 branch=right pbc="F F F"
C        0.28105881       0.16847404      -1.76720400
C       -0.80078651       0.13525987      -0.79315245
O       -0.90425138      -0.57700058      -2.02576003
N        0.70259662      -0.09851247       2.42920155
H        1.17957600      -0.40958925      -1.58354067
H        0.43150691       1.03857939      -2.38748294
H       -1.49856025       0.95790369      -0.66625537
H       -0.66684149      -0.48085238       0.09200945
H       -0.19306839       0.17783422       2.80319208
H        0.73467449      -1.10656025       2.42865203
H        0.73449537       0.19746634       1.46759915
11
Properties=species:S:1:pos:R:3 relative_energy_eV=0.09259381693482283 branch=right pbc="F F F"
C        0.28090913       0.16894007      -1.76994481
C       -0.80875207       0.13069766      -0.80098540
O       -0.91010822      -0.57509696      -2.03332172
N        0.70625752      -0.09941860       2.43943462
H        1.18132732      -0.41072918      -1.58431209
H        0.43374944       1.04384153      -2.38762272
H       -1.50266700       0.95628902      -0.67613618
H       -0.68060221      -0.48618128       0.08376977
H       -0.19084676       0.17660656       2.81110457
H        0.73632243      -1.10752979       2.43552481
H        0.75481063       0.20558357       1.47974789
11
Properties=species:S:1:pos:R:3 relative_energy_eV=0.0893994602465682 branch=right pbc="F F F"
C        0.28026622       0.17050815      -1.77197575
C       -0.81471033       0.12612767      -0.80620007
O       -0.91215663      -0.57457030      -2.03914186
N        0.71124095      -0.10005297       2.44979541
H        1.18095369      -0.41314151      -1.58510464
H        0.43473951       1.04978269      -2.38875245
H       -1.50552163       0.95643213      -0.68519502
H       -0.69317448      -0.49172294       0.07676367
H       -0.18900079       0.17608816       2.81560134
H        0.73756104      -1.10892097       2.44050070
H        0.77020266       0.21247247       1.49096738
11
Properties=species:S:1:pos:R:3 relative_energy_eV=0.0864909939973586 branch=right pbc="F F F"
C        0.27963102       0.17265745      -1.77352626
C       -0.82030570       0.12227724      -0.80948535
O       -0.91065602      -0.57501771      -2.04510019
N        0.71739970      -0.10046322       2.46059201
H        1.17836778      -0.41562871      -1.58681103
H        0.43413912       1.05536767      -2.38981187
H       -1.50664068       0.95787447      -0.69463552
H       -0.70636067      -0.49848293       0.07091095
H       -0.18707849       0.17560201       2.81830428
H        0.73832968      -1.11051125       2.44476080
H        0.78357449       0.21932755       1.50206085
11
Properties=species:S:1:pos:R:3 relative_energy_eV=0.0841431168737472 branch=right pbc="F F F"
C        0.27813540       0.17462939      -1.77436277
C       -0.82320538       0.11951310      -0.81133231
O       -0.90633662      -0.57549936      -2.05017293
N        0.72328807      -0.10078674       2.46947948
H        1.17415523      -0.41735576      -1.58932659
H        0.43219018       1.05941176      -2.39012305
H       -1.50676167       0.95976663      -0.70348872
H       -0.71880859      -0.50537450       0.06714793
H       -0.18476946       0.17480084       2.81934530
H        0.73845765      -1.11151642       2.44818569
H        0.79405541       0.22541359       1.51190661
11
Properties=species:S:1:pos:R:3 relative_energy_eV=0.0827208646460349 branch=right pbc="F F F"
C        0.27730559       0.17574216      -1.77430652
C       -0.82490693       0.11873404      -0.81240856
O       -0.90204058      -0.57590126      -2.05399584
N        0.72695379      -0.10100493       2.47450886
H        1.17053847      -0.41745267      -1.59225365
H        0.42974339       1.06049734      -2.38912462
H       -1.50600889       0.96090461      -0.70929349
H       -0.72763200      -0.51024483       0.06566779
H       -0.18270321       0.17416836       2.81973268
H        0.73849995      -1.11183648       2.45025197
H        0.80065068       0.22939618       1.51848001
11
Properties=species:S:1:pos:R:3 relative_energy_eV=0.0818724589962585 branch=right pbc="F F F"
C        0.27659674       0.17607129      -1.77375321
C       -0.82524265       0.11850607      -0.81381702
O       -0.89968650      -0.57596231      -2.05622874
N        0.72881171      -0.10123910       2.47675356
H        1.16874787      -0.41682616      -1.59470229
H        0.42774991       1.06026405      -2.38748997
H       -1.50574450       0.96108725      -0.71254071
H       -0.73334098      -0.51275906       0.06490438
H       -0.18097620       0.17390515       2.81997182
H        0.73875075      -1.11157075       2.45123604
H        0.80473409       0.23152607       1.52292474
11
Properties=species:S:1:pos:R:3 relative_energy_eV=0.08111610181185824 branch=right pbc="F F F"
C        0.27643910       0.17596534      -1.77294448
C       -0.82657741       0.11824940      -0.81615481
O       -0.89884741      -0.57623640      -2.05868163
N        0.73040589      -0.10146093       2.47916096
H        1.16841273      -0.41583258      -1.59738592
H        0.42565809       1.05982105      -2.38511579
H       -1.50561550       0.96086185      -0.71526771
H       -0.73923000      -0.51460395       0.06334341
H       -0.17921465       0.17414221       2.82065877
H        0.73956175      -1.11127138       2.45180639
H        0.80940766       0.23336787       1.52783939
11
Properties=species:S:1:pos:R:3 relative_energy_eV=0.08028095164354454 branch=right pbc="F F F"
C        0.27612020       0.17532428      -1.77215167
C       -0.82873046       0.11722039      -0.81991574
O       -0.89930737      -0.57677613      -2.06178003
N        0.73279780      -0.10176083       2.48330051
H        1.16951603      -0.41480377      -1.60046916
H        0.42309553       1.06016897      -2.38179372
H       -1.50594768       0.96060366      -0.71878231
H       -0.74740160      -0.51669559       0.05997365
H       -0.17706219       0.17494151       2.82177552
H        0.74105026      -1.11092269       2.45209291
H        0.81626977       0.23570268       1.53500857
11
Properties=species:S:1:pos:R:3 relative_energy_eV=0.07951862151367095 branch=right pbc="F F F"
C        0.27589517       0.17407825      -1.77199483
C       -0.83213423       0.11562299      -0.82420091
O       -0.90078070      -0.57774883      -2.06553142
N        0.73598002      -0.10198703       2.48944591
H        1.17176049      -0.41399368      -1.60332276
H        0.42038041       1.06162651      -2.37798946
H       -1.50644839       0.96073087      -0.72282552
H       -0.75705646      -0.51927383       0.05499028
H       -0.17499321       0.17628117       2.82318784
H        0.74303418      -1.11084056       2.45194382
H        0.82476304       0.23850660       1.54355554
11
Properties=species:S:1:pos:R:3 relative_energy_eV=0.07908508788386825 branch=right pbc="F F F"
C        0.27537483       0.17267284      -1.77278743
C       -0.83458823       0.11412965      -0.82695497
O       -0.90210515      -0.57861383      -2.06823293
N        0.73871034      -0.10209548       2.49483440
H        1.17372515      -0.41377666      -1.60459879
H        0.41859864       1.06363418      -2.37522074
H       -1.50698282       0.96133203      -0.72582696
H       -0.76422977      -0.52158715       0.05075112
H       -0.17384870       0.17750101       2.82405971
H        0.74452154      -1.11091912       2.45131412
H        0.83122450       0.24072497       1.54992095
11
Properties=species:S:1:pos:R:3 relative_energy_eV=0.07892690728203888 branch=right pbc="F F F"
C        0.27503269       0.17171187      -1.77377257
C       -0.83545735       0.11357944      -0.82740018
O       -0.90250658      -0.57912690      -2.06917522
N        0.73973808      -0.10203974       2.49706872
H        1.17447700      -0.41380988      -1.60445527
H        0.41797330       1.06480620      -2.37400580
H       -1.50694326       0.96200493      -0.72666177
H       -0.76673640      -0.52290029       0.04911223
H       -0.17375447       0.17813879       2.82413634
H        0.74504703      -1.11103779       2.45041733
H        0.83353030       0.24167580       1.55199465
11
Properties=species:S:1:pos:R:3 relative_energy_eV=0.07884601025943994 branch=right pbc="F F F"
C        0.27474423       0.17108318      -1.77442881
C       -0.83518362       0.11349191      -0.82680516
O       -0.90242105      -0.57940497      -2.06898326
N        0.73968742      -0.10193782       2.49707826
H        1.17460286      -0.41383466      -1.60378410
H        0.41779230       1.06526204      -2.37346297
H       -1.50642242       0.96259897      -0.72621858
H       -0.76679180      -0.52359311       0.04907309
H       -0.17412060       0.17841585       2.82373591
H        0.74501935      -1.11101240       2.44930989
H        0.83349368       0.24193344       1.55174420
11
Properties=species:S:1:pos:R:3 relative_energy_eV=0.07877098637072777 branch=right pbc="F F F"
C        0.27456355       0.17052172      -1.77477898
C       -0.83453879       0.11352678      -0.82576308
O       -0.90221102      -0.57969728      -2.06831941
N        0.73902656      -0.10176717       2.49595450
H        1.17451728      -0.41377211      -1.60286709
H        0.41763905       1.06536370      -2.37289791
H       -1.50530191       0.96324831      -0.72501200
H       -0.76595700      -0.52426376       0.04971177
H       -0.17472311       0.17861820       2.82304781
H        0.74476226      -1.11089609       2.44769699
H        0.83262348       0.24212015       1.55048587
11
Properties=species:S:1:pos:R:3 relative_energy_eV=0.07867780280412262 branch=right pbc="F F F"
C        0.27437893       0.16996053      -1.77473743
C       -0.83359874       0.11342034      -0.82444969
O       -0.90206480      -0.58001896      -2.06733023
N        0.73791698      -0.10152863       2.49390637
H        1.17425538      -0.41370017      -1.60159387
H        0.41744249       1.06530158      -2.37200335
H       -1.50347319       0.96398044      -0.72307286
H       -0.76468146      -0.52527172       0.05068420
H       -0.17555926       0.17884419       2.82199411
H        0.74430086      -1.11062048       2.44519965
H        0.83148314       0.24263532       1.54866158
11
Properties=species:S:1:pos:R:3 relative_energy_eV=0.07853916607837164 branch=right pbc="F F F"
C        0.27418656       0.16942557      -1.77411692
C       -0.83268885       0.11291478      -0.82305116
O       -0.90220809      -0.58028230      -2.06635785
N        0.73646889      -0.10117263       2.49119782
H        1.17366325      -0.41377022      -1.59979129
H        0.41727191       1.06518773      -2.37046110
H       -1.50084212       0.96467513      -0.72035633
H       -0.76333928      -0.52707298       0.05157322
H       -0.17659169       0.17915747       2.82048005
H        0.74362632      -1.11015516       2.44137111
H        0.83085346       0.24409507       1.54677095
11
Properties=species:S:1:pos:R:3 relative_energy_eV=0.07834070236913249 branch=right pbc="F F F"
C        0.27386541       0.16901965      -1.77277338
C       -0.83229395       0.11164780      -0.82205126
O       -0.90294135      -0.58013613      -2.06608850
N        0.73518827      -0.10071017       2.48860936
H        1.17245763      -0.41432147      -1.59731685
H        0.41739425       1.06524123      -2.36799422
H       -1.49784752       0.96495740      -0.71716337
H       -0.76262602      -0.53019635       0.05157532
H       -0.17764366       0.17957853       2.81849522
H        0.74274739      -1.10943422       2.43600415
H        0.83209990       0.24735619       1.54596201
11
Properties=species:S:1:pos:R:3 relative_energy_eV=0.0780684644169014 branch=right pbc="F F F"
C        0.27332002       0.16881468      -1.77073655
C       -0.83319114       0.10930898      -0.82206327
O       -0.90452654      -0.57903391      -2.06755988
N        0.73479155      -0.10014465       2.48742575
H        1.17031781      -0.41580028      -1.59414955
H        0.41822332       1.06571062      -2.36434673
H       -1.49539815       0.96429289      -0.71405108
H       -0.76352658      -0.53521802       0.04964323
H       -0.17837800       0.18009442       2.81612646
H        0.74172386      -1.10845615       2.42913367
H        0.83704423       0.25343388       1.54783641
11
Properties=species:S:1:pos:R:3 relative_energy_eV=0.07772076492528868 branch=right pbc="F F F"
C        0.27245729       0.16875780      -1.76831494
C       -0.83592869       0.10583329      -0.82351952
O       -0.90698262      -0.57638460      -2.07161331
N        0.73605875      -0.09954611       2.48885712
H        1.16711969      -0.41862429      -1.59048371
H        0.42017485       1.06679231      -2.35945628
H       -1.49475773       0.96220926      -0.71162794
H       -0.76688751      -0.54241602       0.04501372
H       -0.17847736       0.18065848       2.81348490
H        0.74061812      -1.10721230       2.42111827
H        0.84700562       0.26293461       1.55380013
11
Properties=species:S:1:pos:R:3 relative_energy_eV=0.0773169544090706 branch=right pbc="F F F"
C        0.27140229       0.16860309      -1.76596903
C       -0.84027871       0.10168502      -0.82604554
O       -0.90985531      -0.57205279      -2.07799567
N        0.73900481      -0.09896369       2.49289787
H        1.16328024      -0.42280378      -1.58684027
H        0.42329134       1.06835629      -2.35358964
H       -1.49664847       0.95875218      -0.70992348
H       -0.77262336      -0.55131211       0.03814542
H       -0.17786752       0.18121461       2.81054492
H        0.73945439      -1.10574463       2.41243298
H        0.86124073       0.27526822       1.56360082
11
Properties=species:S:1:pos:R:3 relative_energy_eV=0.07689313647460949 branch=right pbc="F F F"
C        0.27051184       0.16804835      -1.76392680
C       -0.84482066       0.09778013      -0.82822025
O       -0.91234554      -0.56667098      -2.08475853
N        0.74251845      -0.09841929       2.49746880
H        1.15976104      -0.42778103      -1.58381418
H        0.42706889       1.06985614      -2.34737721
H       -1.50039011       0.95468521      -0.70791984
H       -0.77904917      -0.56053564       0.03113344
H       -0.17703499       0.18172163       2.80698069
H        0.73809762      -1.10404276       2.40327040
H        0.87608310       0.28836066       1.57442180
11
Properties=species:S:1:pos:R:3 relative_energy_eV=0.07640453336261999 branch=right pbc="F F F"
C        0.27020340       0.16686133      -1.76179574
C       -0.84807367       0.09467404      -0.82838427
O       -0.91397462      -0.56092087      -2.08973220
N        0.74505122      -0.09775149       2.49981485
H        1.15737504      -0.43310929      -1.58158619
H        0.43102584       1.07071696      -2.34094795
H       -1.50434448       0.95081191      -0.70385103
H       -0.78430888      -0.56932830       0.02614513
H       -0.17674002       0.18216479       2.80203606
H        0.73616657      -1.10198889       2.39259883
H        0.88802006       0.30087219       1.58296076
11
Properties=species:S:1:pos:R:3 relative_energy_eV=0.07583011155838904 branch=right pbc="F F F"
C        0.27078407       0.16482202      -1.75866204
C       -0.84905679       0.09221638      -0.82520921
O       -0.91477227      -0.55523274      -2.09140888
N        0.74542727      -0.09665460       2.49758114
H        1.15655686      -0.43872968      -1.57998981
H        0.43488581       1.07069087      -2.33347655
H       -1.50646289       0.94772784      -0.69584101
H       -0.78766202      -0.57831340       0.02455820
H       -0.17788980       0.18258610       2.79470236
H        0.73308393      -1.09931514       2.37809197
H        0.89550632       0.31320473       1.58691207
11
Properties=species:S:1:pos:R:3 relative_energy_eV=0.07524045327136264 branch=right pbc="F F F"
C        0.27222787       0.16218544      -1.75375535
C       -0.84761824       0.08980982      -0.81875335
O       -0.91525091      -0.55041074      -2.08935417
N        0.74320477      -0.09492796       2.49009872
H        1.15718148      -0.44427522      -1.57880710
H        0.43827530       1.07001510      -2.32445478
H       -1.50477328       0.94585301      -0.68375495
H       -0.78938077      -0.58795057       0.02649176
H       -0.18097268       0.18303721       2.78512256
H        0.72877475      -1.09606596       2.35894538
H        0.89873219       0.32573229       1.58547952
11
Properties=species:S:1:pos:R:3 relative_energy_eV=0.07466962234957464 branch=right pbc="F F F"
C        0.27436602       0.15955018      -1.74701170
C       -0.84417043       0.08718932      -0.80994335
O       -0.91580890      -0.54684257      -2.08390698
N        0.73886800      -0.09267258       2.47832666
H        1.15882499      -0.44952445      -1.57820335
H        0.44134327       1.06901959      -2.31442786
H       -1.49934847       0.94479758      -0.66887909
H       -0.78959073      -0.59729561       0.03128904
H       -0.18575962       0.18347332       2.77415519
H        0.72362857      -1.09239856       2.33659336
H        0.89804780       0.33770624       1.57926634
11
Properties=species:S:1:pos:R:3 relative_energy_eV=0.07417673992131313 branch=right pbc="F F F"
C        0.27650204       0.15765986      -1.73980890
C       -0.84044427       0.08432780      -0.80152826
O       -0.91672013      -0.54472475      -2.07755108
N        0.73416313      -0.09032827       2.46639859
H        1.16037960      -0.45396820      -1.57834548
H        0.44421152       1.06841317      -2.30488583
H       -1.49233749       0.94386063      -0.65520898
H       -0.78947845      -0.60488228       0.03662205
H       -0.19076901       0.18381271       2.76424537
H        0.71891208      -1.08896776       2.31565209
H        0.89598150       0.34779955       1.57166869
11
Properties=species:S:1:pos:R:3 relative_energy_eV=0.07378712548324984 branch=right pbc="F F F"
C        0.27797723       0.15681596      -1.73399797
C       -0.83778922       0.08167946      -0.79566176
O       -0.91781013      -0.54376036      -2.07256899
N        0.73087910      -0.08840389       2.45788691
H        1.16096195      -0.45731980      -1.57915979
H        0.44703111       1.06859685      -2.29734213
H       -1.48660465       0.94249221      -0.64601005
H       -0.78943509      -0.60935991       0.04070974
H       -0.19460639       0.18396641       2.75726862
H        0.71565527      -1.08620800       2.30038449
H        0.89414135       0.35450358       1.56574923
11
Properties=species:S:1:pos:R:3 relative_energy_eV=0.07348504730362038 branch=right pbc="F F F"
C        0.27848781       0.15639578      -1.72996904
C       -0.83729664       0.07877633      -0.79278643
O       -0.91915967      -0.54253235      -2.07096591
N        0.72975204      -0.08687508       2.45412421
H        1.15992298      -0.46060837      -1.57981014
H        0.45034671       1.06978257      -2.29037896
H       -1.48365219       0.94023789      -0.64098539
H       -0.79088900      -0.61308567       0.04213340
H       -0.19674547       0.18406562       2.75250814
H        0.71369172      -1.08380593       2.28917402
H        0.89594224       0.36065170       1.56421439
11
Properties=species:S:1:pos:R:3 relative_energy_eV=0.07322616729197762 branch=right pbc="F F F"
C        0.27860574       0.15610566      -1.72757085
C       -0.83720237       0.07656170      -0.79102313
O       -0.92003220      -0.54151784      -2.07012830
N        0.72957555      -0.08570056       2.45202223
H        1.15849666      -0.46353228      -1.58095281
H        0.45377947       1.07127928      -2.28445754
H       -1.48262171       0.93781123      -0.63852924
H       -0.79126033      -0.61431295       0.04363153
H       -0.19798273       0.18394820       2.74918261
H        0.71262026      -1.08142625       2.28177357
H        0.89642219       0.36378633       1.56331023
11
Properties=species:S:1:pos:R:3 relative_energy_eV=0.07298530107709666 branch=right pbc="F F F"
C        0.27812132       0.15459143      -1.72414375
C       -0.83963043       0.07178644      -0.78994695
O       -0.92195160      -0.53764201      -2.07333916
N        0.73072480      -0.08386123       2.45174181
H        1.15508142      -0.46964616      -1.58072403
H        0.45923138       1.07412650      -2.27249616
H       -1.48284557       0.93379034      -0.63467866
H       -0.79594277      -0.62191315       0.04224813
H       -0.19883557       0.18419489       2.74330674
H        0.71084929      -1.07764436       2.26735523
H        0.90559830       0.37521984       1.56793506
11
Properties=species:S:1:pos:R:3 relative_energy_eV=0.0727515847338509 branch=right pbc="F F F"
C        0.27805730       0.15340093      -1.72298956
C       -0.83994198       0.07008577      -0.78855523
O       -0.92205690      -0.53595528      -2.07362420
N        0.73080812      -0.08299244       2.44971182
H        1.15375841      -0.47302528      -1.58176278
H        0.46218222       1.07566012      -2.26557294
H       -1.48342046       0.93195539      -0.63318713
H       -0.79559963      -0.62286967       0.04416890
H       -0.19923599       0.18406920       2.74019161
H        0.71036536      -1.07488101       2.26128874
H        0.90548412       0.37755478       1.56758904
11
Properties=species:S:1:pos:R:3 relative_energy_eV=0.07254965884567355 branch=right pbc="F F F"
C        0.27811467       0.15142145      -1.72041186
C       -0.84106886       0.06728761      -0.78694835
O       -0.92279347      -0.53270572      -2.07541122
N        0.73086835      -0.08184259       2.44710734
H        1.15233413      -0.47769560      -1.58102188
H        0.46468857       1.07701142      -2.25623596
H       -1.48328519       0.93034643      -0.62917219
H       -0.79784922      -0.62901363       0.04409946
H       -0.19993739       0.18445887       2.73527119
H        0.70907302      -1.07208889       2.25036848
H        0.91025596       0.38582316       1.56961323
11
Properties=species:S:1:pos:R:3 relative_energy_eV=0.07237743002679053 branch=right pbc="F F F"
C        0.27868892       0.14901858      -1.71626716
C       -0.84169543       0.06407480      -0.78419533
O       -0.92362464      -0.52897945      -2.07629610
N        0.72978726      -0.08056817       2.44179200
H        1.15127725      -0.48333240      -1.57994643
H        0.46684558       1.07818726      -2.24479919
H       -1.48174154       0.92893276      -0.62322341
H       -0.79998356      -0.63645812       0.04446739
H       -0.20113416       0.18516171       2.72891966
H        0.70754835      -1.06886766       2.23652253
H        0.91443255       0.39583320       1.57028424
11
Properties=species:S:1:pos:R:3 relative_energy_eV=0.07226590766913432 branch=right pbc="F F F"
C        0.27931421       0.14744480      -1.71247391
C       -0.84200416       0.06157090      -0.78201292
O       -0.92447181      -0.52623035      -2.07648247
N        0.72903466      -0.07940873       2.43725378
H        1.15035747      -0.48780954      -1.57904135
H        0.46844125       1.07918321      -2.23589531
H       -1.48009664       0.92763681      -0.61875503
H       -0.80156845      -0.64195561       0.04442506
H       -0.20219682       0.18577867       2.72401520
H        0.70653578      -1.06653639       2.22586017
H        0.91705511       0.40332876       1.57036497
11
Properties=species:S:1:pos:R:3 relative_energy_eV=0.0721545914602757 branch=right pbc="F F F"
C        0.28007029       0.14622841      -1.70831395
C       -0.84221867       0.05915565      -0.77986837
O       -0.92531488      -0.52357940      -2.07629790
N        0.72797263      -0.07844498       2.43242136
H        1.14929479      -0.49232630      -1.57819856
H        0.47010843       1.08020939      -2.22711149
H       -1.47831562       0.92614821      -0.61485557
H       -0.80317867      -0.64677809       0.04399483
H       -0.20311561       0.18647507       2.71958710
H        0.70610489      -1.06431886       2.21615973
H        0.91899305       0.41023345       1.56974100
11
Properties=species:S:1:pos:R:3 relative_energy_eV=0.07209001090996026 branch=right pbc="F F F"
C        0.28042763       0.14590723      -1.70635828
C       -0.84248313       0.05821073      -0.77919555
O       -0.92575408      -0.52226997      -2.07631629
N        0.72806667      -0.07772061       2.43067967
H        1.14847421      -0.49447967      -1.57763762
H        0.47118061       1.08083162      -2.22316884
H       -1.47793825       0.92522308      -0.61387285
H       -0.80416626      -0.64872567       0.04305616
H       -0.20334163       0.18675977       2.71798760
H        0.70640249      -1.06350231       2.21264396
H        0.91953236       0.41276834       1.56944020
11
Properties=species:S:1:pos:R:3 relative_energy_eV=0.07201308805633744 branch=right pbc="F F F"
C        0.28069047       0.14596531      -1.70505418
C       -0.84290882       0.05785516      -0.77907384
O       -0.92587079      -0.52123212      -2.07654973
N        0.72824014      -0.07731588       2.42983614
H        1.14769184      -0.49590957      -1.57710800
H        0.47235745       1.08126616      -2.22072161
H       -1.47828080       0.92458183      -0.61422713
H       -0.80538178      -0.64968470       0.04165624
H       -0.20308885       0.18692347       2.71782909
H        0.70757806      -1.06307418       2.21204823
H        0.91937370       0.41362707       1.56862296
11
Properties=species:S:1:pos:R:3 relative_energy_eV=0.07186024188467854 branch=right pbc="F F F"
C        0.28100157       0.14613212      -1.70365588
C       -0.84385200       0.05784128      -0.77938241
O       -0.92578095      -0.51966277      -2.07736456
N        0.72921796      -0.07627177       2.42939049
H        1.14654425      -0.49763560      -1.57603325
H        0.47456553       1.08184919      -2.21777128
H       -1.47967508       0.92401545      -0.61566414
H       -0.80754601      -0.65086634       0.03920738
H       -0.20229725       0.18691306       2.71851152
H        0.71007121      -1.06267960       2.21315405
H        0.91815138       0.41336752       1.56686623
11
Properties=species:S:1:pos:R:3 relative_energy_eV=0.07155452327697276 branch=right pbc="F F F"
C        0.28168159       0.14617578      -1.70068706
C       -0.84622282       0.05773234      -0.78007237
O       -0.92531009      -0.51602772      -2.07969904
N        0.73118335      -0.07390735       2.42799143
H        1.14443698      -0.50128222      -1.57345987
H        0.47980055       1.08295554      -2.21095972
H       -1.48271708       0.92343660      -0.61819837
H       -0.81286483      -0.65415396       0.03449926
H       -0.20042015       0.18669484       2.72007334
H        0.71576061      -1.06139465       2.21561918
H        0.91507248       0.41277337       1.56215132
11
Properties=species:S:1:pos:R:3 relative_energy_eV=0.07093839914978162 branch=right pbc="F F F"
C        0.28319615       0.14545374      -1.69381632
C       -0.85138518       0.05657815      -0.78099888
O       -0.92436909      -0.50786550      -2.08506083
N        0.73509354      -0.06827863       2.42344306
H        1.14053813      -0.50941112      -1.56757085
H        0.49118552       1.08521625      -2.19464956
H       -1.48800214       0.92265373      -0.62085881
H       -0.82460291      -0.66295553       0.02609559
H       -0.19672809       0.18606993       2.72157497
H        0.72690574      -1.05767604       2.21737275
H        0.90856891       0.41321762       1.55172687
11
Properties=species:S:1:pos:R:3 relative_energy_eV=0.06975683303335245 branch=right pbc="F F F"
C        0.28655895       0.14262404      -1.67748202
C       -0.86254208       0.05172168      -0.78184479
O       -0.92280122      -0.48935877      -2.09707090
N        0.74256610      -0.05590566       2.41064056
H        1.13273347      -0.52792555      -1.55428282
H        0.51559718       1.08991894      -2.15580632
H       -1.49645552       0.92071949      -0.62105639
H       -0.85088083      -0.68528010       0.01024624
H       -0.18958181       0.18490142       2.72069313
H        0.74852744      -1.04771039       2.21303496
H        0.89667885       0.41929755       1.53018613
11
Properties=species:S:1:pos:R:3 relative_energy_eV=0.06808611905944417 branch=right pbc="F F F"
C        0.29148987       0.13832379      -1.65325377
C       -0.88073114       0.04413490      -0.78572435
O       -0.91905513      -0.46092618      -2.11744450
N        0.75486164      -0.03667375       2.39108992
H        1.12187811      -0.55354421      -1.53210353
H        0.55160050       1.09542425      -2.09802034
H       -1.50846096       0.91926277      -0.62127780
H       -0.89390164      -0.71841145      -0.01459399
H       -0.17630692       0.18286881       2.72100206
H        0.78381958      -1.03242105       2.21149990
H        0.87520659       0.42496490       1.49608383
11
Properties=species:S:1:pos:R:3 relative_energy_eV=0.06572917399262224 branch=right pbc="F F F"
C        0.29339300       0.13709216      -1.64348431
C       -0.89346947       0.04221538      -0.79495151
O       -0.91347632      -0.44602608      -2.13309363
N        0.76458795      -0.02583893       2.38388355
H        1.11752086      -0.56091319      -1.51651713
H        0.56902947       1.09538719      -2.07333170
H       -1.51663544       0.92210281      -0.62747456
H       -0.92282673      -0.73103240      -0.03174579
H       -0.16301447       0.18101717       2.72952788
H        0.81091708      -1.02570084       2.23062394
H        0.85437452       0.41469955       1.47382046
11
Properties=species:S:1:pos:R:3 relative_energy_eV=0.06281868877795205 branch=right pbc="F F F"
C        0.29736516       0.12632838      -1.60807576
C       -0.91949724       0.02123994      -0.80230514
O       -0.90858864      -0.40361700      -2.16635367
N        0.78024765      -0.00093526       2.35142216
H        1.10278212      -0.59570874      -1.48168528
H        0.61211964       1.10065490      -1.98324569
H       -1.52159239       0.91455977      -0.60799719
H       -0.98812292      -0.78323205      -0.06279475
H       -0.14382471       0.18109476       2.71471212
H        0.85110558      -0.99738459       2.20087040
H        0.83840622       0.44000284       1.44270948
11
Properties=species:S:1:pos:R:3 relative_energy_eV=0.0629444478699952 branch=right pbc="F F F"
C        0.29229848       0.13275238      -1.63186587
C       -0.91892038       0.03341592      -0.82551145
O       -0.89726292      -0.42047107      -2.17046190
N        0.78455952      -0.00901199       2.36902933
H        1.11414450      -0.55802207      -1.47654446
H        0.58574762       1.08659019      -2.03823697
H       -1.51714394       0.92607784      -0.62505135
H       -0.98603789      -0.74424713      -0.06193951
H       -0.12894376       0.17994085       2.74330212
H        0.86258434      -1.00982426       2.27262850
H        0.80937486       0.38580220       1.44190826
11
Properties=species:S:1:pos:R:3 relative_energy_eV=0.05769882995082298 branch=right pbc="F F F"
C        0.29686571       0.13237698      -1.61581097
C       -0.92841525       0.03177175      -0.82576037
O       -0.89672317      -0.40415599      -2.17940145
N        0.79288580       0.00283785       2.35733856
H        1.10505921      -0.57618224      -1.46290770
H        0.61034706       1.09320453      -2.00512350
H       -1.52585068       0.92201305      -0.63074845
H       -1.01027806      -0.76135062      -0.08008147
H       -0.12281739       0.17888843       2.74670108
H        0.88633552      -1.00243830       2.27620031
H        0.79299162       0.38603749       1.41685046
11
Properties=species:S:1:pos:R:3 relative_energy_eV=0.05721307551357313 branch=right pbc="F F F"
C        0.29789135       0.12799927      -1.60361683
C       -0.92749291       0.02094280      -0.81555164
O       -0.90272824      -0.39599777      -2.17836083
N        0.79030282       0.00422920       2.34809804
H        1.09826246      -0.59595421      -1.46426999
H        0.61671287       1.10181217      -1.97412301
H       -1.52229409       0.91062074      -0.61672332
H       -1.01569289      -0.78094809      -0.08213961
H       -0.12913335       0.18266026       2.72567178
H        0.87731328      -0.99342291       2.22770806
H        0.81725915       0.42106149       1.43056383
11
Properties=species:S:1:pos:R:3 relative_energy_eV=0.055109884367084305 branch=right pbc="F F F"
C        0.29815687       0.12963718      -1.60328476
C       -0.93381749       0.02345543      -0.82594264
O       -0.89653838      -0.39189414      -2.18734858
N        0.79688569       0.00850792       2.34824396
H        1.09801579      -0.59121184      -1.45305734
H        0.61990214       1.09881163      -1.97464815
H       -1.52552898       0.91446878      -0.62542233
H       -1.03266532      -0.77782244      -0.09382138
H       -0.11796806       0.18176362       2.73869524
H        0.89700434      -0.99324435       2.25761068
H        0.79695381       0.40053116       1.41623166
11
Properties=species:S:1:pos:R:3 relative_energy_eV=0.05429866278063855 branch=right pbc="F F F"
C        0.29928607       0.12998725      -1.59583937
C       -0.94853401       0.02381532      -0.84392219
O       -0.88612874      -0.37766477      -2.20791834
N        0.81137136       0.01902313       2.34440947
H        1.09304014      -0.59331376      -1.43055954
H        0.63181525       1.09839739      -1.95545964
H       -1.53382497       0.91694824      -0.64132103
H       -1.07327030      -0.78152900      -0.12169636
H       -0.09614659       0.18151289       2.75787204
H        0.93732662      -0.98693231       2.29952097
H        0.76546554       0.37275862       1.39217003
11
Properties=species:S:1:pos:R:3 relative_energy_eV=0.05313748428488907 branch=right pbc="F F F"
C        0.29855029       0.12979109      -1.59751104
C       -0.94546934       0.02306747      -0.84155321
O       -0.88702889      -0.38075589      -2.20462370
N        0.80934704       0.01569447       2.34684772
H        1.09358737      -0.59243443      -1.43449151
H        0.62544684       1.09852686      -1.95945335
H       -1.53133546       0.91525240      -0.63904264
H       -1.06884122      -0.78023941      -0.11990921
H       -0.09925968       0.18296248       2.75452536
H        0.92996078      -0.98716831       2.29019911
H        0.77544265       0.37830625       1.40226856
11
Properties=species:S:1:pos:R:3 relative_energy_eV=0.052127595215097244 branch=right pbc="F F F"
C        0.29903737       0.12787335      -1.58831125
C       -0.95464304       0.01865025      -0.84817525
O       -0.88280875      -0.36840093      -2.21704231
N        0.81713742       0.02227107       2.34266398
H        1.08781776      -0.60167307      -1.42305887
H        0.63449396       1.10046475      -1.93504066
H       -1.53642219       0.91253647      -0.64221605
H       -1.09494810      -0.79242448      -0.13813302
H       -0.08926429       0.18431033       2.75716654
H        0.94830539      -0.97873850       2.29202488
H        0.77169488       0.37813376       1.39737789
11
Properties=species:S:1:pos:R:3 relative_energy_eV=0.050700708809927164 branch=right pbc="F F F"
C        0.29934174       0.12484986      -1.57155086
C       -0.97475959       0.01445292      -0.86746609
O       -0.86972518      -0.34389883      -2.24380205
N        0.83544342       0.03690120       2.33579140
H        1.07556697      -0.61714431      -1.39686392
H        0.65210432       1.10374303      -1.88883654
H       -1.55176887       0.90980347      -0.66004021
H       -1.15049158      -0.80845498      -0.18146342
H       -0.06248014       0.18682173       2.77408895
H        0.99730665      -0.96143881       2.31789634
H        0.74986268       0.35736771       1.37950185
11
Properties=species:S:1:pos:R:3 relative_energy_eV=0.049650070253846934 branch=right pbc="F F F"
C        0.29989119       0.12388911      -1.56594701
C       -0.97621452       0.01422033      -0.86670692
O       -0.86668904      -0.33911552      -2.24353313
N        0.83567175       0.04069934       2.32932000
H        1.07298140      -0.62219403      -1.39360916
H        0.65626183       1.10299951      -1.87693589
H       -1.55416178       0.90967803      -0.65895712
H       -1.15371183      -0.81195456      -0.18620722
H       -0.05989710       0.18709822       2.77399278
H        1.00323083      -0.95545704       2.31349732
H        0.74303768       0.35313963       1.37234173
11
Properties=species:S:1:pos:R:3 relative_energy_eV=0.04790501645038603 branch=right pbc="F F F"
C        0.30238857       0.12066791      -1.54316442
C       -0.99224507       0.01196130      -0.87572066
O       -0.85286647      -0.31414505      -2.25718956
N        0.84555135       0.05908638       2.30818719
H        1.06067198      -0.64059133      -1.37095396
H        0.67830286       1.10009202      -1.82470270
H       -1.56770895       0.90943380      -0.66237120
H       -1.18775853      -0.83016134      -0.21694406
H       -0.03906436       0.18780601       2.78135613
H        1.04254211      -0.93177063       2.31698497
H        0.71058692       0.33062402       1.34177328
11
Properties=species:S:1:pos:R:3 relative_energy_eV=0.0471757724744748 branch=right pbc="F F F"
C        0.30318604       0.11882450      -1.53359537
C       -0.99528913       0.01118116      -0.87544318
O       -0.84886361      -0.30569500      -2.25606206
N        0.84466364       0.06660394       2.29513768
H        1.05574861      -0.64695900      -1.36289331
H        0.68743313       1.09730022      -1.80513043
H       -1.57011424       0.90825270      -0.65613289
H       -1.19040517      -0.83624929      -0.22246433
H       -0.03379239       0.18821173       2.77843787
H        1.05181549      -0.92151536       2.30722924
H        0.69601804       0.32304750       1.32817169
11
Properties=species:S:1:pos:R:3 relative_energy_eV=0.046609377501226845 branch=right pbc="F F F"
C        0.30514425       0.11498984      -1.50992192
C       -1.00861462       0.00614004      -0.88232360
O       -0.83727145      -0.28100830      -2.26655543
N        0.85196290       0.08405786       2.26933378
H        1.04351001      -0.66470624      -1.33804518
H        0.70933422       1.09487400      -1.75237829
H       -1.57715831       0.90465097      -0.65216571
H       -1.22291193      -0.85487149      -0.24937829
H       -0.01483381       0.19020375       2.77891632
H        1.08768543      -0.89855294       2.30149118
H        0.66355372       0.30722569       1.29828172
11
Properties=species:S:1:pos:R:3 relative_energy_eV=0.045865646188758546 branch=right pbc="F F F"
C        0.30579887       0.11383596      -1.50118448
C       -1.01339339       0.00313289      -0.88468726
O       -0.83331158      -0.27256849      -2.26958032
N        0.85425332       0.08886186       2.25975904
H        1.03938762      -0.67031621      -1.32972869
H        0.71493068       1.09331905      -1.73315678
H       -1.57744990       0.90183520      -0.64946858
H       -1.23537321      -0.86141115      -0.25882624
H       -0.00803813       0.19214930       2.77652666
H        1.09922373      -0.89058817       2.29585484
H        0.65437244       0.30475294       1.29174626
11
Properties=species:S:1:pos:R:3 relative_energy_eV=0.04521700227905967 branch=right pbc="F F F"
C        0.30659179       0.11013538      -1.48184123
C       -1.02360952      -0.00079204      -0.89263528
O       -0.82031424      -0.25406489      -2.27581098
N        0.86102723       0.10098875       2.23638927
H        1.03042107      -0.68079920      -1.30866559
H        0.72661476       1.08952197      -1.68738409
H       -1.58032144       0.89752825      -0.65045602
H       -1.26607476      -0.86884809      -0.28396683
H        0.01286858       0.19727836       2.77687778
H        1.13510844      -0.87037318       2.29573351
H        0.61808858       0.28242794       1.26901361
11
Properties=species:S:1:pos:R:3 relative_energy_eV=0.044666876138762746 branch=right pbc="F F F"
C        0.30541326       0.10678814      -1.47520160
C       -1.02841737      -0.00462115      -0.89496414
O       -0.81780557      -0.24606336      -2.28103696
N        0.86510409       0.10425907       2.23252415
H        1.02705581      -0.68714684      -1.30398701
H        0.73133411       1.08985072      -1.66591093
H       -1.58398226       0.89506431      -0.65176644
H       -1.27995674      -0.87697830      -0.29512323
H        0.01898851       0.19974747       2.77415558
H        1.14470484      -0.86354750       2.28800456
H        0.61796182       0.28565067       1.27056004
11
Properties=species:S:1:pos:R:3 relative_energy_eV=0.04426865248115064 branch=right pbc="F F F"
C        0.30543601       0.10612773      -1.46921273
C       -1.03417592      -0.00456031      -0.89933480
O       -0.81278527      -0.23869527      -2.28655613
N        0.86902474       0.10854633       2.22804170
H        1.02400805      -0.69167303      -1.29742588
H        0.73512546       1.08765464      -1.65101346
H       -1.59024892       0.89578991      -0.65646267
H       -1.29134758      -0.88149231      -0.30767287
H        0.02711095       0.20095534       2.77844004
H        1.15819578      -0.85732579       2.29268549
H        0.61005721       0.27767603       1.26576520
11
Properties=species:S:1:pos:R:3 relative_energy_eV=0.0452736296774674 branch=right pbc="F F F"
C        0.30235381       0.10891758      -1.48020131
C       -1.03520068       0.00194425      -0.90659403
O       -0.81114285      -0.24651582      -2.29024826
N        0.87309538       0.10194354       2.24487621
H        1.02757819      -0.68255864      -1.30471644
H        0.72331641       1.08550164      -1.66994488
H       -1.59991413       0.90125566      -0.67644604
H       -1.28763015      -0.87008758      -0.31262310
H        0.03074077       0.20146956       2.79275173
H        1.15891999      -0.86446289       2.31841219
H        0.61828378       0.26559588       1.28198784
11
Properties=species:S:1:pos:R:3 relative_energy_eV=0.043847684863067116 branch=right pbc="F F F"
C        0.30295040       0.10454623      -1.46239791
C       -1.04430089      -0.00388081      -0.91068046
O       -0.80341833      -0.22859235      -2.29694373
N        0.87836521       0.11407870       2.22616225
H        1.01790585      -0.69623953      -1.28824263
H        0.73966499       1.08508977      -1.62681571
H       -1.60348632       0.89624845      -0.67205912
H       -1.31246328      -0.88435508      -0.33133899
H        0.04401130       0.20388773       2.78924160
H        1.18325314      -0.84633599       2.30661063
H        0.59791847       0.25855610       1.26371772
11
Properties=species:S:1:pos:R:3 relative_energy_eV=0.04367905450726539 branch=right pbc="F F F"
C        0.30244020       0.10410834      -1.45982200
C       -1.04619319      -0.00498751      -0.91248377
O       -0.80204625      -0.22597661      -2.29866246
N        0.87937793       0.11511163       2.22433065
H        1.01588591      -0.69796062      -1.28558337
H        0.74106562       1.08483353      -1.62047133
H       -1.60470217       0.89536330      -0.67288050
H       -1.31720552      -0.88675415      -0.33615146
H        0.04676335       0.20493920       2.78967420
H        1.18746185      -0.84399024       2.30534667
H        0.59755284       0.25831635       1.26395698
11
Properties=species:S:1:pos:R:3 relative_energy_eV=0.04329587837582949 branch=right pbc="F F F"
C        0.29987562       0.10237296      -1.44888062
C       -1.05893032      -0.00697381      -0.92617529
O       -0.79162999      -0.21230457      -2.31130305
N        0.88943704       0.12201587       2.21967166
H        1.00620779      -0.70509313      -1.27167140
H        0.74806775       1.08259038      -1.58903663
H       -1.61716213       0.89323167      -0.68602090
H       -1.34502901      -0.89414913      -0.36521074
H        0.06637136       0.20931820       2.79916990
H        1.21650388      -0.83004681       2.31434331
H        0.58668863       0.24204159       1.26236709
11
Properties=species:S:1:pos:R:3 relative_energy_eV=0.043313220998243196 branch=right pbc="F F F"
C        0.29278669       0.09884062      -1.42406216
C       -1.09002765      -0.01063487      -0.96146739
O       -0.76568699      -0.18070274      -2.34237094
N        0.91495501       0.13761553       2.21154931
H        0.98254697      -0.72063051      -1.23831526
H        0.76269270       1.07704188      -1.51658063
H       -1.64885879       0.88888191      -0.72153455
H       -1.41221062      -0.91026285      -0.43750860
H        0.11510764       0.22013577       2.82535347
H        1.28722161      -0.79671415       2.34049538
H        0.56187417       0.19943258       1.26169396
11
Properties=species:S:1:pos:R:3 relative_energy_eV=0.04222257487435854 branch=right pbc="F F F"
C        0.29322331       0.10158909      -1.43623482
C       -1.08097676      -0.00830090      -0.95431847
O       -0.77407455      -0.19461027      -2.33419289
N        0.90854100       0.12947545       2.22289086
H        0.98892758      -0.71210327      -1.25159632
H        0.75468782       1.07940277      -1.54830457
H       -1.64182117       0.89041458      -0.71658954
H       -1.38907430      -0.90154498      -0.41611324
H        0.10051685       0.21704876       2.82188552
H        1.26267884      -0.80971146       2.33845401
H        0.57777209       0.21134338       1.27137228
11
Properties=species:S:1:pos:R:3 relative_energy_eV=0.04126810253092117 branch=right pbc="F F F"
C        0.28933136       0.10061066      -1.42657447
C       -1.09297077      -0.00880287      -0.96985720
O       -0.76246325      -0.18324079      -2.34547752
N        0.91900593       0.13477917       2.22034067
H        0.97871421      -0.71732177      -1.23752494
H        0.75761764       1.07685686      -1.52113765
H       -1.65508762       0.88962103      -0.73352666
H       -1.41496454      -0.90696945      -0.44755113
H        0.12152805       0.22211350       2.83477717
H        1.29140156      -0.79600961       2.35031862
H        0.56828819       0.19136637       1.27346566
11
Properties=species:S:1:pos:R:3 relative_energy_eV=0.04083192736379715 branch=right pbc="F F F"
C        0.27976778       0.09843066      -1.40462085
C       -1.12374956      -0.01040242      -1.00914107
O       -0.73483392      -0.15602763      -2.37526846
N        0.94575102       0.14703712       2.21850759
H        0.95382350      -0.72967826      -1.20448997
H        0.76433619       1.07130070      -1.45723634
H       -1.68868207       0.88706931      -0.77613007
H       -1.47791475      -0.91907973      -0.52430145
H        0.17280205       0.23438364       2.86652805
H        1.36029021      -0.76374018       2.38077655
H        0.54881048       0.14370981       1.28262787
11
Properties=species:S:1:pos:R:3 relative_energy_eV=0.03958014409181487 branch=right pbc="F F F"
C        0.28228182       0.09873818      -1.40994583
C       -1.11297975      -0.00924900      -0.99659243
O       -0.74179184      -0.16483317      -2.36320140
N        0.93685869       0.14320624       2.21662715
H        0.96139852      -0.72653829      -1.21287785
H        0.75840033       1.07271267      -1.47663789
H       -1.67695101       0.88907246      -0.76303080
H       -1.45609094      -0.91515079      -0.50233171
H        0.15813254       0.23136147       2.85678841
H        1.33856822      -0.77245966       2.36863425
H        0.55257429       0.15614291       1.27982017
11
Properties=species:S:1:pos:R:3 relative_energy_eV=0.03862042053970072 branch=right pbc="F F F"
C        0.27846193       0.09743264      -1.40160493
C       -1.12346224      -0.00973646      -1.01106822
O       -0.73087768      -0.15574962      -2.37262241
N        0.94653025       0.14717430       2.21637210
H        0.95268584      -0.73125556      -1.20068976
H        0.75673488       1.07104391      -1.45445086
H       -1.68796259       0.88862550      -0.77884371
H       -1.47755889      -0.91904366      -0.53102512
H        0.17749607       0.23636352       2.86802124
H        1.36173453      -0.76054991       2.37716130
H        0.54661885       0.13869833       1.28600219
11
Properties=species:S:1:pos:R:3 relative_energy_eV=0.036988812064009835 branch=right pbc="F F F"
C        0.26772602       0.09326552      -1.37735817
C       -1.15353284      -0.01216172      -1.05178618
O       -0.70033470      -0.12904542      -2.39976521
N        0.97297174       0.15902922       2.21385258
H        0.92773574      -0.74554848      -1.16642749
H        0.75394418       1.06628456      -1.38842418
H       -1.71920374       0.88609300      -0.82223969
H       -1.53725124      -0.92899107      -0.61063588
H        0.23212900       0.25070595       2.89845061
H        1.42776674      -0.72647032       2.39931895
H        0.52845021       0.08984163       1.30226578
11
Properties=species:S:1:pos:R:3 relative_energy_eV=0.03531355770610389 branch=right pbc="F F F"
C        0.26362539       0.09060275      -1.36889185
C       -1.16313805      -0.01363007      -1.06653787
O       -0.68890213      -0.12069846      -2.40840798
N        0.98202869       0.16255670       2.21455995
H        0.92012625      -0.75085266      -1.15551855
H        0.74723169       1.06548120      -1.36588209
H       -1.72824680       0.88475304      -0.83730282
H       -1.55741439      -0.93137090      -0.63814788
H        0.25213295       0.25660753       2.90750043
H        1.44753184      -0.71506189       2.40229275
H        0.52542573       0.07461559       1.31358683
11
Properties=species:S:1:pos:R:3 relative_energy_eV=0.03353677502491337 branch=right pbc="F F F"
C        0.25391680       0.08319270      -1.34044141
C       -1.18456532      -0.01720260      -1.09826756
O       -0.65761653      -0.09576404      -2.42304307
N        1.00048334       0.17528568       2.19830640
H        0.89915450      -0.76756589      -1.12253727
H        0.73611204       1.05968242      -1.29434009
H       -1.74857240       0.88171565      -0.86833458
H       -1.60382867      -0.93881547      -0.70601030
H        0.30354043       0.27264447       2.92607753
H        1.50315061      -0.67940076       2.40019282
H        0.49862656       0.02923057       1.32564788
11
Properties=species:S:1:pos:R:3 relative_energy_eV=0.032761679800387355 branch=right pbc="F F F"
C        0.25027360       0.07447911      -1.31540874
C       -1.18500813      -0.02118100      -1.10223992
O       -0.63797255      -0.08141477      -2.41283742
N        0.99826974       0.18521445       2.16442151
H        0.89163249      -0.78223029      -1.10325096
H        0.72144660       1.05273201      -1.24012989
H       -1.74563069       0.87838267      -0.86475987
H       -1.61081781      -0.94150470      -0.72888119
H        0.32888304       0.28504462       2.91781604
H        1.52219936      -0.65464654       2.35969274
H        0.46712581       0.00812721       1.32282785
11
Properties=species:S:1:pos:R:3 relative_energy_eV=0.03019915392724215 branch=right pbc="F F F"
C        0.23947212       0.06617776      -1.27808029
C       -1.20901887      -0.02618592      -1.13615660
O       -0.60022985      -0.04897270      -2.42778950
N        1.01792038       0.20086496       2.14079200
H        0.86615536      -0.80323202      -1.06525934
H        0.71185400       1.04194134      -1.14817722
H       -1.77053995       0.87212878      -0.89438783
H       -1.66919283      -0.95769100      -0.80844476
H        0.38923096       0.30570114       2.93301701
H        1.58618626      -0.61092443       2.34307393
H        0.43856410      -0.03680524       1.33866205
11
Properties=species:S:1:pos:R:3 relative_energy_eV=0.028528599658784515 branch=right pbc="F F F"
C        0.24134632       0.07456409      -1.30028281
C       -1.20778293      -0.02186187      -1.13351444
O       -0.61610626      -0.06170616      -2.43398006
N        1.01630610       0.19106404       2.16971829
H        0.87123769      -0.78865321      -1.08353049
H        0.72295727       1.04336736      -1.19356491
H       -1.77761298       0.87208677      -0.89661676
H       -1.65553323      -0.95265478      -0.78736309
H        0.37009428       0.29843329       2.93723932
H        1.56719276      -0.63300727       2.36890005
H        0.46830260      -0.01862959       1.35024453
11
Properties=species:S:1:pos:R:3 relative_energy_eV=0.02591754109107569 branch=right pbc="F F F"
C        0.23647602       0.07100959      -1.28563174
C       -1.21548813      -0.02318197      -1.14408810
O       -0.60171812      -0.04991699      -2.43347009
N        1.02030090       0.19795606       2.15419545
H        0.85948957      -0.79608376      -1.06791732
H        0.72113169       1.03657619      -1.15452439
H       -1.78764636       0.86873235      -0.90568522
H       -1.66291913      -0.95288010      -0.81319461
H        0.39384664       0.30765491       2.93951388
H        1.59015141      -0.61360619       2.35497623
H        0.44677721      -0.04325744       1.35307532
11
Properties=species:S:1:pos:R:3 relative_energy_eV=0.02491298600580194 branch=right pbc="F F F"
C        0.22838577       0.06133162      -1.24826774
C       -1.22662561      -0.02844574      -1.15868075
O       -0.57010245      -0.02109896      -2.42777513
N        1.02714156       0.21364392       2.11308920
H        0.83850655      -0.81521623      -1.03515249
H        0.71415206       1.02213116      -1.06288225
H       -1.79981803       0.86163838      -0.91692522
H       -1.69470981      -0.96769760      -0.86838711
H        0.44216241       0.32731457       2.93582851
H        1.63591189      -0.57125574       2.30976296
H        0.40539756      -0.07934277       1.35663893
11
Properties=species:S:1:pos:R:3 relative_energy_eV=0.02271224031392194 branch=right pbc="F F F"
C        0.23319163       0.06504760      -1.26116613
C       -1.21620078      -0.02713326      -1.14207122
O       -0.58524671      -0.03188505      -2.41964725
N        1.01856067       0.20754607       2.11908495
H        0.84827311      -0.80714797      -1.05020614
H        0.72045822       1.02445794      -1.09603983
H       -1.78929634       0.86370031      -0.90335493
H       -1.67337687      -0.96564826      -0.83680907
H        0.41771494       0.31931695       2.92686734
H        1.61001437      -0.58767505       2.31135953
H        0.41630959      -0.05757661       1.34923192
11
Properties=species:S:1:pos:R:3 relative_energy_eV=0.020987263233109843 branch=right pbc="F F F"
C        0.22608739       0.06622142      -1.25436693
C       -1.23152978      -0.02690952      -1.16469178
O       -0.57173161      -0.02078837      -2.43316264
N        1.02820849       0.20805342       2.12539424
H        0.83479256      -0.80958711      -1.03712715
H        0.71651812       1.01816144      -1.07497625
H       -1.81213951       0.86036530      -0.92997044
H       -1.69154379      -0.96501353      -0.87537899
H        0.44549380       0.32931555       2.94395691
H        1.63782836      -0.57772150       2.32427446
H        0.41841787      -0.07909453       1.37329745
11
Properties=species:S:1:pos:R:3 relative_energy_eV=0.01852138453796215 branch=right pbc="F F F"
C        0.21781632       0.06271166      -1.23483358
C       -1.24256121      -0.02875467      -1.18237123
O       -0.55005599      -0.00250425      -2.43500549
N        1.03889335       0.21556441       2.11313026
H        0.81836843      -0.81845708      -1.01727407
H        0.70913148       1.00796927      -1.02238253
H       -1.83022758       0.85477195      -0.95172780
H       -1.71574733      -0.97176373      -0.92081383
H        0.48393622       0.34415115       2.94839094
H        1.67062122      -0.55269535       2.30695394
H        0.40022715      -0.10799083       1.39318188
11
Properties=species:S:1:pos:R:3 relative_energy_eV=0.016508458541466098 branch=right pbc="F F F"
C        0.21095901       0.05738910      -1.21581152
C       -1.24829413      -0.03147832      -1.19230582
O       -0.53234882       0.01322815      -2.42990745
N        1.04320971       0.22124797       2.09447040
H        0.80588480      -0.82685417      -0.99933613
H        0.69901526       0.99938212      -0.97475762
H       -1.83869562       0.85083051      -0.96616689
H       -1.73062679      -0.97830319      -0.95697394
H        0.51511490       0.35852781       2.94849284
H        1.69500437      -0.53136669       2.28197393
H        0.38117949      -0.12960081       1.40757042
11
Properties=species:S:1:pos:R:3 relative_energy_eV=0.014431524078645452 branch=right pbc="F F F"
C        0.20477344       0.05659803      -1.21277132
C       -1.25099167      -0.03167313      -1.20222346
O       -0.52479401       0.01683801      -2.42983812
N        1.04999231       0.21972788       2.09963132
H        0.80010598      -0.82641862      -0.99348870
H        0.68628111       0.99797124      -0.96606068
H       -1.84467723       0.85016587      -0.98459705
H       -1.73881572      -0.97862256      -0.97913755
H        0.53298477       0.36698492       2.95446360
H        1.70384585      -0.52671411       2.28070764
H        0.38169743      -0.14185512       1.43056244
11
Properties=species:S:1:pos:R:3 relative_energy_eV=0.01214925521526311 branch=right pbc="F F F"
C        0.18679235       0.05334140      -1.19022741
C       -1.27237927      -0.03381594      -1.24283547
O       -0.49224016       0.03887813      -2.44155750
N        1.06906808       0.22207630       2.09969204
H        0.77302747      -0.83494353      -0.96164890
H        0.66039751       0.98834009      -0.91035807
H       -1.87403541       0.84507764      -1.03456440
H       -1.77401096      -0.98180830      -1.06158898
H        0.59648477       0.39421310       2.97908407
H        1.75458342      -0.49916241       2.27755431
H        0.37271470      -0.18919423       1.48369786
11
Properties=species:S:1:pos:R:3 relative_energy_eV=0.010937643867691804 branch=right pbc="F F F"
C        0.18742538       0.05373159      -1.19072114
C       -1.26979794      -0.03444113      -1.23918268
O       -0.49605776       0.03529133      -2.43936129
N        1.06284747       0.21955768       2.09786295
H        0.77371133      -0.83625094      -0.96269221
H        0.66119655       0.99203638      -0.91986415
H       -1.86744036       0.84576020      -1.02468389
H       -1.76305212      -0.98077336      -1.05339860
H        0.58893987       0.39441645       2.97615655
H        1.74821597      -0.50457245       2.27450886
H        0.37441408      -0.18175349       1.47862322
11
Properties=species:S:1:pos:R:3 relative_energy_eV=0.010097575098370726 branch=right pbc="F F F"
C        0.18334847       0.05262305      -1.18525286
C       -1.27271337      -0.03402050      -1.24768191
O       -0.48832323       0.03859133      -2.43981172
N        1.06637374       0.21984785       2.09751752
H        0.76760684      -0.83693476      -0.95645911
H        0.65383743       0.99016603      -0.90898374
H       -1.87232341       0.84468398      -1.03348478
H       -1.76927084      -0.98132721      -1.07041175
H        0.60418643       0.40149834       2.97903999
H        1.75812804      -0.49861956       2.27157096
H        0.36955243      -0.19350632       1.49120493
11
Properties=species:S:1:pos:R:3 relative_energy_eV=0.009698080167254375 branch=right pbc="F F F"
C        0.17544304       0.05052348      -1.17404835
C       -1.27947973      -0.03503314      -1.26277514
O       -0.47524768       0.04719549      -2.44205233
N        1.07295148       0.22054045       2.09522468
H        0.75475333      -0.84115953      -0.94431329
H        0.64433854       0.98704762      -0.88483645
H       -1.88189728       0.84183106      -1.04747160
H       -1.77944377      -0.98532694      -1.10186432
H        0.63065720       0.41358945       2.98377327
H        1.77459592      -0.48637112       2.26256799
H        0.36373158      -0.20983468       1.51304284
11
Properties=species:S:1:pos:R:3 relative_energy_eV=0.009412316545422073 branch=right pbc="F F F"
C        0.17519309       0.05100055      -1.17500089
C       -1.27863470      -0.03402667      -1.26362764
O       -0.47502274       0.04560092      -2.44145354
N        1.07174109       0.21888535       2.09588921
H        0.75469439      -0.83990018      -0.94547950
H        0.64285121       0.98771793      -0.88843607
H       -1.88153635       0.84221983      -1.04783552
H       -1.77832334      -0.98430788      -1.10146500
H        0.63214704       0.41447838       2.98453722
H        1.77411803      -0.48774070       2.26543909
H        0.36317492      -0.21092538       1.51467994
11
Properties=species:S:1:pos:R:3 relative_energy_eV=0.009311670143688389 branch=right pbc="F F F"
C        0.17435201       0.05123949      -1.17382598
C       -1.27923485      -0.03421420      -1.26506888
O       -0.47369662       0.04676992      -2.44122962
N        1.07142608       0.21849324       2.09432830
H        0.75296864      -0.84091381      -0.94436111
H        0.64225645       0.98725661      -0.88512206
H       -1.88251325       0.84183594      -1.04881924
H       -1.77763195      -0.98461545      -1.10422839
H        0.63569232       0.41622166       2.98451474
H        1.77557952      -0.48642063       2.26416556
H        0.36120432      -0.21265063       1.51689396
11
Properties=species:S:1:pos:R:3 relative_energy_eV=0.009210339558194391 branch=right pbc="F F F"
C        0.17358938       0.05124333      -1.17336367
C       -1.28006549      -0.03435763      -1.26700890
O       -0.47268045       0.04794267      -2.44183973
N        1.07150052       0.21773133       2.09360980
H        0.75163425      -0.84133415      -0.94416796
H        0.64115580       0.98676935      -0.88147921
H       -1.88346949       0.84175228      -1.05055540
H       -1.77767955      -0.98529918      -1.10734142
H        0.64005713       0.41816525       2.98487841
H        1.77667835      -0.48534907       2.26403198
H        0.35968222      -0.21426202       1.52048336
11
Properties=species:S:1:pos:R:3 relative_energy_eV=0.009119921022829658 branch=right pbc="F F F"
C        0.17250519       0.05101656      -1.17153024
C       -1.28102117      -0.03449049      -1.26955952
O       -0.47021567       0.05026035      -2.44206517
N        1.07172729       0.21732759       2.09153379
H        0.74980368      -0.84238172      -0.94271250
H        0.63862242       0.98553624      -0.87497566
H       -1.88489788       0.84131129      -1.05295136
H       -1.77875062      -0.98607313      -1.11327058
H        0.64693945       0.42183854       2.98530677
H        1.77967664      -0.48308354       2.26195000
H        0.35601337      -0.21825956       1.52552169
11
Properties=species:S:1:pos:R:3 relative_energy_eV=0.008960442385614442 branch=right pbc="F F F"
C        0.17308901       0.05107602      -1.17212172
C       -1.28048747      -0.03460519      -1.26922206
O       -0.47047144       0.05175792      -2.44234615
N        1.07072460       0.21666335       2.08968032
H        0.75072267      -0.84289282      -0.94484201
H        0.63774602       0.98466780      -0.87135821
H       -1.88432826       0.84102401      -1.05138935
H       -1.77728990      -0.98667807      -1.11340915
H        0.65039651       0.42481019       2.98391338
H        1.77850212      -0.48314220       2.25987096
H        0.35179884      -0.21967887       1.52847118
11
Properties=species:S:1:pos:R:3 relative_energy_eV=0.008624875643363339 branch=right pbc="F F F"
C        0.17442941       0.05065963      -1.17371009
C       -1.27947538      -0.03487075      -1.26878163
O       -0.47085686       0.05460164      -2.44326133
N        1.06869290       0.21536452       2.08694069
H        0.75346515      -0.84293041      -0.94947386
H        0.63549378       0.98333697      -0.86600667
H       -1.88289191       0.84036482      -1.04841428
H       -1.77656020      -0.98729656      -1.11451880
H        0.65682350       0.43158012       2.98304965
H        1.77701337      -0.48406537       2.25663611
H        0.34426897      -0.22374244       1.53478741
11
Properties=species:S:1:pos:R:3 relative_energy_eV=0.008030535202124156 branch=right pbc="F F F"
C        0.17901790       0.05080463      -1.17819411
C       -1.27521378      -0.03559536      -1.26297107
O       -0.47502139       0.05938772      -2.44350922
N        1.06287383       0.21344293       2.08128513
H        0.76109447      -0.84273656      -0.96056947
H        0.63634419       0.98171272      -0.86433956
H       -1.87755726       0.83827244      -1.03433651
H       -1.77139512      -0.98875604      -1.10850438
H        0.66149474       0.44218041       2.97880552
H        1.76836533      -0.48881951       2.24901531
H        0.33039985      -0.22689117       1.54056562
11
Properties=species:S:1:pos:R:3 relative_energy_eV=0.007160285123063659 branch=right pbc="F F F"
C        0.18559473       0.05104445      -1.18562246
C       -1.26931041      -0.03689159      -1.25482000
O       -0.48169183       0.06752823      -2.44374096
N        1.05385846       0.21047062       2.07408934
H        0.77185956      -0.84206974      -0.97857283
H        0.64038256       0.98066455      -0.86473641
H       -1.87084789       0.83395349      -1.01318894
H       -1.76416965      -0.99097679      -1.10057270
H        0.66917568       0.45917514       2.97418249
H        1.75551100      -0.49695556       2.23933796
H        0.31004058      -0.23294047       1.55089184
11
Properties=species:S:1:pos:R:3 relative_energy_eV=0.005940447100329038 branch=right pbc="F F F"
C        0.19680698       0.05280471      -1.19728190
C       -1.25914760      -0.03913093      -1.23830032
O       -0.49535188       0.07880017      -2.44220047
N        1.03919640       0.20620227       2.06369585
H        0.78873371      -0.84002244      -1.00647237
H        0.65298700       0.98051004      -0.87757372
H       -1.85838922       0.82729605      -0.97499530
H       -1.74933244      -0.99543808      -1.08123078
H        0.67251378       0.47948753       2.96508096
H        1.73028206      -0.51205861       2.22746598
H        0.28210400      -0.23544825       1.55905955
11
Properties=species:S:1:pos:R:3 relative_energy_eV=0.004448659437002789 branch=right pbc="F F F"
C        0.20560205       0.05523134      -1.20879531
C       -1.25059884      -0.04120614      -1.22504855
O       -0.50851014       0.09170308      -2.44042719
N        1.02599168       0.20111960       2.05600067
H        0.80178797      -0.83795126      -1.03434195
H        0.66832880       0.98278609      -0.89323889
H       -1.84938291       0.81916112      -0.94192436
H       -1.73538522      -1.00059724      -1.06811087
H        0.68092826       0.50098349       2.95870683
H        1.70733129      -0.52735879       2.22132881
H        0.25430989      -0.24086867       1.57309842
11
Properties=species:S:1:pos:R:3 relative_energy_eV=0.0030167831946528167 branch=right pbc="F F F"
C        0.21534516       0.05954147      -1.22290053
C       -1.24136677      -0.04288108      -1.20743430
O       -0.52767002       0.09915871      -2.43757835
N        1.01381638       0.19538043       2.05354550
H        0.81591690      -0.83300113      -1.06394296
H        0.69077985       0.98872710      -0.92763979
H       -1.83749994       0.81336213      -0.90794575
H       -1.71744903      -1.00554454      -1.04408042
H        0.67536603       0.51051676       2.95129007
H        1.67784521      -0.54764896       2.22777095
H        0.23531900      -0.23460813       1.57616338
11
Properties=species:S:1:pos:R:3 relative_energy_eV=0.0036257630526961293 branch=right pbc="F F F"
C        0.21693295       0.06239373      -1.22651530
C       -1.23763762      -0.04528663      -1.20632107
O       -0.53302792       0.11942962      -2.43580750
N        1.00535321       0.18560406       2.04325560
H        0.81842165      -0.83165386      -1.08587716
H        0.69822787       0.98976296      -0.93353720
H       -1.83383475       0.80472535      -0.88855639
H       -1.70512949      -1.01440235      -1.05848409
H        0.71089616       0.54350877       2.94904576
H        1.66466693      -0.55714712       2.22554120
H        0.19553386      -0.25393169       1.61450393
11
Properties=species:S:1:pos:R:3 relative_energy_eV=0.001718035230624082 branch=right pbc="F F F"
C        0.21554051       0.06175124      -1.22681367
C       -1.23997640      -0.04302236      -1.20688325
O       -0.53276372       0.10533990      -2.43773613
N        1.01213994       0.18915568       2.05267507
H        0.81739878      -0.83151194      -1.07572607
H        0.69515889       0.99143782      -0.93544451
H       -1.83629419       0.81157877      -0.90410319
H       -1.71080253      -1.00905424      -1.04915906
H        0.68854141       0.52104411       2.95083818
H        1.67138796      -0.55453418       2.23696196
H        0.22007213      -0.23918202       1.59263848
11
Properties=species:S:1:pos:R:3 relative_energy_eV=0.0013227292547526304 branch=right pbc="F F F"
C        0.22099722       0.06321983      -1.23533313
C       -1.23553684      -0.04357080      -1.19964665
O       -0.54144964       0.10877064      -2.43945565
N        1.00657331       0.18475628       2.05072602
H        0.82709024      -0.82935464      -1.09224061
H        0.70036028       0.99245689      -0.94362499
H       -1.83024349       0.81036365      -0.88882564
H       -1.70347738      -1.01078309      -1.03953778
H        0.69013142       0.53008857       2.94702761
H        1.65902353      -0.56465370       2.23928007
H        0.20693414      -0.23829078       1.59887866
11
Properties=species:S:1:pos:R:3 relative_energy_eV=0.0007872587339079473 branch=right pbc="F F F"
C        0.22270001       0.06552562      -1.24445028
C       -1.23340660      -0.04356192      -1.19964566
O       -0.54794715       0.11064614      -2.44395189
N        1.00512518       0.17718857       2.05418937
H        0.83280369      -0.82520133      -1.10812650
H        0.70086761       0.99543690      -0.95274810
H       -1.82638249       0.81011872      -0.88355456
H       -1.69920302      -1.01182959      -1.03989145
H        0.70043880       0.54178085       2.94743809
H        1.65121293      -0.57521120       2.25141361
H        0.19419385      -0.24188985       1.61657529
11
Properties=species:S:1:pos:R:3 relative_energy_eV=0.0005481426742335316 branch=right pbc="F F F"
C        0.22410912       0.06788216      -1.25238579
C       -1.23069491      -0.04361571      -1.19893845
O       -0.55382269       0.11244958      -2.44732500
N        1.00329127       0.17087529       2.05684947
H        0.83701412      -0.82173248      -1.12198423
H        0.70240229       0.99863650      -0.96236079
H       -1.82227369       0.80885534      -0.87679149
H       -1.69442471      -1.01308931      -1.03910806
H        0.70893107       0.55206085       2.94676934
H        1.64292813      -0.58486428       2.26086309
H        0.18294282      -0.24445503       1.63165989
11
Properties=species:S:1:pos:R:3 relative_energy_eV=0.0004330288402343285 branch=right pbc="F F F"
C        0.22592629       0.06967481      -1.25895820
C       -1.22808332      -0.04377502      -1.19713113
O       -0.55887427       0.11381490      -2.44937681
N        1.00101205       0.16673594       2.05839522
H        0.84064489      -0.81896108      -1.13299190
H        0.70455886       1.00101528      -0.97082305
H       -1.81850531       0.80746464      -0.87005749
H       -1.68978083      -1.01380318      -1.03572286
H        0.71341846       0.55888639       2.94569773
H        1.63485964      -0.59253094       2.26713655
H        0.17522639      -0.24551877       1.64107995
11
Properties=species:S:1:pos:R:3 relative_energy_eV=0.0002952000177174341 branch=right pbc="F F F"
C        0.22920750       0.07236856      -1.26811554
C       -1.22347693      -0.04435254      -1.19319967
O       -0.56628440       0.11779956      -2.45132336
N        0.99640699       0.16124353       2.05840149
H        0.84597805      -0.81595890      -1.14981194
H        0.70856500       1.00397022      -0.98118313
H       -1.81281959       0.80437358      -0.85783297
H       -1.68183514      -1.01593505      -1.03026724
H        0.72127357       0.57028292       2.94216875
H        1.62175430      -0.60356921       2.27309777
H        0.16163350      -0.24721965       1.65531395
11
Properties=species:S:1:pos:R:3 relative_energy_eV=0.0001526282176200766 branch=right pbc="F F F"
C        0.23150244       0.07465900      -1.27574154
C       -1.21993150      -0.04506490      -1.19108099
O       -0.57182881       0.12196810      -2.45308372
N        0.99278377       0.15657196       2.05839155
H        0.84928617      -0.81319231      -1.16361220
H        0.71080028       1.00605133      -0.98842884
H       -1.80858890       0.80136958      -0.84920522
H       -1.67503063      -1.01796420      -1.02717216
H        0.73028936       0.58041619       2.93865643
H        1.61071682      -0.61261730       2.27863199
H        0.15040388      -0.24919437       1.66989284
11
Properties=species:S:1:pos:R:3 relative_energy_eV=0.00010609939818095881 branch=right pbc="F F F"
C        0.23608421       0.07788604      -1.28700529
C       -1.21414184      -0.04651267      -1.18601462
O       -0.58124098       0.13107554      -2.45490726
N        0.98569230       0.14907902       2.05599597
H        0.85649809      -0.80983912      -1.18727589
H        0.71605406       1.00842051      -0.99783510
H       -1.80214645       0.79586262      -0.83229811
H       -1.66393287      -1.02218136      -1.02243443
H        0.74570013       0.59893154       2.93160966
H        1.59293908      -0.62703582       2.28409284
H        0.12889721      -0.25268315       1.69332045
11
Properties=species:S:1:pos:R:3 relative_energy_eV=-8.776259983278578e-05 branch=right pbc="F F F"
C        0.23480446       0.07714583      -1.28345751
C       -1.21553545      -0.04687363      -1.18756875
O       -0.57836910       0.13242245      -2.45364919
N        0.98670177       0.15060479       2.05448359
H        0.85402820      -0.81140092      -1.18293092
H        0.71449602       1.00675286      -0.99133967
H       -1.80467303       0.79536652      -0.83597412
H       -1.66584782      -1.02276518      -1.02597883
H        0.74727722       0.59748772       2.92969566
H        1.59631807      -0.62372435       2.28103173
H        0.13120259      -0.25201294       1.69293621
11
Properties=species:S:1:pos:R:3 relative_energy_eV=-0.00022760983938496793 branch=right pbc="F F F"
C        0.23456744       0.07736131      -1.28415591
C       -1.21569116      -0.04780510      -1.18905956
O       -0.57855722       0.13754464      -2.45411934
N        0.98564706       0.14826585       2.05313658
H        0.85444854      -0.81091967      -1.18748442
H        0.71371540       1.00568729      -0.98798156
H       -1.80550603       0.79278619      -0.83448725
H       -1.66504307      -1.02466567      -1.03087501
H        0.75727331       0.60505726       2.92618581
H        1.59458815      -0.62605456       2.28137588
H        0.12496056      -0.25425438       1.70471296
11
Properties=species:S:1:pos:R:3 relative_energy_eV=-0.00038380252681236016 branch=right pbc="F F F"
C        0.23514439       0.07817735      -1.28725091
C       -1.21513849      -0.05013479      -1.19036832
O       -0.58112634       0.15003814      -2.45517133
N        0.98201730       0.14171924       2.04990587
H        0.85819984      -0.80941284      -1.20211888
H        0.71399721       1.00379307      -0.98297957
H       -1.80608426       0.78599709      -0.82643379
H       -1.66206357      -1.02926984      -1.03999458
H        0.78005809       0.62478423       2.91622588
H        1.58787804      -0.63418456       2.28252327
H        0.10752086      -0.25850387       1.73291052
11
Properties=species:S:1:pos:R:3 relative_energy_eV=-0.0004051439018439851 branch=right pbc="F F F"
C        0.23313708       0.07647261      -1.28217024
C       -1.21803362      -0.04973264      -1.19280799
O       -0.57709805       0.14731448      -2.45450729
N        0.98475602       0.14419975       2.05072326
H        0.85604490      -0.81061096      -1.19267490
H        0.71164413       1.00223754      -0.97799893
H       -1.80928564       0.78761905      -0.83260135
H       -1.66756158      -1.02763188      -1.04385582
H        0.77543865       0.61913471       2.91821717
H        1.59581244      -0.62856471       2.27982144
H        0.11554873      -0.25743477       1.72510278
11
Properties=species:S:1:pos:R:3 relative_energy_eV=-0.00044521042582346126 branch=right pbc="F F F"
C        0.23360666       0.07718113      -1.28402102
C       -1.21700188      -0.04986275      -1.19222315
O       -0.57837414       0.14822842      -2.45487042
N        0.98388192       0.14288339       2.05074315
H        0.85673011      -0.81012637      -1.19619467
H        0.71210542       1.00307094      -0.97972803
H       -1.80812094       0.78678974      -0.83033825
H       -1.66595954      -1.02819779      -1.04355618
H        0.77812513       0.62208285       2.91721771
H        1.59306974      -0.63085187       2.28120243
H        0.11234059      -0.25819449       1.72901659
11
Properties=species:S:1:pos:R:3 relative_energy_eV=-0.0004648779595299857 branch=right pbc="F F F"
C        0.23452893       0.07784972      -1.28638210
C       -1.21572106      -0.05020918      -1.19090390
O       -0.58046888       0.14968933      -2.45513005
N        0.98240765       0.14106795       2.05042993
H        0.85844880      -0.80916844      -1.20088719
H        0.71316060       1.00376684      -0.98220414
H       -1.80644569       0.78559082      -0.82627687
H       -1.66386944      -1.02892727      -1.04271841
H        0.78110729       0.62594481       2.91507501
H        1.58905802      -0.63411089       2.28288300
H        0.10819686      -0.25849049       1.73336287
11
Properties=species:S:1:pos:R:3 relative_energy_eV=-0.0004959836742273183 branch=right pbc="F F F"
C        0.23514521       0.07833661      -1.28786948
C       -1.21477595      -0.05054491      -1.18980352
O       -0.58185249       0.15057867      -2.45508531
N        0.98129954       0.13947353       2.05006414
H        0.85973326      -0.80842414      -1.20403729
H        0.71372433       1.00441730      -0.98372286
H       -1.80504644       0.78457723      -0.82303666
H       -1.66278507      -1.02940389      -1.04278599
H        0.78372903       0.62914703       2.91282856
H        1.58605886      -0.63647500       2.28442015
H        0.10517280      -0.25867922       1.73627642
11
Properties=species:S:1:pos:R:3 relative_energy_eV=-0.0005257943321339553 branch=right pbc="F F F"
C        0.23595573       0.07870607      -1.28910685
C       -1.21377109      -0.05093384      -1.18816251
O       -0.58333652       0.15122309      -2.45465576
N        0.98008752       0.13793198       2.04929923
H        0.86126497      -0.80759844      -1.20656259
H        0.71449223       1.00498480      -0.98528077
H       -1.80348489       0.78365730      -0.81924033
H       -1.66183742      -1.02979223      -1.04256929
H        0.78563453       0.63190691       2.90994872
H        1.58273059      -0.63869182       2.28617283
H        0.10266746      -0.25839060       1.73740551
11
Properties=species:S:1:pos:R:3 relative_energy_eV=-0.0005445378201329731 branch=right pbc="F F F"
C        0.23614187       0.07876805      -1.28916590
C       -1.21364707      -0.05123681      -1.18781679
O       -0.58358492       0.15209984      -2.45432596
N        0.97974591       0.13707257       2.04861633
H        0.86178320      -0.80734304      -1.20745457
H        0.71446532       1.00492894      -0.98469897
H       -1.80331724       0.78301963      -0.81803547
H       -1.66189598      -1.03013578      -1.04359044
H        0.78764826       0.63380491       2.90799510
H        1.58154668      -0.63954731       2.28720862
H        0.10151707      -0.25842777       1.73851625
11
Properties=species:S:1:pos:R:3 relative_energy_eV=-0.0005696368216376868 branch=right pbc="F F F"
C        0.23641933       0.07889134      -1.28937290
C       -1.21344807      -0.05159025      -1.18736519
O       -0.58404948       0.15333634      -2.45397918
N        0.97951435       0.13602430       2.04769970
H        0.86239312      -0.80702511      -1.20871748
H        0.71454853       1.00482732      -0.98411494
H       -1.80318635       0.78225618      -0.81648859
H       -1.66157669      -1.03066869      -1.04436423
H        0.78989877       0.63618646       2.90536663
H        1.57968417      -0.64095973       2.28890673
H        0.10020544      -0.25827494       1.73967763
11
Properties=species:S:1:pos:R:3 relative_energy_eV=-0.0006261656099013635 branch=right pbc="F F F"
C        0.23669240       0.07931904      -1.29006544
C       -1.21323570      -0.05223062      -1.18711277
O       -0.58492137       0.15599841      -2.45371818
N        0.97964769       0.13344040       2.04633265
H        0.86334172      -0.80626021      -1.21175009
H        0.71430822       1.00481785      -0.98297672
H       -1.80323717       0.78061515      -0.81412123
H       -1.66094241      -1.03179525      -1.04639292
H        0.79520583       0.64192391       2.90003269
H        1.57578880      -0.64462036       2.29382829
H        0.09775511      -0.25820511       1.74319192
11
Properties=species:S:1:pos:R:3 relative_energy_eV=-0.0007923563107397058 branch=right pbc="F F F"
C        0.23738009       0.08077608      -1.29251226
C       -1.21239220      -0.05381459      -1.18622848
O       -0.58782120       0.16267946      -2.45336374
N        0.98082403       0.12612509       2.04306828
H        0.86579695      -0.80395867      -1.22036567
H        0.71390420       1.00529171      -0.98131276
H       -1.80296466       0.77629660      -0.80723226
H       -1.65830475      -1.03479911      -1.05038050
H        0.80824319       0.65770373       2.88506501
H        1.56405439      -0.65594501       2.30887016
H        0.09168311      -0.25735212       1.75164044
11
Properties=species:S:1:pos:R:3 relative_energy_eV=-1.191971568914596e-05 branch=right pbc="F F F"
C        0.23819067       0.08683890      -1.30066736
C       -1.21055839      -0.05938535      -1.18485272
O       -0.59756741       0.18666453      -2.45272305
N        0.99079108       0.09618040       2.03213109
H        0.87294026      -0.79481188      -1.25022419
H        0.71017641       1.00806407      -0.97403710
H       -1.80391178       0.75991058      -0.78463630
H       -1.64973293      -1.04564459      -1.06728507
H        0.85715571       0.72000659       2.82402471
H        1.51807386      -0.70225417       2.37650835
H        0.07484580      -0.25256620       1.77901003
11
Properties=species:S:1:pos:R:3 relative_energy_eV=-0.001101559655580786 branch=right pbc="F F F"
C        0.23437721       0.08213925      -1.28821842
C       -1.21566349      -0.05522735      -1.18912011
O       -0.58584113       0.16815478      -2.45175870
N        0.99473010       0.11583546       2.03819453
H        0.86268448      -0.80222512      -1.21752948
H        0.70791517       1.00554372      -0.97015066
H       -1.80892382       0.77233551      -0.80867814
H       -1.66021237      -1.03748936      -1.05955115
H        0.81949708       0.67752299       2.85631284
H        1.54992467      -0.67189828       2.34569212
H        0.10191525      -0.25168870       1.74205543
11
Properties=species:S:1:pos:R:3 relative_energy_eV=-0.0014246885912143625 branch=right pbc="F F F"
C        0.23424311       0.08251365      -1.29013642
C       -1.21548410      -0.05551085      -1.19018405
O       -0.58679282       0.17107025      -2.45334354
N        0.99356350       0.11350833       2.03929908
H        0.86381826      -0.80137472      -1.22255979
H        0.70804605       1.00538947      -0.97057040
H       -1.80898431       0.77038448      -0.80656128
H       -1.65955163      -1.03839455      -1.06274465
H        0.82639199       0.68336146       2.85651455
H        1.54854421      -0.67355033       2.34477185
H        0.09660894      -0.25439427       1.75276290
11
Properties=species:S:1:pos:R:3 relative_energy_eV=-0.0018978391271957662 branch=right pbc="F F F"
C        0.23348757       0.08574510      -1.29379182
C       -1.21570195      -0.05705520      -1.19044238
O       -0.59100616       0.17907934      -2.45429903
N        1.00339863       0.09867060       2.03731913
H        0.86594225      -0.79672077      -1.23313448
H        0.70573941       1.00803082      -0.97003129
H       -1.81099279       0.76417410      -0.79970241
H       -1.65676074      -1.04194026      -1.06872729
H        0.84340516       0.71085167       2.82862904
H        1.52604067      -0.69675457       2.38504431
H        0.09685118      -0.25107811       1.75638456
11
Properties=species:S:1:pos:R:3 relative_energy_eV=-0.0021867191544515663 branch=right pbc="F F F"
C        0.23181871       0.08561746      -1.29061650
C       -1.21746323      -0.05705208      -1.19203136
O       -0.58872056       0.17876191      -2.45371406
N        1.00884461       0.09752430       2.03665604
H        0.86347159      -0.79720875      -1.22799913
H        0.70337554       1.00792057      -0.96559145
H       -1.81360124       0.76438815      -0.80313276
H       -1.65874865      -1.04192388      -1.07100656
H        0.84291021       0.71274291       2.82303006
H        1.52496346      -0.69798243       2.39332351
H        0.10355278      -0.24978554       1.74833054
11
Properties=species:S:1:pos:R:3 relative_energy_eV=-0.0026458480169821996 branch=right pbc="F F F"
C        0.22668257       0.08641008      -1.28341707
C       -1.22285103      -0.05704040      -1.19710455
O       -0.58372834       0.18010177      -2.45317641
N        1.02798059       0.08884605       2.03614843
H        0.85751943      -0.79681731      -1.21724385
H        0.69579389       1.00870980      -0.95420051
H       -1.82244827       0.76307110      -0.81163645
H       -1.66396594      -1.04247199      -1.07957387
H        0.84693975       0.72754407       2.80007123
H        1.51407861      -0.70870972       2.43094275
H        0.12440192      -0.24664116       1.72643866
11
Properties=species:S:1:pos:R:3 relative_energy_eV=-0.0025017232192112715 branch=right pbc="F F F"
C        0.22243855       0.08478757      -1.27469572
C       -1.22788186      -0.05473238      -1.20117327
O       -0.57639542       0.17225621      -2.45278499
N        1.03995970       0.09273223       2.04076502
H        0.85059596      -0.79995546      -1.19732005
H        0.69110291       1.00861309      -0.94849594
H       -1.82946395       0.76842376      -0.82703972
H       -1.67128498      -1.03877816      -1.07893536
H        0.83102277       0.71721149       2.80470909
H        1.52026648      -0.70009692       2.43727142
H        0.15004296      -0.24745933       1.69494785
11
Properties=species:S:1:pos:R:3 relative_energy_eV=-0.003065198078729736 branch=right pbc="F F F"
C        0.22298417       0.08598742      -1.27676954
C       -1.22721053      -0.05559099      -1.19979726
O       -0.57921186       0.17519664      -2.45245195
N        1.04252109       0.08662064       2.03909866
H        0.85259011      -0.79749469      -1.20225406
H        0.69069378       1.00975493      -0.94958827
H       -1.82874367       0.76635159      -0.82230087
H       -1.66928788      -1.04045005      -1.07952033
H        0.83670613       0.72808411       2.79298805
H        1.50933689      -0.71000622       2.45335490
H        0.15002488      -0.24545134       1.69448903
11
Properties=species:S:1:pos:R:3 relative_energy_eV=-0.003145044955999765 branch=right pbc="F F F"
C        0.22292093       0.08605226      -1.27551555
C       -1.22740268      -0.05605829      -1.19881907
O       -0.57931134       0.17625686      -2.45115569
N        1.04454212       0.08488568       2.03768309
H        0.85277739      -0.79733693      -1.20164688
H        0.69019607       1.00972999      -0.94744034
H       -1.82907263       0.76586079      -0.82115601
H       -1.66913791      -1.04117309      -1.07919821
H        0.83716881       0.73212484       2.78718750
H        1.50456252      -0.71239631       2.45864373
H        0.15315985      -0.24494381       1.68866582
11
Properties=species:S:1:pos:R:3 relative_energy_eV=-0.00322659722132812 branch=right pbc="F F F"
C        0.22307946       0.08608260      -1.27378988
C       -1.22746429      -0.05615061      -1.19664266
O       -0.57970871       0.17572717      -2.44909724
N        1.04732848       0.08366070       2.03661135
H        0.85314064      -0.79708418      -1.19888204
H        0.69015344       1.00991893      -0.94656532
H       -1.82931150       0.76644101      -0.82070412
H       -1.66900609      -1.04123110      -1.07612613
H        0.83341928       0.73410337       2.78179928
H        1.49843012      -0.71416118       2.46554795
H        0.16034227      -0.24430482       1.67509723
11
Properties=species:S:1:pos:R:3 relative_energy_eV=-0.003244098477807711 branch=right pbc="F F F"
C        0.22241735       0.08592087      -1.27174786
C       -1.22830135      -0.05619682      -1.19673820
O       -0.57871468       0.17564261      -2.44815223
N        1.04990282       0.08286821       2.03610159
H        0.85243872      -0.79723670      -1.19598174
H        0.68911436       1.00964483      -0.94387045
H       -1.83069220       0.76661417      -0.82219777
H       -1.67018493      -1.04122956      -1.07668393
H        0.83266761       0.73552826       2.77831266
H        1.49675727      -0.71447422       2.46974428
H        0.16499812      -0.24407980       1.66846207
11
Properties=species:S:1:pos:R:3 relative_energy_eV=-0.0032615370328130666 branch=right pbc="F F F"
C        0.22156243       0.08579707      -1.26947092
C       -1.22930851      -0.05633797      -1.19709303
O       -0.57753309       0.17608647      -2.44720261
N        1.05296909       0.08163929       2.03536886
H        0.85154307      -0.79731507      -1.19301156
H        0.68775374       1.00926929      -0.94044938
H       -1.83248310       0.76635860      -0.82359370
H       -1.67133646      -1.04140860      -1.07806193
H        0.83307558       0.73790486       2.77334443
H        1.49449958      -0.71527885       2.47500547
H        0.16966078      -0.24371332       1.66241280
11
Properties=species:S:1:pos:R:3 relative_energy_eV=-0.0032949750047919224 branch=right pbc="F F F"
C        0.22022935       0.08569451      -1.26636962
C       -1.23078094      -0.05671918      -1.19804114
O       -0.57571447       0.17739994      -2.44603944
N        1.05703211       0.07952854       2.03423658
H        0.85017249      -0.79733853      -1.18943748
H        0.68546378       1.00872866      -0.93500255
H       -1.83509169       0.76543143      -0.82532076
H       -1.67297622      -1.04196880      -1.08137526
H        0.83579826       0.74219043       2.76563881
H        1.49126900      -0.71654577       2.48216663
H        0.17500144      -0.24339952       1.65679263
11
Properties=species:S:1:pos:R:3 relative_energy_eV=-0.0032983758219415904 branch=right pbc="F F F"
C        0.21812556       0.08602654      -1.26210737
C       -1.23300202      -0.05724492      -1.19927197
O       -0.57348203       0.17916260      -2.44445120
N        1.06517268       0.07467347       2.03277567
H        0.84810077      -0.79677091      -1.18413704
H        0.68168742       1.00874019      -0.92782329
H       -1.83906395       0.76389423      -0.82743705
H       -1.67497685      -1.04284911      -1.08586440
H        0.84007931       0.75036538       2.75092512
H        1.48294646      -0.72079903       2.49905436
H        0.18481578      -0.24219690       1.64558561
11
Properties=species:S:1:pos:R:3 relative_energy_eV=-0.0033399148505850462 branch=right pbc="F F F"
C        0.21825162       0.08623966      -1.26257501
C       -1.23272729      -0.05756986      -1.19933359
O       -0.57373469       0.18022992      -2.44454201
N        1.06429492       0.07397498       2.03246661
H        0.84840720      -0.79645651      -1.18554219
H        0.68157405       1.00884946      -0.92752827
H       -1.83877037       0.76297921      -0.82611502
H       -1.67437204      -1.04338427      -1.08703085
H        0.84327149       0.75145753       2.74947533
H        1.48173939      -0.72086725       2.49835392
H        0.18246889      -0.24245131       1.64961952
11
Properties=species:S:1:pos:R:3 relative_energy_eV=-0.0033717247906679404 branch=right pbc="F F F"
C        0.21766260       0.08670905      -1.26197464
C       -1.23327164      -0.05791407      -1.19994933
O       -0.57344155       0.18161867      -2.44439052
N        1.06659057       0.07126554       2.03210884
H        0.84811850      -0.79579876      -1.18543572
H        0.68027294       1.00925383      -0.92552363
H       -1.83992732       0.76179208      -0.82601123
H       -1.67459363      -1.04407160      -1.08939240
H        0.84761806       0.75536075       2.74355450
H        1.47740199      -0.72276791       2.50504727
H        0.18397267      -0.24244605       1.64921529
11
Properties=species:S:1:pos:R:3 relative_energy_eV=-0.0034213020189781673 branch=right pbc="F F F"
C        0.21644107       0.08910825      -1.26110118
C       -1.23426708      -0.05927076      -1.20038081
O       -0.57418203       0.18679486      -2.44353421
N        1.07498755       0.05939894       2.03029388
H        0.84871724      -0.79233826      -1.18737808
H        0.67650098       1.01173200      -0.92081804
H       -1.84285595       0.75724931      -0.82263129
H       -1.67345039      -1.04688120      -1.09500761
H        0.86397819       0.77049609       2.71845772
H        1.45584569      -0.73166139       2.53399737
H        0.18868800      -0.24162646       1.64535071
11
Properties=species:S:1:pos:R:3 relative_energy_eV=-0.003446551612796611 branch=right pbc="F F F"
C        0.21827656       0.08955905      -1.26543263
C       -1.23229176      -0.05880301      -1.19907039
O       -0.57688111       0.18536504      -2.44508297
N        1.06976159       0.06084437       2.03180312
H        0.85108755      -0.79171548      -1.19281475
H        0.67943595       1.01281669      -0.92809764
H       -1.83957073       0.75820099      -0.82018283
H       -1.67119543      -1.04627653      -1.09071005
H        0.86234465       0.76531449       2.72685571
H        1.45811005      -0.73012020       2.52703562
H        0.18132596      -0.24218392       1.65294527
11
Properties=species:S:1:pos:R:3 relative_energy_eV=-0.003473125401797006 branch=right pbc="F F F"
C        0.21788524       0.08977220      -1.26417916
C       -1.23272038      -0.05921664      -1.19901499
O       -0.57658483       0.18694209      -2.44425175
N        1.07158556       0.05846584       2.03057769
H        0.85118265      -0.79118372      -1.19238595
H        0.67851786       1.01267243      -0.92528973
H       -1.84066413       0.75716733      -0.81963670
H       -1.67129631      -1.04701916      -1.09208208
H        0.86578541       0.76902578       2.72031246
H        1.45391913      -0.73170342       2.53255426
H        0.18279309      -0.24192128       1.65064441
11
Properties=species:S:1:pos:R:3 relative_energy_eV=-0.003491334503451071 branch=right pbc="F F F"
C        0.21746647       0.09066533      -1.26284982
C       -1.23311622      -0.06000728      -1.19864758
O       -0.57676886       0.18999970      -2.44296827
N        1.07459766       0.05274052       2.02860042
H        0.85205426      -0.78949939      -1.19318454
H        0.67696416       1.01313495      -0.92144615
H       -1.84217234       0.75496212      -0.81779271
H       -1.67072645      -1.04850204      -1.09412035
H        0.87405997       0.77631972       2.70690639
H        1.44402669      -0.73527102       2.54484571
H        0.18401802      -0.24154121       1.64790533
11
Properties=species:S:1:pos:R:3 relative_energy_eV=-0.0035139652873112937 branch=right pbc="F F F"
C        0.21770855       0.09048595      -1.26296086
C       -1.23286517      -0.05995669      -1.19844120
O       -0.57684191       0.18996673      -2.44290488
N        1.07315614       0.05351461       2.02845787
H        0.85233713      -0.78965986      -1.19355166
H        0.67748235       1.01278106      -0.92165188
H       -1.84182096       0.75519726      -0.81773465
H       -1.67054065      -1.04841074      -1.09347738
H        0.87354238       0.77522353       2.70855743
H        1.44593160      -0.73441350       2.54170870
H        0.18231390      -0.24172692       1.64924697
11
Properties=species:S:1:pos:R:3 relative_energy_eV=-0.0035370117730053607 branch=right pbc="F F F"
C        0.21798168       0.09120410      -1.26361937
C       -1.23240979      -0.06029005      -1.19821867
O       -0.57760872       0.19186770      -2.44279664
N        1.07213408       0.05052188       2.02788167
H        0.85348724      -0.78846062      -1.19611617
H        0.67743402       1.01321701      -0.92129130
H       -1.84180276       0.75396680      -0.81628003
H       -1.66925579      -1.04922086      -1.09392595
H        0.87956831       0.77806843       2.70347233
H        1.44245071      -0.73567442       2.54492723
H        0.17842443      -0.24219851       1.65321534
11
Properties=species:S:1:pos:R:3 relative_energy_eV=-0.0035706171020137845 branch=right pbc="F F F"
C        0.21816690       0.09282943      -1.26488518
C       -1.23186437      -0.06084774      -1.19817629
O       -0.57890802       0.19501984      -2.44292475
N        1.07201078       0.04415435       2.02744621
H        0.85499148      -0.78607124      -1.20003128
H        0.67665890       1.01470149      -0.92101034
H       -1.84218822       0.75163517      -0.81411803
H       -1.66696736      -1.05071652      -1.09522278
H        0.89072722       0.78401387       2.69258613
H        1.43413080      -0.73905701       2.55475010
H        0.17364536      -0.24266019       1.65883463
11
Properties=species:S:1:pos:R:3 relative_energy_eV=-0.0035859852150679217 branch=right pbc="F F F"
C        0.21826803       0.09456428      -1.26638556
C       -1.23140366      -0.06132211      -1.19837005
O       -0.58015612       0.19768006      -2.44343160
N        1.07227952       0.03783865       2.02756173
H        0.85609028      -0.78372188      -1.20348295
H        0.67575221       1.01657298      -0.92140930
H       -1.84261221       0.74951190      -0.81239429
H       -1.66465092      -1.05212676      -1.09639562
H        0.90117015       0.78942804       2.68224097
H        1.42586776      -0.74259065       2.56513944
H        0.16979850      -0.24283306       1.66417565
11
Properties=species:S:1:pos:R:3 relative_energy_eV=-0.0035894806633223197 branch=right pbc="F F F"
C        0.21843357       0.09510926      -1.26755423
C       -1.23109896      -0.06122611      -1.19860856
O       -0.58062984       0.19753369      -2.44420024
N        1.07158669       0.03690577       2.02847601
H        0.85614049      -0.78321761      -1.20445963
H        0.67582594       1.01747345      -0.92320657
H       -1.84231082       0.74945163      -0.81249084
H       -1.66376104      -1.05220042      -1.09593987
H        0.90255715       0.78910020       2.68217936
H        1.42538881      -0.74311590       2.56609120
H        0.16827155      -0.24281247       1.66696177
11
Properties=species:S:1:pos:R:3 relative_energy_eV=-0.0035938778555646422 branch=right pbc="F F F"
C        0.21853799       0.09558580      -1.26788479
C       -1.23089451      -0.06151298      -1.19853114
O       -0.58103423       0.19871212      -2.44420973
N        1.07135310       0.03497723       2.02801608
H        0.85664308      -0.78251759      -1.20577111
H        0.67570410       1.01786035      -0.92287189
H       -1.84235097       0.74859579      -0.81138270
H       -1.66297121      -1.05284331      -1.09644943
H        0.90620697       0.79113425       2.67868884
H        1.42271719      -0.74415095       2.56844725
H        0.16649207      -0.24283921       1.66919701
11
Properties=species:S:1:pos:R:3 relative_energy_eV=-0.0035939637455157936 branch=right pbc="F F F"
C        0.21846156       0.09552895      -1.26744065
C       -1.23100814      -0.06152764      -1.19842296
O       -0.58085638       0.19862246      -2.44393353
N        1.07173948       0.03493571       2.02771177
H        0.85662217      -0.78250626      -1.20518828
H        0.67559079       1.01777984      -0.92235543
H       -1.84254590       0.74863841      -0.81153665
H       -1.66315348      -1.05281852      -1.09635543
H        0.90587311       0.79122545       2.67801673
H        1.42234553      -0.74417620       2.56892418
H        0.16733484      -0.24270072       1.66782865
11
Properties=species:S:1:pos:R:3 relative_energy_eV=-0.0035976621811641962 branch=right pbc="F F F"
C        0.21843363       0.09551363      -1.26697083
C       -1.23106032      -0.06153491      -1.19824778
O       -0.58065519       0.19836211      -2.44362835
N        1.07198342       0.03492658       2.02724432
H        0.85670235      -0.78240875      -1.20450160
H        0.67552791       1.01780052      -0.92194745
H       -1.84264460       0.74872715      -0.81165818
H       -1.66329321      -1.05276155      -1.09608802
H        0.90550551       0.79112239       2.67742058
H        1.42199963      -0.74414725       2.56896441
H        0.16790445      -0.24259844       1.66666131
11
Properties=species:S:1:pos:R:3 relative_energy_eV=-0.0036159177143417764 branch=right pbc="F F F"
C        0.21817039       0.09611380      -1.26525095
C       -1.23129821      -0.06166789      -1.19796909
O       -0.57985166       0.19801216      -2.44267295
N        1.07332738       0.03258985       2.02540804
H        0.85718337      -0.78112845      -1.20199877
H        0.67458786       1.01869784      -0.92011857
H       -1.84356757       0.74845006      -0.81225942
H       -1.66333375      -1.05296289      -1.09590832
H        0.90801254       0.79257934       2.67130222
H        1.41811045      -0.74511446       2.57271117
H        0.16906280      -0.24256791       1.66400502
11
Properties=species:S:1:pos:R:3 relative_energy_eV=-0.003640893037299975 branch=right pbc="F F F"
C        0.21755410       0.09737146      -1.26224092
C       -1.23187917      -0.06184223      -1.19803570
O       -0.57809931       0.19751199      -2.44137645
N        1.07574483       0.02797958       2.02260418
H        0.85775343      -0.77878475      -1.19715976
H        0.67243752       1.02060873      -0.91681549
H       -1.84565072       0.74793310      -0.81411387
H       -1.66341566      -1.05335048      -1.09633051
H        0.91378517       0.79555890       2.66020616
H        1.41157105      -0.74687160       2.57973971
H        0.17060240      -0.24311332       1.66077096
11
Properties=species:S:1:pos:R:3 relative_energy_eV=-0.0036995803748141043 branch=right pbc="F F F"
C        0.21576012       0.10083803      -1.25451084
C       -1.23362390      -0.06206001      -1.19904497
O       -0.57294846       0.19583222      -2.43871138
N        1.08188540       0.01590615       2.01622546
H        0.85864187      -0.77272361      -1.18339892
H        0.66625165       1.02608930      -0.90864686
H       -1.85165488       0.74697051      -0.82055781
H       -1.66371947      -1.05419102      -1.09806810
H        0.92945190       0.80298849       2.63246606
H        1.39609832      -0.75112650       2.59748674
H        0.17426118      -0.24552232       1.65400877
11
Properties=species:S:1:pos:R:3 relative_energy_eV=-0.003764455354939855 branch=right pbc="F F F"
C        0.21324442       0.10367649      -1.24312451
C       -1.23648826      -0.06122148      -1.20122948
O       -0.56387857       0.18881434      -2.43584901
N        1.08846945       0.00833060       2.00908899
H        0.85793508      -0.76746515      -1.15945360
H        0.65877921       1.03214500      -0.89945157
H       -1.85932056       0.74931649      -0.83380597
H       -1.66691540      -1.05293611      -1.09887313
H        0.93719196       0.80415229       2.61254667
H        1.38947375      -0.75160711       2.60480424
H        0.18191267      -0.25020428       1.64259529
11
Properties=species:S:1:pos:R:3 relative_energy_eV=-0.0038330034094542498 branch=right pbc="F F F"
C        0.21221050       0.10958745      -1.23956300
C       -1.23710629      -0.06097417      -1.20308832
O       -0.56012538       0.18677265      -2.43590539
N        1.09199411      -0.00870150       2.00607744
H        0.85963450      -0.75870362      -1.14876485
H        0.65225194       1.04160442      -0.89794637
H       -1.86488819       0.74835136      -0.84154526
H       -1.66373861      -1.05401863      -1.09888442
H        0.96052297       0.81247454       2.58298141
H        1.37051510      -0.75840150       2.62765457
H        0.17913323      -0.25499003       1.64623188
11
Properties=species:S:1:pos:R:3 relative_energy_eV=-0.003929955320018053 branch=right pbc="F F F"
C        0.21520643       0.11113046      -1.25447692
C       -1.23339632      -0.06005911      -1.20323606
O       -0.56805775       0.18803158      -2.44304306
N        1.08305775      -0.00817386       2.01820567
H        0.86053713      -0.75883392      -1.16784664
H        0.65722086       1.04411220      -0.91783087
H       -1.85852644       0.74886118      -0.83703511
H       -1.65679806      -1.05399168      -1.09368838
H        0.96068928       0.80894549       2.60191377
H        1.37456905      -0.76059522       2.62581260
H        0.16590195      -0.25642594       1.66847278
11
Properties=species:S:1:pos:R:3 relative_energy_eV=-0.004094604905731103 branch=right pbc="F F F"
C        0.21266173       0.11121743      -1.24391491
C       -1.23653453      -0.05917451      -1.20422663
O       -0.56077079       0.18172491      -2.43990540
N        1.09146016      -0.00910511       2.01358015
H        0.85795568      -0.75798720      -1.14688700
H        0.65216031       1.04595621      -0.90898247
H       -1.86452664       0.75220065      -0.84725176
H       -1.66155665      -1.05247063      -1.09316821
H        0.95478680       0.80745774       2.59218641
H        1.37299206      -0.75926737       2.63041600
H        0.18177570      -0.25755114       1.64540150
11
Properties=species:S:1:pos:R:3 relative_energy_eV=-0.004147540772464708 branch=right pbc="F F F"
C        0.21143057       0.11546073      -1.23716314
C       -1.23779498      -0.05852090      -1.20536442
O       -0.55510047       0.17688714      -2.43841586
N        1.09518420      -0.02019704       2.00866746
H        0.85889386      -0.75116733      -1.13106884
H        0.64654448       1.05340611      -0.90500423
H       -1.87026850       0.75329847      -0.85724615
H       -1.66090683      -1.05216040      -1.09082273
H        0.96759057       0.81098655       2.57029567
H        1.36079514      -0.76260274       2.64295213
H        0.18403587      -0.26238974       1.64041758
11
Properties=species:S:1:pos:R:3 relative_energy_eV=-0.004188169708868372 branch=right pbc="F F F"
C        0.21234430       0.11566392      -1.24011661
C       -1.23673887      -0.05832194      -1.20464022
O       -0.55700942       0.17661987      -2.43936841
N        1.09283182      -0.01928620       2.01042801
H        0.85962647      -0.75105315      -1.13528979
H        0.64833561       1.05368675      -0.90939945
H       -1.86835424       0.75358324      -0.85571998
H       -1.65934512      -1.05193701      -1.08811556
H        0.96581999       0.80951684       2.57515157
H        1.36145776      -0.76286463       2.64071899
H        0.18143559      -0.26260678       1.64359894
11
Properties=species:S:1:pos:R:3 relative_energy_eV=-0.004215269472297223 branch=right pbc="F F F"
C        0.21262117       0.11783891      -1.24043961
C       -1.23622531      -0.05753766      -1.20442549
O       -0.55660176       0.17299074      -2.44003239
N        1.09306447      -0.02334743       2.01108163
H        0.86046194      -0.74782626      -1.13171001
H        0.64749363       1.05781688      -0.91366156
H       -1.86877789       0.75509926      -0.85906815
H       -1.65748717      -1.05129985      -1.08343794
H        0.96759266       0.80876018       2.57117653
H        1.35638131      -0.76493341       2.64581941
H        0.18188085      -0.26456048       1.64194502
11
Properties=species:S:1:pos:R:3 relative_energy_eV=-0.0042201062315143645 branch=right pbc="F F F"
C        0.21252447       0.11936580      -1.23937368
C       -1.23622120      -0.05696287      -1.20444100
O       -0.55546281       0.16991064      -2.44001823
N        1.09374129      -0.02625942       2.01059671
H        0.86109258      -0.74527532      -1.12734821
H        0.64650098       1.06069805      -0.91519803
H       -1.86977825       0.75631534      -0.86259722
H       -1.65681366      -1.05064310      -1.08011607
H        0.96877458       0.80816584       2.56736249
H        1.35289166      -0.76613640       2.64892158
H        0.18315428      -0.26617772       1.63945904
11
Properties=species:S:1:pos:R:3 relative_energy_eV=-0.004220938702019339 branch=right pbc="F F F"
C        0.21263285       0.11954348      -1.23966262
C       -1.23602507      -0.05690238      -1.20422601
O       -0.55574074       0.16954818      -2.44006395
N        1.09361281      -0.02651627       2.01067387
H        0.86139971      -0.74492605      -1.12764425
H        0.64670933       1.06100017      -0.91598138
H       -1.86952729       0.75643572      -0.86250605
H       -1.65647343      -1.05058668      -1.07923656
H        0.96855581       0.80798690       2.56733778
H        1.35224132      -0.76648531       2.64917720
H        0.18301860      -0.26609691       1.63937935
11
Properties=species:S:1:pos:R:3 relative_energy_eV=-0.0042213309125145315 branch=right pbc="F F F"
C        0.21261867       0.11943245      -1.23976334
C       -1.23599461      -0.05689851      -1.20420262
O       -0.55587896       0.16945062      -2.44008339
N        1.09357061      -0.02617729       2.01074093
H        0.86147128      -0.74500433      -1.12795332
H        0.64687776       1.06082197      -0.91613255
H       -1.86937123       0.75650843      -0.86245374
H       -1.65651792      -1.05054020      -1.07900662
H        0.96795017       0.80777820       2.56808510
H        1.35258316      -0.76650435       2.64867360
H        0.18309495      -0.26586615       1.63934332
11
Properties=species:S:1:pos:R:3 relative_energy_eV=-0.004224706523928035 branch=right pbc="F F F"
C        0.21259612       0.11929633      -1.23985190
C       -1.23597553      -0.05690678      -1.20422485
O       -0.55597801       0.16936027      -2.44012825
N        1.09349556      -0.02571990       2.01079080
H        0.86150055      -0.74514636      -1.12821854
H        0.64702675       1.06062051      -0.91624938
H       -1.86922706       0.75659116      -0.86248623
H       -1.65657092      -1.05050965      -1.07884048
H        0.96734969       0.80758023       2.56904741
H        1.35312922      -0.76656854       2.64790949
H        0.18305752      -0.26559642       1.63949930
11
Properties=species:S:1:pos:R:3 relative_energy_eV=-0.004230343617564358 branch=right pbc="F F F"
C        0.21251013       0.11885267      -1.23988438
C       -1.23602909      -0.05689189      -1.20437222
O       -0.55597831       0.16891835      -2.44023537
N        1.09337817      -0.02418239       2.01091761
H        0.86133699      -0.74569645      -1.12829834
H        0.64730705       1.06004749      -0.91640635
H       -1.86897241       0.75694041      -0.86288608
H       -1.65692209      -1.05033772      -1.07856621
H        0.96533031       0.80689429       2.57209010
H        1.35517255      -0.76659065       2.64540354
H        0.18327054      -0.26495329       1.63948509
11
Properties=species:S:1:pos:R:3 relative_energy_eV=-0.004239556847096537 branch=right pbc="F F F"
C        0.21244103       0.11818920      -1.23989188
C       -1.23610409      -0.05678674      -1.20463845
O       -0.55574601       0.16771334      -2.44048395
N        1.09301461      -0.02143734       2.01109607
H        0.86096340      -0.74656442      -1.12772404
H        0.64773697       1.05935118      -0.91699939
H       -1.86863437       0.75771054      -0.86400112
H       -1.65749391      -1.04993157      -1.07786906
H        0.96173287       0.80553726       2.57774815
H        1.35901265      -0.76677078       2.64052083
H        0.18348064      -0.26400988       1.63949023
11
Properties=species:S:1:pos:R:3 relative_energy_eV=-0.004250138727002195 branch=right pbc="F F F"
C        0.21245934       0.11744467      -1.23969725
C       -1.23620607      -0.05649612      -1.20494108
O       -0.55502413       0.16520502      -2.44083893
N        1.09243642      -0.01760125       2.01126393
H        0.86033435      -0.74757785      -1.12560857
H        0.64820348       1.05890663      -0.91829219
H       -1.86831855       0.75912410      -0.86621012
H       -1.65830259      -1.04912737      -1.07639037
H        0.95629275       0.80323532       2.58588464
H        1.36455613      -0.76710538       2.63326062
H        0.18397253      -0.26300701       1.63881668
11
Properties=species:S:1:pos:R:3 relative_energy_eV=-0.004256593026184419 branch=right pbc="F F F"
C        0.21266382       0.11734735      -1.23945951
C       -1.23617844      -0.05608513      -1.20505756
O       -0.55409974       0.16235323      -2.44118456
N        1.09174468      -0.01535111       2.01128966
H        0.85993699      -0.74772607      -1.12256389
H        0.64837132       1.05953932      -0.92011483
H       -1.86829357       0.76051323      -0.86863267
H       -1.65863897      -1.04829436      -1.07450459
H        0.95259180       0.80115111       2.59140425
H        1.36823399      -0.76761729       2.62795222
H        0.18407173      -0.26282960       1.63811879
11
Properties=species:S:1:pos:R:3 relative_energy_eV=-0.0042658015263441484 branch=right pbc="F F F"
C        0.21304401       0.11752529      -1.23965642
C       -1.23596269      -0.05588253      -1.20487273
O       -0.55375462       0.16099545      -2.44138223
N        1.09085443      -0.01474153       2.01123900
H        0.85993036      -0.74754310      -1.12125204
H        0.64856896       1.06020406      -0.92153171
H       -1.86814894       0.76102737      -0.86932121
H       -1.65848323      -1.04790560      -1.07352181
H        0.95165814       0.80015358       2.59341692
H        1.36960842      -0.76792705       2.62554381
H        0.18308872      -0.26290526       1.63858568
11
Properties=species:S:1:pos:R:3 relative_energy_eV=-0.004268779953235935 branch=right pbc="F F F"
C        0.21333359       0.11738477      -1.24013302
C       -1.23572262      -0.05590894      -1.20466457
O       -0.55398418       0.16092824      -2.44150103
N        1.08998410      -0.01403859       2.01119625
H        0.86007164      -0.74776775      -1.12185403
H        0.64902451       1.06003143      -0.92217916
H       -1.86774494       0.76099447      -0.86876962
H       -1.65833276      -1.04788471      -1.07337065
H        0.95126866       0.79974892       2.59504309
H        1.37077455      -0.76802992       2.62361819
H        0.18173100      -0.26245724       1.63986183
11
Properties=species:S:1:pos:R:3 relative_energy_eV=-0.004274460678061587 branch=right pbc="F F F"
C        0.21378564       0.11756115      -1.24080768
C       -1.23526040      -0.05592429      -1.20430453
O       -0.55433636       0.16068754      -2.44169819
N        1.08860584      -0.01405997       2.01094010
H        0.86067273      -0.74746745      -1.12261150
H        0.64952250       1.06036467      -0.92334464
H       -1.86724275       0.76095064      -0.86818066
H       -1.65771618      -1.04792023      -1.07264029
H        0.95196956       0.79929864       2.59576161
H        1.37124016      -0.76848950       2.62192207
H        0.17916280      -0.26200049       1.64221095
