11
Properties=species:S:1:pos:R:3 relative_energy_eV=2.4224975400211406 branch=ts pbc="F F F"
C       -0.09659632      -0.28507136      -1.35720829
C        0.23038189       1.04902979      -0.89150316
O        0.82111688      -0.10193210      -0.26689657
N       -0.05538437      -0.78440243       2.26452263
H        0.35686480      -0.66610697      -2.26394465
H       -1.05122201      -0.72872154      -1.08671045
H       -0.48234968       1.59263160      -0.27680753
H        0.92679462       1.66042754      -1.45214175
H        0.28174325      -0.18230107       1.57473841
H        0.11317967      -0.93045945       1.31449313
H       -1.04452865      -0.62309375       2.44145743
