11
Properties=species:S:1:pos:R:3 relative_energy_eV=2.829432209645347 branch=ts pbc="F F F"
C        0.09757378      -0.40235192      -0.74212420
C       -0.93549950       0.60660611      -0.66967099
O       -0.62173965       1.76406898      -0.17927527
N        0.79887991      -0.34887258       1.25638517
H        1.05362306      -0.10606882      -1.15117451
H       -0.17342734      -1.43655367      -0.87400414
H       -1.94603275       0.17888927      -0.43418969
H       -0.85149803       0.42888898      -1.86425412
H        0.53754539       0.64048892       1.25483923
H        1.78594643      -0.46796186       1.46052045
H        0.25459294      -0.85713723       1.94291942
