11
Properties=species:S:1:pos:R:3 relative_energy_eV=2.6489376348508813 branch=ts pbc="F F F"
C       -0.48237994      -0.41136421      -0.21855622
C        0.53009439       0.38014356      -1.12476053
O       -0.06105867       1.06027248      -2.06139952
N       -0.19074925      -0.09650716       1.24411611
H       -1.49008365      -0.05068110      -0.41654464
H       -0.44013046      -1.49683713      -0.31993353
H        1.29078221      -0.40889161      -1.43548908
H        1.14691782       1.01120870      -0.37776631
H        0.74162479      -0.42621000       1.48256075
H       -0.17952309       0.91922348       1.33030654
H       -0.86554854      -0.48029457       1.89760302
