12
Properties=species:S:1:pos:R:3 pbc="F F F"
O       -1.62149983       0.64656001       0.40185386
C       -0.85773491       1.44264069      -0.14248185
C        0.49100030       1.18842989      -0.57835976
O       -1.15252282      -2.03779032       1.09106308
C        1.07964996      -0.01268479      -0.42259712
O        2.33726105      -0.22021103      -0.83976102
H       -1.21477646       2.47160502      -0.33166161
H        1.04214483       1.99407211      -1.04534764
H       -1.49309241      -1.13417623       0.92923803
H       -1.88123682      -2.50254172       1.51327426
H        0.57038609      -0.85410706       0.04039684
H        2.60574526      -1.12866363      -0.65427287
