16
Properties=species:S:1:pos:R:3 pbc="F F F"
C        0.16749766       1.91472457      -1.48646401
C        1.24957175       1.06285797      -0.87727493
O        2.11389672       1.52913405      -0.15491844
N        1.16245385      -0.27909097      -1.13871021
C       -0.88768138      -1.68830041       2.03101833
N       -1.42179943      -0.63083427       1.18422063
H       -0.56355196       1.35564219      -2.06427524
H       -0.34900866       2.44709422      -0.69151246
H        0.62246288       2.67204363      -2.12026044
H        0.64832474      -0.60877878      -1.93506873
H        1.94771920      -0.84102092      -0.85577915
H       -1.70021494      -2.31742563       2.39513814
H       -0.14879989      -2.34227945       1.54770857
H       -0.41179881      -1.25640648       2.91189375
H       -1.75253208      -1.02336098       0.31372711
H       -0.67588073       0.00556357       0.94082730
