8
Properties=species:S:1:pos:R:3 relative_energy_eV=0.0 branch=left pbc="F F F"
O       -1.43928456       0.41902928       0.10200718
C       -0.31704639      -0.34846840       0.43037948
C        0.88425854       0.04078251      -0.37944602
O        0.83196346       0.92372199      -1.20845301
H       -1.13620500       1.02852559      -0.59337285
H       -0.05692347      -0.24699437       1.49543731
H       -0.50179975      -1.42217684       0.27059577
H        1.82250476      -0.51425572      -0.18676645
8
Properties=species:S:1:pos:R:3 relative_energy_eV=1.0379735613241792e-06 branch=left pbc="F F F"
O       -1.43921206       0.41906694       0.10202743
C       -0.31716023      -0.34851431       0.43037899
C        0.88425397       0.04079301      -0.37943786
O        0.83194992       0.92371776      -1.20840494
H       -1.13622676       1.02851241      -0.59335948
H       -0.05681628      -0.24690910       1.49527908
H       -0.50187199      -1.42226827       0.27060039
H        1.82255101      -0.51423441      -0.18670219
8
Properties=species:S:1:pos:R:3 relative_energy_eV=7.782725333527196e-06 branch=left pbc="F F F"
O       -1.43933010       0.41866063       0.10168533
C       -0.31742328      -0.34869033       0.43023831
C        0.88416392       0.04074821      -0.37955117
O        0.83216050       0.92396007      -1.20809146
H       -1.13594584       1.02868677      -0.59287241
H       -0.05671082      -0.24627928       1.49481414
H       -0.50186619      -1.42255189       0.27102913
H        1.82241940      -0.51437013      -0.18687046
8
Properties=species:S:1:pos:R:3 relative_energy_eV=2.3572526515636127e-05 branch=left pbc="F F F"
O       -1.43983936       0.41754923       0.10080632
C       -0.31768961      -0.34900705       0.42989447
C        0.88397587       0.04056406      -0.37983654
O        0.83255270       0.92420415      -1.20782655
H       -1.13512738       1.02939895      -0.59145030
H       -0.05686451      -0.24506549       1.49419727
H       -0.50164192      -1.42297534       0.27179722
H        1.82210179      -0.51450446      -0.18720049
8
Properties=species:S:1:pos:R:3 relative_energy_eV=5.454600432130974e-05 branch=left pbc="F F F"
O       -1.44054124       0.41624304       0.09982991
C       -0.31773250      -0.34929504       0.42951286
C        0.88382541       0.04029869      -0.38014514
O        0.83276469       0.92382757      -1.20830453
H       -1.13412896       1.03066708      -0.58943765
H       -0.05733946      -0.24410111       1.49386770
H       -0.50131575      -1.42326707       0.27220622
H        1.82193537      -0.51420912      -0.18714797
8
Properties=species:S:1:pos:R:3 relative_energy_eV=9.630077056499431e-05 branch=left pbc="F F F"
O       -1.44115433       0.41523237       0.09911270
C       -0.31753975      -0.34944646       0.42924360
C        0.88382454       0.04005604      -0.38035467
O        0.83254774       0.92248213      -1.20986333
H       -1.13337414       1.03239896      -0.58727829
H       -0.05796731      -0.24400528       1.49396680
H       -0.50108795      -1.42331208       0.27184743
H        1.82221875      -0.51324163      -0.18629285
8
Properties=species:S:1:pos:R:3 relative_energy_eV=0.0001442117390979547 branch=left pbc="F F F"
O       -1.44147636       0.41476303       0.09877910
C       -0.31726072      -0.34945383       0.42914020
C        0.88399236       0.03991583      -0.38044147
O        0.83188665       0.92025638      -1.21235653
H       -1.13311464       1.03441462      -0.58530288
H       -0.05850102      -0.24491517       1.49435102
H       -0.50109011      -1.42316161       0.27076808
H        1.82303137      -0.51165523      -0.18455611
8
Properties=species:S:1:pos:R:3 relative_energy_eV=0.0001922505962284049 branch=left pbc="F F F"
O       -1.44144324       0.41487097       0.09882979
C       -0.31709689      -0.34937985       0.42916071
C        0.88422616       0.03992092      -0.38045033
O        0.83105909       0.91785696      -1.21497752
H       -1.13333819       1.03619141      -0.58391395
H       -0.05871506      -0.24639816       1.49470594
H       -0.50129958      -1.42296348       0.26945622
H        1.82407524      -0.50993474      -0.18242948
8
Properties=species:S:1:pos:R:3 relative_energy_eV=0.00022908160644874442 branch=left pbc="F F F"
O       -1.44119457       0.41528992       0.09907163
C       -0.31711902      -0.34932651       0.42918434
C        0.88439309       0.03998134      -0.38047121
O        0.83042163       0.91605309      -1.21692561
H       -1.13378016       1.03736753      -0.58318025
H       -0.05861449      -0.24776047       1.49481311
H       -0.50157344      -1.42285916       0.26848107
H        1.82493446      -0.50858173      -0.18059167
8
Properties=species:S:1:pos:R:3 relative_energy_eV=0.0002554531274654437 branch=left pbc="F F F"
O       -1.44090933       0.41574477       0.09927490
C       -0.31726172      -0.34932006       0.42913378
C        0.88442779       0.04006169      -0.38054479
O        0.82998399       0.91486125      -1.21814346
H       -1.13418524       1.03816409      -0.58281365
H       -0.05832916      -0.24877374       1.49467201
H       -0.50170426      -1.42289170       0.26797527
H        1.82544544      -0.50768228      -0.17917266
8
Properties=species:S:1:pos:R:3 relative_energy_eV=0.0002807816508720862 branch=left pbc="F F F"
O       -1.44065315       0.41595646       0.09909709
C       -0.31748871      -0.34947613       0.42885875
C        0.88431371       0.03987558      -0.38080051
O        0.82985401       0.91444268      -1.21857768
H       -1.13454687       1.03893835      -0.58245954
H       -0.05790653      -0.24921500       1.49422867
H       -0.50170284      -1.42317913       0.26826320
H        1.82559788      -0.50717879      -0.17822858
8
Properties=species:S:1:pos:R:3 relative_energy_eV=0.00031497791678702924 branch=left pbc="F F F"
O       -1.44074675       0.41551014       0.09813536
C       -0.31763060      -0.34962338       0.42844368
C        0.88393498       0.03968708      -0.38110003
O        0.82967386       0.91465676      -1.21794056
H       -1.13436203       1.04002429      -0.58203077
H       -0.05749987      -0.24889337       1.49362901
H       -0.50091653      -1.42363266       0.26935349
H        1.82501444      -0.50756484      -0.17810879
8
Properties=species:S:1:pos:R:3 relative_energy_eV=0.00039217913945321925 branch=left pbc="F F F"
O       -1.44114221       0.41391274       0.09587996
C       -0.31773580      -0.35016680       0.42750194
C        0.88343664       0.03859096      -0.38175047
O        0.83015154       0.91654775      -1.21574156
H       -1.13407210       1.04170745      -0.58116762
H       -0.05696100      -0.24710260       1.49258810
H       -0.50008548      -1.42464429       0.27227229
H        1.82387588      -0.50868120      -0.17920125
8
Properties=species:S:1:pos:R:3 relative_energy_eV=0.0005296665403875522 branch=left pbc="F F F"
O       -1.44234879       0.41093072       0.09255937
C       -0.31773487      -0.35054992       0.42685264
C        0.88283280       0.03776390      -0.38223179
O        0.83051247       0.91961368      -1.21237561
H       -1.13276291       1.04360311      -0.58027226
H       -0.05663429      -0.24400422       1.49192601
H       -0.49850982      -1.42572488       0.27574915
H        1.82211290      -0.51146835      -0.18182613
8
Properties=species:S:1:pos:R:3 relative_energy_eV=0.0006962951174500631 branch=left pbc="F F F"
O       -1.44036166       0.41697926       0.09816999
C       -0.31720444      -0.34992924       0.42640920
C        0.88366996       0.03847200      -0.38031201
O        0.82915831       0.91235542      -1.21727755
H       -1.13539599       1.04171281      -0.58161584
H       -0.05682254      -0.25042428       1.49072640
H       -0.49993502      -1.42361883       0.27114282
H        1.82435888      -0.50538312      -0.17686162
8
Properties=species:S:1:pos:R:3 relative_energy_eV=0.001199572473524313 branch=left pbc="F F F"
O       -1.44061774       0.42118576       0.10358790
C       -0.31801916      -0.34982312       0.42478161
C        0.88358218       0.03965419      -0.37826838
O        0.82895084       0.90927845      -1.22168136
H       -1.13612254       1.04119254      -0.58323145
H       -0.05473833      -0.25429663       1.48736337
H       -0.50076867      -1.42469173       0.26946846
H        1.82520092      -0.50233545      -0.17163876
8
Properties=species:S:1:pos:R:3 relative_energy_eV=0.002594973435407155 branch=left pbc="F F F"
O       -1.43767697       0.43366998       0.11703827
C       -0.31889144      -0.34857622       0.42488308
C        0.88406424       0.04357595      -0.37606694
O        0.82698590       0.89789439      -1.23480500
H       -1.13920464       1.03624502      -0.58685416
H       -0.05352079      -0.26647750       1.48598152
H       -0.50325475      -1.42335624       0.25879448
H        1.82896595      -0.49281138      -0.15858984
8
Properties=species:S:1:pos:R:3 relative_energy_eV=0.005048485287261428 branch=left pbc="F F F"
O       -1.43360385       0.44753980       0.13229662
C       -0.32015548      -0.34758364       0.42564110
C        0.88350695       0.04713420      -0.37691357
O        0.82548427       0.88728188      -1.25038478
H       -1.14181662       1.02988180      -0.59088438
H       -0.05113367      -0.27933717       1.48643398
H       -0.50582939      -1.42239406       0.24575739
H        1.83101533      -0.48235881      -0.14156495
8
Properties=species:S:1:pos:R:3 relative_energy_eV=0.007880280630160996 branch=left pbc="F F F"
O       -1.42850083       0.46010256       0.14609047
C       -0.32029110      -0.34660759       0.42714072
C        0.88250323       0.04865345      -0.38012454
O        0.82388477       0.87712605      -1.26442362
H       -1.14421025       1.02308555      -0.59458088
H       -0.04841462      -0.29131030       1.48906986
H       -0.50844923      -1.41958792       0.23164090
H        1.83094559      -0.47129783      -0.12443151
8
Properties=species:S:1:pos:R:3 relative_energy_eV=0.010702729264266964 branch=left pbc="F F F"
O       -1.42320381       0.46959630       0.15748401
C       -0.31915104      -0.34585460       0.42834051
C        0.88171057       0.04728129      -0.38377145
O        0.82279677       0.86798615      -1.27492557
H       -1.14723301       1.01707816      -0.59792083
H       -0.04464672      -0.30126290       1.49178291
H       -0.51286086      -1.41497507       0.21872455
H        1.83005567      -0.45968536      -0.10933271
8
Properties=species:S:1:pos:R:3 relative_energy_eV=0.013269049084556173 branch=left pbc="F F F"
O       -1.41778496       0.47729037       0.16726167
C       -0.31683514      -0.34490785       0.42936359
C        0.88208195       0.04467394      -0.38546694
O        0.82159979       0.85746500      -1.28277330
H       -1.15189043       1.01173425      -0.60107139
H       -0.04118240      -0.31079284       1.49380711
H       -0.51951918      -1.40829399       0.20658954
H        1.83099796      -0.44700494      -0.09732887
8
Properties=species:S:1:pos:R:3 relative_energy_eV=0.015534838033090637 branch=left pbc="F F F"
O       -1.41250606       0.48409055       0.17602809
C       -0.31414511      -0.34385882       0.43015535
C        0.88388012       0.04222946      -0.38428398
O        0.82034827       0.84551703      -1.28920988
H       -1.15832124       1.00709073      -0.60405911
H       -0.03868705      -0.32039669       1.49471446
H       -0.52819227      -1.40068154       0.19556993
H        1.83509095      -0.43382679      -0.08853345
8
Properties=species:S:1:pos:R:3 relative_energy_eV=0.01778756741896359 branch=left pbc="F F F"
O       -1.40742652       0.49121253       0.18425729
C       -0.31151366      -0.34252045       0.43120943
C        0.88693821       0.04146013      -0.38026610
O        0.81847316       0.83163840      -1.29560290
H       -1.16600392       1.00270225      -0.60690015
H       -0.03772232      -0.33085744       1.49513627
H       -0.53770967      -1.39268099       0.18476100
H        1.84243235      -0.42079051      -0.08221344
8
Properties=species:S:1:pos:R:3 relative_energy_eV=0.019904123839296517 branch=left pbc="F F F"
O       -1.40376346       0.49746886       0.19071962
C       -0.30990971      -0.34129455       0.43233866
C        0.89021170       0.04265428      -0.37506809
O        0.81645335       0.81946092      -1.30140210
H       -1.17286039       0.99933817      -0.60920442
H       -0.03780598      -0.33995083       1.49528148
H       -0.54583778      -1.38658507       0.17610103
H        1.85097990      -0.41092787      -0.07838476
8
Properties=species:S:1:pos:R:3 relative_energy_eV=0.021467559258780966 branch=left pbc="F F F"
O       -1.40207702       0.50189267       0.19456353
C       -0.30955692      -0.34039588       0.43339482
C        0.89265357       0.04492175      -0.37105702
O        0.81470812       0.81166641      -1.30569052
H       -1.17709056       0.99734550      -0.61059321
H       -0.03861377      -0.34595302       1.49564365
H       -0.55049701      -1.38346215       0.17075374
H        1.85794123      -0.40585137      -0.07663355
8
Properties=species:S:1:pos:R:3 relative_energy_eV=0.022609268178712227 branch=left pbc="F F F"
O       -1.40157349       0.50520912       0.19712920
C       -0.31015377      -0.33979247       0.43426379
C        0.89459418       0.04709173      -0.36860788
O        0.81339738       0.80713401      -1.30910253
H       -1.17959956       0.99623530      -0.61144217
H       -0.04013989      -0.34993472       1.49633983
H       -0.55277260      -1.38227379       0.16771570
H        1.86371541      -0.40350526      -0.07591452
8
Properties=species:S:1:pos:R:3 relative_energy_eV=0.02385662806318578 branch=left pbc="F F F"
O       -1.40149232       0.50919430       0.19992254
C       -0.31141932      -0.33901452       0.43535830
C        0.89697434       0.04902762      -0.36762023
O        0.81194851       0.80335185      -1.31283149
H       -1.18146287       0.99525004      -0.61200532
H       -0.04408672      -0.35402713       1.49811048
H       -0.55298916      -1.38174384       0.16535669
H        1.86999521      -0.40187442      -0.07590955
8
Properties=species:S:1:pos:R:3 relative_energy_eV=0.025921519675648597 branch=left pbc="F F F"
O       -1.40077472       0.51495606       0.20451136
C       -0.31298043      -0.33786223       0.43666687
C        0.90062121       0.04922972      -0.36876668
O        0.81062312       0.79917643      -1.31755418
H       -1.18357579       0.99415240      -0.61239653
H       -0.05325211      -0.35956940       1.50157565
H       -0.55081728      -1.38106514       0.16343262
H        1.87762368      -0.39885395      -0.07708768
8
Properties=species:S:1:pos:R:3 relative_energy_eV=0.02846369260987558 branch=left pbc="F F F"
O       -1.39878696       0.52016884       0.20908089
C       -0.31307850      -0.33666780       0.43774122
C        0.90368113       0.04734953      -0.37140695
O        0.81014937       0.79532190      -1.32100914
H       -1.18539765       0.99322948      -0.61235083
H       -0.06456365      -0.36461480       1.50528864
H       -0.54718650      -1.37992323       0.16233692
H        1.88265041      -0.39470004      -0.07929934
8
Properties=species:S:1:pos:R:3 relative_energy_eV=0.031819841037759033 branch=left pbc="F F F"
O       -1.39456261       0.52416489       0.21368191
C       -0.31108638      -0.33605071       0.43827735
C        0.90556883       0.04344912      -0.37455404
O        0.81161616       0.79194436      -1.32333230
H       -1.18786939       0.99281553      -0.61202511
H       -0.07724198      -0.36877437       1.50846193
H       -0.54387928      -1.37874131       0.16245757
H        1.88492231      -0.38864363      -0.08258588
8
Properties=species:S:1:pos:R:3 relative_energy_eV=0.03528541237119498 branch=left pbc="F F F"
O       -1.38942219       0.52603839       0.21646306
C       -0.30763246      -0.33640511       0.43855268
C        0.90553768       0.04103752      -0.37627779
O        0.81438340       0.78942707      -1.32457180
H       -1.19046431       0.99303021      -0.61157076
H       -0.08677831      -0.37101090       1.51048980
H       -0.54256815      -1.37869683       0.16308130
H        1.88441201      -0.38325649      -0.08578506
8
Properties=species:S:1:pos:R:3 relative_energy_eV=0.0424939856347919 branch=left pbc="F F F"
O       -1.37948815       0.52648967       0.21855198
C       -0.30136915      -0.33944181       0.43840669
C        0.90304991       0.04156998      -0.37539001
O        0.82133163       0.78723727      -1.32744611
H       -1.19595754       0.99465726      -0.61092729
H       -0.09693796      -0.37202524       1.51279999
H       -0.54512492      -1.38219712       0.16486849
H        1.88196384      -0.37612613      -0.09048231
8
Properties=species:S:1:pos:R:3 relative_energy_eV=0.054749803804952535 branch=left pbc="F F F"
O       -1.37058166       0.52634228       0.21857205
C       -0.29596242      -0.34339684       0.43701692
C        0.89978892       0.04706003      -0.37256792
O        0.82927790       0.78629670      -1.33109930
H       -1.20224638       0.99675624      -0.61006646
H       -0.10188893      -0.37147531       1.51547648
H       -0.55180137      -1.38998797       0.16689588
H        1.88088160      -0.37143126      -0.09384621
8
Properties=species:S:1:pos:R:3 relative_energy_eV=0.11605029767451924 branch=left pbc="F F F"
O       -1.35530269       0.52674642       0.21760833
C       -0.29578574      -0.33864389       0.45730125
C        0.88984263       0.08243618      -0.34694928
O        0.79595533       0.75693508      -1.35031914
H       -1.17376336       0.99467116      -0.61874175
H       -0.13098409      -0.38611720       1.55029822
H       -0.48971597      -1.36097286       0.12906229
H        1.84722156      -0.39489100      -0.10787852
8
Properties=species:S:1:pos:R:3 relative_energy_eV=0.25008944412093115 branch=left pbc="F F F"
O       -1.35520650       0.53331306       0.21266044
C       -0.29791371      -0.32477390       0.48348583
C        0.88524779       0.11185199      -0.32979287
O        0.74610271       0.72347791      -1.36147309
H       -1.13260247       0.98622538      -0.62547436
H       -0.15885260      -0.40479058       1.58514786
H       -0.41096236      -1.31891685       0.08401607
H        1.81165480      -0.42622312      -0.11818849
8
Properties=species:S:1:pos:R:3 relative_energy_eV=0.3643485727834559 branch=left pbc="F F F"
O       -1.36263534       0.53922228       0.20830555
C       -0.29880971      -0.29836240       0.50796477
C        0.88347040       0.11833198      -0.31556888
O        0.70148848       0.70377439      -1.37144354
H       -1.09625350       0.97678823      -0.62962657
H       -0.17873957      -0.42063823       1.60809527
H       -0.34761082      -1.28839102       0.04603015
H        1.78655772      -0.45056135      -0.12337536
8
Properties=species:S:1:pos:R:3 relative_energy_eV=0.6111059347631453 branch=left pbc="F F F"
O       -1.39112321       0.55146759       0.19527796
C       -0.28230057      -0.23047747       0.54872024
C        0.86596297       0.12079404      -0.31227225
O        0.64015405       0.67801210      -1.36996885
H       -1.04264655       0.95819959      -0.62911273
H       -0.20278828      -0.44531756       1.63420161
H       -0.26926278      -1.26542793      -0.01171308
H        1.76947203      -0.48708646      -0.12475152
8
Properties=species:S:1:pos:R:3 relative_energy_eV=0.7526848003799387 branch=left pbc="F F F"
O       -1.40303545       0.55551799       0.18999123
C       -0.27664381      -0.20442733       0.56110257
C        0.86170436       0.11453515      -0.30653850
O        0.61785039       0.67384477      -1.37338545
H       -1.02424686       0.95087526      -0.62734153
H       -0.20985130      -0.45370002       1.64106048
H       -0.24391317      -1.25782998      -0.02995340
H        1.76560349      -0.49865194      -0.12455404
8
Properties=species:S:1:pos:R:3 relative_energy_eV=0.9702050133973898 branch=left pbc="F F F"
O       -1.41128715       0.55162685       0.19258882
C       -0.29173951      -0.17809580       0.56931780
C        0.83313724       0.05666384      -0.32239389
O        0.58251246       0.66643627      -1.34458234
H       -0.98869793       0.93538904      -0.62505980
H       -0.21873545      -0.45929803       1.62427452
H       -0.17910220      -1.18515031      -0.04193789
H        1.76138021      -0.50740797      -0.12182585
8
Properties=species:S:1:pos:R:3 relative_energy_eV=1.4947229369190609 branch=left pbc="F F F"
O       -1.40212841       0.54598689       0.19626442
C       -0.31684172      -0.18378174       0.58627821
C        0.80874451      -0.00901182      -0.33316898
O        0.55640379       0.66689007      -1.32038298
H       -0.96578975       0.92222890      -0.62046737
H       -0.22531995      -0.45155954       1.58029233
H       -0.12264446      -1.10267406      -0.03874539
H        1.75504365      -0.50791480      -0.11968887
8
Properties=species:S:1:pos:R:3 relative_energy_eV=2.2301652471069247 branch=left pbc="F F F"
O       -1.36754929       0.52742087       0.20588282
C       -0.35377268      -0.20358199       0.55791664
C        0.79399071      -0.05760953      -0.34177635
O        0.53872981       0.66648146      -1.29836770
H       -0.95374140       0.91238473      -0.61420562
H       -0.22942569      -0.44574399       1.55069962
H       -0.08844303      -1.01300048      -0.01065783
H        1.74767924      -0.50618718      -0.11911022
8
Properties=species:S:1:pos:R:3 relative_energy_eV=3.83071796690092 branch=left pbc="F F F"
O       -1.36138947       0.52596310       0.20967276
C       -0.33341472      -0.26156396       0.50532587
C        0.75912800      -0.10431144      -0.31422033
O        0.52985112       0.67720739      -1.30553724
H       -0.94831381       0.90961805      -0.61451585
H       -0.23187242      -0.44193757       1.54906015
H       -0.07202976      -0.91921702       0.01992431
H        1.74550872      -0.50559466      -0.11932832
8
Properties=species:S:1:pos:R:3 relative_energy_eV=4.92809149686309 branch=ts pbc="F F F"
O       -1.36147937       0.52593082       0.21007689
C       -0.32891296      -0.27094293       0.49778129
C        0.75656021      -0.10732971      -0.31187712
O        0.52948826       0.67792752      -1.30634436
H       -0.94339505       0.90934988      -0.61869079
H       -0.23651691      -0.43783259       1.55767232
H       -0.08523085      -0.78526808       0.08341881
H        1.74257711      -0.50657625      -0.11888588
8
Properties=species:S:1:pos:R:3 relative_energy_eV=3.964725736737819 branch=right pbc="F F F"
O       -1.36156926       0.52589854       0.21048101
C       -0.32441121      -0.28032191       0.49023672
C        0.75399242      -0.11034799      -0.30953391
O        0.52912541       0.67864764      -1.30715148
H       -0.93847628       0.90908171      -0.62286573
H       -0.24116140      -0.43372760       1.56628449
H       -0.09843193      -0.65131914       0.14691331
H        1.73964551      -0.50755783      -0.11844343
8
Properties=species:S:1:pos:R:3 relative_energy_eV=3.764463012795204 branch=right pbc="F F F"
O       -1.36397677       0.52003872       0.21345097
C       -0.28797293      -0.34455646       0.44285869
C        0.77759827      -0.11806427      -0.31585839
O        0.52903530       0.69147197      -1.32309722
H       -0.94094535       0.91435347      -0.62816771
H       -0.24974315      -0.43575949       1.57976455
H       -0.14802948      -0.58892586       0.20730504
H        1.74274736      -0.50820467      -0.12033495
8
Properties=species:S:1:pos:R:3 relative_energy_eV=3.3977204694219836 branch=right pbc="F F F"
O       -1.35179599       0.50002160       0.20644830
C       -0.31337702      -0.32848395       0.48711893
C        0.79256896      -0.12837569      -0.33488688
O        0.53484047       0.70084516      -1.33368283
H       -0.94555808       0.91873221      -0.62997759
H       -0.25527776      -0.44562168       1.58199410
H       -0.15619850      -0.57773750       0.20381316
H        1.75351117      -0.50902674      -0.12490620
8
Properties=species:S:1:pos:R:3 relative_energy_eV=3.2620211642315553 branch=right pbc="F F F"
O       -1.34874068       0.47199489       0.20084058
C       -0.31151567      -0.28892406       0.52387274
C        0.76949122      -0.14227371      -0.34839331
O        0.54834877       0.70502451      -1.33743664
H       -0.94804574       0.92411410      -0.63581544
H       -0.26593429      -0.46359440       1.59505038
H       -0.16686386      -0.56336925       0.19252449
H        1.78197351      -0.51261866      -0.13472181
8
Properties=species:S:1:pos:R:3 relative_energy_eV=3.1624007999243986 branch=right pbc="F F F"
O       -1.35457468       0.46019600       0.19848715
C       -0.30520166      -0.28009724       0.52150127
C        0.77601738      -0.15474189      -0.35434051
O        0.55397207       0.70675750      -1.33829579
H       -0.94924468       0.92487920      -0.63822066
H       -0.27240806      -0.47511000       1.60399076
H       -0.18014605      -0.53963187       0.20684301
H        1.79029894      -0.51189826      -0.14404424
8
Properties=species:S:1:pos:R:3 relative_energy_eV=3.0727802408482603 branch=right pbc="F F F"
O       -1.36801983       0.43054307       0.18696853
C       -0.28682160      -0.25276242       0.54032557
C        0.78427697      -0.17921854      -0.36707003
O        0.57139698       0.70678499      -1.33764079
H       -0.95163195       0.92341055      -0.64407438
H       -0.28931973      -0.50630126       1.61903651
H       -0.21510205      -0.48118201       0.23111833
H        1.81393449      -0.51092094      -0.17274272
8
Properties=species:S:1:pos:R:3 relative_energy_eV=3.052576070053874 branch=right pbc="F F F"
O       -1.36670618       0.42829033       0.18281064
C       -0.28437845      -0.25351953       0.54526358
C        0.78329156      -0.17393347      -0.36209349
O        0.57569524       0.70063483      -1.33367671
H       -0.95204564       0.91877603      -0.64476158
H       -0.29166716      -0.51184896       1.61684945
H       -0.22129225      -0.46679962       0.23515773
H        1.81581617      -0.51124616      -0.18362862
8
Properties=species:S:1:pos:R:3 relative_energy_eV=3.029773621201457 branch=right pbc="F F F"
O       -1.36357439       0.42692574       0.17785097
C       -0.28353844      -0.25429383       0.55530274
C        0.78819098      -0.15869352      -0.34540336
O        0.58268604       0.68838015      -1.32757240
H       -0.95247229       0.90812242      -0.64824657
H       -0.29549977      -0.52193735       1.61190154
H       -0.23190089      -0.44518653       0.23936017
H        1.81482210      -0.51296365      -0.20727207
8
Properties=species:S:1:pos:R:3 relative_energy_eV=3.023052986894072 branch=right pbc="F F F"
O       -1.36354358       0.42873286       0.17827483
C       -0.28516297      -0.25375410       0.55895187
C        0.79187307      -0.15050600      -0.33553306
O        0.58354728       0.68561269      -1.32733247
H       -0.95218266       0.90358469      -0.65202558
H       -0.29703273      -0.52569619       1.61147984
H       -0.23294652      -0.44196991       0.23858978
H        1.81416144      -0.51565060      -0.21648418
8
Properties=species:S:1:pos:R:3 relative_energy_eV=3.0158592278658034 branch=right pbc="F F F"
O       -1.36477756       0.43151999       0.18054310
C       -0.28869262      -0.24948738       0.56371913
C        0.79762586      -0.13805602      -0.32284194
O        0.58316441       0.68430830      -1.32779212
H       -0.95145886       0.89692634      -0.66025900
H       -0.30092449      -0.53254551       1.61474185
H       -0.23202102      -0.44017977       0.23734558
H        1.81579762      -0.52213253      -0.22953558
8
Properties=species:S:1:pos:R:3 relative_energy_eV=3.0132916713137092 branch=right pbc="F F F"
O       -1.36583444       0.43374349       0.18157177
C       -0.28996230      -0.24696102       0.56572382
C        0.79940950      -0.13326821      -0.31935776
O        0.58111716       0.68636552      -1.32797325
H       -0.95098816       0.89363701      -0.66522572
H       -0.30403456      -0.53560080       1.61759026
H       -0.22841817      -0.44110892       0.23774652
H        1.81742430      -0.52645363      -0.23415462
8
Properties=species:S:1:pos:R:3 relative_energy_eV=3.0104371332945448 branch=right pbc="F F F"
O       -1.36624228       0.43531371       0.18189631
C       -0.29057349      -0.24307339       0.56849795
C        0.80090360      -0.12963260      -0.31831642
O        0.57792856       0.69066915      -1.32715903
H       -0.95027877       0.88902987      -0.67196179
H       -0.30982626      -0.53997150       1.62120634
H       -0.22307101      -0.44001659       0.24167525
H        1.81987299      -0.53196521      -0.23991760
8
Properties=species:S:1:pos:R:3 relative_energy_eV=3.0066639778542594 branch=right pbc="F F F"
O       -1.36532992       0.43778394       0.18148612
C       -0.29031952      -0.23885141       0.57243273
C        0.80188359      -0.12626757      -0.31838879
O        0.57188609       0.69822039      -1.32461321
H       -0.94858754       0.88165024      -0.68183173
H       -0.31945067      -0.54523486       1.62441397
H       -0.21284005      -0.43767916       0.25010947
H        1.82147137      -0.53926811      -0.24768753
8
Properties=species:S:1:pos:R:3 relative_energy_eV=3.002476036288499 branch=right pbc="F F F"
O       -1.36220825       0.43927037       0.18038669
C       -0.28909026      -0.23380683       0.57745252
C        0.80260167      -0.12365789      -0.31887305
O        0.56409746       0.70714820      -1.31974237
H       -0.94503277       0.87175454      -0.69405931
H       -0.33256491      -0.55155981       1.62604360
H       -0.20020654      -0.43214515       0.26333371
H        1.82111696      -0.54664995      -0.25862074
8
Properties=species:S:1:pos:R:3 relative_energy_eV=2.9983689384089303 branch=right pbc="F F F"
O       -1.35765129       0.44032620       0.17925969
C       -0.28747855      -0.22990805       0.58226664
C        0.80234924      -0.12181913      -0.31803430
O        0.55504626       0.71514824      -1.31350118
H       -0.93857357       0.86138896      -0.70613519
H       -0.34590930      -0.55663247       1.62465125
H       -0.18637162      -0.42631861       0.27769297
H        1.81730220      -0.55183162      -0.27027882
8
Properties=species:S:1:pos:R:3 relative_energy_eV=2.9931368322722847 branch=right pbc="F F F"
O       -1.35191377       0.44033679       0.17828524
C       -0.28626958      -0.22455899       0.58825343
C        0.80144310      -0.11945371      -0.31465544
O        0.54245461       0.72311350      -1.30498334
H       -0.92568836       0.84843236      -0.72149677
H       -0.36225716      -0.56309369       1.62113859
H       -0.16958756      -0.41840763       0.29618457
H        1.81053214      -0.55601507      -0.28680521
8
Properties=species:S:1:pos:R:3 relative_energy_eV=2.9568477064140097 branch=right pbc="F F F"
O       -1.33354528       0.44201118       0.17554627
C       -0.28437454      -0.20350780       0.61137182
C        0.79767035      -0.10812902      -0.29950471
O        0.48978814       0.75361590      -1.27357059
H       -0.87004759       0.79943776      -0.78295814
H       -0.42384072      -0.58914036       1.60979381
H       -0.10337320      -0.39111677       0.36597618
H        1.78643635      -0.57281716      -0.35073350
8
Properties=species:S:1:pos:R:3 relative_energy_eV=2.7599292129179958 branch=right pbc="F F F"
O       -1.34320540       0.42599868       0.19970961
C       -0.30911754      -0.21896358       0.59519891
C        0.77947165      -0.12354680      -0.28877045
O        0.43294081       0.74699706      -1.26059860
H       -0.77524842       0.81056318      -0.81277998
H       -0.42143014      -0.58723107       1.60798248
H       -0.06728722      -0.36759009       0.36737207
H        1.76258982      -0.55587351      -0.35219291
8
Properties=species:S:1:pos:R:3 relative_energy_eV=2.5725602303627966 branch=right pbc="F F F"
O       -1.35166546       0.41076465       0.22414533
C       -0.33458907      -0.23664634       0.57640868
C        0.76072876      -0.13911959      -0.27829826
O        0.37589878       0.73837265      -1.24655057
H       -0.67984259       0.82289350      -0.84008731
H       -0.41681166      -0.58212011       1.60366509
H       -0.03101226      -0.34731014       0.36769851
H        1.73600710      -0.53648062      -0.35106034
8
Properties=species:S:1:pos:R:3 relative_energy_eV=2.5971657052114097 branch=right pbc="F F F"
O       -1.36181271       0.39446873       0.24943317
C       -0.35854048      -0.25464158       0.55840622
C        0.74298548      -0.15516587      -0.26827320
O        0.32112773       0.72851245      -1.23253803
H       -0.58456625       0.83605230      -0.86746002
H       -0.41162492      -0.57662274       1.59771289
H        0.00172457      -0.32654184       0.36930023
H        1.70942023      -0.51570732      -0.35066011
8
Properties=species:S:1:pos:R:3 relative_energy_eV=2.4801732470605202 branch=right pbc="F F F"
O       -1.36025101       0.39387688       0.23323455
C       -0.34557692      -0.24520408       0.57189774
C        0.75299663      -0.14637145      -0.27398511
O        0.35880403       0.72059930      -1.24306079
H       -0.62970569       0.83520901      -0.84705478
H       -0.40934347      -0.58662060       1.60495404
H       -0.03652397      -0.32001035       0.36703578
H        1.72831406      -0.52112465      -0.35710030
8
Properties=species:S:1:pos:R:3 relative_energy_eV=2.3980193083807535 branch=right pbc="F F F"
O       -1.36625962       0.38899829       0.23037369
C       -0.35152932      -0.24347596       0.58043414
C        0.74009398      -0.14966317      -0.27242384
O        0.34989413       0.72324391      -1.25474462
H       -0.61216604       0.84045130      -0.84930824
H       -0.40825753      -0.59879931       1.61981318
H       -0.02982804      -0.30566179       0.35758202
H        1.73676611      -0.52473918      -0.35580524
8
Properties=species:S:1:pos:R:3 relative_energy_eV=2.284140620402468 branch=right pbc="F F F"
O       -1.38158307       0.37496180       0.22557423
C       -0.35440446      -0.23155350       0.59153473
C        0.73806285      -0.15911532      -0.28842812
O        0.33353060       0.72179791      -1.26608904
H       -0.57848677       0.85217929      -0.85578781
H       -0.40932069      -0.62439735       1.64838485
H       -0.03410846      -0.27680447       0.35340723
H        1.74502371      -0.52671419      -0.35267506
8
Properties=species:S:1:pos:R:3 relative_energy_eV=2.1619079141437396 branch=right pbc="F F F"
O       -1.40673847       0.36463025       0.23007575
C       -0.35225854      -0.22001058       0.60252459
C        0.74194908      -0.15886880      -0.29663619
O        0.33706275       0.71825356      -1.29240623
H       -0.56518931       0.87085119      -0.86499540
H       -0.40647393      -0.65085544       1.67622486
H       -0.04410816      -0.25912447       0.34633744
H        1.75447032      -0.53452147      -0.34520393
8
Properties=species:S:1:pos:R:3 relative_energy_eV=2.036243522631594 branch=right pbc="F F F"
O       -1.42566573       0.34750252       0.24998616
C       -0.35155305      -0.20423701       0.61214860
C        0.74823100      -0.14722137      -0.29940771
O        0.34655515       0.71577358      -1.32516680
H       -0.55490919       0.89403179      -0.89401198
H       -0.40700472      -0.68133106       1.69930004
H       -0.06107758      -0.24403357       0.35311544
H        1.76413793      -0.55013057      -0.34004302
8
Properties=species:S:1:pos:R:3 relative_energy_eV=1.8973672435267872 branch=right pbc="F F F"
O       -1.44375877       0.34200644       0.28145382
C       -0.34795187      -0.19955056       0.62797174
C        0.75846262      -0.11728745      -0.29202415
O        0.35865207       0.71846588      -1.35696869
H       -0.55382377       0.91569411      -0.95077086
H       -0.41180486      -0.71078951       1.71487434
H       -0.06503448      -0.24184157       0.36811465
H        1.76397289      -0.57634295      -0.33673035
8
Properties=species:S:1:pos:R:3 relative_energy_eV=1.7372014806123843 branch=right pbc="F F F"
O       -1.45580063       0.32659210       0.32875123
C       -0.34486859      -0.19274558       0.65196137
C        0.76597486      -0.08442693      -0.27987942
O        0.37397042       0.72446818      -1.39125418
H       -0.54663851       0.94565331      -1.04590665
H       -0.42160839      -0.75242261       1.72995609
H       -0.06917973      -0.22869754       0.40070901
H        1.75686446      -0.60806643      -0.33841728
8
Properties=species:S:1:pos:R:3 relative_energy_eV=1.6229388738238413 branch=right pbc="F F F"
O       -1.45754610       0.31284595       0.37878692
C       -0.34254633      -0.19094951       0.67143653
C        0.76262758      -0.06753007      -0.26913910
O        0.39994514       0.73416578      -1.41035979
H       -0.54813408       0.96842162      -1.14326869
H       -0.42988792      -0.78216306       1.72971146
H       -0.06308764      -0.21643393       0.44009576
H        1.73734329      -0.62800219      -0.34134322
8
Properties=species:S:1:pos:R:3 relative_energy_eV=1.5277492183140566 branch=right pbc="F F F"
O       -1.45068251       0.31124729       0.39910642
C       -0.34049636      -0.19893982       0.68059386
C        0.74825931      -0.07426776      -0.26488142
O        0.41552918       0.74072813      -1.39870605
H       -0.54717428       0.96513041      -1.18885162
H       -0.43190944      -0.78838969       1.71684003
H       -0.04966626      -0.20068682       0.46053864
H        1.71485428      -0.62446710      -0.34872009
8
Properties=species:S:1:pos:R:3 relative_energy_eV=1.430369379037984 branch=right pbc="F F F"
O       -1.44197538       0.31818861       0.42178995
C       -0.34021550      -0.21703218       0.69230485
C        0.71835121      -0.09120376      -0.25692398
O        0.43843844       0.74663916      -1.36057198
H       -0.53906085       0.93859976      -1.24344958
H       -0.42867243      -0.79452489       1.68913582
H       -0.02290806      -0.16039200       0.48422538
H        1.67475647      -0.60992001      -0.37059085
8
Properties=species:S:1:pos:R:3 relative_energy_eV=1.4094515533352023 branch=right pbc="F F F"
O       -1.44662361       0.31879450       0.43044010
C       -0.34111445      -0.21301544       0.69169859
C        0.71257829      -0.09576357      -0.26016604
O        0.44192642       0.74854586      -1.35661752
H       -0.53045123       0.93112908      -1.25492126
H       -0.42371211      -0.80222390       1.68506808
H       -0.02251308      -0.14731274       0.49388954
H        1.66862366      -0.60979909      -0.37347193
8
Properties=species:S:1:pos:R:3 relative_energy_eV=1.3554756748917498 branch=right pbc="F F F"
O       -1.47131785       0.32702231       0.47646446
C       -0.35296516      -0.20105192       0.69371873
C        0.69520357      -0.09736771      -0.26059860
O        0.46999544       0.75191751      -1.34869311
H       -0.50628955       0.89950504      -1.31061893
H       -0.39733627      -0.83912693       1.66963338
H       -0.02516070      -0.09130980       0.52541795
H        1.64658437      -0.61923367      -0.38940465
8
Properties=species:S:1:pos:R:3 relative_energy_eV=1.3230666534918782 branch=right pbc="F F F"
O       -1.48923389       0.33317237       0.51968555
C       -0.36122328      -0.19144672       0.69759226
C        0.68326190      -0.09523633      -0.25839110
O        0.48914538       0.75893188      -1.35641296
H       -0.48507987       0.87724863      -1.35684090
H       -0.37225330      -0.87141709       1.65870815
H       -0.03572746      -0.04691472       0.54395875
H        1.62982432      -0.63398306      -0.39238082
8
Properties=species:S:1:pos:R:3 relative_energy_eV=1.289428993501133 branch=right pbc="F F F"
O       -1.51095505       0.34649896       0.60204680
C       -0.37078008      -0.18016846       0.70618679
C        0.66519655      -0.08484373      -0.25404518
O        0.52156131       0.77313490      -1.36989571
H       -0.45687547       0.84125772      -1.44355499
H       -0.32853837      -0.92055249       1.63402691
H       -0.05701711       0.01937255       0.56787943
H        1.59612192      -0.66434430      -0.38672565
8
Properties=species:S:1:pos:R:3 relative_energy_eV=1.254100885558728 branch=right pbc="F F F"
O       -1.50517407       0.35502841       0.62238816
C       -0.36902437      -0.17850828       0.70550288
C        0.66522784      -0.07876466      -0.25509170
O        0.51857007       0.77928408      -1.37687539
H       -0.45393651       0.82989187      -1.44975126
H       -0.31276089      -0.92148256       1.62148785
H       -0.07294243       0.02130905       0.55757884
H        1.58875399      -0.67640273      -0.36932109
8
Properties=species:S:1:pos:R:3 relative_energy_eV=1.201492088393934 branch=right pbc="F F F"
O       -1.48803810       0.38260438       0.69260007
C       -0.36590960      -0.18255077       0.71195519
C        0.65893074      -0.06201683      -0.25576652
O        0.52347209       0.79130283      -1.37672314
H       -0.44923010       0.79048345      -1.49543230
H       -0.26731119      -0.92856796       1.57549171
H       -0.10545242       0.04459310       0.53336508
H        1.55225199      -0.70549295      -0.32957216
8
Properties=species:S:1:pos:R:3 relative_energy_eV=1.185564449843696 branch=right pbc="F F F"
O       -1.48185823       0.38299629       0.70278863
C       -0.35966985      -0.17783280       0.71560802
C        0.66036169      -0.05978409      -0.25915079
O        0.51732049       0.78697074      -1.37923615
H       -0.44948484       0.79580281      -1.50296737
H       -0.26578163      -0.93121009       1.57531508
H       -0.10960590       0.04152636       0.52070836
H        1.54743164      -0.70811394      -0.31714791
8
Properties=species:S:1:pos:R:3 relative_energy_eV=1.1707361925737132 branch=right pbc="F F F"
O       -1.47562105       0.38972425       0.74364932
C       -0.34898497      -0.16671415       0.72423102
C        0.65354612      -0.05611092      -0.26306100
O        0.51964047       0.78152504      -1.38374775
H       -0.44633446       0.79683257      -1.54516858
H       -0.25412574      -0.94805639       1.56819555
H       -0.11580365       0.04867770       0.50896592
H        1.52639654      -0.71552273      -0.29714685
8
Properties=species:S:1:pos:R:3 relative_energy_eV=1.1647704211582095 branch=right pbc="F F F"
O       -1.46813470       0.39190344       0.74735547
C       -0.34673698      -0.16545157       0.72776300
C        0.64911754      -0.05832467      -0.26554736
O        0.51619020       0.77563158      -1.38447062
H       -0.44573985       0.80108445      -1.54913212
H       -0.25725733      -0.94808258       1.57048285
H       -0.11212703       0.04400954       0.50531306
H        1.52340137      -0.71041480      -0.29584668
8
Properties=species:S:1:pos:R:3 relative_energy_eV=1.1541636723286501 branch=right pbc="F F F"
O       -1.45920953       0.40489903       0.76843955
C       -0.34516826      -0.16247351       0.73370333
C        0.63763310      -0.06022797      -0.27071499
O        0.51522765       0.76797059      -1.39024390
H       -0.44191041       0.80107597      -1.56864913
H       -0.25544600      -0.95363709       1.57099714
H       -0.10628503       0.03889479       0.50638620
H        1.51387165      -0.70614637      -0.29400074
8
Properties=species:S:1:pos:R:3 relative_energy_eV=1.1336811405162734 branch=right pbc="F F F"
O       -1.43894424       0.44475226       0.82547968
C       -0.34665968      -0.15569533       0.74612585
C        0.61163736      -0.06443930      -0.28034646
O        0.51587215       0.74955957      -1.40669716
H       -0.43260659       0.79267077      -1.61590186
H       -0.24628845      -0.96653741       1.56894405
H       -0.09709239       0.02795534       0.51478882
H        1.49279479      -0.69791029      -0.29647585
8
Properties=species:S:1:pos:R:3 relative_energy_eV=1.1188384319411853 branch=right pbc="F F F"
O       -1.41910335       0.48739224       0.88947213
C       -0.35057043      -0.14854776       0.75832073
C        0.59021671      -0.06781956      -0.28639252
O        0.51761638       0.73085784      -1.42433490
H       -0.42192389       0.77726308      -1.66356817
H       -0.23110644      -0.98023517       1.56205563
H       -0.10015053       0.02620740       0.52207873
H        1.47373428      -0.69476229      -0.30171500
8
Properties=species:S:1:pos:R:3 relative_energy_eV=1.105872698195526 branch=right pbc="F F F"
O       -1.39459495       0.52873157       0.94981248
C       -0.35412393      -0.14248003       0.76944805
C        0.57381554      -0.07397720      -0.29075712
O        0.51699839       0.70868143      -1.44082113
H       -0.41517435       0.76254425      -1.70068500
H       -0.21856416      -0.98546207       1.55429883
H       -0.11126108       0.02283701       0.52478790
H        1.46161704      -0.69051903      -0.31016776
8
Properties=species:S:1:pos:R:3 relative_energy_eV=1.0946035230881535 branch=right pbc="F F F"
O       -1.37330240       0.55514045       0.99362048
C       -0.35447655      -0.13840933       0.77772302
C        0.56628156      -0.08039347      -0.29420399
O        0.51342745       0.68931990      -1.45387284
H       -0.41302608       0.75525017      -1.72025729
H       -0.21165295      -0.98306813       1.55010851
H       -0.12820184       0.02149316       0.51757730
H        1.45966314      -0.68897671      -0.31477922
8
Properties=species:S:1:pos:R:3 relative_energy_eV=1.0841409086042404 branch=right pbc="F F F"
O       -1.34950165       0.57571173       1.03389368
C       -0.34963534      -0.13507421       0.78404298
C        0.56170045      -0.09024010      -0.30067909
O        0.50741915       0.66866339      -1.46598274
H       -0.41719559       0.75532189      -1.73043521
H       -0.20927512      -0.97158126       1.54898334
H       -0.14856213       0.01492076       0.49951456
H        1.46376238      -0.68736608      -0.31342179
8
Properties=species:S:1:pos:R:3 relative_energy_eV=1.0803704922745965 branch=right pbc="F F F"
O       -1.33868011       0.58010494       1.05144278
C       -0.34543448      -0.13238375       0.78581373
C        0.55920308      -0.09706442      -0.30517613
O        0.50448527       0.65758747      -1.47379433
H       -0.41969263       0.76035520      -1.73037683
H       -0.20986233      -0.96444749       1.55383729
H       -0.16171544       0.01328195       0.48537583
H        1.47040871      -0.68707774      -0.31120673
8
Properties=species:S:1:pos:R:3 relative_energy_eV=1.079659159271614 branch=right pbc="F F F"
O       -1.33121749       0.58759188       1.06621454
C       -0.34221249      -0.13153685       0.78669071
C        0.55396852      -0.10178678      -0.31016096
O        0.50357933       0.65176041      -1.47844780
H       -0.42108203       0.76168777      -1.73438494
H       -0.20785468      -0.96047549       1.55542439
H       -0.16587320       0.00913952       0.47828605
H        1.46940407      -0.68602429      -0.30770648
8
Properties=species:S:1:pos:R:3 relative_energy_eV=1.0790904557734393 branch=right pbc="F F F"
O       -1.33357217       0.58114651       1.05451435
C       -0.34170959      -0.13294546       0.78353077
C        0.55476873      -0.10338232      -0.31054221
O        0.50432891       0.65370154      -1.47676539
H       -0.42323576       0.76572404      -1.72397381
H       -0.21054111      -0.95636974       1.56011395
H       -0.16426024       0.00707295       0.47748902
H        1.47293327      -0.68459135      -0.30845108
8
Properties=species:S:1:pos:R:3 relative_energy_eV=1.0786544280681483 branch=right pbc="F F F"
O       -1.33516984       0.58072946       1.05389875
C       -0.34244491      -0.13320635       0.78357051
C        0.55403823      -0.10271280      -0.31065463
O        0.50524725       0.65469449      -1.47748189
H       -0.42174548       0.76554789      -1.72471475
H       -0.20842086      -0.95807041       1.56174159
H       -0.16390726       0.00899268       0.47816295
H        1.47111492      -0.68561879      -0.30860693
8
Properties=species:S:1:pos:R:3 relative_energy_eV=1.0781345655068435 branch=right pbc="F F F"
O       -1.33551755       0.58124454       1.05243294
C       -0.34290092      -0.13430220       0.78336062
C        0.55312683      -0.10296355      -0.31176173
O        0.50610343       0.65470500      -1.47848539
H       -0.42168072       0.76664248      -1.72345350
H       -0.20539577      -0.95675720       1.56526075
H       -0.16362633       0.00834985       0.47774119
H        1.46860307      -0.68656273      -0.30917928
8
Properties=species:S:1:pos:R:3 relative_energy_eV=1.0774560531608586 branch=right pbc="F F F"
O       -1.33446078       0.58253069       1.05111161
C       -0.34263784      -0.13528431       0.78304984
C        0.55208963      -0.10462898      -0.31386053
O        0.50639781       0.65268760      -1.48080527
H       -0.42273740       0.76972805      -1.72001409
H       -0.20048633      -0.95208138       1.57159093
H       -0.16527473       0.00599659       0.47527258
H        1.46582167      -0.68859209      -0.31042946
8
Properties=species:S:1:pos:R:3 relative_energy_eV=1.076333858381986 branch=right pbc="F F F"
O       -1.33200084       0.58497301       1.04840652
C       -0.34117086      -0.13591027       0.78278292
C        0.55097766      -0.10808310      -0.31711808
O        0.50555250       0.64756201      -1.48485522
H       -0.42554301       0.77626597      -1.71282252
H       -0.19139216      -0.94177113       1.58264886
H       -0.16932475       0.00078137       0.47023722
H        1.46161344      -0.69346164      -0.31336410
8
Properties=species:S:1:pos:R:3 relative_energy_eV=1.074531791406116 branch=right pbc="F F F"
O       -1.32838394       0.58858448       1.04281172
C       -0.33773383      -0.13527249       0.78286269
C        0.54971326      -0.11427701      -0.32167177
O        0.50248650       0.63806006      -1.49090016
H       -0.43066113       0.78796816      -1.70017693
H       -0.17628114      -0.92340166       1.59966716
H       -0.17606194      -0.00820238       0.46233492
H        1.45563412      -0.70310292      -0.31901204
8
Properties=species:S:1:pos:R:3 relative_energy_eV=1.0715182731282766 branch=right pbc="F F F"
O       -1.32409479       0.59358161       1.03184128
C       -0.33137245      -0.13212769       0.78366870
C        0.54795796      -0.12503669      -0.32789981
O        0.49542069       0.62239470      -1.49925823
H       -0.43883139       0.80722553      -1.67907513
H       -0.15222142      -0.89281763       1.62433314
H       -0.18546952      -0.02234867       0.45152878
H        1.44732270      -0.72051485      -0.32922317
8
Properties=species:S:1:pos:R:3 relative_energy_eV=1.0667222704505548 branch=right pbc="F F F"
O       -1.32021252       0.60013473       1.01345031
C       -0.32156800      -0.12490221       0.78552384
C        0.54520253      -0.14228030      -0.33573348
O        0.48200088       0.59976459      -1.50938600
H       -0.44983442       0.83473061      -1.64721221
H       -0.11767464      -0.84683526       1.65557051
H       -0.19609645      -0.04202507       0.43962772
H        1.43689426      -0.74823072      -0.34592516
8
Properties=species:S:1:pos:R:3 relative_energy_eV=1.0606788276481893 branch=right pbc="F F F"
O       -1.31833120       0.60726464       0.99411711
C       -0.31116551      -0.11378268       0.78829654
C        0.54106015      -0.16281748      -0.34253051
O        0.46350098       0.57638784      -1.51753770
H       -0.45885412       0.86079424      -1.61408194
H       -0.08237986      -0.79707436       1.68041095
H       -0.20276019      -0.06049548       0.43332459
H        1.42764124      -0.77992024      -0.36608354
8
Properties=species:S:1:pos:R:3 relative_energy_eV=1.0572237604847032 branch=right pbc="F F F"
O       -1.31285775       0.61605804       0.99065639
C       -0.30342092      -0.10333647       0.79150112
C        0.53302670      -0.18186521      -0.34950661
O        0.44805017       0.55494504      -1.52662652
H       -0.46345673       0.87910312      -1.59360052
H       -0.05838671      -0.75922232       1.69702321
H       -0.20646930      -0.07351301       0.42839111
H        1.42222587      -0.80181259      -0.38192276
8
Properties=species:S:1:pos:R:3 relative_energy_eV=1.0564837308902497 branch=right pbc="F F F"
O       -1.31632155       0.61534004       0.98216116
C       -0.30150639      -0.09803604       0.79106477
C        0.52858754      -0.19090184      -0.35120266
O        0.43929019       0.54962808      -1.52707181
H       -0.46207750       0.88485487      -1.58231056
H       -0.04744992      -0.74101400       1.70023295
H       -0.19966906      -0.07436046       0.43523021
H        1.41785801      -0.81515403      -0.39218864
8
Properties=species:S:1:pos:R:3 relative_energy_eV=1.055701368467453 branch=right pbc="F F F"
O       -1.31272621       0.62103045       0.96642149
C       -0.29247824      -0.08914799       0.79205024
C        0.51964242      -0.21373255      -0.36149338
O        0.42214463       0.52429339      -1.53933528
H       -0.46960292       0.91320563      -1.54849289
H       -0.01286537      -0.68838825       1.73186124
H       -0.20101514      -0.09103086       0.42835125
H        1.40561194      -0.84587307      -0.41344731
8
Properties=species:S:1:pos:R:3 relative_energy_eV=1.0535690284295924 branch=right pbc="F F F"
O       -1.30925238       0.62145654       0.98805133
C       -0.29701819      -0.09412894       0.79333033
C        0.52158200      -0.20160282      -0.35757292
O        0.43121913       0.53373857      -1.53675009
H       -0.46419597       0.89681110      -1.57401176
H       -0.03030348      -0.71643231       1.71489295
H       -0.20128185      -0.07973300       0.42862493
H        1.40796191      -0.82975243      -0.40064946
8
Properties=species:S:1:pos:R:3 relative_energy_eV=1.0522418512291551 branch=right pbc="F F F"
O       -1.31099592       0.61862529       0.98673847
C       -0.29661897      -0.09412502       0.79325356
C        0.52084104      -0.20172780      -0.35774678
O        0.43036766       0.53248759      -1.53741283
H       -0.46310344       0.89859723      -1.57365978
H       -0.02586757      -0.71214767       1.71691621
H       -0.19806562      -0.07564225       0.43103393
H        1.40215397      -0.83571062      -0.40320748
8
Properties=species:S:1:pos:R:3 relative_energy_eV=1.0476462577998973 branch=right pbc="F F F"
O       -1.30985656       0.61394722       0.99691504
C       -0.28845999      -0.08625568       0.79833039
C        0.50737753      -0.21494992      -0.36576205
O        0.41589892       0.50501198      -1.55297697
H       -0.45797931       0.91874318      -1.57060359
H        0.01454070      -0.66554817       1.73709158
H       -0.18372003      -0.05804146       0.43873326
H        1.36090962      -0.88255021      -0.42581259
8
Properties=species:S:1:pos:R:3 relative_energy_eV=1.0468320362233499 branch=right pbc="F F F"
O       -1.31016252       0.61122081       1.00019095
C       -0.28378750      -0.08190700       0.80077292
C        0.50300777      -0.21924730      -0.36803574
O        0.41035183       0.49490688      -1.55829936
H       -0.45618894       0.92571965      -1.56913792
H        0.02761864      -0.65061575       1.74155597
H       -0.17891908      -0.05100370       0.44116664
H        1.34679060      -0.89871658      -0.43229848
8
Properties=species:S:1:pos:R:3 relative_energy_eV=1.046302176977406 branch=right pbc="F F F"
O       -1.31036419       0.60908120       1.00513576
C       -0.28022322      -0.07821127       0.80289812
C        0.50031839      -0.22045438      -0.36925660
O        0.40741804       0.48795661      -1.56240017
H       -0.45393523       0.92815656      -1.57021443
H        0.03406334      -0.64517274       1.74122097
H       -0.17590560      -0.04388315       0.44289669
H        1.33733924      -0.90711578      -0.43436542
8
Properties=species:S:1:pos:R:3 relative_energy_eV=1.0459942879479058 branch=right pbc="F F F"
O       -1.30986482       0.60933328       1.00742179
C       -0.27804496      -0.07537826       0.80394506
C        0.49891586      -0.22130563      -0.37033381
O        0.40488899       0.48196839      -1.56599150
H       -0.45296642       0.92971464      -1.56808179
H        0.03837848      -0.64159842       1.74165684
H       -0.17537700      -0.04102752       0.44315962
H        1.33278062      -0.91134940      -0.43586133
8
Properties=species:S:1:pos:R:3 relative_energy_eV=1.0456133347861396 branch=right pbc="F F F"
O       -1.30893703       0.61068851       1.00895335
C       -0.27688925      -0.07347472       0.80407335
C        0.49953091      -0.21958234      -0.37044755
O        0.40293843       0.47702975      -1.56925520
H       -0.45239189       0.92863810      -1.56495985
H        0.03805466      -0.64371618       1.73938863
H       -0.17582725      -0.03920658       0.44263138
H        1.33223217      -0.91001945      -0.43446927
8
Properties=species:S:1:pos:R:3 relative_energy_eV=1.045260978717124 branch=right pbc="F F F"
O       -1.30722317       0.61373012       1.00862887
C       -0.27638438      -0.07212844       0.80356088
C        0.50051700      -0.21921333      -0.37090852
O        0.39949773       0.47111936      -1.57281587
H       -0.45287764       0.92912088      -1.55943427
H        0.03796250      -0.64390402       1.73889899
H       -0.17655174      -0.04003287       0.44191605
H        1.33377043      -0.90833460      -0.43393131
8
Properties=species:S:1:pos:R:3 relative_energy_eV=1.0447546620498542 branch=right pbc="F F F"
O       -1.30475305       0.61815952       1.00676235
C       -0.27701607      -0.07234208       0.80186383
C        0.50385835      -0.21676652      -0.37013021
O        0.39477472       0.46512180      -1.57621560
H       -0.45405388       0.92850003      -1.55269480
H        0.03282417      -0.64938637       1.73605248
H       -0.17730975      -0.04158086       0.44071544
H        1.34038628      -0.90134843      -0.43043866
8
Properties=species:S:1:pos:R:3 relative_energy_eV=1.0440334069353412 branch=right pbc="F F F"
O       -1.30046569       0.62488370       1.00437297
C       -0.27712556      -0.07225264       0.80013834
C        0.50659388      -0.21688854      -0.37011537
O        0.38499347       0.45313061      -1.58219091
H       -0.45564408       0.93188837      -1.54328449
H        0.02902670      -0.65168292       1.73504366
H       -0.17641048      -0.04313757       0.44012869
H        1.34774253      -0.89558388      -0.42817812
8
Properties=species:S:1:pos:R:3 relative_energy_eV=1.0429578152152317 branch=right pbc="F F F"
O       -1.29463978       0.63327905       1.00275630
C       -0.27816041      -0.07387290       0.79802257
C        0.51033142      -0.21568417      -0.36897968
O        0.37133836       0.43765579      -1.58905426
H       -0.45645625       0.93607880      -1.53629971
H        0.01914914      -0.66196562       1.73096374
H       -0.17311246      -0.04130194       0.44077135
H        1.36026081      -0.88383188      -0.42226558
8
Properties=species:S:1:pos:R:3 relative_energy_eV=1.041868556962072 branch=right pbc="F F F"
O       -1.28816263       0.64086382       1.00424045
C       -0.27668168      -0.07331892       0.79830260
C        0.50936938      -0.21878379      -0.36971247
O        0.35364210       0.41518098      -1.59856749
H       -0.45518997       0.94574161      -1.53174152
H        0.01632386      -0.66513126       1.73016440
H       -0.16603577      -0.03412675       0.44372769
H        1.36544553      -0.88006850      -0.42049906
8
Properties=species:S:1:pos:R:3 relative_energy_eV=1.0412359659358117 branch=right pbc="F F F"
O       -1.28464672       0.64382134       1.01022571
C       -0.27767740      -0.07556273       0.79966859
C        0.50780546      -0.21750990      -0.36856577
O        0.34358297       0.40301431      -1.60188947
H       -0.45046443       0.94953695      -1.54255076
H        0.00561084      -0.68348991       1.72364320
H       -0.15779561      -0.02013270       0.44921734
H        1.37229577      -0.86932015      -0.41383436
8
Properties=species:S:1:pos:R:3 relative_energy_eV=1.0409285953901417 branch=right pbc="F F F"
O       -1.28280823       0.64545922       1.01201487
C       -0.27391162      -0.07147646       0.80169371
C        0.50399098      -0.22164762      -0.37069887
O        0.33482737       0.38922696      -1.60812608
H       -0.44863301       0.95605202      -1.53827180
H        0.01436806      -0.67462166       1.72644346
H       -0.15413806      -0.01466085       0.45098114
H        1.36501533      -0.87797433      -0.41812201
8
Properties=species:S:1:pos:R:3 relative_energy_eV=1.0408405970038075 branch=right pbc="F F F"
O       -1.28475478       0.64343800       1.01114875
C       -0.27421703      -0.07140071       0.80156313
C        0.50423362      -0.22083098      -0.37054862
O        0.33970863       0.39564563      -1.60524088
H       -0.44894674       0.95305682      -1.53886813
H        0.01551603      -0.67352449       1.72666054
H       -0.15647586      -0.01697670       0.44986315
H        1.36364696      -0.87905031      -0.41866349
8
Properties=species:S:1:pos:R:3 relative_energy_eV=1.0408296628766038 branch=right pbc="F F F"
O       -1.28421346       0.64419735       1.01172297
C       -0.27392854      -0.07099511       0.80179178
C        0.50370302      -0.22132565      -0.37084796
O        0.33843329       0.39397157      -1.60599997
H       -0.44853703       0.95349492      -1.53866309
H        0.01622211      -0.67327898       1.72676122
H       -0.15632972      -0.01645710       0.44989271
H        1.36336115      -0.87924973      -0.41874323
8
Properties=species:S:1:pos:R:3 relative_energy_eV=1.0408032912519047 branch=right pbc="F F F"
O       -1.28269379       0.64619796       1.01278746
C       -0.27310403      -0.06994025       0.80232909
C        0.50229083      -0.22284303      -0.37159224
O        0.33504034       0.38986069      -1.60772971
H       -0.44767838       0.95475663      -1.53773532
H        0.01859541      -0.67132925       1.72748119
H       -0.15600637      -0.01593017       0.44995112
H        1.36226679      -0.88041529      -0.41957717
8
Properties=species:S:1:pos:R:3 relative_energy_eV=1.0407796569861603 branch=right pbc="F F F"
O       -1.28130274       0.64782042       1.01361707
C       -0.27231411      -0.06905115       0.80273588
C        0.50110092      -0.22424177      -0.37224263
O        0.33224775       0.38675901      -1.60902214
H       -0.44707554       0.95587382      -1.53694948
H        0.02115340      -0.66868515       1.72850740
H       -0.15596636      -0.01608085       0.44989525
H        1.36086747      -0.88203704      -0.42062697
8
Properties=species:S:1:pos:R:3 relative_energy_eV=1.0407421530562715 branch=right pbc="F F F"
O       -1.27851644       0.65073204       1.01522953
C       -0.27062123      -0.06735269       0.80349218
C        0.49889482      -0.22685859      -0.37344464
O        0.32710126       0.38134101      -1.61125507
H       -0.44607270       0.95805469      -1.53570614
H        0.02665733      -0.66257956       1.73091274
H       -0.15626101      -0.01702073       0.44965861
H        1.35752870      -0.88595885      -0.42297286
8
Properties=species:S:1:pos:R:3 relative_energy_eV=1.0407216195080764 branch=right pbc="F F F"
O       -1.27636966       0.65266786       1.01663110
C       -0.26926014      -0.06615598       0.80405635
C        0.49740162      -0.22852914      -0.37423798
O        0.32371208       0.37793775      -1.61263850
H       -0.44545323       0.95955997      -1.53539276
H        0.03086693      -0.65775969       1.73281867
H       -0.15684805      -0.01815353       0.44943920
H        1.35466114      -0.88920989      -0.42476177
8
Properties=species:S:1:pos:R:3 relative_energy_eV=1.0407100295724376 branch=right pbc="F F F"
O       -1.27532490       0.65341571       1.01746809
C       -0.26858688      -0.06569317       0.80432232
C        0.49689166      -0.22894346      -0.37448342
O        0.32256064       0.37678864      -1.61309711
H       -0.44528190       0.96010548      -1.53577508
H        0.03259735      -0.65581142       1.73358332
H       -0.15742398      -0.01887399       0.44930411
H        1.35327868      -0.89063042      -0.42540793
8
Properties=species:S:1:pos:R:3 relative_energy_eV=1.0407038091052527 branch=right pbc="F F F"
O       -1.27511759       0.65348460       1.01779896
C       -0.26849055      -0.06568996       0.80438328
C        0.49689512      -0.22877922      -0.37446758
O        0.32275597       0.37690625      -1.61306146
H       -0.44533180       0.96004658      -1.53624056
H        0.03266321      -0.65586334       1.73357627
H       -0.15776376      -0.01909258       0.44924693
H        1.35310003      -0.89065498      -0.42532153
