8
Properties=species:S:1:pos:R:3 relative_energy_eV=4.920518721935878 branch=ts pbc="F F F"
O       -1.20702699       0.49856876      -0.38203686
C       -0.74971843      -0.03357589       0.61446756
C        1.13736870      -0.31151905      -0.42440487
O        1.19950334       0.75698468      -1.00311841
H       -1.72685671       0.39669680       0.11429793
H       -1.05885849       0.24067437       1.57989014
H        0.37682498      -1.07328804      -0.66330175
H        1.96725590      -0.68313055       0.18735873
