16
Properties=species:S:1:pos:R:3 pbc="F F F"
O       -2.40246793       1.17238677      -0.77514379
C       -1.46509400       0.52040149      -0.32573713
C       -0.03759620       0.79441388      -0.68688293
O        0.76486595      -0.33595813      -0.50479221
P        2.40433646       0.04624199      -0.21864321
O        2.47285785       0.64402247       1.16371734
O        2.94174002       0.70136877      -1.45116580
O        2.93392912      -1.52145475      -0.12821510
C       -1.74802700      -0.58812342       0.65590583
O       -3.10954006      -0.61343845       1.02435842
H       -0.01096931       1.17491235      -1.71060084
H        0.27754177       1.62690620      -0.03775979
H        3.02118096      -1.70406497       0.81451068
H       -1.43673218      -1.52882643       0.18881149
H       -1.09430986      -0.46506031       1.52709307
H       -3.51171639       0.07627218       0.46454203
