16
Properties=species:S:1:pos:R:3 pbc="F F F"
O        0.15789361      -0.41053841       0.00078520
C       -0.07945724       0.18586207      -0.86114272
C        0.73052168      -0.32640594      -2.00627677
O        1.68794199      -1.25826851      -1.62294276
O       -2.24815123      -0.92307192       1.61651893
C       -1.62290858       0.10946849       1.57538514
C       -0.18796939       0.34532748       1.79191074
O        0.54079177       1.31110563       1.13423736
H       -0.80964327       0.88600569      -1.26412218
H        0.15851572      -0.78681780      -2.81168605
H        1.25329141       0.44928152      -2.56624941
H        1.55023513      -1.33800809      -0.66597466
H       -2.05957298       1.11940871       1.44208609
H        0.17961573       0.10120937       2.53559310
H        0.25949334      -0.61484943       1.51410628
H        0.48940229       1.15029114       0.18777170
