16
Properties=species:S:1:pos:R:3 pbc="F F F"
O       -2.42174152       1.68877853       0.42127289
C       -1.86964626       0.88245152      -0.36293220
C       -1.81580113      -0.50826624      -0.22692148
O       -1.02805457      -1.22663714      -1.10468966
C        1.18339600      -0.37155968       1.12092906
O        0.12981942      -0.11402551       1.83532023
C        1.50937442       0.35985180      -0.10942420
O        2.81364810       0.01059990      -0.52314223
H       -1.32863994       1.24215163      -1.26839454
H       -2.39894503      -1.04885963       0.50887277
H       -1.20224094      -2.16302000      -0.97798912
H        1.87316091      -1.08290120       1.54902980
H       -0.59686612       0.30172337       1.28963799
H        0.74367364       0.12359533      -0.87472263
H        1.40512691       1.44467659       0.07530816
H        3.00373352       0.46145346      -1.35215191
