16
Properties=species:S:1:pos:R:3 pbc="F F F"
C        0.68042680       0.41142192      -2.26974815
C       -0.25588488      -0.34772052      -1.69717646
C       -1.27074789       0.14616400      -0.79756718
C       -2.16932939      -0.61727024      -0.17526279
C        1.63647277       0.54773255       1.65289105
C        0.88266659      -0.20289848       2.43851334
H        0.73616785       1.47622579      -2.07584563
H        1.41917214       0.00060107      -2.94310087
H       -0.26701774      -1.41564987      -1.90348752
H       -1.28106397       1.21738733      -0.61841556
H       -2.19895483      -1.69089510      -0.31897990
H       -2.90065202      -0.20008533       0.50237060
H        1.76787237       1.60970797       1.81483478
H        2.14685314       0.12371041       0.80032317
H        0.35664346       0.20182656       3.29371230
H        0.75570994      -1.26079480       2.24917242
