16
Properties=species:S:1:pos:R:3 pbc="F F F"
C        0.46159167       0.46351126      -2.63718938
C       -0.06739211      -0.23201076      -1.61131898
C       -0.66499157       0.31768443      -0.46542945
C       -1.17424518      -0.48405998       0.62012895
C        1.14869876       0.36035395       1.39858729
C        0.02151148      -0.38871954       1.90097044
H        0.47280433       1.54595705      -2.62615525
H        0.90210000      -0.02318704      -3.49362226
H       -0.04194276      -1.31825594      -1.65670222
H       -0.77380722       1.39354871      -0.37753936
H       -1.27270196      -1.53318286       0.33884722
H       -2.10616308      -0.12715087       1.06400321
H        1.19932818       1.44132200       1.50055944
H        2.09353149      -0.11519384       1.16148574
H       -0.47824293       0.11801342       2.73003048
H        0.27992174      -1.41863000       2.15334477
