12
Properties=species:S:1:pos:R:3 pbc="F F F"
C        0.73991247      -0.91421329      -1.96812810
C        1.63357168      -0.01968678      -1.57676052
O       -0.35063138       2.04916847       0.85087235
O       -1.37176794       1.70760213       1.70001396
C       -1.50170106       0.48298463       2.00673312
O       -0.67099681      -0.41757787       1.51132690
H        0.11160325      -0.74453611      -2.83230810
H        0.60085688      -1.84958824      -1.44341857
H        2.23686160      -0.16057344      -0.68897490
H        1.78123417       0.91174276      -2.10957546
H       -0.88557731      -1.28198889       1.88289838
H       -2.32322063       0.23725860       2.66732680
