12
Properties=species:S:1:pos:R:3 pbc="F F F"
C       -0.20537750      -2.23070761       0.43599896
O        0.83327236      -1.48872280       0.64897515
O        0.26403421       1.11316852       1.45793783
C        1.20774785      -0.36714224      -0.20710509
C        0.89918592       0.95066771       0.44276980
O       -1.99962953       0.92752821      -0.51561694
H       -2.95034036       1.06764929      -0.57737960
H       -0.69714208      -1.89091248      -0.51839557
H       -1.79418105       1.02538298       0.42188238
H        2.28408715      -0.44817389      -0.36833133
H        1.31742010       1.81225898      -0.11951367
H        0.69898816      -0.44070790      -1.17429333
