12
Properties=species:S:1:pos:R:3 pbc="F F F"
C        0.61214659       0.09700066      -2.10176124
O        0.17378607      -0.53646652      -3.05871634
O        0.09730257      -0.58630876      -0.74367208
C       -0.77544819       0.93106693       0.94912588
C        0.28126204      -0.07577159       0.56300334
O        0.75885826      -1.00582385       1.52272375
H        1.41536457      -1.51968955       1.03207009
H       -1.59862565       0.24573784       1.14944499
H       -0.70747902      -1.11929815      -0.67347079
H       -1.00531001       1.64222470       0.15844386
H        1.16132708       0.52674147      -0.65942081
H       -0.41318431       1.40058680       1.86222937
