12
Properties=species:S:1:pos:R:3 pbc="F F F"
C        0.55061731       0.07663627      -1.67508091
O        0.35680907       1.04137790      -2.36728980
O       -0.44281765      -1.47721604      -0.00898956
C       -0.93056645       0.74704198       0.85462115
C       -0.03017682      -0.39693346       0.55785750
O        1.08590579      -0.40816962       1.30731289
H        1.55049529      -1.24737740       1.14880706
H       -1.66424383       0.43133414       1.60233678
H       -0.22378225      -1.09371990      -1.11948580
H       -1.48465559       1.02249391      -0.04351108
H        1.61721208      -0.30365712      -1.49031443
H       -0.38480861       1.60815401       1.23370292
