12
Properties=species:S:1:pos:R:3 pbc="F F F"
C        0.52789991       1.22730874      -1.00730749
O        1.31952319       0.11466655      -1.08449703
O        0.68734336      -0.59585234       1.63246053
C       -0.69839318       1.38219178      -0.52106883
C        0.08811861      -1.62760761       1.36723432
O       -0.66195437      -1.45392102       0.28732877
H       -0.76496771      -0.49408758       0.11386593
H        1.15942258       2.04416447      -1.33937953
H        0.49715821      -0.83531944      -0.42568211
H       -1.30004128       0.54203302      -0.20491291
H        0.25855094      -2.67976798       1.62337667
H       -1.11266026       2.37619140      -0.44141831
