12
Properties=species:S:1:pos:R:3 pbc="F F F"
C        0.47319734       1.04346775      -1.14905158
O        0.96701418      -0.12007961      -1.41441881
O        0.34579131      -0.89991823       2.49379018
C       -0.71036909       1.21109882      -0.43845842
C        0.22083183      -1.58264182       1.50183180
O       -0.30891178      -1.16682689       0.35772519
H       -0.56291395       0.12075368       0.29787902
H        1.08929920       1.88404750      -1.45447016
H        0.46906940      -0.76250438      -0.74371554
H       -1.59341982       0.70458473      -0.80736557
H        0.53068696      -2.63790220       1.44145214
H       -0.92027772       2.20592865      -0.08519349
