16
Properties=species:S:1:pos:R:3 pbc="F F F"
C        0.65362684      -0.58405566      -1.80202252
C       -0.64601316      -0.37541127      -0.99960011
C       -0.51234237       0.85199095      -0.35029321
C       -1.06035957       0.69762469       1.08530835
C        0.33276775      -0.52633319       0.25832713
C        0.91113574       0.05459009       1.55027117
H        1.05225781       0.26215368      -2.39500114
H        0.48944517      -1.28407706      -2.63664819
H       -1.12445290      -1.34378582      -0.85104350
H        0.13993974       1.70203255      -0.53403004
H       -1.98134240       0.07442457       1.02516165
H       -1.44744654       1.70634347       1.35017419
H        0.93300513      -0.43523746      -0.64367342
H       -0.58037235      -0.84705740       0.79088990
H        1.99934429       0.15148076       1.51647336
H        0.84080683      -0.10468291       2.63570639
