16
Properties=species:S:1:pos:R:3 pbc="F F F"
O        2.13994488      -0.10662415      -1.19586045
C        1.61395354      -0.69740199      -0.21151570
C        1.52271685      -0.02914168       1.02036143
O        2.09266779       1.19983203       1.07541622
C       -0.84223362       0.43127087      -0.89652012
O       -0.40666547       1.48711345      -0.25504068
C       -1.53017737      -0.68969284      -0.21607965
O       -2.94579972      -0.37516125      -0.19914386
H        1.25323477      -1.73442812      -0.27863987
H        1.29545338      -0.48293971       1.97225563
H        2.42237974       1.29411403       0.14890125
H       -0.95850916       0.56052271      -1.96050533
H       -0.01324732       1.21171503       0.61789064
H       -1.15647787      -0.85905506       0.79550082
H       -1.43969972      -1.60653382      -0.79164181
H       -3.04754651       0.39641440       0.37463685
