16
Properties=species:S:1:pos:R:3 pbc="F F F"
O       -1.25180073       0.35502900      -1.02568060
C       -0.35738305      -0.74161060      -0.98592049
C        0.98552390      -0.43629246      -1.62129963
O        1.52127542       0.80763431      -1.03466634
O       -0.20402042      -1.23226434       0.37024812
C        0.39516720      -0.27054998       1.11606003
C       -0.80351630       0.18589688       2.12698264
O       -0.10043117       1.43790483       1.62680235
H       -0.87317091      -1.54039643      -1.54001581
H        1.63329925      -1.25526432      -1.48616970
H        0.79682490      -0.24354720      -2.68854798
H        1.02514059       1.43253058      -1.23962706
H       -1.03494271       0.93878862      -0.24362507
H       -1.81039256      -0.04008290       1.70711077
H       -0.72094062       0.20285123       3.22257298
H        0.79914134       0.42987484       1.55430753
