16
Properties=species:S:1:pos:R:3 pbc="F F F"
O        3.07042772       0.23484873       0.23712937
C        1.97324624       0.64285435       0.55481353
C        0.92012507      -0.42017506       0.52325513
O        1.21225131      -1.69923747       0.05620414
C       -0.43572180       0.48898857      -0.47025409
O       -1.06458278       1.60039329      -0.54121120
C       -1.50738566      -0.54933010      -0.46667971
O       -2.21612175      -0.49031657       0.75363004
H        1.75186290       1.65667139       0.91748597
H        0.32524137      -0.35836093       1.42933792
H        2.16320808      -1.52901891      -0.00618981
H        0.06879404       0.22597153      -1.37704634
H       -0.43445697       1.65264073      -0.68291932
H       -1.34257405      -1.61386933      -0.60335479
H       -2.19419958      -0.29410464      -1.27928465
H       -2.29011333       0.45204338       0.95508380
