12
Properties=species:S:1:pos:R:3 pbc="F F F"
C        0.59563859       0.35035130      -0.28679037
O       -0.50785058      -1.04177428       2.85838219
O       -0.96255276      -0.39126299      -1.98536743
C        1.23168162       1.25069852      -1.03153245
C       -0.68159101      -0.29135007      -0.66482972
O       -1.47623844      -0.72539962       0.14172566
H       -0.99268110      -1.00546966       2.01517278
H        0.97184258       0.08000760       0.69100647
H       -0.19630473      -0.11849166      -2.50840115
H        0.84460268       1.61263670      -1.97872175
H       -1.08070971      -1.53901325       3.45091455
H        2.15727473       1.70131221      -0.69865855
