12
Properties=species:S:1:pos:R:3 pbc="F F F"
O        0.27896251       1.61657439      -1.35682199
C        0.13081685       0.51201704      -1.81660456
C       -0.34738020      -0.65226407      -0.92465319
O       -1.41541640      -0.40549084      -0.07957137
C        0.46649386       0.29845004       2.06889669
O        0.93088405      -0.41538940       2.92601402
H        0.36860203       0.28163485      -2.87315915
H        0.54795494      -0.89542594      -0.31952109
H       -0.57814216      -1.51550187      -1.57222393
H       -0.75223347      -0.15964654       0.79551722
H        0.63576730       1.38277074       1.99672950
H       -0.26629869      -0.04773283       1.15540740
