12
Properties=species:S:1:pos:R:3 pbc="F F F"
C        0.53548717      -0.50065943      -0.30618561
O        1.17678319      -1.36739838       0.45537352
O       -0.80383223       1.73768912       1.05294762
C        0.26374316      -0.34289568      -1.55341845
C       -1.42204111       1.12677651       2.06420582
O       -2.10834262       1.67671733       2.88764015
H        1.66313263      -0.68045719      -2.60280586
H       -1.24724425       0.04006204       2.07084929
H       -0.25703400       1.06205867       0.56853652
H        0.94855395      -1.04399985      -2.40419773
H        1.55262348      -2.11163069      -0.05832861
H       -0.26963309       0.36219208      -2.14201415
