12
Properties=species:S:1:pos:R:3 pbc="F F F"
C        0.61975154      -0.24100782      -0.80843931
O        0.37096905      -1.50900177      -0.38747110
O        0.79489049       0.60411983       0.29717068
C       -0.36590921       0.21130072      -1.82870020
C       -0.57641194      -0.27885687       2.92317083
O       -0.54356328       0.10709255       4.01246419
H       -0.43282207      -0.51685516      -2.63039316
H       -0.00310444       0.28696035       1.63125360
H        0.77862002       1.51844917      -0.02356493
H       -1.36261743       0.31564366      -1.38007898
H        0.80058957      -1.66035677       0.46874826
H       -0.08035225       1.16256659      -2.27414769
