32
Properties=species:S:1:pos:R:3 relative_energy_eV=1.648772368891514 branch=ts pbc="F F F"
O        3.63862852       3.00362504       0.57448744
P        3.89102850       1.53468917       0.59667613
O        4.83145559       0.81138552       1.52702280
O        4.29044490       1.03356196      -0.95154874
O        2.34936164       0.83127154       0.73318959
C        2.23478163      -0.52915422       1.10220206
C        1.71798059      -1.39770620      -0.02440936
O        1.36018049      -2.61162705       0.24602393
C        1.49233516      -0.96173586      -1.33645698
O        1.43097344      -1.94113277      -2.31166466
C       -0.72386253      -0.83507242      -0.84805806
O       -0.88892708      -2.04829692      -0.37813000
C       -0.97420345       0.40970811      -0.02595021
O       -0.11381085       1.45648463      -0.46136498
C       -2.39811542       0.90068876      -0.26615705
O       -3.32326715      -0.04747285       0.22416226
P       -4.93464665       0.41691473       0.36872088
O       -5.68479423      -0.82889454       0.75365275
O       -5.30934193       1.32463758      -0.76474421
O       -4.83910250       1.38165369       1.74561457
H        4.92617183       0.32067496      -0.82632375
H        3.19596838      -0.89560528       1.47659229
H        1.50733477      -0.60732632       1.91297644
H        1.82315640       0.00329371      -1.68899369
H        1.49357511      -2.77475413      -1.80668919
H       -0.92390130      -0.67497174      -1.90676000
H        0.03561563      -2.52255035      -0.04363138
H       -0.84997159       0.18737038       1.03593177
H        0.75685746       1.35087875      -0.03249528
H       -2.50637557       1.86479265       0.23456937
H       -2.52915453       1.07188727      -1.33943031
H       -4.97645492       0.77278220       2.48107336
