17
Properties=species:S:1:pos:R:3 relative_energy_eV=0.0 branch=left pbc="F F F"
C        0.42533330      -1.40157015       0.38973951
C       -0.81106974      -0.96446404       0.67142762
O       -1.24475539       0.30726898       0.66891536
P        1.77145667       1.95006031      -1.09624224
O        2.16896132       3.36838706      -1.41027472
O        2.68081743       0.77803978      -0.93628267
O        0.55132719       1.52461432      -2.15735582
C       -1.89722512      -1.90705949       1.03303626
O       -3.03642886      -1.59292875       1.30263556
O       -1.51294882      -3.22222659       1.04420392
O        0.86132985       2.01738954       0.34068535
H        1.22452725      -0.73918745       0.08943715
H        0.64605839      -2.45657653       0.44130372
H        0.36109852       2.31269462      -2.67926685
H       -2.32237310      -3.69865557       1.28326323
H        0.61231170       2.94218642       0.46274584
H       -0.49109679       0.90845618       0.45061999
17
Properties=species:S:1:pos:R:3 relative_energy_eV=0.0001607371959835291 branch=left pbc="F F F"
C        0.42636026      -1.40267697       0.39373491
C       -0.81077646      -0.96528279       0.67098728
O       -1.24250801       0.30704298       0.67149088
P        1.76875583       1.95120976      -1.09766221
O        2.16974480       3.36793497      -1.41452244
O        2.67556319       0.77681470      -0.94138479
O        0.54308318       1.52776099      -2.15300546
C       -1.89835828      -1.90778339       1.02779650
O       -3.03811317      -1.59350859       1.29480975
O       -1.51373743      -3.22275360       1.03995825
O        0.86457451       2.02044099       0.34260376
H        1.22707323      -0.74047096       0.09702740
H        0.64660337      -2.45770552       0.44702827
H        0.36175294       2.31009147      -2.68562491
H       -2.32182189      -3.69915408       1.28330652
H        0.61693603       2.94612407       0.46492290
H       -0.48780833       0.90834425       0.45712456
17
Properties=species:S:1:pos:R:3 relative_energy_eV=0.0002443789162498433 branch=left pbc="F F F"
C        0.42694827      -1.40278677       0.39811872
C       -0.81044237      -0.96409903       0.67261638
O       -1.24089630       0.30884179       0.67403774
P        1.76904085       1.95096104      -1.09982416
O        2.16734977       3.36829865      -1.41730706
O        2.67735767       0.77741639      -0.94561463
O        0.54147999       1.52588403      -2.15264866
C       -1.89924837      -1.90715937       1.02502681
O       -3.03985556      -1.59407251       1.28970596
O       -1.51393609      -3.22216468       1.03626779
O        0.86822904       2.02026402       0.34298421
H        1.22825280      -0.73952478       0.10599768
H        0.64568243      -2.45847439       0.44840322
H        0.35601254       2.30861848      -2.68362215
H       -2.32144696      -3.69907463       1.28051096
H        0.61809361       2.94473899       0.46474128
H       -0.48529753       0.90876085       0.45919707
17
Properties=species:S:1:pos:R:3 relative_energy_eV=0.00039369886508211493 branch=left pbc="F F F"
C        0.42827665      -1.40033731       0.40562166
C       -0.81067113      -0.96315879       0.67504305
O       -1.24065267       0.30984301       0.67831112
P        1.77099182       1.95053130      -1.10425660
O        2.16006140       3.36981147      -1.42493185
O        2.68718747       0.78293567      -0.95149228
O        0.54145772       1.51675220      -2.15105629
C       -1.90134445      -1.90710876       1.01978686
O       -3.04304333      -1.59481028       1.28082077
O       -1.51657777      -3.22198227       1.02866858
O        0.87438675       2.01837193       0.34143244
H        1.23083445      -0.73730211       0.11609671
H        0.64815325      -2.45535268       0.45787903
H        0.33711214       2.30271699      -2.67174438
H       -2.32469712      -3.69888186       1.27120570
H        0.63127923       2.94467185       0.46526916
H       -0.48543056       0.90972748       0.46193745
17
Properties=species:S:1:pos:R:3 relative_energy_eV=0.0008555304921173956 branch=left pbc="F F F"
C        0.43229819      -1.40606385       0.41384231
C       -0.80626060      -0.96422438       0.67967137
O       -1.23268416       0.31014739       0.67891056
P        1.76669421       1.95211377      -1.10604059
O        2.15255673       3.37038581      -1.43585521
O        2.68509820       0.78585999      -0.95488955
O        0.52668865       1.52115873      -2.14311742
C       -1.90255697      -1.90635870       1.01671890
O       -3.04645348      -1.59343951       1.26752173
O       -1.51959660      -3.22224008       1.02852540
O        0.88008110       2.02304954       0.34494957
H        1.23476748      -0.74651556       0.11617339
H        0.65229189      -2.46129300       0.47524023
H        0.33692477       2.30381088      -2.67312395
H       -2.33131993      -3.69758558       1.26202740
H        0.63573708       2.94923863       0.46767168
H       -0.47694261       0.90838377       0.46036528
17
Properties=species:S:1:pos:R:3 relative_energy_eV=0.0012713789437839296 branch=left pbc="F F F"
C        0.43949502      -1.41145404       0.42597785
C       -0.79908222      -0.96716832       0.68583425
O       -1.22092431       0.30796548       0.69062244
P        1.76349756       1.95518556      -1.11208321
O        2.14633526       3.37363585      -1.44390360
O        2.68320606       0.78976811      -0.96595294
O        0.52177636       1.52269025      -2.14414809
C       -1.90186896      -1.90443677       1.01063147
O       -3.04694918      -1.58440328       1.24575101
O       -1.52594688      -3.22147488       1.03002860
O        0.88466881       2.02226499       0.34413744
H        1.24381831      -0.75402697       0.12844271
H        0.65585782      -2.46640345       0.49164419
H        0.32637870       2.30895610      -2.66673058
H       -2.34407442      -3.69302999       1.24833892
H        0.62501507       2.94456347       0.46156318
H       -0.46387882       0.90379560       0.46843747
17
Properties=species:S:1:pos:R:3 relative_energy_eV=0.0015444566670339555 branch=left pbc="F F F"
C        0.44024672      -1.41109458       0.43128090
C       -0.79907406      -0.96623302       0.68593823
O       -1.22003953       0.30939836       0.68712743
P        1.76369166       1.95578332      -1.11364717
O        2.13826683       3.37570868      -1.45029311
O        2.68676059       0.79253876      -0.97173726
O        0.52116071       1.51302347      -2.14050101
C       -1.90262944      -1.90328777       1.00808704
O       -3.04783954      -1.58189738       1.24022251
O       -1.52652478      -3.22085519       1.02737869
O        0.89081438       2.02375962       0.34670189
H        1.24180279      -0.75200366       0.13063545
H        0.65872266      -2.46577904       0.50379762
H        0.31184596       2.29922292      -2.65801771
H       -2.34623800      -3.69389207       1.23619014
H        0.63846445       2.94790888       0.46916395
H       -0.46210716       0.90412624       0.46626349
17
Properties=species:S:1:pos:R:3 relative_energy_eV=0.002048166570602916 branch=left pbc="F F F"
C        0.44684105      -1.41084907       0.43969115
C       -0.79349752      -0.96459617       0.68737824
O       -1.21302929       0.31113099       0.68339634
P        1.76283719       1.95424551      -1.11752898
O        2.12898282       3.37662665      -1.45087120
O        2.69288305       0.79530753      -0.98175634
O        0.51300619       1.50504992      -2.13380126
C       -1.90219862      -1.89819970       1.00223465
O       -3.04800187      -1.57339785       1.22664312
O       -1.53087971      -3.21657081       1.02394358
O        0.89913873       2.01989658       0.34884474
H        1.24998139      -0.75177098       0.14298675
H        0.66574578      -2.46491763       0.51740847
H        0.28592347       2.28631928      -2.65124347
H       -2.35479674      -3.68804169       1.21971068
H        0.63711960       2.94107586       0.47367571
H       -0.45273103       0.90511877       0.46787892
17
Properties=species:S:1:pos:R:3 relative_energy_eV=0.0026070986896229442 branch=left pbc="F F F"
C        0.45183532      -1.40753358       0.44801805
C       -0.79057121      -0.96103838       0.68809964
O       -1.20897631       0.31508585       0.67888939
P        1.76064831       1.95363256      -1.11926656
O        2.12121605       3.37707595      -1.45482048
O        2.69761978       0.80034047      -0.98977247
O        0.50936572       1.49431778      -2.12941109
C       -1.90223265      -1.89399998       0.99792721
O       -3.04917811      -1.56906454       1.21726179
O       -1.53348386      -3.21338995       1.01713150
O        0.90649527       2.01093690       0.35412727
H        1.25776530      -0.74890698       0.15603051
H        0.67145963      -2.46206056       0.52357228
H        0.26327951       2.27392425      -2.64117010
H       -2.36077259      -3.68111537       1.20797803
H        0.63817739       2.93076257       0.47610218
H       -0.44532284       0.90745990       0.46789390
17
Properties=species:S:1:pos:R:3 relative_energy_eV=0.003252165173762478 branch=left pbc="F F F"
C        0.45857450      -1.40246071       0.45894597
C       -0.78551963      -0.95483465       0.68630269
O       -1.20470550       0.32021903       0.67555740
P        1.75965618       1.94847999      -1.12321381
O        2.10174256       3.37768722      -1.45526642
O        2.70564232       0.80166360      -0.99878105
O        0.50616643       1.47873759      -2.12405000
C       -1.89918195      -1.88785494       0.98630659
O       -3.04523166      -1.56029983       1.20559228
O       -1.53567444      -3.20871778       1.00415944
O        0.90912726       1.99934100       0.35254444
H        1.26808608      -0.74813821       0.17026202
H        0.67247828      -2.45720802       0.53536914
H        0.23806019       2.25973048      -2.62135357
H       -2.36524074      -3.67197799       1.19692774
H        0.64310774       2.91862784       0.47864265
H       -0.43976283       0.91343184       0.47064554
17
Properties=species:S:1:pos:R:3 relative_energy_eV=0.0036789212754229084 branch=left pbc="F F F"
C        0.46092416      -1.39793164       0.46378258
C       -0.78497150      -0.95192790       0.68476945
O       -1.20326721       0.32301914       0.67367626
P        1.75815346       1.94328820      -1.12707861
O        2.08672911       3.37485783      -1.46023924
O        2.71546989       0.80610799      -1.00482345
O        0.50772827       1.46361402      -2.12489007
C       -1.90044167      -1.88339272       0.98018468
O       -3.04614796      -1.55419610       1.19902911
O       -1.53744261      -3.20401962       0.99212195
O        0.91409702       1.99169868       0.35246778
H        1.27195855      -0.74106010       0.18358761
H        0.67672235      -2.45192645       0.54203229
H        0.21865419       2.24983899      -2.60150829
H       -2.36518309      -3.66832453       1.18899473
H        0.65025537       2.91134490       0.48418785
H       -0.43591348       0.91543542       0.47229641
17
Properties=species:S:1:pos:R:3 relative_energy_eV=0.003951770017010858 branch=left pbc="F F F"
C        0.46051588      -1.39451329       0.46751725
C       -0.78609353      -0.94789379       0.68442549
O       -1.20410534       0.32733304       0.66873909
P        1.75846956       1.94050141      -1.12810718
O        2.07721227       3.37393435      -1.46461348
O        2.72277454       0.80912256      -1.00826836
O        0.50819789       1.45169064      -2.12303878
C       -1.90139623      -1.88051090       0.97785596
O       -3.04726066      -1.55343395       1.19858795
O       -1.53670638      -3.20117773       0.98436706
O        0.91919209       1.98715641       0.35623860
H        1.27001524      -0.73424292       0.19138351
H        0.67805697      -2.44932923       0.54287967
H        0.20642542       2.24024078      -2.58916757
H       -2.36230464      -3.66841922       1.18317908
H        0.66017430       2.90774016       0.48931516
H       -0.43584249       0.91822761       0.46729760
17
Properties=species:S:1:pos:R:3 relative_energy_eV=0.00438098109952989 branch=left pbc="F F F"
C        0.45940152      -1.39150881       0.46866001
C       -0.78793221      -0.94649118       0.68534298
O       -1.20637010       0.32865498       0.67081857
P        1.76211464       1.94078559      -1.13106584
O        2.07170097       3.37528768      -1.47132815
O        2.72806961       0.81098677      -1.00826584
O        0.51660057       1.44736757      -2.12709515
C       -1.90366425      -1.87993187       0.97618850
O       -3.05009425      -1.55505522       1.19810917
O       -1.53588769      -3.19931786       0.98189416
O        0.92478630       1.98377140       0.35475302
H        1.27195996      -0.73167524       0.19877631
H        0.67574350      -2.44600420       0.54418341
H        0.19328152       2.23566702      -2.57875237
H       -2.36040022      -3.66990218       1.17649943
H        0.66606443       2.90417057       0.49133918
H       -0.43804938       0.91962087       0.46853364
17
Properties=species:S:1:pos:R:3 relative_energy_eV=0.005278943910525413 branch=left pbc="F F F"
C        0.45480389      -1.38639566       0.47520190
C       -0.79286577      -0.93961530       0.68501671
O       -1.21251010       0.33577499       0.66673309
P        1.76550137       1.94070147      -1.13640377
O        2.06601990       3.37771984      -1.47593153
O        2.73933222       0.81843074      -1.00992832
O        0.52290907       1.43076758      -2.13061115
C       -1.90365571      -1.87928263       0.97712113
O       -3.05181861      -1.56144280       1.19871991
O       -1.53079016      -3.19831540       0.97601159
O        0.93124669       1.98243211       0.35126828
H        1.26893308      -0.73090295       0.20317406
H        0.66820162      -2.44181913       0.54960441
H        0.17182910       2.22049736      -2.55888564
H       -2.35470971      -3.67356077       1.16227255
H        0.68930925       2.90492774       0.50027898
H       -0.44441118       0.92650855       0.46494881
17
Properties=species:S:1:pos:R:3 relative_energy_eV=0.006253366438613739 branch=left pbc="F F F"
C        0.45200544      -1.38143997       0.47886047
C       -0.79647320      -0.93765321       0.68870403
O       -1.22036460       0.33619085       0.66973654
P        1.77197646       1.94075563      -1.14135654
O        2.06712147       3.37816124      -1.48209817
O        2.75755156       0.82837511      -1.01896232
O        0.53143983       1.41910717      -2.13064162
C       -1.90609124      -1.88020271       0.97381713
O       -3.05435235      -1.56556186       1.19990434
O       -1.52952429      -3.19753623       0.97213431
O        0.93047271       1.98072956       0.34524042
H        1.26529973      -0.72400298       0.21019300
H        0.66603004      -2.43634623       0.55150422
H        0.15260342       2.20719574      -2.53748260
H       -2.35259220      -3.67694778       1.15085408
H        0.70737541       2.90649688       0.50371806
H       -0.45515322       0.92910440       0.46446563
17
Properties=species:S:1:pos:R:3 relative_energy_eV=0.007192377932369709 branch=left pbc="F F F"
C        0.44950874      -1.37836004       0.48222073
C       -0.80036238      -0.93824997       0.69330525
O       -1.22296235       0.33622575       0.67349284
P        1.77799175       1.94178194      -1.14322259
O        2.06608917       3.38078670      -1.48321627
O        2.76700853       0.83180004      -1.02633721
O        0.54025994       1.41505168      -2.12959554
C       -1.90932208      -1.88150426       0.97913779
O       -3.05964406      -1.56949632       1.19835839
O       -1.52954082      -3.19812771       0.96752373
O        0.92949003       1.98000576       0.33836273
H        1.26060333      -0.71516902       0.21658413
H        0.66760114      -2.43353377       0.54801343
H        0.14168525       2.19934819      -2.52427580
H       -2.35181075      -3.67857249       1.14535539
H        0.71808326       2.90766290       0.50040147
H       -0.45735371       0.92677619       0.46248251
17
Properties=species:S:1:pos:R:3 relative_energy_eV=0.008997946890303865 branch=left pbc="F F F"
C        0.45039112      -1.37307850       0.48385200
C       -0.80204471      -0.94120342       0.69554181
O       -1.22987068       0.33222459       0.67947748
P        1.78258298       1.94318215      -1.14724572
O        2.06030173       3.38717891      -1.47869212
O        2.77637764       0.83781279      -1.02788076
O        0.54738698       1.40262005      -2.13179178
C       -1.91287825      -1.88498190       0.97435271
O       -3.06166336      -1.57066005       1.19862100
O       -1.53723111      -3.20188772       0.96028426
O        0.93709159       1.98091625       0.33406071
H        1.25104904      -0.69836103       0.21613967
H        0.67977216      -2.42621521       0.55295681
H        0.12490455       2.18446084      -2.50606046
H       -2.35796125      -3.68458781       1.14209866
H        0.74878835       2.91429426       0.49261799
H       -0.46967182       0.92471126       0.46025873
17
Properties=species:S:1:pos:R:3 relative_energy_eV=0.0101871228289383 branch=left pbc="F F F"
C        0.44921930      -1.36926555       0.48236423
C       -0.80434629      -0.94181994       0.69420689
O       -1.23484531       0.33115830       0.67980536
P        1.78155451       1.94083356      -1.14471178
O        2.05329390       3.38489542      -1.47660095
O        2.78077512       0.84012590      -1.03141723
O        0.55243522       1.39708074      -2.13346709
C       -1.91278385      -1.88820010       0.97060317
O       -3.05985239      -1.57074110       1.19908146
O       -1.53853130      -3.20625293       0.95559305
O        0.94009919       1.98458760       0.33758284
H        1.25027186      -0.69650354       0.21170311
H        0.68529254      -2.41891211       0.56069836
H        0.11675302       2.17557822      -2.49956542
H       -2.36166163      -3.68334090       1.14086978
H        0.76674196       2.92144324       0.49348465
H       -0.47709092       0.92575862       0.45836058
17
Properties=species:S:1:pos:R:3 relative_energy_eV=0.01445596203848254 branch=left pbc="F F F"
C        0.45216642      -1.35804697       0.48514911
C       -0.80761139      -0.93912142       0.67554211
O       -1.24838264       0.33104808       0.66289311
P        1.78532565       1.93810183      -1.14411380
O        2.04043831       3.38169718      -1.49528755
O        2.79220922       0.84210817      -1.03286634
O        0.54932094       1.37816778      -2.11765957
C       -1.91056462      -1.88861667       0.96918088
O       -3.05788122      -1.57812702       1.20593031
O       -1.54387567      -3.20684198       0.94213825
O        0.94990376       1.98762506       0.35098992
H        1.24365780      -0.68231403       0.20274324
H        0.70089258      -2.40537054       0.56794680
H        0.10489948       2.15076867      -2.48640560
H       -2.36756558      -3.68058654       1.13991091
H        0.79840272       2.92651933       0.52110065
H       -0.49401085       0.92941433       0.45139851
17
Properties=species:S:1:pos:R:3 relative_energy_eV=0.024192362678149948 branch=left pbc="F F F"
C        0.44801611      -1.33808320       0.47317724
C       -0.81851615      -0.93653086       0.66542838
O       -1.26996944       0.33090807       0.61686783
P        1.78242496       1.93727049      -1.14170137
O        2.02164785       3.37319704      -1.52931725
O        2.80023124       0.85304141      -1.03268930
O        0.54057272       1.34044953      -2.07736217
C       -1.91767747      -1.89107331       0.95891668
O       -3.06088128      -1.58577384       1.22670239
O       -1.54293737      -3.20705405       0.91993333
O        0.97669104       1.99277402       0.36117208
H        1.23622796      -0.65185341       0.19448670
H        0.72352902      -2.37636355       0.57803179
H        0.09223437       2.10225957      -2.46064479
H       -2.36629529      -3.67252195       1.13498540
H        0.85219041       2.92488378       0.57693640
H       -0.51016377       0.93089518       0.43366749
17
Properties=species:S:1:pos:R:3 relative_energy_eV=0.032696464371838374 branch=left pbc="F F F"
C        0.44321429      -1.32147707       0.46907842
C       -0.82388476      -0.92662963       0.64759587
O       -1.28332064       0.33565891       0.57065581
P        1.77978523       1.93131640      -1.13330968
O        2.00079435       3.36162801      -1.55027030
O        2.81883148       0.86707972      -1.01926210
O        0.51867166       1.31411746      -2.03350930
C       -1.91086797      -1.88544421       0.95877205
O       -3.04795916      -1.57561570       1.24112709
O       -1.53705124      -3.20229860       0.89915596
O        0.99625757       1.98658024       0.38182279
H        1.21889371      -0.62657171       0.18616718
H        0.70974669      -2.35929603       0.59271950
H        0.06454396       2.05519584      -2.45110480
H       -2.34787150      -3.68489258       1.12327501
H        0.91298577       2.91756860       0.61264698
H       -0.52544456       0.93950493       0.40303027
17
Properties=species:S:1:pos:R:3 relative_energy_eV=0.03812098088019411 branch=left pbc="F F F"
C        0.44035344      -1.30908625       0.46996274
C       -0.83109912      -0.91464323       0.62979119
O       -1.30356608       0.34388738       0.56532808
P        1.78449079       1.92527212      -1.12853815
O        1.98558146       3.35766066      -1.55068137
O        2.83688939       0.87161738      -1.02758962
O        0.50784188       1.29646424      -2.00290096
C       -1.91149003      -1.87621174       0.95456572
O       -3.04487162      -1.57269067       1.25833012
O       -1.52859140      -3.18924302       0.89285420
O        1.02067316       1.97292374       0.39518860
H        1.22465375      -0.61732088       0.20595992
H        0.70254486      -2.34998143       0.57659269
H        0.05784637       2.02889568      -2.44026546
H       -2.32982153      -3.68923003       1.11417562
H        0.92369122       2.90735632       0.61712576
H       -0.54780168       0.94075419       0.36869162
17
Properties=species:S:1:pos:R:3 relative_energy_eV=0.0464769660939055 branch=left pbc="F F F"
C        0.42593656      -1.29931143       0.46775506
C       -0.84383642      -0.89831486       0.62734992
O       -1.30868901       0.36135455       0.53830547
P        1.77852318       1.91704216      -1.11593187
O        1.95522434       3.35423068      -1.53229301
O        2.83842404       0.86969594      -1.04378184
O        0.50179038       1.26940637      -1.97387224
C       -1.91559108      -1.86673250       0.95783814
O       -3.04985011      -1.58242132       1.27794860
O       -1.50587410      -3.17218890       0.88111168
O        1.03675115       1.97248331       0.41339685
H        1.22903409      -0.62378995       0.21437678
H        0.68471470      -2.34137420       0.57309718
H        0.05256175       1.99039837      -2.42907781
H       -2.29767872      -3.68551571       1.09607631
H        0.96045970       2.90923135       0.62688245
H       -0.55457566       0.95223048       0.31940899
17
Properties=species:S:1:pos:R:3 relative_energy_eV=0.05187487885268638 branch=left pbc="F F F"
C        0.43138732      -1.29316062       0.46074482
C       -0.83603463      -0.88924084       0.63043212
O       -1.31849649       0.36268020       0.53630944
P        1.78212934       1.91242386      -1.11265721
O        1.94539564       3.35313644      -1.52863403
O        2.84521004       0.86880073      -1.05732103
O        0.50069396       1.25865036      -1.96145276
C       -1.90521082      -1.86375383       0.96210399
O       -3.04377845      -1.59158109       1.27885241
O       -1.50352765      -3.16912349       0.87117165
O        1.05441138       1.96604887       0.42497938
H        1.23647394      -0.61813873       0.22743307
H        0.66442664      -2.33839676       0.56582439
H        0.05535017       1.97856395      -2.42147982
H       -2.29643441      -3.67797432       1.09688069
H        0.95527028       2.90435615       0.62477762
H       -0.57994149       0.96313339       0.30062594
17
Properties=species:S:1:pos:R:3 relative_energy_eV=0.07057880582215148 branch=left pbc="F F F"
C        0.41644060      -1.26969056       0.48545010
C       -0.85283556      -0.87855616       0.65608015
O       -1.32524510       0.37937748       0.53926175
P        1.80195418       1.91063469      -1.11477965
O        1.93877126       3.35039768      -1.53744946
O        2.86990356       0.86894433      -1.07857829
O        0.50624206       1.25406525      -1.94399703
C       -1.90174611      -1.87336185       0.96842947
O       -3.03904256      -1.60772680       1.29074119
O       -1.49745931      -3.18196711       0.86391178
O        1.10781239       1.94852350       0.43604543
H        1.21908564      -0.57746144       0.29120044
H        0.65650255      -2.32289255       0.47781341
H        0.06051282       1.97208473      -2.40704879
H       -2.30005458      -3.66959861       1.10448041
H        0.90586237       2.87297762       0.61097345
H       -0.57937945       0.95067411       0.25605630
17
Properties=species:S:1:pos:R:3 relative_energy_eV=0.10734082650014898 branch=left pbc="F F F"
C        0.43617329      -1.24734752       0.49211928
C       -0.84625164      -0.88634865       0.63714744
O       -1.34167137       0.36326530       0.57663729
P        1.82288382       1.90525642      -1.11667303
O        1.94507934       3.34251898      -1.55205747
O        2.90700823       0.88150533      -1.10353683
O        0.50307068       1.24697846      -1.92200150
C       -1.90488901      -1.87194513       0.95959369
O       -3.03714839      -1.60939497       1.30649143
O       -1.50387740      -3.17409779       0.86365234
O        1.16462300       1.92854003       0.44835346
H        1.24028940      -0.52993433       0.35311279
H        0.63647297      -2.30671651       0.41267149
H        0.07001136       1.97096383      -2.38945675
H       -2.30558253      -3.65816477       1.11382942
H        0.84193526       2.82772182       0.58843089
H       -0.64080225       0.94362379       0.23027672
17
Properties=species:S:1:pos:R:3 relative_energy_eV=0.164540428766486 branch=left pbc="F F F"
C        0.42026561      -1.22822269       0.44826667
C       -0.85879248      -0.88153846       0.64724859
O       -1.36587523       0.37158228       0.61866103
P        1.85708051       1.90890497      -1.12395710
O        1.96070736       3.34052007      -1.58310911
O        2.95173547       0.89605182      -1.13891801
O        0.50838204       1.24539034      -1.87936412
C       -1.91529048      -1.87054889       0.97574992
O       -3.04250552      -1.58465865       1.32147860
O       -1.51947437      -3.17519526       0.86180843
O        1.22411609       1.90896876       0.44541611
H        1.22195939      -0.51205696       0.48509873
H        0.69393633      -2.25804132       0.30544227
H        0.09048263       1.97013185      -2.35752433
H       -2.30176475      -3.68430355       1.12494546
H        0.75194324       2.74362984       0.55377761
H       -0.68958106       0.93581013       0.19356991
17
Properties=species:S:1:pos:R:3 relative_energy_eV=0.26243292939761886 branch=left pbc="F F F"
C        0.39603943      -1.24881092       0.51030948
C       -0.88147336      -0.88896457       0.66859532
O       -1.31301714       0.40160226       0.60256469
P        1.87455490       1.91203990      -1.13107939
O        1.96486521       3.34491460      -1.59639188
O        2.96464420       0.89780705      -1.14839955
O        0.51731577       1.24863057      -1.87365131
C       -1.94548321      -1.87175715       0.99208572
O       -3.06893024      -1.60778534       1.34676810
O       -1.52251554      -3.16877239       0.87513074
O        1.25391967       1.90890297       0.44549815
H        1.14478191      -0.47376282       0.55927947
H        0.73731259      -2.23469552       0.17940424
H        0.09320031       1.97263598      -2.34781645
H       -2.28881712      -3.71045692       1.12289010
H        0.71232063       2.70251493       0.54131453
H       -0.65139323       0.94238169       0.15208866
17
Properties=species:S:1:pos:R:3 relative_energy_eV=0.5632830759568606 branch=left pbc="F F F"
C        0.37059269      -1.22319291       0.51756313
C       -0.91533116      -0.87728897       0.70412604
O       -1.28026328       0.40239324       0.59018298
P        1.88548699       1.92272635      -1.13570413
O        1.97181268       3.34917762      -1.60635610
O        2.97390227       0.90303953      -1.15414297
O        0.53099049       1.24990784      -1.89051091
C       -1.99264953      -1.86977498       1.02564741
O       -3.13172164      -1.66064749       1.38522777
O       -1.51553485      -3.15229304       0.89104859
O        1.29226908       1.92137207       0.44573558
H        1.05408754      -0.41840330       0.67582384
H        0.71701725      -2.10939652       0.04545582
H        0.08954643       1.97950283      -2.34362142
H       -2.26235388      -3.72506111       1.11444763
H        0.68415134       2.66610610       0.53433292
H       -0.48467758       0.76825707       0.09933440
17
Properties=species:S:1:pos:R:3 relative_energy_eV=1.0935554924217286 branch=left pbc="F F F"
C        0.31621098      -1.14002983       0.45838905
C       -0.97060284      -0.88248315       0.74292135
O       -1.23559628       0.43769220       0.56142319
P        1.88622707       1.92511691      -1.13922129
O        1.97759035       3.35455884      -1.61055019
O        2.97744997       0.90910866      -1.15610473
O        0.54041633       1.25144604      -1.90146048
C       -2.00556282      -1.87842194       1.04717428
O       -3.15113591      -1.68324352       1.39426202
O       -1.50919725      -3.14071788       0.89167198
O        1.30831764       1.92881556       0.44428152
H        1.05429062      -0.39072546       0.73998836
H        0.68708323      -2.02547807       0.01122636
H        0.08732965       1.98234841      -2.34156308
H       -2.24923609      -3.72318860       1.11074300
H        0.67785707       2.65548565       0.53382533
H       -0.40411685       0.54614048       0.11158388
17
Properties=species:S:1:pos:R:3 relative_energy_eV=2.580385411692987 branch=ts pbc="F F F"
C        0.30524950      -1.05719198       0.39845511
C       -1.00283999      -0.82162305       0.75466616
O       -1.39091603       0.41554445       0.64507988
P        1.89010651       1.92982139      -1.14142766
O        1.97919702       3.35412814      -1.61183838
O        2.98064301       0.91220159      -1.15820778
O        0.54525164       1.25166563      -1.90612063
C       -2.00906036      -1.87990300       1.05096115
O       -3.15533925      -1.68917352       1.39558354
O       -1.50527466      -3.13558001       0.89009776
O        1.31500989       1.93227651       0.44291806
H        1.07246132      -0.41490971       0.79445995
H        0.66887849      -1.98835399       0.00757257
H        0.08538246       1.98287883      -2.33896872
H       -2.24414612      -3.72333416       1.10956840
H        0.67100121       2.64594665       0.53275594
H       -0.12803387       0.29949412       0.01836977
17
Properties=species:S:1:pos:R:3 relative_energy_eV=0.2813044648319192 branch=right pbc="F F F"
C        0.27712632      -0.86594456       0.29902465
C       -1.10925820      -0.66804401       0.77608718
O       -1.60596312       0.42740522       0.95304503
P        1.90796664       1.95559842      -1.13310080
O        1.99339980       3.37655286      -1.62361082
O        2.99503986       0.92870526      -1.17309291
O        0.56540935       1.26628087      -1.90666264
C       -2.04661219      -1.90313903       1.08559168
O       -3.19498196      -1.80145618       1.43751279
O       -1.47250527      -3.12054135       0.89991045
O        1.34869953       1.97721902       0.44317215
H        0.95868094      -0.53036987       1.08369717
H        0.50369319      -1.87237918      -0.00519118
H        0.10365076       1.99301073      -2.34048361
H       -2.19001439      -3.75149810       1.08707042
H        0.66838952       2.65842452       0.51098612
H        0.46509546      -0.16847333      -0.52469586
17
Properties=species:S:1:pos:R:3 relative_energy_eV=0.2190813667657494 branch=right pbc="F F F"
C        0.21869319      -0.91991182       0.31332314
C       -1.16183629      -0.68603331       0.80084320
O       -1.65584289       0.39864189       1.02706263
P        1.94513332       2.00901282      -1.14384127
O        2.01336802       3.41699587      -1.68467542
O        3.04011154       0.99389001      -1.18080849
O        0.58081208       1.30930255      -1.86798443
C       -2.08508261      -1.92382745       1.07139178
O       -3.22592504      -1.84670519       1.45169394
O       -1.47076088      -3.11663486       0.86139641
O        1.41962972       2.07066123       0.44383432
H        0.95210863      -0.49829068       1.00458572
H        0.42909051      -1.96256855       0.13773108
H        0.15766928       2.02641873      -2.35553626
H       -2.13102633      -3.79094616       1.08670876
H        0.76120936       2.77288762       0.50939852
H        0.38046460      -0.35154082      -0.60586381
17
Properties=species:S:1:pos:R:3 relative_energy_eV=0.19427926486969227 branch=right pbc="F F F"
C        0.18823392      -0.90185735       0.31422331
C       -1.19544545      -0.72903052       0.83805779
O       -1.69489807       0.34036544       1.10967852
P        1.96736278       2.01019533      -1.16176053
O        2.02982842       3.42903653      -1.68009332
O        3.07427475       1.00664440      -1.19581483
O        0.62131680       1.29236812      -1.90080750
C       -2.11925828      -1.97516655       1.07851323
O       -3.26560278      -1.90945359       1.44567844
O       -1.48913129      -3.15617160       0.86485663
O        1.41007706       2.06759263       0.42056320
H        0.88313006      -0.34304040       0.94442740
H        0.50749097      -1.93488688       0.19956705
H        0.16196775       2.01038772      -2.35282743
H       -2.14543015      -3.84363619       1.06170297
H        0.96043302       2.91756277       0.53134439
H        0.27346652      -0.37955719      -0.64804929
17
Properties=species:S:1:pos:R:3 relative_energy_eV=0.17844783215332427 branch=right pbc="F F F"
C        0.14214256      -0.82749287       0.33012777
C       -1.22672039      -0.70352753       0.88763013
O       -1.75953547       0.33890199       1.20266183
P        1.96519392       1.95290365      -1.16977107
O        2.05620230       3.37277994      -1.67970459
O        3.05814669       0.93455672      -1.19367077
O        0.62089640       1.25809933      -1.92562448
C       -2.09533129      -1.99104615       1.07640655
O       -3.26315240      -1.98164434       1.37418901
O       -1.41105272      -3.14403145       0.86698895
O        1.38796630       2.03040007       0.40943466
H        0.83602692      -0.20651168       0.89434761
H        0.50665381      -1.84627741       0.26252151
H        0.14355080       1.99168759      -2.33141565
H       -2.06581036      -3.85252744       0.97234784
H        1.10727291       2.94068844       0.55673482
H        0.16536554      -0.36560577      -0.66394410
17
Properties=species:S:1:pos:R:3 relative_energy_eV=0.16415594066347694 branch=right pbc="F F F"
C        0.11471606      -0.75676051       0.34677311
C       -1.23865965      -0.69980971       0.94155304
O       -1.77857463       0.29829432       1.37013197
P        1.96857824       1.88720983      -1.16680483
O        2.15798545       3.27993148      -1.72106007
O        2.96989145       0.77832318      -1.18696690
O        0.54279989       1.29813189      -1.86231363
C       -2.08285624      -2.01090834       1.02003947
O       -3.26697156      -2.04525502       1.24377694
O       -1.35003222      -3.13830762       0.84150995
O        1.43912505       2.04873669       0.42362058
H        0.77446912      -0.03640694       0.82120319
H        0.55432356      -1.74748533       0.34965551
H        0.16064455       2.04895869      -2.33115212
H       -1.98034273      -3.86806665       0.94913721
H        1.11898473       2.95450019       0.51456232
H        0.06373436      -0.38973224      -0.68440572
17
Properties=species:S:1:pos:R:3 relative_energy_eV=0.13690404474982643 branch=right pbc="F F F"
C        0.15322477      -0.75306273       0.41522917
C       -1.18424532      -0.74503755       1.04674253
O       -1.69164898       0.20038025       1.61471593
P        1.89212791       1.83148419      -1.18610790
O        2.39372592       3.14155138      -1.74210460
O        2.65336149       0.54801041      -1.12098152
O        0.43730606       1.49830962      -1.97039225
C       -2.05462487      -2.03349178       0.95957192
O       -3.26070444      -2.04468379       0.94195838
O       -1.31884282      -3.17364832       0.95555687
O        1.31107300       2.12302507       0.36578851
H        0.80066974      -0.01827905       0.88238703
H        0.62173246      -1.73238731       0.41894076
H        0.20406547       2.30915332      -2.43655187
H       -1.96514886      -3.89647987       0.92708466
H        1.11376273       3.06670899       0.42110832
H        0.06198241      -0.42019765      -0.62368589
17
Properties=species:S:1:pos:R:3 relative_energy_eV=0.11269118626660202 branch=right pbc="F F F"
C        0.10166629      -0.70010317       0.43982938
C       -1.19429390      -0.80596045       1.13916258
O       -1.68285787       0.03107648       1.87501431
P        1.86005232       1.82547926      -1.18219097
O        2.38142151       3.07520961      -1.85031552
O        2.58139192       0.52166646      -1.05689055
O        0.35890752       1.50865099      -1.89013550
C       -2.04470484      -2.07536214       0.88378098
O       -3.21254192      -2.07614883       0.58164285
O       -1.33276057      -3.21364496       1.09122180
O        1.35729410       2.26038702       0.36019732
H        0.75322172       0.01660120       0.92647722
H        0.60572007      -1.65733648       0.32398959
H        0.24812376       2.20279385      -2.55265239
H       -1.95554156      -3.94415987       0.94312620
H        1.41424812       3.22469851       0.40074882
H       -0.07153020      -0.29249232      -0.56374564
17
Properties=species:S:1:pos:R:3 relative_energy_eV=0.08586346085212426 branch=right pbc="F F F"
C        0.02029043      -0.59419529       0.48181029
C       -1.20600833      -0.89174040       1.24520016
O       -1.67071663      -0.23274597       2.15503066
P        1.89797432       1.79767078      -1.21256764
O        2.49719979       2.95317826      -1.97708945
O        2.52834879       0.45852668      -0.99980324
O        0.36051026       1.51604375      -1.85592579
C       -2.01022721      -2.13966592       0.81669806
O       -3.07202305      -2.11451584       0.24445062
O       -1.39583658      -3.28723323       1.19986446
O        1.45939296       2.38200152       0.30236706
H        0.61888893       0.17477593       0.95848535
H        0.62667473      -1.48050861       0.30551313
H        0.18302351       2.23008943      -2.48012793
H       -1.98759478      -4.00927003       0.92830578
H        1.56638624       3.33987928       0.26319300
H       -0.24846727      -0.20093337      -0.50614389
17
Properties=species:S:1:pos:R:3 relative_energy_eV=0.07148319114276092 branch=right pbc="F F F"
C       -0.05227708      -0.46656096       0.60398868
C       -1.22501733      -0.95608919       1.35744636
O       -1.69319027      -0.48105720       2.37593134
P        1.87746370       1.72726717      -1.26894504
O        2.59257043       2.79782892      -2.05687496
O        2.37773829       0.34712935      -0.98945143
O        0.34311344       1.55356220      -1.94353012
C       -1.95533247      -2.18170392       0.77124832
O       -2.92311915      -2.13502221       0.04715345
O       -1.40174910      -3.34153382       1.20072345
O        1.45406756       2.41940274       0.20873933
H        0.47718916       0.31866807       1.13440001
H        0.64768134      -1.26171666       0.35437962
H        0.21700261       2.31478351      -2.52244739
H       -1.92954048      -4.05217056       0.80216435
H        1.72973401       3.33861340       0.14971656
H       -0.36851843      -0.04004293      -0.35538098
17
Properties=species:S:1:pos:R:3 relative_energy_eV=0.011297704881144455 branch=right pbc="F F F"
C       -0.39568247      -0.01212780       0.90831578
C       -1.26560784      -1.02262468       1.53032872
O       -1.70748494      -0.99279668       2.66633415
P        1.82124274       1.43475397      -1.34892060
O        2.69002021       2.27401649      -2.24924953
O        2.04960635      -0.00915112      -1.02466062
O        0.23993859       1.57242346      -1.90439169
C       -1.70435504      -2.19138618       0.63684175
O       -2.53156920      -2.09520962      -0.24115165
O       -1.09220340      -3.34874269       0.97103486
O        1.67210087       2.25699983       0.10522121
H       -0.17636267       0.78377459       1.61085762
H        0.54176823      -0.42620184       0.52472490
H        0.27806894       2.16780103      -2.65503183
H       -1.45688774      -4.02796004       0.36841705
H        2.06528932       3.12510891      -0.04278523
H       -0.86006795       0.41268064       0.01337936
17
Properties=species:S:1:pos:R:3 relative_energy_eV=-0.0059093330819450784 branch=right pbc="F F F"
C       -0.48530645       0.07521852       0.95494825
C       -1.31309701      -0.99526733       1.53269396
O       -1.74124719      -1.05203574       2.67126009
P        1.79956007       1.34410916      -1.33869990
O        2.68392875       2.12073086      -2.27871301
O        1.96548928      -0.09747383      -0.97269481
O        0.21665388       1.54160273      -1.87972729
C       -1.67681853      -2.16507700       0.60503504
O       -2.55780203      -2.14143400      -0.22050945
O       -0.90987115      -3.24672338       0.85613914
O        1.71827751       2.20701660       0.09892570
H       -0.40241285       0.90613052       1.64257462
H        0.51429373      -0.29255504       0.69613569
H        0.27385471       2.14163576      -2.63156545
H       -1.19230426      -3.92549478       0.22200458
H        2.14148136       3.05434438      -0.08179671
H       -0.86686641       0.42663123      -0.00674573
17
Properties=species:S:1:pos:R:3 relative_energy_eV=-0.012582999708683928 branch=right pbc="F F F"
C       -0.47825571       0.07482157       0.95064255
C       -1.34139569      -0.97259505       1.51812463
O       -1.83204997      -0.98380804       2.63402050
P        1.80625545       1.32737258      -1.32265309
O        2.66858690       2.10385153      -2.28501636
O        2.00989159      -0.10182220      -0.92147893
O        0.21633036       1.46028143      -1.86276123
C       -1.68457564      -2.15877092       0.60135483
O       -2.61173575      -2.16934991      -0.17406944
O       -0.85504307      -3.20533408       0.80285124
O        1.70332311       2.23058428       0.09200560
H       -0.39144035       0.91511178       1.62963239
H        0.51840850      -0.30741244       0.69806728
H        0.23506678       2.11520198      -2.56999736
H       -1.13270287      -3.89692438       0.17972716
H        2.18225986       3.04853518      -0.08237243
H       -0.84510988       0.42161492      -0.01881290
17
Properties=species:S:1:pos:R:3 relative_energy_eV=-0.02334970721130958 branch=right pbc="F F F"
C       -0.49707650       0.10863470       1.04676362
C       -1.42744929      -0.93166300       1.51435236
O       -2.03524627      -0.94118203       2.56967258
P        1.79871115       1.23785141      -1.31126246
O        2.66798028       1.94619453      -2.31734626
O        1.96034562      -0.18142923      -0.86216893
O        0.20433368       1.41185114      -1.82786374
C       -1.67581282      -2.12221853       0.56796720
O       -2.68476334      -2.27528203      -0.08053238
O       -0.65093112      -3.00079178       0.59007630
O        1.74130007       2.18885412       0.07333113
H       -0.37366102       0.88654649       1.79252014
H        0.47734398      -0.31192686       0.77523095
H        0.23556813       2.01988591      -2.57698877
H       -0.88756991      -3.71564767      -0.02666740
H        2.14658496       3.03260213      -0.16103584
H       -0.83184407       0.54907733       0.10321413
17
Properties=species:S:1:pos:R:3 relative_energy_eV=-0.030665685815620236 branch=right pbc="F F F"
C       -0.50488574       0.11943979       1.07501498
C       -1.47225940      -0.89907480       1.52474154
O       -2.12648788      -0.86842362       2.55134577
P        1.79541305       1.19314354      -1.31816060
O        2.66952683       1.94673105      -2.28809188
O        1.96936525      -0.23581611      -0.90658274
O        0.20734823       1.35803581      -1.85892409
C       -1.68096118      -2.10724182       0.58777093
O       -2.71949131      -2.36823871       0.02748003
O       -0.56109030      -2.85235520       0.49276399
O        1.70212692       2.10688844       0.08949882
H       -0.38794551       0.90300190       1.81560804
H        0.46332739      -0.32824308       0.83643366
H        0.24749385       1.97232473      -2.60126543
H       -0.74022691      -3.54696505      -0.16229534
H        2.11915438       2.95144909      -0.11725244
H       -0.81259482       0.55670026       0.12117685
17
Properties=species:S:1:pos:R:3 relative_energy_eV=-0.03424833760436741 branch=right pbc="F F F"
C       -0.56822456       0.16469728       1.16817813
C       -1.49351901      -0.92761159       1.53367701
O       -2.16920498      -0.99591297       2.54561587
P        1.75939901       1.11974453      -1.28357440
O        2.62590621       1.72991256      -2.36233680
O        1.87690766      -0.27632981      -0.74253834
O        0.15837709       1.32347176      -1.76667653
C       -1.61800816      -2.08120839       0.51336352
O       -2.62960525      -2.36289059      -0.08967766
O       -0.45327460      -2.74772975       0.39964118
O        1.78545806       2.16710250       0.03519036
H       -0.50224944       0.89491559       1.97008317
H        0.42266264      -0.21401572       0.88741620
H        0.19440560       1.85994282      -2.57039054
H       -0.55502273      -3.37623207      -0.33521835
H        2.23007740       2.96727738      -0.27926740
H       -0.89627311       0.65622290       0.24577667
17
Properties=species:S:1:pos:R:3 relative_energy_eV=-0.04822634986703633 branch=right pbc="F F F"
C       -0.66763373       0.24232507       1.24893270
C       -1.44817302      -0.97438553       1.54362324
O       -2.06256702      -1.21756093       2.56726366
P        1.68374141       1.06198037      -1.26211947
O        2.57032838       1.51249690      -2.39407916
O        1.71093545      -0.28962166      -0.61651796
O        0.09383398       1.34740256      -1.72704565
C       -1.48745316      -2.02760761       0.42288067
O       -2.42704393      -2.17987619      -0.32342819
O       -0.36523301      -2.76413123       0.39530570
O        1.81979513       2.19988253      -0.03696350
H       -0.68723344       0.93393566       2.08461842
H        0.35837071      -0.03281326       0.97460069
H        0.14539835       1.81522722      -2.56787597
H       -0.42991082      -3.34188898      -0.38538543
H        2.38763344       2.89352124      -0.39074758
H       -1.02697760       0.72247132       0.33620197
17
Properties=species:S:1:pos:R:3 relative_energy_eV=-0.06801863192231394 branch=right pbc="F F F"
C       -0.72039865       0.21554800       1.43582934
C       -1.50835732      -1.03514590       1.52195392
O       -2.20805140      -1.39066088       2.45270709
P        1.66291196       1.00585116      -1.22580256
O        2.43012378       1.27037050      -2.49789481
O        1.75233983      -0.23775883      -0.39573357
O        0.03257602       1.24859628      -1.56284886
C       -1.42266241      -1.94664820       0.28629406
O       -2.28804195      -2.02494021      -0.55636421
O       -0.27784417      -2.64751747       0.28731603
O        1.93589155       2.30984634      -0.20687278
H       -0.79476007       0.79138015       2.35248029
H        0.31724935      -0.01649968       1.17538265
H        0.00567954       1.62859496      -2.44903226
H       -0.15807333      -3.01048207      -0.60281666
H        2.45754567       2.93580912      -0.72292222
H       -1.04831904       0.80501523       0.57758692
17
Properties=species:S:1:pos:R:3 relative_energy_eV=-0.09829519577760948 branch=right pbc="F F F"
C       -0.64503822       0.08360808       1.67527498
C       -1.59275923      -1.02542618       1.41052307
O       -2.51893746      -1.36047109       2.12473876
P        1.64277689       0.98501508      -1.17477152
O        2.16697928       1.04998802      -2.58928342
O        1.95260888      -0.09188461      -0.18301815
O       -0.03515155       1.08716685      -1.25780200
C       -1.36906996      -1.77622328       0.08397316
O       -2.14148207      -1.76517752      -0.84442679
O       -0.20630034      -2.44437313       0.11386797
O        1.97690529       2.45552988      -0.45077761
H       -0.79909938       0.50041634       2.66395899
H        0.38216564      -0.24427408       1.51583702
H       -0.24440329       1.26813957      -2.17935477
H        0.01975025      -2.67508559      -0.80108221
H        2.35555159       3.00690847      -1.14726594
H       -0.77668842       0.84750194       0.90886740
17
Properties=species:S:1:pos:R:3 relative_energy_eV=-0.10267716616363032 branch=right pbc="F F F"
C       -0.63436566       0.06289579       1.70625956
C       -1.59285941      -1.02885952       1.39469645
O       -2.53425841      -1.36535988       2.09005426
P        1.64259371       0.99180245      -1.15172655
O        2.13902654       0.97423804      -2.57677247
O        1.96517893      -0.03280708      -0.10825881
O       -0.03793126       1.09662431      -1.21293649
C       -1.36504862      -1.76208399       0.05666545
O       -2.14886048      -1.76744926      -0.86246388
O       -0.19048207      -2.41080662       0.06701954
O        2.00191583       2.49728411      -0.51528971
H       -0.79125794       0.42874157       2.71767609
H        0.39460919      -0.25524584       1.53139087
H       -0.25966209       1.24580179      -2.13933673
H        0.01186345      -2.65927011      -0.84981034
H        2.33169701       3.02054164      -1.25424854
H       -0.76435072       0.86531152       0.97633955
17
Properties=species:S:1:pos:R:3 relative_energy_eV=-0.11820162412550417 branch=right pbc="F F F"
C       -0.77626311       0.00234350       1.78381749
C       -1.53558924      -1.21997538       1.41890550
O       -2.32121610      -1.81367817       2.13568442
P        1.64302435       1.03612289      -1.02580804
O        2.10434450       0.61540267      -2.40403491
O        1.92711671       0.29516286       0.24523402
O       -0.02977156       1.21797206      -1.09517309
C       -1.30326428      -1.73069216      -0.01608871
O       -2.12589243      -1.65682922      -0.89773909
O       -0.08141850      -2.27109889      -0.13820277
O        2.10923202       2.63223605      -0.81711236
H       -0.98378158       0.29359452       2.81009735
H        0.29371201      -0.13859330       1.59495001
H       -0.25348851       1.24777333      -2.03544425
H        0.12411661      -2.32467713      -1.08625433
H        2.40562254       2.90884000      -1.69409662
H       -1.02867736       0.80746214       1.09052203
17
Properties=species:S:1:pos:R:3 relative_energy_eV=-0.20579199665371561 branch=right pbc="F F F"
C       -0.76945240      -0.10048897       1.90796597
C       -1.48719049      -1.26447666       1.32953807
O       -2.25004644      -2.00126670       1.92247107
P        1.58286219       1.05957641      -0.93269426
O        1.95426418       0.33946464      -2.21140177
O        1.96085240       0.59955584       0.44294488
O       -0.08776226       1.22350440      -0.92004908
C       -1.21593749      -1.53614021      -0.16359560
O       -2.00040953      -1.30317624      -1.05611470
O       -0.00928364      -2.09382920      -0.32565261
O        2.04409166       2.66156544      -1.10971425
H       -0.95333063      -0.03664621       2.98009299
H        0.29917626      -0.15427517       1.66603669
H       -0.41643098       0.93574279      -1.78024077
H        0.26801444      -1.96709739      -1.25097479
H        2.33861080       2.73414671      -2.02523025
H       -1.09022548       0.80521008       1.39587205
17
Properties=species:S:1:pos:R:3 relative_energy_eV=-0.2721976096108847 branch=right pbc="F F F"
C       -0.81018567      -0.10284724       1.90052152
C       -1.36307996      -1.35992964       1.33520857
O       -2.00469907      -2.19856243       1.94635080
P        1.52640889       1.11928916      -0.87820268
O        1.68720654       0.09993560      -1.99527641
O        1.86493503       0.81998996       0.54980976
O       -0.06598506       1.65134853      -0.94209129
C       -1.13867332      -1.55119412      -0.17288366
O       -1.88318428      -1.09839214      -1.01168730
O       -0.02333051      -2.24557916      -0.41783229
O        2.31149594       2.53132818      -1.29500971
H       -0.93770839      -0.09281171       2.98508885
H        0.23984307       0.03093458       1.60987251
H       -0.51197102       1.06697030      -1.57921621
H        0.23722677      -2.07725065      -1.34533727
H        2.35629524       2.55612329      -2.26179512
H       -1.31679395       0.75201357       1.44173917
17
Properties=species:S:1:pos:R:3 relative_energy_eV=-0.4149745073518716 branch=right pbc="F F F"
C       -0.88032159      -0.36082768       2.09274496
C       -1.25390154      -1.60474428       1.37699582
O       -1.64269089      -2.62585908       1.89769153
P        1.30330735       1.28945427      -1.01333311
O        1.25278686       0.09604127      -1.97657943
O        1.41561015       1.18107454       0.47635560
O        0.00770340       2.29088654      -1.37684529
C       -1.05097507      -1.55275999      -0.14386057
O       -1.87118970      -1.07740616      -0.91021012
O        0.13726266      -2.07896250      -0.46929294
O        2.53720955       2.29001387      -1.53645611
H       -1.14583374      -0.41389968       3.15257273
H        0.18771869      -0.20176192       1.95429066
H       -0.73050170       1.67899257      -1.53624227
H        0.49825836      -1.57595854      -1.26591880
H        2.74047307       2.05962594      -2.45574487
H       -1.33712458       0.50744885       1.60311819
17
Properties=species:S:1:pos:R:3 relative_energy_eV=-0.7154591588150652 branch=right pbc="F F F"
C       -0.56544520      -0.99064408       2.33076297
C       -1.26793569      -1.82579869       1.29090336
O       -1.90128877      -2.83531130       1.54395443
P        1.12805747       1.57203249      -1.13034795
O        1.19748987       0.20679289      -1.84663069
O        1.15977324       1.67307931       0.36006252
O       -0.17552421       2.36804284      -1.77705830
C       -1.07359175      -1.29402695      -0.13955087
O       -1.94578842      -0.63770267      -0.68896717
O        0.10497839      -1.61086293      -0.58710339
O        2.32431577       2.52596653      -1.75338492
H       -0.77851566      -1.34105736       3.33747939
H        0.50870667      -1.03214148       2.13517456
H       -0.94110598       1.78679378      -1.66123024
H        0.54457748      -0.84166694      -1.22448837
H        2.70188302       2.11648487      -2.53990937
H       -0.85280178       0.06136913       2.21963675
17
Properties=species:S:1:pos:R:3 relative_energy_eV=-0.7736864571306796 branch=right pbc="F F F"
C       -0.31681670      -1.34688797       2.30544154
C       -1.27087200      -1.80084816       1.22984301
O       -2.12484146      -2.64927594       1.40843162
P        1.04060206       1.72040493      -1.10966679
O        1.17155642       0.29438358      -1.72702147
O        1.26592952       1.93388539       0.34181633
O       -0.38909614       2.34190118      -1.61405041
C       -1.06997631      -1.09284336      -0.11131427
O       -1.86430765      -0.21842509      -0.47159663
O       -0.00342935      -1.50858270      -0.68470632
O        2.08575139       2.62810478      -2.00207397
H       -0.53405185      -1.84980166       3.24212119
H        0.70790050      -1.55415847       1.99159564
H       -1.09865904       1.73902290      -1.34605635
H        0.58695213      -0.56962347      -1.24317708
H        2.37327875       2.09272407      -2.75488922
H       -0.39214139      -0.25864145       2.41462057
17
Properties=species:S:1:pos:R:3 relative_energy_eV=-0.9436612934186996 branch=right pbc="F F F"
C       -0.16793206      -1.50419254       2.20700574
C       -1.30769401      -1.71637787       1.24865969
O       -2.29539108      -2.36545293       1.54573214
P        1.02122049       1.82050552      -1.04628946
O        1.37403326       0.38316434      -1.66149843
O        1.49325726       2.09361954       0.33057599
O       -0.52622634       2.10687290      -1.31575072
C       -1.14718897      -1.02379099      -0.11549105
O       -1.88025048      -0.03231338      -0.32536720
O       -0.26634971      -1.51488395      -0.87212906
O        1.73041240       2.77591620      -2.16829063
H       -0.36159821      -2.02716092       3.14134843
H        0.76256194      -1.85912537       1.75499088
H       -1.10216543       1.34735026      -1.02516922
H        0.74623840      -0.35811303      -1.38640655
H        2.12980104       2.21214834      -2.83848733
H       -0.03495468      -0.43683629       2.39589525
17
Properties=species:S:1:pos:R:3 relative_energy_eV=-0.9633362882523215 branch=right pbc="F F F"
C       -0.22182572      -1.44193037       2.24291189
C       -1.31204784      -1.70595682       1.24175190
O       -2.24644128      -2.45316731       1.46828847
P        1.05668018       1.75524586      -1.04203701
O        1.41083675       0.35721365      -1.74270241
O        1.48905882       1.93860725       0.36215931
O       -0.48004257       2.04928435      -1.35765475
C       -1.13915770      -1.00197764      -0.11665719
O       -1.86762274      -0.00560089      -0.33277742
O       -0.24704215      -1.49818737      -0.85459259
O        1.80977872       2.79054797      -2.05655812
H       -0.50761159      -1.81082758       3.22534648
H        0.67868480      -1.95836387       1.90363703
H       -1.06881154       1.31861768      -1.00992247
H        0.77666811      -0.37615583      -1.47029641
H        2.01388951       2.32416483      -2.87425231
H        0.02277805      -0.38018454       2.28268753
17
Properties=species:S:1:pos:R:3 relative_energy_eV=-0.9764999187536887 branch=right pbc="F F F"
C       -0.21214479      -1.38243207       2.23812736
C       -1.32025605      -1.67293727       1.26564925
O       -2.27052036      -2.38272937       1.54390346
P        1.10860269       1.65551636      -1.04774366
O        1.41237638       0.27281345      -1.80131261
O        1.55476611       1.76708085       0.35990726
O       -0.42056789       2.00253661      -1.36118007
C       -1.15978800      -1.00558681      -0.11395621
O       -1.85958608       0.01483836      -0.31820064
O       -0.30887270      -1.53806173      -0.87268184
O        1.89879772       2.72658322      -1.99109294
H       -0.42541651      -1.82724061       3.20660653
H        0.72456648      -1.77456965       1.83850702
H       -1.02701493       1.29541583      -0.98882891
H        0.77985439      -0.44643336      -1.49911426
H        1.76947462       2.50043761      -2.92028918
H       -0.07650115      -0.30390961       2.33103792
17
Properties=species:S:1:pos:R:3 relative_energy_eV=-0.9814703133415605 branch=right pbc="F F F"
C       -0.21855386      -1.39449936       2.24523797
C       -1.32687892      -1.68096885       1.27106776
O       -2.26437286      -2.41318604       1.53533518
P        1.16756488       1.62200663      -1.06620239
O        1.38116903       0.26089036      -1.88606508
O        1.71963296       1.67524601       0.30695129
O       -0.36834401       2.02306865      -1.25591035
C       -1.17472153      -0.98707518      -0.09566643
O       -1.84411160       0.06150840      -0.26401464
O       -0.35825889      -1.53079984      -0.88022360
O        1.91841174       2.70435316      -2.02777946
H       -0.40798450      -1.88421996       3.19666401
H        0.72597822      -1.74178210       1.82195366
H       -0.98379846       1.30871913      -0.90595028
H        0.74911982      -0.45115602      -1.58422897
H        1.56390504       2.64671512      -2.92305978
H       -0.11099087      -0.31750673       2.38123925
17
Properties=species:S:1:pos:R:3 relative_energy_eV=-0.98398281619302 branch=right pbc="F F F"
C       -0.23788775      -1.38769308       2.27073499
C       -1.31566748      -1.69742669       1.27030188
O       -2.23575540      -2.46023490       1.50909375
P        1.21226297       1.58098305      -1.10622435
O        1.28823884       0.24752610      -1.98757330
O        1.86892403       1.55296565       0.22108122
O       -0.31317388       2.06697973      -1.15956720
C       -1.16301429      -0.97948002      -0.08337971
O       -1.81809470       0.08192176      -0.22426721
O       -0.36171052      -1.52099200      -0.88564505
O        1.93893108       2.66764666      -2.08142008
H       -0.39662603      -1.94311850       3.19121557
H        0.73633805      -1.62785815       1.84284371
H       -0.93938332       1.35210174      -0.83800216
H        0.67257024      -0.46043107      -1.63206937
H        1.45447882       2.74435498      -2.91174635
H       -0.22266794      -0.31594120       2.47398383
