17
Properties=species:S:1:pos:R:3 relative_energy_eV=1.3457876541178848 branch=ts pbc="F F F"
C        0.33026381      -1.76316874       0.09303092
C       -0.68834688      -1.03800630       0.64351722
O       -0.76140773       0.23945474       0.79599783
P        1.83192341       2.26328990      -1.09543744
O        1.94806656       3.72666871      -1.33293301
O        2.86283614       1.27445824      -0.70525000
O        0.73749857       1.58428291      -2.11860704
C       -1.89866588      -1.81461048       1.13702955
O       -2.94375324      -1.33481205       1.52670267
O       -1.75235852      -3.18465069       1.12878861
O        0.66443558       2.18499278       0.38964618
H        1.20802084      -1.28180138      -0.31629693
H        0.29898444      -2.84020860       0.03795149
H        0.32551868       2.30211222      -2.61376878
H       -2.60223214      -3.49765143       1.47397363
H       -0.22785763       1.92606426       0.06378389
H        0.74461851       1.26754353       0.77578258
