17
Properties=species:S:1:pos:R:3 relative_energy_eV=0.41108045032888185 branch=ts pbc="F F F"
C        0.33618021      -0.81201873       1.02887451
C        0.30617121      -1.06595185      -0.28490015
O       -0.03596975      -0.24530004      -1.29985567
P       -0.52190974       1.35084883      -1.20511950
O       -0.76912558       1.76874782      -2.60284970
O       -1.76204471       1.32756482      -0.22130254
O        0.65296505       2.07300449      -0.42632601
C        0.67963758      -2.40719033      -0.81150596
O        0.68378053      -2.74417556      -1.97653483
O        1.04209041      -3.29824065       0.17062200
O       -0.57783265       2.33052697       1.71485043
H        0.07499407       0.13788263       1.46150219
H        0.63741699      -1.59898202       1.70059704
H        0.25242238       2.27488168       0.55697398
H        1.24791440      -4.10668586      -0.32127868
H       -1.39714016       1.76764588       0.69775350
H       -0.84953882       3.24745198       1.81850306
