16
Properties=species:S:1:pos:R:3 relative_energy_eV=0.0 branch=left pbc="F F F"
O        2.55686756       1.35229214       0.94491374
C        1.43337576       0.91465114       0.38852295
C        1.47294534      -0.42579200      -0.03283413
O        2.64934493      -0.99978153      -0.12451730
C        0.17512114      -1.15825328      -0.33083172
O       -0.81978992      -0.53177142       0.45744841
P       -2.37207651      -0.33810770      -0.15207398
O       -2.54836835      -1.28936191      -1.29523654
O       -3.27066007      -0.21253975       1.04492701
O       -2.20158629       1.21037070      -0.80169452
H        0.79208033       1.75852436       0.12128529
H        1.34668544       0.52230466       0.53705439
H        3.14870667       0.54786887       0.78579693
H        0.29314584      -2.19367361      -0.02327816
H       -0.06472135      -1.13800228      -1.39214600
H       -2.73722396       1.77407681      -0.23032943
16
Properties=species:S:1:pos:R:3 relative_energy_eV=0.00013433150525088422 branch=left pbc="F F F"
O        2.55728929       1.35261783       0.94474484
C        1.43311457       0.91545682       0.38885875
C        1.47296859      -0.42539310      -0.03231966
O        2.64881987      -0.99952299      -0.12571130
C        0.17446135      -1.15796843      -0.32933841
O       -0.82090071      -0.53182808       0.45853651
P       -2.37226571      -0.33843907      -0.15292764
O       -2.54979049      -1.28850791      -1.29673463
O       -3.27097591      -0.21450516       1.04398144
O       -2.19951136       1.20928629      -0.80236528
H        0.79095675       1.75914418       0.12208665
H        1.34753242       0.52328629       0.53498438
H        3.14914444       0.54799509       0.78554317
H        0.29170012      -2.19357391      -0.02226024
H       -0.06620006      -1.13790477      -1.39060484
H       -2.73249651       1.77266213      -0.22946684
16
Properties=species:S:1:pos:R:3 relative_energy_eV=0.0009837893303483725 branch=left pbc="F F F"
O        2.55690349       1.36242567       0.92709892
C        1.43107066       0.91608269       0.38448923
C        1.47148904      -0.42907790      -0.02369542
O        2.64977217      -1.00385137      -0.10316860
C        0.17415462      -1.15860334      -0.33193597
O       -0.82459468      -0.54169544       0.45893969
P       -2.37487111      -0.34283460      -0.15370277
O       -2.55470490      -1.28983951      -1.30004545
O       -3.27422830      -0.21155438       1.04226440
O       -2.19385221       1.20510131      -0.80213353
H        0.78041290       1.75574808       0.12762341
H        1.34565243       0.52451447       0.53449980
H        3.14814923       0.55390070       0.77936618
H        0.28952204      -2.19651388      -0.03225418
H       -0.06294313      -1.12518177      -1.39365105
H       -2.70808549       1.77418454      -0.21668800
16
Properties=species:S:1:pos:R:3 relative_energy_eV=0.001801007671019761 branch=left pbc="F F F"
O        2.54444494       1.36601569       0.93008225
C        1.42020878       0.91683430       0.38543306
C        1.46612011      -0.42601497      -0.02666151
O        2.64673736      -0.99303197      -0.11680543
C        0.17270924      -1.16569083      -0.32681620
O       -0.82891574      -0.55406579       0.46438483
P       -2.37537084      -0.34245862      -0.15775011
O       -2.55242049      -1.28855310      -1.30474305
O       -3.27784392      -0.20856804       1.03509113
O       -2.18700594       1.20250261      -0.80896873
H        0.76668056       1.75402376       0.12567395
H        1.33818377       0.52473185       0.53374866
H        3.13980449       0.56198157       0.77695671
H        0.29890619      -2.20219409      -0.02704932
H       -0.06676623      -1.13969862      -1.38799643
H       -2.65162549       1.78699164      -0.19757322
16
Properties=species:S:1:pos:R:3 relative_energy_eV=0.002140236676495988 branch=left pbc="F F F"
O        2.53760282       1.36947354       0.93124573
C        1.41644702       0.91409984       0.38621899
C        1.46632220      -0.42876816      -0.02312763
O        2.64732720      -0.99551403      -0.10815791
C        0.17411360      -1.16586790      -0.33012504
O       -0.82685055      -0.55507202       0.46351446
P       -2.37333930      -0.34165838      -0.15693924
O       -2.55407987      -1.28762954      -1.30345985
O       -3.27403024      -0.20581332       1.03722878
O       -2.18522428       1.20403592      -0.81024246
H        0.76154060       1.74659311       0.11421858
H        1.33535211       0.52220287       0.53916415
H        3.13673215       0.57003048       0.77468126
H        0.29824885      -2.20402649      -0.03401045
H       -0.06436405      -1.13598373      -1.39194497
H       -2.64195145       1.78670324      -0.19125786
16
Properties=species:S:1:pos:R:3 relative_energy_eV=0.0027814767381642014 branch=left pbc="F F F"
O        2.53000202       1.36669083       0.94140045
C        1.41224289       0.91421863       0.38564233
C        1.46378168      -0.42478791      -0.03021307
O        2.64610460      -0.98532150      -0.12229610
C        0.17283600      -1.17029566      -0.32838966
O       -0.82832375      -0.56149125       0.46485458
P       -2.37346562      -0.34184610      -0.15696031
O       -2.55725148      -1.28286556      -1.30685109
O       -3.27376797      -0.20656169       1.03724942
O       -2.17582961       1.20090538      -0.80727091
H        0.76543146       1.74902891       0.10340387
H        1.32840062       0.52183797       0.54109025
H        3.13304086       0.57126775       0.77939248
H        0.30365394      -2.20458674      -0.02264688
H       -0.06753963      -1.14518181      -1.39012567
H       -2.62546925       1.79179419      -0.19127308
16
Properties=species:S:1:pos:R:3 relative_energy_eV=0.005666247307090089 branch=left pbc="F F F"
O        2.51401099       1.37595939       0.94838351
C        1.41171084       0.91973127       0.36585350
C        1.46247011      -0.42778939      -0.02360636
O        2.64392661      -0.99510477      -0.08468227
C        0.17572919      -1.17348561      -0.33951099
O       -0.83065901      -0.58442006       0.46064396
P       -2.37597560      -0.34483391      -0.14753723
O       -2.58036242      -1.28036961      -1.29901423
O       -3.26316917      -0.20909084       1.05661679
O       -2.16102683       1.20406899      -0.78949063
H        0.79358546       1.75939561       0.03642731
H        1.32106209       0.53030163       0.52822939
H        3.11346471       0.57148976       0.82589531
H        0.31196846      -2.21331559      -0.05597932
H       -0.06148397      -1.13704394      -1.40097266
H       -2.62140481       1.79731247      -0.18424954
16
Properties=species:S:1:pos:R:3 relative_energy_eV=0.009473431146034272 branch=left pbc="F F F"
O        2.48214306       1.37868781       0.97041243
C        1.41315438       0.92204923       0.32756352
C        1.47344622      -0.43027266      -0.03488970
O        2.64931070      -1.00864749      -0.02686157
C        0.18261406      -1.17720127      -0.35813200
O       -0.81686279      -0.59812566       0.45874921
P       -2.37006919      -0.34327877      -0.13266065
O       -2.60269165      -1.26984512      -1.28494911
O       -3.24253384      -0.20459340       1.08081382
O       -2.16878413       1.20143751      -0.77643851
H        0.82067054       1.75832993      -0.04958769
H        1.30912480       0.53673959       0.49235173
H        3.08299050       0.57038131       0.90475577
H        0.32251479      -2.22047648      -0.09213683
H       -0.06249926      -1.11792149      -1.41741066
H       -2.61868160       1.79554230      -0.16457328
16
Properties=species:S:1:pos:R:3 relative_energy_eV=0.011969181741733337 branch=left pbc="F F F"
O        2.46610593       1.38329597       0.97940859
C        1.41689525       0.92052349       0.30936091
C        1.47998506      -0.43716897      -0.03458811
O        2.65313622      -1.01970589       0.01857786
C        0.18461854      -1.17361156      -0.37497109
O       -0.81110199      -0.59568493       0.44996668
P       -2.37094036      -0.34486806      -0.12487236
O       -2.60280741      -1.27286685      -1.27747132
O       -3.22763305      -0.19883277       1.10123650
O       -2.17729284       1.20301198      -0.77364250
H        0.84362244       1.75430905      -0.10182372
H        1.30744304       0.53733020       0.47870743
H        3.06511798       0.57281517       0.94464852
H        0.31775803      -2.22159011      -0.12151435
H       -0.06711120      -1.09838124      -1.43069423
H       -2.62394908       1.78422982      -0.14532244
16
Properties=species:S:1:pos:R:3 relative_energy_eV=0.017164643399155466 branch=left pbc="F F F"
O        2.47308743       1.39222373       0.95796900
C        1.43021787       0.92213665       0.28201217
C        1.48181843      -0.45072863      -0.00674326
O        2.63382047      -1.06158433       0.11468804
C        0.18434212      -1.15929252      -0.38537927
O       -0.80658824      -0.60014303       0.45717129
P       -2.36328554      -0.35261152      -0.11594662
O       -2.59299264      -1.29115313      -1.26039280
O       -3.22194365      -0.20218022       1.10654453
O       -2.18577675       1.20078061      -0.75262694
H        0.88504644       1.75267485      -0.17691669
H        1.30840896       0.54758709       0.46162549
H        3.05446785       0.56920736       0.97087737
H        0.29572219      -2.22181271      -0.18473686
H       -0.05622729      -1.01443128      -1.43828651
H       -2.66627114       1.76213237      -0.13285319
16
Properties=species:S:1:pos:R:3 relative_energy_eV=0.023689605830440996 branch=left pbc="F F F"
O        2.47493411       1.39954296       0.94358409
C        1.43771999       0.92125684       0.26527001
C        1.48280719      -0.45860016       0.00301294
O        2.62045273      -1.08257735       0.16983438
C        0.18857383      -1.14511851      -0.40759505
O       -0.79261736      -0.57169770       0.43910220
P       -2.36225406      -0.35555148      -0.10652795
O       -2.59742691      -1.29776294      -1.24713938
O       -3.20224484      -0.21757934       1.13190506
O       -2.20328231       1.19811053      -0.75150186
H        0.89355280       1.73756194      -0.21092732
H        1.30656038       0.55167238       0.45558757
H        3.03607743       0.56199809       1.00806319
H        0.28298232      -2.20983589      -0.21470372
H       -0.03598918      -0.99501488      -1.46311295
H       -2.67599957       1.75640081      -0.11784570
16
Properties=species:S:1:pos:R:3 relative_energy_eV=0.035563025914598256 branch=left pbc="F F F"
O        2.48005865       1.40161993       0.92911816
C        1.44390912       0.91452605       0.25459296
C        1.49666807      -0.47103344       0.02636157
O        2.62076584      -1.10445282       0.25834174
C        0.20138533      -1.13740547      -0.41890204
O       -0.78964122      -0.56235156       0.41844007
P       -2.37243302      -0.35995470      -0.09428377
O       -2.62104724      -1.30041927      -1.23305437
O       -3.20346043      -0.23738494       1.15233329
O       -2.22951654       1.19627994      -0.74282708
H        0.88403613       1.72254721      -0.22733803
H        1.31974940       0.54736740       0.44188028
H        3.04811757       0.56961556       0.98879003
H        0.26154241      -2.20795969      -0.25732006
H        0.01544939      -0.94747662      -1.47398420
H       -2.70173683       1.76928769      -0.12514356
16
Properties=species:S:1:pos:R:3 relative_energy_eV=0.04909594527998706 branch=left pbc="F F F"
O        2.45012864       1.40745887       0.94831406
C        1.43619310       0.90234907       0.25465387
C        1.50505187      -0.48093765       0.02568627
O        2.64153024      -1.08571478       0.24113193
C        0.20273643      -1.14435486      -0.43091811
O       -0.77369083      -0.51997919       0.37831753
P       -2.36799136      -0.35388617      -0.10310793
O       -2.63655230      -1.30318314      -1.22920248
O       -3.14061966      -0.25262580       1.17922024
O       -2.27449032       1.19854820      -0.75982301
H        0.88119634       1.69916870      -0.25404812
H        1.31616039       0.53267539       0.44900146
H        3.02196702       0.58404176       1.03543931
H        0.22700875      -2.21483162      -0.24566841
H        0.02969234      -0.96416456      -1.49112543
H       -2.66447384       1.78824086      -0.10086583
16
Properties=species:S:1:pos:R:3 relative_energy_eV=0.09156135651574004 branch=left pbc="F F F"
O        2.43724226       1.39663334       0.99188977
C        1.46081933       0.92144321       0.21952403
C        1.49181401      -0.46281340      -0.00097053
O        2.60575152      -1.09858636       0.21969380
C        0.19419823      -1.13154117      -0.43339707
O       -0.77943032      -0.47994703       0.35639795
P       -2.38337070      -0.36564697      -0.09451298
O       -2.63301462      -1.30765531      -1.23112102
O       -3.11608979      -0.28521326       1.21664006
O       -2.36506264       1.17744589      -0.78285790
H        1.02650555       1.73654455      -0.36132202
H        1.29364728       0.55599252       0.41909636
H        2.96097318       0.55515769       1.13886155
H        0.20874497      -2.19331442      -0.21422291
H        0.05890925      -0.97732321      -1.49956070
H       -2.60779038       1.75162877      -0.04713321
16
Properties=species:S:1:pos:R:3 relative_energy_eV=0.1333891997783212 branch=left pbc="F F F"
O        2.42786591       1.37661141       1.05306492
C        1.51923797       0.94532652       0.18089819
C        1.49340754      -0.44101436      -0.02314481
O        2.57602503      -1.11226511       0.24824631
C        0.16741761      -1.08716545      -0.45559449
O       -0.78538523      -0.41307546       0.33465492
P       -2.41009322      -0.39514809      -0.08940131
O       -2.62268127      -1.36150917      -1.21372883
O       -3.15577203      -0.34584665       1.21377837
O       -2.45773182       1.14037408      -0.75402875
H        1.23882360       1.76126980      -0.48349151
H        1.31017878       0.60128806       0.36340338
H        2.91389398       0.52075907       1.24981546
H        0.21676750      -2.14272988      -0.21001661
H       -0.02267276      -0.98159062      -1.52501216
H       -2.55543406       1.72752085       0.00756167
16
Properties=species:S:1:pos:R:3 relative_energy_eV=0.1626697488645732 branch=left pbc="F F F"
O        2.44660447       1.37642604       1.05964674
C        1.54678787       0.94385304       0.16885742
C        1.50104429      -0.42359571      -0.04809914
O        2.54621717      -1.12348268       0.26803410
C        0.17006883      -1.06786818      -0.46784415
O       -0.79332832      -0.40904422       0.31512311
P       -2.41619121      -0.40639886      -0.09282126
O       -2.62071737      -1.38989345      -1.20420709
O       -3.15727091      -0.35956606       1.21154945
O       -2.48571330       1.14677510      -0.74624082
H        1.27521272       1.74346370      -0.50021655
H        1.31209828       0.61271528       0.35034917
H        2.90930720       0.52140415       1.29085726
H        0.21955139      -2.11412516      -0.20706282
H       -0.04835211      -0.97552840      -1.52472988
H       -2.55147137       1.71767050       0.02380897
16
Properties=species:S:1:pos:R:3 relative_energy_eV=0.20676001862375415 branch=left pbc="F F F"
O        2.56171545       1.38129044       0.99237922
C        1.66356039       0.95874635       0.10207442
C        1.48473312      -0.43587660       0.02655198
O        2.46411018      -1.17493770       0.46417828
C        0.12510611      -1.00042815      -0.43686484
O       -0.84656485      -0.43588245       0.42266017
P       -2.47721453      -0.46863827      -0.06056653
O       -2.61438117      -1.42612700      -1.20560135
O       -3.31124899      -0.49515894       1.18785639
O       -2.53376038       1.07768504      -0.72829072
H        1.54460840       1.74049977      -0.62442257
H        1.39096512       0.67708448       0.27543371
H        2.96053826       0.51275660       1.29621558
H        0.17599907      -2.08934520      -0.33278699
H       -0.06409312      -0.72934435      -1.48422817
H       -2.67022498       1.70048174       0.00241346
16
Properties=species:S:1:pos:R:3 relative_energy_eV=0.23458565211694804 branch=left pbc="F F F"
O        2.71891829       1.36883877       0.90927759
C        1.77698262       0.94733350       0.06083852
C        1.44986764      -0.40756968       0.10615313
O        2.34136470      -1.18706663       0.67174697
C        0.10857460      -0.91716195      -0.42436353
O       -0.90599778      -0.49727720       0.47048995
P       -2.51567892      -0.52101593      -0.05846956
O       -2.63686340      -1.46319063      -1.21826044
O       -3.36889043      -0.54681888       1.17645505
O       -2.58687122       1.02446976      -0.71220670
H        1.67899058       1.68278189      -0.73392716
H        1.48831901       0.70895650       0.25260092
H        3.03157531       0.49009813       1.29670448
H        0.16142692      -2.00552037      -0.46875273
H       -0.05343941      -0.51486737      -1.42693990
H       -2.83443020       1.63081643      -0.00434747
16
Properties=species:S:1:pos:R:3 relative_energy_eV=0.2550024246229441 branch=left pbc="F F F"
O        2.92169529       1.29721798       0.78708833
C        1.91449860       0.92667273      -0.01068345
C        1.41284989      -0.36944158       0.19355866
O        2.14373164      -1.15960723       0.95222942
C        0.08881703      -0.80380678      -0.41695341
O       -0.95399331      -0.57109688       0.50500860
P       -2.55289300      -0.57658270      -0.05947079
O       -2.65480919      -1.51807059      -1.22127223
O       -3.41394669      -0.60774417       1.17000335
O       -2.63506827       0.98168531      -0.69355149
H        1.81350245       1.62455225      -0.83220622
H        1.62601137       0.75152752       0.20449506
H        3.07551273       0.42880852       1.30038245
H        0.17922377      -1.86895444      -0.61587985
H       -0.05425759      -0.25930625      -1.35615991
H       -3.05702640       1.51695352      -0.00959322
16
Properties=species:S:1:pos:R:3 relative_energy_eV=0.256784170102037 branch=left pbc="F F F"
O        2.95138738       1.28111598       0.76951955
C        1.93574906       0.91943855      -0.01927994
C        1.40462248      -0.35926325       0.20910370
O        2.10994369      -1.14388256       0.99784360
C        0.08769591      -0.78697974      -0.41664838
O       -0.95694266      -0.57428779       0.50784945
P       -2.55641533      -0.58586765      -0.05947135
O       -2.65299494      -1.52999052      -1.22045791
O       -3.42366682      -0.61383324       1.16674849
O       -2.63697520       0.97647282      -0.68567531
H        1.83684090       1.61146690      -0.84399278
H        1.64285410       0.75279504       0.18976072
H        3.08175522       0.41668117       1.29560404
H        0.18402503      -1.84785960      -0.64406826
H       -0.05986360      -0.21649819      -1.33946283
H       -3.09416694       1.49329949      -0.01037811
16
Properties=species:S:1:pos:R:3 relative_energy_eV=0.257487371469324 branch=left pbc="F F F"
O        2.95730628       1.27683501       0.76573271
C        1.94037494       0.91775758      -0.02282273
C        1.40099355      -0.35751172       0.21443754
O        2.09725105      -1.13696850       1.01582373
C        0.08616696      -0.78198148      -0.41686045
O       -0.95870504      -0.57842572       0.50882713
P       -2.55547611      -0.58727874      -0.05872773
O       -2.64925434      -1.53374700      -1.21743987
O       -3.42748949      -0.61386220       1.16382057
O       -2.63695894       0.97490702      -0.68261073
H        1.84739471       1.61199113      -0.84878423
H        1.64759767       0.75005016       0.18419767
H        3.08989775       0.41217929       1.29248041
H        0.18034311      -1.83984936      -0.65583501
H       -0.05890321      -0.20446920      -1.33568746
H       -3.10669070       1.48318121      -0.00955712
16
Properties=species:S:1:pos:R:3 relative_energy_eV=0.2579447806783719 branch=left pbc="F F F"
O        2.96045269       1.27594412       0.76426369
C        1.94222589       0.91814190      -0.02359108
C        1.40117272      -0.35651355       0.21474135
O        2.09423842      -1.13514181       1.01948568
C        0.08547159      -0.78156934      -0.41576574
O       -0.95802851      -0.58108842       0.51393922
P       -2.55518326      -0.58911610      -0.05813193
O       -2.64314428      -1.53513045      -1.21841390
O       -3.43029806      -0.61353586       1.16282603
O       -2.63397491       0.97488665      -0.68090763
H        1.85074408       1.60985432      -0.85139736
H        1.64840927       0.75278804       0.18372571
H        3.09008765       0.41176216       1.29166402
H        0.17213560      -1.83900093      -0.66227942
H       -0.05997531      -0.20023104      -1.33252197
H       -3.11048535       1.48075779      -0.01064230
16
Properties=species:S:1:pos:R:3 relative_energy_eV=0.2604970977990888 branch=left pbc="F F F"
O        2.96304570       1.27535279       0.75366797
C        1.94260663       0.91135890      -0.02894511
C        1.40049113      -0.36182456       0.21739264
O        2.09439466      -1.14013325       1.02062077
C        0.08012944      -0.77551568      -0.41115503
O       -0.95584715      -0.57916660       0.52664578
P       -2.54563385      -0.58918791      -0.05323133
O       -2.62020830      -1.53273937      -1.21549355
O       -3.43783542      -0.62275182       1.15377810
O       -2.61826120       0.97284311      -0.67589662
H        1.84959960       1.59941072      -0.85969379
H        1.64968071       0.74726315       0.18552857
H        3.08627198       0.42129364       1.29780807
H        0.15648580      -1.82812490      -0.67612983
H       -0.07568843      -0.18274697      -1.31719301
H       -3.11538314       1.47747633      -0.02070925
16
Properties=species:S:1:pos:R:3 relative_energy_eV=0.2632868253531342 branch=left pbc="F F F"
O        2.95727616       1.27602158       0.75397814
C        1.94081967       0.90567358      -0.03136950
C        1.40341186      -0.36464117       0.21720688
O        2.09789412      -1.14536225       1.01577758
C        0.07781134      -0.76774056      -0.40330421
O       -0.95553530      -0.58065776       0.54339879
P       -2.54466158      -0.59268967      -0.05242655
O       -2.60411953      -1.53506652      -1.21836243
O       -3.44459737      -0.62826568       1.15007992
O       -2.60770428       0.97473901      -0.67268357
H        1.84717965       1.58410256      -0.87072674
H        1.64617934       0.74246442       0.17959555
H        3.08602602       0.42497825       1.29844720
H        0.15078379      -1.81779671      -0.67997072
H       -0.07787540      -0.16255115      -1.30445776
H       -3.11904037       1.47959965      -0.02818818
16
Properties=species:S:1:pos:R:3 relative_energy_eV=0.268646978885954 branch=left pbc="F F F"
O        2.94616696       1.28388695       0.75737725
C        1.93951771       0.90340022      -0.03634911
C        1.40459396      -0.37245493       0.22066448
O        2.10369751      -1.15707449       1.00626554
C        0.07573246      -0.76654653      -0.39570086
O       -0.95766441      -0.58577820       0.54559320
P       -2.54198017      -0.59227758      -0.05040729
O       -2.59933530      -1.53191146      -1.21666694
O       -3.45334798      -0.63156851       1.14127938
O       -2.60642384       0.97087921      -0.67106783
H        1.84941417       1.56557547      -0.88687944
H        1.64402235       0.74814899       0.18315424
H        3.09261980       0.42928021       1.29347266
H        0.14685048      -1.81211218      -0.68174778
H       -0.06896145      -0.13890087      -1.27841407
H       -3.12105405       1.48026127      -0.03357904
16
Properties=species:S:1:pos:R:3 relative_energy_eV=0.30155082050259807 branch=left pbc="F F F"
O        2.93426214       1.32513338       0.75607837
C        1.92231419       0.89187177      -0.01262063
C        1.42441474      -0.38371768       0.24497769
O        2.16313794      -1.17362713       0.98298978
C        0.07527957      -0.75853657      -0.37736366
O       -0.97387128      -0.59484703       0.55949787
P       -2.56117013      -0.59472225      -0.06235694
O       -2.62024602      -1.53426147      -1.23074925
O       -3.47243270      -0.62500651       1.13233763
O       -2.62452781       0.97033920      -0.68453652
H        1.88011053       1.47663791      -0.93042335
H        1.63503215       0.73422103       0.25226883
H        3.13285565       0.47445919       1.26579643
H        0.13155715      -1.79127033      -0.72336598
H       -0.06573589      -0.09841826      -1.24333665
H       -3.12713196       1.47455234      -0.03219927
16
Properties=species:S:1:pos:R:3 relative_energy_eV=0.35154409044844215 branch=left pbc="F F F"
O        2.92672236       1.32916524       0.75018615
C        1.92221869       0.86863829      -0.00187500
C        1.41576596      -0.38568652       0.26840667
O        2.21274573      -1.16771990       0.96610332
C        0.06377191      -0.74986221      -0.37756180
O       -0.98767919      -0.60777340       0.53999095
P       -2.56644083      -0.59752239      -0.06799165
O       -2.62749252      -1.53700667      -1.23515446
O       -3.47177592      -0.61535547       1.12824734
O       -2.63445218       0.96568250      -0.68424175
H        1.87638698       1.40724287      -0.93013878
H        1.62894148       0.76081049       0.27161992
H        3.17984123       0.50470075       1.28034141
H        0.11500232      -1.76353212      -0.74307031
H       -0.06963357      -0.09319832      -1.23798515
H       -3.13007411       1.47422441      -0.02988256
16
Properties=species:S:1:pos:R:3 relative_energy_eV=0.4417683965075412 branch=left pbc="F F F"
O        2.97254509       1.34191444       0.68202362
C        1.90432931       0.84893157       0.01493027
C        1.40403476      -0.44178076       0.28105989
O        2.08075512      -1.29860495       0.97761481
C        0.06868466      -0.75387756      -0.41118985
O       -0.97812748      -0.57352115       0.51649175
P       -2.57136288      -0.59057132      -0.07265270
O       -2.65359172      -1.54252530      -1.22772914
O       -3.45148299      -0.62010203       1.14391806
O       -2.65851356       0.97037755      -0.70570707
H        1.77262257       1.41191394      -0.91338505
H        1.66496906       0.68702500       0.31135458
H        3.33013650       0.70972298       1.35406985
H        0.11380125      -1.78384160      -0.78436469
H       -0.01123163      -0.03960514      -1.24139710
H       -3.13371984       1.46735194      -0.02804293
16
Properties=species:S:1:pos:R:3 relative_energy_eV=0.5072754680113576 branch=left pbc="F F F"
O        2.96012466       1.36675141       0.65570706
C        1.92190763       0.80577998      -0.00564771
C        1.42496863      -0.47999218       0.27337486
O        1.97225004      -1.39027686       1.01579269
C        0.07360899      -0.73735283      -0.42611272
O       -0.97305275      -0.56637512       0.49381199
P       -2.56401541      -0.59274429      -0.06945601
O       -2.65115773      -1.54314211      -1.22413439
O       -3.43330208      -0.61596109       1.15459930
O       -2.67281269       0.96108574      -0.70319609
H        1.71480812       1.44801205      -0.84228036
H        1.72538478       0.64630295       0.30825697
H        3.37066176       0.81510598       1.34871978
H        0.11035920      -1.75978111      -0.78493551
H        0.01068866      -0.04102877      -1.26591429
H       -3.13657360       1.47642393      -0.03159122
16
Properties=species:S:1:pos:R:3 relative_energy_eV=0.5760985624510795 branch=left pbc="F F F"
O        2.94995490       1.41535851       0.69645523
C        1.93261197       0.80890658       0.00293374
C        1.41713670      -0.48017970       0.27900585
O        1.91006357      -1.40942348       1.04209358
C        0.06580344      -0.72534595      -0.45840639
O       -0.96264076      -0.54852435       0.48324104
P       -2.55907688      -0.58802885      -0.06410290
O       -2.62673697      -1.54595862      -1.21636483
O       -3.40981452      -0.62152239       1.17093897
O       -2.67653152       0.96520053      -0.70736901
H        1.62036392       1.42145799      -0.82835354
H        1.84940836       0.59022745       0.29822266
H        3.40392364       0.83710824       1.35073345
H        0.10248748      -1.75882360      -0.79642690
H       -0.02600249      -0.05098366      -1.32022123
H       -3.13710255       1.48333900      -0.03538530
16
Properties=species:S:1:pos:R:3 relative_energy_eV=0.7950496675148315 branch=ts pbc="F F F"
O        2.93275589       1.39801992       0.70888727
C        1.89284795       0.80465863       0.01362204
C        1.41475050      -0.46816761       0.26101301
O        1.89450244      -1.38949504       1.03897304
C        0.07164078      -0.72624152      -0.46096457
O       -0.95977911      -0.53485890       0.47758245
P       -2.54370873      -0.58430001      -0.06131801
O       -2.62403139      -1.54422447      -1.21095172
O       -3.40532541      -0.62511866       1.17006865
O       -2.67855780       0.96321267      -0.70758272
H        1.59471791       1.39669909      -0.84318558
H        2.01456910       0.68623468       0.34361626
H        3.41344429       0.84173059       1.35060866
H        0.10126850      -1.76252947      -0.80674084
H       -0.04399016      -0.05868683      -1.32396564
H       -3.13602488       1.48441436      -0.03685144
16
Properties=species:S:1:pos:R:3 relative_energy_eV=0.33569285536941607 branch=right pbc="F F F"
O        2.94108871       1.40101974       0.72403075
C        1.88110933       0.78747350       0.02990128
C        1.38321239      -0.50005194       0.24263723
O        1.91715187      -1.35642569       1.04304770
C        0.07135247      -0.73224865      -0.46274769
O       -0.95421872      -0.53030309       0.48087004
P       -2.53929648      -0.58417283      -0.06207825
O       -2.62694611      -1.54410062      -1.21132989
O       -3.40442487      -0.62579329       1.16905745
O       -2.68001809       0.96361207      -0.70855028
H        1.57189742       1.37485231      -0.85271598
H        2.13477750       0.84414270       0.34357802
H        3.41898817       0.81307491       1.36869759
H        0.09429782      -1.76116252      -0.81250817
H       -0.04911721      -0.06490939      -1.32599556
H       -3.13554282       1.48487997      -0.03726693
16
Properties=species:S:1:pos:R:3 relative_energy_eV=0.23548871336970478 branch=right pbc="F F F"
O        2.94576442       1.37202604       0.75086963
C        1.88841979       0.81637901       0.03080860
C        1.39879088      -0.46930592       0.23899419
O        1.97606238      -1.28137066       1.05613848
C        0.07011623      -0.74445495      -0.46407944
O       -0.94682605      -0.52276231       0.48741473
P       -2.53502854      -0.58241740      -0.06203619
O       -2.63059174      -1.54191528      -1.21104232
O       -3.39958358      -0.62693998       1.16726370
O       -2.68162526       0.96437543      -0.71150258
H        1.52798465       1.34431070      -0.86731214
H        2.14358833       0.89066067       0.32463561
H        3.38505174       0.72352883       1.38592478
H        0.06996321      -1.77579984      -0.82763531
H       -0.05320641      -0.08097716      -1.33228062
H       -3.13456858       1.48455000      -0.03753376
16
Properties=species:S:1:pos:R:3 relative_energy_eV=0.13036976750663598 branch=right pbc="F F F"
O        2.94877670       1.31583524       0.74023915
C        1.88276853       0.84495785       0.01363653
C        1.40893846      -0.46559015       0.23366092
O        2.03892319      -1.19846424       1.08328954
C        0.09894707      -0.75857403      -0.44890291
O       -0.94605983      -0.53358193       0.48261982
P       -2.53130393      -0.58042463      -0.05820188
O       -2.61980494      -1.53888262      -1.21057260
O       -3.38895471      -0.62251850       1.17556569
O       -2.67675032       0.96465272      -0.71180932
H        1.56165955       1.43108372      -0.87167766
H        2.10535924       0.94835172       0.32267068
H        3.24878881       0.57810882       1.34628850
H        0.06232255      -1.78265629      -0.80421368
H       -0.03851996      -0.11664261      -1.32567540
H       -3.13077895       1.48423217      -0.03829005
16
Properties=species:S:1:pos:R:3 relative_energy_eV=0.0664508197842224 branch=right pbc="F F F"
O        2.95031199       1.22947711       0.72781164
C        1.86767315       0.90143027      -0.01148404
C        1.42862193      -0.44048652       0.22096777
O        2.08939382      -1.12105789       1.10889792
C        0.10788439      -0.78959733      -0.42648142
O       -0.94012139      -0.54260838       0.50196568
P       -2.51952987      -0.58343305      -0.05891793
O       -2.60716508      -1.53567204      -1.20886702
O       -3.37057606      -0.61380258       1.18340742
O       -2.66696645       0.96379880      -0.70905983
H        1.62244713       1.55605503      -0.88074617
H        2.03901302       1.07943412       0.29942158
H        3.07086226       0.36092424       1.29757206
H        0.07767132      -1.81958998      -0.76272325
H       -0.00094826      -0.15983030      -1.31435141
H       -3.12426041       1.48484574      -0.03878572
16
Properties=species:S:1:pos:R:3 relative_energy_eV=-0.09119050638037152 branch=right pbc="F F F"
O        2.93079474       1.20997777       0.76540734
C        1.86345684       0.98187704       0.00389996
C        1.39826325      -0.36035777       0.20010188
O        2.11210091      -1.01949707       1.06871190
C        0.11686300      -0.81150626      -0.41601527
O       -0.92339566      -0.53049161       0.51861186
P       -2.50716295      -0.57833562      -0.05216472
O       -2.60560758      -1.53738059      -1.20435776
O       -3.36456277      -0.61455899       1.18069343
O       -2.65470110       0.96291551      -0.70842519
H        1.60691537       1.54430927      -0.94552520
H        2.06007771       1.13580679       0.31311709
H        3.00020308       0.16526189       1.29365519
H        0.10573094      -1.87172491      -0.73645574
H        0.00152290      -0.18818629      -1.31392905
H       -3.11618720       1.48177823      -0.03869837
16
Properties=species:S:1:pos:R:3 relative_energy_eV=-0.15866909919350292 branch=right pbc="F F F"
O        2.93181449       1.21486798       0.77370330
C        1.86110765       0.97558263       0.00189405
C        1.39025415      -0.34692256       0.18816867
O        2.11894344      -0.99158135       1.06381009
C        0.12365743      -0.80004945      -0.41642071
O       -0.93049201      -0.54364899       0.50352768
P       -2.51058926      -0.58023438      -0.05010601
O       -2.59693380      -1.53796539      -1.19984321
O       -3.36571677      -0.61347100       1.18625171
O       -2.64719742       0.96476100      -0.70712576
H        1.62977453       1.55647245      -0.93461556
H        2.05845635       1.12436027       0.32060403
H        2.95622428       0.12626508       1.26024856
H        0.12711400      -1.85578982      -0.70537016
H       -0.00960921      -0.20373211      -1.31732373
H       -3.11249644       1.48097302      -0.03877563
16
Properties=species:S:1:pos:R:3 relative_energy_eV=-0.5103823128483782 branch=right pbc="F F F"
O        2.92735589       1.36538722       0.78988578
C        1.89700892       0.95989432      -0.02135394
C        1.39508421      -0.29203684       0.16146415
O        2.17205293      -0.94071080       1.08445365
C        0.09327915      -0.74868397      -0.42845244
O       -0.94748105      -0.55441069       0.50873315
P       -2.52638246      -0.58955047      -0.06164302
O       -2.60783911      -1.55477448      -1.19899394
O       -3.37707029      -0.61236284       1.18279950
O       -2.63730611       0.96202207      -0.69826411
H        1.60677067       1.50550584      -0.89123171
H        2.08602435       1.04471098       0.29244702
H        2.95028877      -0.03544603       1.29042442
H        0.19255109      -1.81263728      -0.65800071
H       -0.09577755      -0.21338463      -1.38644839
H       -3.10424818       1.48636483      -0.03719216
16
Properties=species:S:1:pos:R:3 relative_energy_eV=-0.9991517954877054 branch=right pbc="F F F"
O        2.91507748       1.50008705       0.68776243
C        1.93360428       0.97455773      -0.05619394
C        1.45680794      -0.29830189       0.18124640
O        2.25210939      -0.95449677       1.16884541
C        0.11365694      -0.74046997      -0.41537950
O       -0.93322890      -0.53584155       0.52479978
P       -2.53469763      -0.59268366      -0.06440533
O       -2.64243256      -1.55829488      -1.20843325
O       -3.39626404      -0.61852480       1.16356777
O       -2.65276926       0.95376111      -0.70469156
H        1.52046381       1.55698295      -0.90654008
H        2.11547395       0.99821007       0.26198179
H        2.90811732      -0.21072123       1.39279391
H        0.19124184      -1.79409804      -0.69725540
H       -0.12130466      -0.19798787      -1.36264813
H       -3.10154452       1.48770865      -0.03682321
16
Properties=species:S:1:pos:R:3 relative_energy_eV=-1.316197253876453 branch=right pbc="F F F"
O        2.90561741       1.64557781       0.53329731
C        1.91299327       1.02595850      -0.07717595
C        1.46505858      -0.24066567       0.18337657
O        2.15879159      -0.99375342       1.13467893
C        0.17390901      -0.75058485      -0.36989432
O       -0.91360544      -0.54107995       0.51939769
P       -2.52492218      -0.58672437      -0.05495490
O       -2.63365643      -1.54817103      -1.19936937
O       -3.41176354      -0.63333342       1.15740049
O       -2.65303311       0.95128475      -0.72131359
H        1.44390390       1.54619321      -0.89152367
H        2.14665853       1.02164118       0.19126039
H        2.86803783      -0.44275288       1.51684659
H        0.22160299      -1.79388309      -0.70607088
H       -0.04560508      -0.16437951      -1.24802897
H       -3.08967563       1.47455930      -0.03929948
16
Properties=species:S:1:pos:R:3 relative_energy_eV=-1.454196593396773 branch=right pbc="F F F"
O        2.91076611       1.68178339       0.48405065
C        1.90453567       1.03328377      -0.08782918
C        1.42516162      -0.21362185       0.21680436
O        2.08416271      -1.04443102       1.12223055
C        0.15583730      -0.70580051      -0.36400508
O       -0.92222116      -0.57305496       0.54825664
P       -2.50941501      -0.60161877      -0.05622120
O       -2.57957668      -1.56248598      -1.20354915
O       -3.38265711      -0.62401705       1.16655717
O       -2.62411795       0.94736640      -0.70692249
H        1.36753174       1.52470188      -0.89696498
H        2.17475472       1.04182995       0.15880833
H        2.80818515      -0.52881906       1.50929227
H        0.29138769      -1.75684094      -0.63992901
H       -0.00081410      -0.12558513      -1.28142979
H       -3.07920879       1.47719619      -0.04052244
16
Properties=species:S:1:pos:R:3 relative_energy_eV=-1.4718965261563426 branch=right pbc="F F F"
O        2.92440736       1.67008733       0.47242092
C        1.89491044       1.03302206      -0.07946237
C        1.41684798      -0.21105543       0.22715476
O        2.06692142      -1.04115917       1.12375878
C        0.16569332      -0.70278709      -0.36585652
O       -0.91334932      -0.55910257       0.53751153
P       -2.49673877      -0.60034941      -0.05101753
O       -2.56446024      -1.56033061      -1.20028981
O       -3.37661442      -0.62855690       1.16670851
O       -2.61176332       0.94446234      -0.70570261
H        1.35137265       1.51130014      -0.88663435
H        2.16960068       1.05694369       0.15005600
H        2.79472068      -0.52929754       1.50408092
H        0.28997735      -1.75182583      -0.64373457
H       -0.01469281      -0.13267175      -1.27856952
H       -3.07252099       1.47120703      -0.04179756
16
Properties=species:S:1:pos:R:3 relative_energy_eV=-1.487753295343282 branch=right pbc="F F F"
O        2.95195075       1.65029532       0.43479423
C        1.88744527       1.03452227      -0.08483160
C        1.41218828      -0.21044963       0.22195595
O        2.03544896      -1.04138092       1.14538773
C        0.15463464      -0.70162399      -0.37240972
O       -0.90291838      -0.53660984       0.55328573
P       -2.47867157      -0.60141901      -0.04981376
O       -2.53207160      -1.56497193      -1.19516800
O       -3.36137919      -0.63862774       1.16615050
O       -2.58841970       0.94413554      -0.70539861
H        1.32419671       1.53187162      -0.86694837
H        2.14929055       1.07306574       0.15747273
H        2.77966974      -0.53704317       1.51058419
H        0.28947451      -1.75363506      -0.65057015
H       -0.03870035      -0.14224312      -1.29331455
H       -3.05782647       1.46400002      -0.04254983
16
Properties=species:S:1:pos:R:3 relative_energy_eV=-1.4954368680264452 branch=right pbc="F F F"
O        2.96887584       1.62462300       0.41158190
C        1.88746279       1.03718428      -0.09022579
C        1.40998258      -0.20831163       0.20801958
O        2.02041088      -1.02418592       1.14909453
C        0.15480740      -0.70120986      -0.37546117
O       -0.89975964      -0.54148634       0.55384681
P       -2.47068384      -0.60297723      -0.04554764
O       -2.50975198      -1.56824736      -1.19076034
O       -3.35924905      -0.64309950       1.16566232
O       -2.58037835       0.94221411      -0.70537510
H        1.31404444       1.55263280      -0.85340055
H        2.13458009       1.07243962       0.17479934
H        2.77181473      -0.53159645       1.51192568
H        0.27665258      -1.75287272      -0.64627535
H       -0.04590406      -0.14933146      -1.29605368
H       -3.04859221       1.46411062      -0.04320414
16
Properties=species:S:1:pos:R:3 relative_energy_eV=-1.4981872113567078 branch=right pbc="F F F"
O        2.98330638       1.61717812       0.39586767
C        1.88746266       1.03976655      -0.08789451
C        1.40560480      -0.20381396       0.21163905
O        2.02242789      -1.02252547       1.14458457
C        0.15407940      -0.70585002      -0.37595080
O       -0.89890771      -0.54684847       0.55768020
P       -2.47008944      -0.60778290      -0.04409474
O       -2.50721479      -1.57124604      -1.19122652
O       -3.36508400      -0.64200896       1.16202971
O       -2.58327981       0.93490617      -0.70282418
H        1.31554842       1.55997493      -0.84802055
H        2.13187730       1.08187682       0.17975601
H        2.76708076      -0.52325288       1.51089334
H        0.26877948      -1.76101192      -0.64471852
H       -0.04369752      -0.14781328      -1.29499073
H       -3.04358161       1.46833718      -0.04410366
16
Properties=species:S:1:pos:R:3 relative_energy_eV=-1.5002548570810177 branch=right pbc="F F F"
O        2.99869143       1.61104611       0.38681428
C        1.88976739       1.04316504      -0.08727841
C        1.40288615      -0.19917345       0.21287887
O        2.03060920      -1.02422461       1.13676886
C        0.14883982      -0.70683035      -0.37098301
O       -0.90724873      -0.55103526       0.55961860
P       -2.47847412      -0.61098313      -0.04458206
O       -2.51050360      -1.57693968      -1.18931536
O       -3.37429221      -0.64610593       1.16170976
O       -2.58423190       0.93281636      -0.70708919
H        1.32001592       1.56691837      -0.84721667
H        2.13221109       1.09348627       0.18614505
H        2.76694509      -0.51538123       1.50805356
H        0.27262501      -1.76168505      -0.63989392
H       -0.04748689      -0.15351383      -1.29291195
H       -3.03604145       1.46832612      -0.04409215
16
Properties=species:S:1:pos:R:3 relative_energy_eV=-1.5023240203372552 branch=right pbc="F F F"
O        3.00814145       1.60334539       0.37925259
C        1.89397171       1.04859638      -0.08872294
C        1.40073995      -0.19037823       0.21453478
O        2.03538924      -1.02214662       1.12350893
C        0.14803188      -0.70140534      -0.36383162
O       -0.91314577      -0.55251441       0.56308616
P       -2.48394621      -0.61577363      -0.04566741
O       -2.52090417      -1.58459620      -1.18792532
O       -3.38340989      -0.64972458       1.15705262
O       -2.58571438       0.92555744      -0.71079921
H        1.32598578       1.57549404      -0.84788277
H        2.12872897       1.10298914       0.18979876
H        2.76970084      -0.51888204       1.50445378
H        0.28550742      -1.75565137      -0.62393624
H       -0.05978811      -0.16213554      -1.29001447
H       -3.02497657       1.46711113      -0.04428152
16
Properties=species:S:1:pos:R:3 relative_energy_eV=-1.5029448687018885 branch=right pbc="F F F"
O        3.00851436       1.60391170       0.38065880
C        1.89194239       1.05104282      -0.08848625
C        1.39935052      -0.18855045       0.21371005
O        2.03493652      -1.02165788       1.12452448
C        0.14555997      -0.70088170      -0.36373504
O       -0.91345107      -0.55133226       0.56514272
P       -2.48415913      -0.61868924      -0.04528491
O       -2.52209778      -1.58704686      -1.18788420
O       -3.38366220      -0.64924914       1.15791734
O       -2.58677217       0.92116552      -0.71418924
H        1.32866915       1.57942043      -0.85038128
H        2.12838134       1.10518394       0.19046054
H        2.77549135      -0.51996912       1.49718606
H        0.28527808      -1.75703494      -0.61547555
H       -0.06468808      -0.16156378      -1.29050057
H       -3.01898112       1.46513643      -0.04503688
16
Properties=species:S:1:pos:R:3 relative_energy_eV=-1.503871355424053 branch=right pbc="F F F"
O        3.00706261       1.60691408       0.38571842
C        1.89157123       1.05574271      -0.08817296
C        1.39735359      -0.18410945       0.21381633
O        2.03350467      -1.01494499       1.12405270
C        0.14262679      -0.70053751      -0.35908517
O       -0.91819277      -0.54860359       0.56727639
P       -2.48723674      -0.62198391      -0.04438395
O       -2.52234997      -1.59389486      -1.18388239
O       -3.38354379      -0.64988233       1.16116966
O       -2.59032047       0.91217642      -0.72342236
H        1.33297219       1.58383096      -0.85425699
H        2.12665031       1.11072815       0.18993070
H        2.78867537      -0.52221607       1.47762439
H        0.28074462      -1.75882972      -0.60331400
H       -0.07035037      -0.16552918      -1.28701836
H       -3.00485518       1.46102463      -0.04742635
16
Properties=species:S:1:pos:R:3 relative_energy_eV=-1.5049087077459262 branch=right pbc="F F F"
O        3.00252557       1.61097407       0.39067515
C        1.88991464       1.05778876      -0.08991142
C        1.39371668      -0.18021813       0.21503794
O        2.03154730      -1.00912321       1.12555789
C        0.13978322      -0.70013781      -0.35355115
O       -0.91949135      -0.54196321       0.57358560
P       -2.48747765      -0.62642696      -0.04205486
O       -2.51940855      -1.60607100      -1.17536605
O       -3.38430983      -0.64971364       1.16253705
O       -2.59642181       0.90339860      -0.73011630
H        1.33532301       1.58700699      -0.85732548
H        2.12182526       1.11771662       0.19131165
H        2.80235481      -0.52427562       1.45505642
H        0.27598805      -1.75841678      -0.59865298
H       -0.07005831      -0.17429944      -1.28685216
H       -2.99149900       1.46364601      -0.05130533
16
Properties=species:S:1:pos:R:3 relative_energy_eV=-1.505557207739912 branch=right pbc="F F F"
O        2.99787071       1.61581029       0.39396251
C        1.88608635       1.06170345      -0.08765111
C        1.39349031      -0.17853744       0.21454252
O        2.03299071      -1.00809615       1.12462213
C        0.13953344      -0.69945440      -0.35384555
O       -0.91927137      -0.53731134       0.57353568
P       -2.48910354      -0.62833402      -0.03761520
O       -2.51601374      -1.61513504      -1.16448457
O       -3.38966083      -0.64976850       1.16437264
O       -2.60106245       0.89821599      -0.73377830
H        1.33668424       1.58604571      -0.86285582
H        2.11671840       1.12133349       0.19545199
H        2.81219527      -0.52803994       1.44162669
H        0.27809303      -1.75839796      -0.59348882
H       -0.07004207      -0.17815381      -1.28996154
H       -2.98419649       1.46800496      -0.05580737
16
Properties=species:S:1:pos:R:3 relative_energy_eV=-1.506101903549279 branch=right pbc="F F F"
O        2.99041919       1.62262030       0.39588709
C        1.88480226       1.06241270      -0.08819398
C        1.39578034      -0.17939368       0.21338647
O        2.03719489      -1.00701468       1.12125098
C        0.14067878      -0.69972349      -0.35379072
O       -0.91907805      -0.53074228       0.57273220
P       -2.49005714      -0.62912619      -0.03359219
O       -2.51431124      -1.62284698      -1.15423000
O       -3.38904736      -0.64699487       1.16962259
O       -2.60544932       0.89154261      -0.73996391
H        1.33511140       1.58284142      -0.86540437
H        2.10811262       1.13038378       0.19956586
H        2.82175021      -0.53278461       1.43246207
H        0.27598358      -1.76105569      -0.58801566
H       -0.06919464      -0.17843006      -1.29066972
H       -2.97838363       1.46819692      -0.06242085
16
Properties=species:S:1:pos:R:3 relative_energy_eV=-1.5068192268008715 branch=right pbc="F F F"
O        2.98029513       1.63101924       0.39864600
C        1.88064110       1.06158643      -0.08726302
C        1.40078646      -0.18407626       0.21000538
O        2.04776899      -1.01358220       1.11409218
C        0.14304684      -0.70023605      -0.35410736
O       -0.91523494      -0.52286709       0.57230277
P       -2.48788197      -0.62933357      -0.02972526
O       -2.51638620      -1.63023184      -1.14420185
O       -3.38131985      -0.63841596       1.17788114
O       -2.61021933       0.88672623      -0.74650767
H        1.33089798       1.57409074      -0.86928062
H        2.09663590       1.13871565       0.20844280
H        2.82711687      -0.53150541       1.42860941
H        0.27179081      -1.76223488      -0.58715956
H       -0.06252691      -0.17773875      -1.29163107
H       -2.98109907       1.46796880      -0.07147734
16
Properties=species:S:1:pos:R:3 relative_energy_eV=-1.5074015837890329 branch=right pbc="F F F"
O        2.97306408       1.63721455       0.40315371
C        1.87576523       1.06648275      -0.08384418
C        1.40143902      -0.18223341       0.20901454
O        2.05623411      -1.01426650       1.10319516
C        0.14309679      -0.70000946      -0.35204417
O       -0.91443531      -0.51837778       0.57323654
P       -2.48709612      -0.62983162      -0.02615717
O       -2.51836609      -1.63913221      -1.13278062
O       -3.37476738      -0.63140743       1.18537935
O       -2.61364598       0.87949710      -0.75505678
H        1.33046021       1.57183211      -0.87423214
H        2.08892337       1.14151975       0.21392190
H        2.83382460      -0.53116356       1.41778319
H        0.27012329      -1.76240072      -0.58051470
H       -0.06162351      -0.18251170      -1.29188301
H       -2.97868458       1.46467302      -0.08054575
16
Properties=species:S:1:pos:R:3 relative_energy_eV=-1.5082462925929576 branch=right pbc="F F F"
O        2.96077306       1.64412375       0.40868439
C        1.86799706       1.07054057      -0.08375437
C        1.40027128      -0.18160734       0.20478539
O        2.06902427      -1.01848726       1.08578574
C        0.14381932      -0.70374626      -0.35443527
O       -0.90872074      -0.51216801       0.57449037
P       -2.48198335      -0.63013013      -0.01550754
O       -2.51542162      -1.65355142      -1.10894534
O       -3.36403300      -0.61466834       1.20031187
O       -2.61117249       0.86953302      -0.76485980
H        1.32511216       1.58169807      -0.87170408
H        2.07934799       1.14728672       0.21594388
H        2.83764134      -0.52825282       1.41288691
H        0.27063788      -1.76818168      -0.57715493
H       -0.06351141      -0.19243428      -1.29778438
H       -2.98547013       1.45992993      -0.10011707
16
Properties=species:S:1:pos:R:3 relative_energy_eV=-1.5098403022711864 branch=right pbc="F F F"
O        2.94638486       1.65849504       0.42641779
C        1.85963011       1.08170639      -0.08323490
C        1.40780769      -0.18160888       0.18569253
O        2.08655489      -1.02289313       1.05719202
C        0.14652821      -0.70969159      -0.35868693
O       -0.89803238      -0.50864593       0.57832318
P       -2.47602052      -0.63367624       0.00252798
O       -2.51675435      -1.68208211      -1.06771898
O       -3.35197211      -0.58341718       1.22257679
O       -2.60563821       0.85172837      -0.77769231
H        1.31340692       1.60188900      -0.86330346
H        2.07225622       1.15758740       0.21470135
H        2.84115195      -0.52167618       1.40168754
H        0.27264700      -1.77642219      -0.56700513
H       -0.07314399      -0.21538293      -1.30779080
H       -3.00049471       1.45397391      -0.13506110
16
Properties=species:S:1:pos:R:3 relative_energy_eV=-1.5105655403312994 branch=right pbc="F F F"
O        2.93703225       1.66977449       0.43665109
C        1.85654153       1.08916733      -0.08092115
C        1.41099616      -0.17872237       0.17685465
O        2.09610441      -1.02143402       1.03804616
C        0.14765428      -0.71205539      -0.35880549
O       -0.89390731      -0.50397368       0.58083637
P       -2.47433081      -0.63470268       0.01220682
O       -2.52321605      -1.70024806      -1.03973942
O       -3.34601375      -0.56859947       1.23376051
O       -2.60562950       0.83742311      -0.78976065
H        1.30988942       1.60894036      -0.86085438
H        2.06574881       1.16567455       0.21879585
H        2.84822714      -0.51932979       1.38299291
H        0.27456522      -1.78130006      -0.55450981
H       -0.07768365      -0.22760172      -1.31144326
H       -3.00166667       1.44687070      -0.15548479
16
Properties=species:S:1:pos:R:3 relative_energy_eV=-1.5106881718384102 branch=right pbc="F F F"
O        2.93751918       1.66971840       0.43641605
C        1.85624799       1.08931872      -0.08043802
C        1.41070732      -0.17879041       0.17556843
O        2.09447267      -1.02153061       1.03909633
C        0.14809672      -0.71238447      -0.36048034
O       -0.89256666      -0.50354071       0.58014411
P       -2.47358278      -0.63480291       0.01337049
O       -2.52523352      -1.70148583      -1.03730784
O       -3.34567012      -0.56624877       1.23468848
O       -2.60251868       0.83757959      -0.78952021
H        1.30873378       1.61128862      -0.85809155
H        2.06708513       1.16481843       0.21940499
H        2.84719017      -0.51857514       1.38200120
H        0.27590589      -1.78178313      -0.55573266
H       -0.07724039      -0.22846292      -1.31346545
H       -3.00483523       1.44476439      -0.15702869
16
Properties=species:S:1:pos:R:3 relative_energy_eV=-1.5108598908736894 branch=right pbc="F F F"
O        2.93868941       1.67057200       0.43599797
C        1.85615846       1.09118393      -0.07844989
C        1.41107721      -0.17744581       0.17649229
O        2.09441578      -1.02010884       1.03969947
C        0.14890170      -0.71205089      -0.36165984
O       -0.89306774      -0.50436111       0.57726095
P       -2.47506508      -0.63574258       0.01394056
O       -2.53162329      -1.70613546      -1.03299275
O       -3.34405508      -0.56004603       1.23724987
O       -2.60057300       0.83555141      -0.79060303
H        1.30774626       1.61334444      -0.85532807
H        2.06690619       1.16650847       0.22126654
H        2.85158855      -0.52121228       1.37843205
H        0.27677643      -1.78141008      -0.55627690
H       -0.07476785      -0.22979123      -1.31607689
H       -3.00879657       1.44102730      -0.16032715
16
Properties=species:S:1:pos:R:3 relative_energy_eV=-1.5109311274391075 branch=right pbc="F F F"
O        2.93665500       1.67173220       0.43816318
C        1.85485448       1.09209517      -0.07774626
C        1.41155707      -0.17738695       0.17607716
O        2.09672506      -1.02051476       1.03772811
C        0.14978936      -0.71273511      -0.36245966
O       -0.89174527      -0.50463415       0.57649844
P       -2.47417497      -0.63516002       0.01589465
O       -2.53367638      -1.71000085      -1.02596972
O       -3.34102752      -0.55471771       1.24023293
O       -2.60212469       0.83315029      -0.79394994
H        1.30603689       1.61494584      -0.85398855
H        2.06466115       1.16830085       0.22257532
H        2.85499287      -0.52176913       1.37467392
H        0.27778226      -1.78215188      -0.55630502
H       -0.07391890      -0.23082924      -1.31713385
H       -3.01207505       1.43955859      -0.16566553
16
Properties=species:S:1:pos:R:3 relative_energy_eV=-1.5109884393532411 branch=right pbc="F F F"
O        2.93953329       1.66907548       0.43726388
C        1.85562636       1.09159045      -0.07695483
C        1.41129824      -0.17750000       0.17689406
O        2.09466902      -1.02003097       1.04037428
C        0.15015094      -0.71266437      -0.36255472
O       -0.89208079      -0.50640216       0.57621827
P       -2.47501096      -0.63502575       0.01505391
O       -2.53502677      -1.70901196      -1.02793179
O       -3.34117022      -0.55355269       1.24002528
O       -2.60321751       0.83404567      -0.79424401
H        1.30579735       1.61558308      -0.85176524
H        2.06632653       1.16708008       0.22289854
H        2.85528868      -0.52269502       1.37376793
H        0.28039768      -1.78167907      -0.55866079
H       -0.07348515      -0.22830441      -1.31587355
H       -3.01478532       1.43937478      -0.16588602
