17
Properties=species:S:1:pos:R:3 relative_energy_eV=0.0 branch=left pbc="F F F"
C        0.85694581      -0.77334901       0.88373457
C        0.52470541      -1.08068182      -0.37835322
O        0.24255823      -0.24018489      -1.38409426
P       -0.29564689       1.36996565      -1.20048735
O       -0.53880654       1.81381011      -2.59753014
O       -1.72664339       1.08498192      -0.43966664
O        0.63789043       2.07350808      -0.23243583
C        0.47415195      -2.49873670      -0.82364692
O        0.19492128      -2.88438094      -1.93744291
O        0.78030770      -3.40276731       0.16632905
O       -0.83776054       2.66968976       1.95201506
H        0.91835694       0.25045214       1.20393551
H        1.08284383      -1.55514007       1.58794664
H       -0.14617637       2.57223019       1.24365189
H        0.69850581      -4.26013664      -0.27638740
H       -1.63326564       1.33992062       0.49379699
H       -1.24871426       3.51520049       1.74136835
17
Properties=species:S:1:pos:R:3 relative_energy_eV=0.0004910431525786407 branch=left pbc="F F F"
C        0.86469503      -0.77342530       0.88157653
C        0.53069567      -1.07987559      -0.38012885
O        0.25205104      -0.23641994      -1.38503745
P       -0.28926904       1.37072520      -1.19044664
O       -0.53676614       1.82461126      -2.58325239
O       -1.71638446       1.07475361      -0.42692488
O        0.64500518       2.07045395      -0.22050958
C        0.46798417      -2.49716135      -0.82420577
O        0.17835567      -2.88120701      -1.93600781
O        0.77492390      -3.40326528       0.16382291
O       -0.84595548       2.67957710       1.94776442
H        0.92245082       0.25044331       1.20211974
H        1.09302913      -1.55441271       1.58600293
H       -0.14285885       2.57100914       1.25274901
H        0.68640326      -4.25903350      -0.28107286
H       -1.62363600       1.33506891       0.50545480
H       -1.27655025       3.50253965       1.69082917
17
Properties=species:S:1:pos:R:3 relative_energy_eV=0.000843378780700732 branch=left pbc="F F F"
C        0.84014782      -0.78297663       0.88864682
C        0.51988678      -1.08604859      -0.37745805
O        0.23812477      -0.24201045      -1.38056531
P       -0.29566696       1.36720848      -1.18427046
O       -0.54614554       1.82137970      -2.57663640
O       -1.72211396       1.07702074      -0.41626412
O        0.64675602       2.06308361      -0.21914004
C        0.47950431      -2.50150056      -0.83080558
O        0.19955141      -2.88238124      -1.94596768
O        0.79601242      -3.40931146       0.15204483
O       -0.83806692       2.70477431       1.94188718
H        0.88374567       0.23932312       1.21616577
H        1.07661097      -1.56570588       1.58811932
H       -0.13530836       2.57422804       1.24972779
H        0.71774207      -4.26474324      -0.29473997
H       -1.63264572       1.34459580       0.51386908
H       -1.24396106       3.53744568       1.67811964
17
Properties=species:S:1:pos:R:3 relative_energy_eV=0.00142341758692055 branch=left pbc="F F F"
C        0.82838667      -0.78771648       0.88878687
C        0.51795970      -1.08664912      -0.38092736
O        0.24145068      -0.23948953      -1.38287047
P       -0.29635415       1.36787189      -1.17991598
O       -0.55850937       1.82642951      -2.56880085
O       -1.71617560       1.07134140      -0.40339051
O        0.65177376       2.06063171      -0.21845711
C        0.48166899      -2.50127278      -0.83605046
O        0.19980964      -2.88503322      -1.94974306
O        0.80570864      -3.40465493       0.14885468
O       -0.83342669       2.71384140       1.93628360
H        0.87768544       0.23331891       1.21788052
H        1.04825080      -1.57196241       1.59197327
H       -0.12732199       2.58312995       1.24817609
H        0.72967621      -4.26160879      -0.29420000
H       -1.61713272       1.33732678       0.52653459
H       -1.24927629       3.53887704       1.65859860
17
Properties=species:S:1:pos:R:3 relative_energy_eV=0.002844459973857738 branch=left pbc="F F F"
C        0.77985996      -0.80930295       0.90283606
C        0.49828081      -1.09994008      -0.37546423
O        0.21679914      -0.25044320      -1.37344165
P       -0.30207624       1.36379701      -1.16837752
O       -0.58104912       1.81713989      -2.55561806
O       -1.71393795       1.08808665      -0.36850192
O        0.66585572       2.05183051      -0.22393782
C        0.49947023      -2.51109399      -0.84564979
O        0.23133615      -2.88812678      -1.96499058
O        0.84266487      -3.42099377       0.12626886
O       -0.79552514       2.77461592       1.93130829
H        0.81027006       0.20836811       1.24618338
H        1.00009543      -1.60093430       1.59766974
H       -0.10361585       2.62958459       1.23198608
H        0.78785638      -4.27133839      -0.33328148
H       -1.59601015       1.35309898       0.55907949
H       -1.25610057       3.56003271       1.61666207
17
Properties=species:S:1:pos:R:3 relative_energy_eV=0.003191579548001755 branch=left pbc="F F F"
C        0.77197848      -0.81281536       0.90602812
C        0.49245722      -1.10314020      -0.37283827
O        0.20972844      -0.25271415      -1.36952499
P       -0.30306738       1.36329900      -1.16516342
O       -0.58478280       1.81477489      -2.55259687
O       -1.71321754       1.09238201      -0.36007115
O        0.67015982       2.05050975      -0.22524797
C        0.49963168      -2.51277158      -0.84892874
O        0.23687965      -2.88479787      -1.97141415
O        0.84359757      -3.42375488       0.12217265
O       -0.79269266       2.77890566       1.92687544
H        0.80444627       0.20546622       1.24611700
H        0.99034394      -1.60267958       1.60325169
H       -0.09488958       2.63828445       1.23293874
H        0.80496395      -4.27517799      -0.33812844
H       -1.59085866       1.36222496       0.56606545
H       -1.26050464       3.55638544       1.60319567
17
Properties=species:S:1:pos:R:3 relative_energy_eV=0.003679459936392959 branch=left pbc="F F F"
C        0.77066240      -0.81829499       0.91194948
C        0.49198964      -1.10708382      -0.36746524
O        0.20994731      -0.25402387      -1.36148094
P       -0.30407953       1.36019003      -1.15992385
O       -0.58582337       1.80671531      -2.54887080
O       -1.71253989       1.09015921      -0.35417925
O        0.67008778       2.04922850      -0.22293027
C        0.50241837      -2.51271408      -0.85039135
O        0.23749953      -2.87746515      -1.97406770
O        0.84791209      -3.42904446       0.11406843
O       -0.79539020       2.78835494       1.91846071
H        0.80444873       0.20140303       1.25081932
H        0.98209642      -1.60781953       1.61237020
H       -0.09550247       2.64058142       1.22781765
H        0.81171699      -4.27502105      -0.35529081
H       -1.59622016       1.36995072       0.56919824
H       -1.25504987       3.56926450       1.59264691
17
Properties=species:S:1:pos:R:3 relative_energy_eV=0.004560189103358425 branch=left pbc="F F F"
C        0.73553582      -0.82450272       0.91744378
C        0.46878531      -1.11481678      -0.36417581
O        0.17437826      -0.26686430      -1.35899146
P       -0.31595928       1.35499209      -1.15818378
O       -0.59540441       1.80061322      -2.54797282
O       -1.72492083       1.10513527      -0.34379403
O        0.67128857       2.03595434      -0.22797555
C        0.51319749      -2.51953118      -0.85248381
O        0.28128805      -2.88519072      -1.98424875
O        0.86474457      -3.43557914       0.11006829
O       -0.78026605       2.79857359       1.91438228
H        0.76377001       0.19465351       1.25608892
H        0.95526547      -1.61274251       1.61655189
H       -0.08017331       2.63974492       1.22621122
H        0.86832153      -4.27572801      -0.37284709
H       -1.60364333       1.40010841       0.57527597
H       -1.21203395       3.59956069       1.59738122
17
Properties=species:S:1:pos:R:3 relative_energy_eV=0.005849589320860105 branch=left pbc="F F F"
C        0.71451567      -0.83103482       0.92348452
C        0.45986918      -1.12343930      -0.36044709
O        0.15023070      -0.27861805      -1.35410334
P       -0.32697466       1.34704187      -1.15796268
O       -0.60913312       1.79629648      -2.54615817
O       -1.73559722       1.11807530      -0.33852678
O        0.66910383       2.01558294      -0.22836126
C        0.53039557      -2.52372300      -0.85793672
O        0.30948718      -2.87961811      -1.99440006
O        0.88421438      -3.44272383       0.10109409
O       -0.76669545       2.81324701       1.91378852
H        0.72999566       0.18812569       1.26311410
H        0.92930750      -1.61550596       1.62846159
H       -0.07734425       2.63266896       1.21925507
H        0.90487913      -4.28077112      -0.38458185
H       -1.60755559       1.42943686       0.57395624
H       -1.17452442       3.62933975       1.60205398
17
Properties=species:S:1:pos:R:3 relative_energy_eV=0.00817563793680165 branch=left pbc="F F F"
C        0.67909552      -0.85783579       0.92721944
C        0.42788899      -1.14124571      -0.35884418
O        0.07339099      -0.29866490      -1.33820370
P       -0.34539123       1.34492564      -1.14514615
O       -0.61401973       1.79184452      -2.53705310
O       -1.75707026       1.17030489      -0.31696776
O        0.67645003       1.98729325      -0.22466102
C        0.56157555      -2.53371029      -0.86936417
O        0.37750564      -2.89454026      -2.01115224
O        0.92717446      -3.44614260       0.09184334
O       -0.76420427       2.83017861       1.89289196
H        0.66185242       0.15523373       1.28026461
H        0.93056598      -1.64283240       1.61800204
H       -0.06255389       2.62920484       1.21758930
H        0.95944616      -4.28487998      -0.39186913
H       -1.62478045       1.51677054       0.58452887
H       -1.12275166       3.66847646       1.58365176
17
Properties=species:S:1:pos:R:3 relative_energy_eV=0.008833992564177606 branch=left pbc="F F F"
C        0.66390623      -0.86483699       0.92948917
C        0.42484489      -1.14607049      -0.35967365
O        0.06096758      -0.30550011      -1.33731345
P       -0.35185904       1.34069894      -1.14469615
O       -0.61826418       1.78615573      -2.53728513
O       -1.76469897       1.17257461      -0.31790467
O        0.67162569       1.98129317      -0.22544173
C        0.56973469      -2.53580424      -0.87074815
O        0.39463955      -2.89197323      -2.01518014
O        0.93893369      -3.44704668       0.09057767
O       -0.75337896       2.84205488       1.89296435
H        0.63431618       0.14660074       1.29002962
H        0.92129042      -1.65429303       1.61383457
H       -0.05751029       2.63439053       1.21234695
H        0.98149201      -4.28313147      -0.39623545
H       -1.63974483       1.52456703       0.58147752
H       -1.09212035       3.69470117       1.59648829
17
Properties=species:S:1:pos:R:3 relative_energy_eV=0.009586891312210355 branch=left pbc="F F F"
C        0.65403248      -0.86860960       0.92854405
C        0.41267752      -1.14610691      -0.36091901
O        0.04855935      -0.30681032      -1.33909381
P       -0.35697163       1.34011737      -1.14616838
O       -0.62141302       1.78697448      -2.53876574
O       -1.76855258       1.17637817      -0.31538675
O        0.67075579       1.97533155      -0.22781820
C        0.57100984      -2.53590042      -0.87213495
O        0.41072945      -2.89656201      -2.01736066
O        0.93632557      -3.44434278       0.09355317
O       -0.74911660       2.84464101       1.89087141
H        0.61517746       0.13815929       1.29983366
H        0.91953267      -1.66224373       1.60460062
H       -0.05409345       2.63147576       1.21174646
H        1.00870225      -4.27955610      -0.39167119
H       -1.63948877       1.53699391       0.58059989
H       -1.07369203       3.70444085       1.60229893
17
Properties=species:S:1:pos:R:3 relative_energy_eV=0.010442577753565274 branch=left pbc="F F F"
C        0.64577196      -0.87614702       0.92992156
C        0.40912635      -1.15159987      -0.36110879
O        0.04579949      -0.31107544      -1.33847163
P       -0.35945940       1.33723982      -1.14768377
O       -0.62349336       1.78506571      -2.53991904
O       -1.77483673       1.17884379      -0.32268922
O        0.66468076       1.97363217      -0.22628796
C        0.57205528      -2.53869444      -0.87436487
O        0.41867813      -2.89988007      -2.02065496
O        0.93575786      -3.44399711       0.09360626
O       -0.73777256       2.85738762       1.89908441
H        0.59619131       0.12944634       1.30193920
H        0.92723035      -1.66338635       1.60654089
H       -0.05086023       2.64101290       1.21262346
H        1.02101842      -4.27496887      -0.39536261
H       -1.64417593       1.53410146       0.57393175
H       -1.06153739       3.71739994       1.61162472
17
Properties=species:S:1:pos:R:3 relative_energy_eV=0.014094318634306546 branch=left pbc="F F F"
C        0.59818839      -0.88486609       0.93846770
C        0.39891808      -1.15794722      -0.35902411
O        0.04140150      -0.31559508      -1.33806399
P       -0.37556740       1.33551564      -1.16378323
O       -0.63873541       1.76767370      -2.56133237
O       -1.79432760       1.17656711      -0.34284419
O        0.64342108       1.97928813      -0.24284685
C        0.59177719      -2.54236221      -0.87402486
O        0.45194195      -2.89562292      -2.02376832
O        0.96299593      -3.45308844       0.08852705
O       -0.69892656       2.88303365       1.91303555
H        0.51559985       0.12088774       1.30316523
H        0.89394136      -1.66333195       1.62137231
H       -0.04443200       2.65618026       1.19853959
H        1.06692577      -4.27855782      -0.40841793
H       -1.65845661       1.48670591       0.56695150
H       -0.97049087       3.77990034       1.68677564
17
Properties=species:S:1:pos:R:3 relative_energy_eV=0.016416485195804853 branch=left pbc="F F F"
C        0.56967526      -0.87992128       0.94013380
C        0.38776306      -1.16074379      -0.35863997
O        0.03946130      -0.32404429      -1.34449076
P       -0.38499203       1.32284244      -1.17126226
O       -0.64872448       1.75014009      -2.56905960
O       -1.80578872       1.16733797      -0.35193313
O        0.62909944       1.97910045      -0.25485156
C        0.60388338      -2.54140880      -0.87881112
O        0.47806703      -2.89576106      -2.03038925
O        0.98549905      -3.44496403       0.08402653
O       -0.66972752       2.89287020       1.92308969
H        0.46771141       0.12444284       1.30846473
H        0.84752310      -1.66105097       1.62699795
H       -0.04395618       2.66421674       1.18372413
H        1.09736312      -4.27199882      -0.40797606
H       -1.66848661       1.46265807       0.56137433
H       -0.90019572       3.81066502       1.74233083
17
Properties=species:S:1:pos:R:3 relative_energy_eV=0.018391423538560048 branch=left pbc="F F F"
C        0.55343322      -0.88236039       0.94422716
C        0.39292877      -1.15729709      -0.35858102
O        0.03968775      -0.32569556      -1.34574122
P       -0.39077063       1.31671085      -1.17642008
O       -0.65585359       1.73481489      -2.57748531
O       -1.81003409       1.14968501      -0.35590717
O        0.62070799       1.97167414      -0.25555312
C        0.61488420      -2.53387419      -0.87896638
O        0.48335043      -2.88442002      -2.03097853
O        1.00027844      -3.43810329       0.08139228
O       -0.66092770       2.90047182       1.92092738
H        0.45169609       0.11785290       1.32066496
H        0.82059918      -1.66418956       1.63329148
H       -0.04435988       2.67010328       1.17380440
H        1.10383267      -4.26319873      -0.41541452
H       -1.67563033       1.45237770       0.55499393
H       -0.85964754       3.82982910       1.76847380
17
Properties=species:S:1:pos:R:3 relative_energy_eV=0.020332416221208405 branch=left pbc="F F F"
C        0.53758602      -0.88400709       0.94765804
C        0.38739043      -1.15608402      -0.35657499
O        0.04915436      -0.32552696      -1.35075988
P       -0.39869619       1.31052644      -1.18161064
O       -0.66861707       1.73592911      -2.57906481
O       -1.81530637       1.13385400      -0.35826286
O        0.61113371       1.97083099      -0.26310328
C        0.62145305      -2.52914441      -0.87543254
O        0.49378094      -2.87948237      -2.02758078
O        1.01526378      -3.43094052       0.08349426
O       -0.65241316       2.89976270       1.92148831
H        0.44809729       0.12186887       1.31355373
H        0.78720562      -1.67559271       1.63471828
H       -0.03915396       2.66582538       1.17243283
H        1.11438310      -4.25665695      -0.41281366
H       -1.68123385       1.45555773       0.54593696
H       -0.82585272       3.83766068       1.78864890
17
Properties=species:S:1:pos:R:3 relative_energy_eV=0.02473427630684455 branch=left pbc="F F F"
C        0.49702428      -0.87385596       0.93811846
C        0.37144549      -1.15459757      -0.36696738
O        0.04367049      -0.32361852      -1.36520575
P       -0.41207449       1.31593117      -1.19487120
O       -0.70285191       1.74055700      -2.58892050
O       -1.81925374       1.12447247      -0.36096696
O        0.60173737       1.98420281      -0.28599473
C        0.63360002      -2.53093289      -0.87434469
O        0.53153542      -2.89342996      -2.02580692
O        1.03329806      -3.41770851       0.09764114
O       -0.61936469       2.86938579       1.93273635
H        0.42541041       0.13096967       1.30765011
H        0.71176027      -1.65976213       1.63932511
H       -0.01256775       2.64565155       1.17519380
H        1.15681197      -4.24693225      -0.38788749
H       -1.68929845       1.46963601       0.53469897
H       -0.76670763       3.81441216       1.82832927
17
Properties=species:S:1:pos:R:3 relative_energy_eV=0.028527958816994214 branch=left pbc="F F F"
C        0.47873215      -0.86987110       0.93252994
C        0.37597270      -1.14866212      -0.37593163
O        0.04450247      -0.32079787      -1.37694948
P       -0.42275492       1.31661058      -1.20315147
O       -0.71940857       1.73215339      -2.59837196
O       -1.82532923       1.13614392      -0.35505107
O        0.59810339       1.98953466      -0.30636055
C        0.64485389      -2.52694438      -0.87518913
O        0.54992380      -2.90303549      -2.02287699
O        1.03129768      -3.40539785       0.11002972
O       -0.59894150       2.84626344       1.94066911
H        0.40348692       0.14006672       1.29140184
H        0.66178861      -1.65835914       1.64373370
H       -0.00045397       2.62098432       1.17629565
H        1.18868646      -4.23198180      -0.36976780
H       -1.69260994       1.48158942       0.54136468
H       -0.73367470       3.79608409       1.85035292
17
Properties=species:S:1:pos:R:3 relative_energy_eV=0.033267937491473276 branch=left pbc="F F F"
C        0.46551319      -0.86566059       0.91857981
C        0.35974287      -1.14988408      -0.38520259
O        0.03356174      -0.32157182      -1.38513114
P       -0.42134896       1.31300546      -1.20420307
O       -0.72649376       1.73008093      -2.59630322
O       -1.81771060       1.14175583      -0.34891495
O        0.60488549       1.97936101      -0.30847885
C        0.64157117      -2.52624064      -0.87304135
O        0.56740943      -2.90798389      -2.02040186
O        1.03300218      -3.39316036       0.12101869
O       -0.60534155       2.83545302       1.94282014
H        0.39917114       0.14664826       1.26400330
H        0.62957956      -1.65127681       1.63380796
H       -0.01915882       2.61692554       1.16645635
H        1.21289921      -4.21963647      -0.35069517
H       -1.67424267       1.47310064       0.55054564
H       -0.69886430       3.79346474       1.87786777
17
Properties=species:S:1:pos:R:3 relative_energy_eV=0.03945497604945558 branch=left pbc="F F F"
C        0.38409182      -0.83848837       0.92530107
C        0.31052827      -1.13704935      -0.38052098
O       -0.03416645      -0.33283349      -1.39523293
P       -0.43427025       1.32568460      -1.23717040
O       -0.76193861       1.72421662      -2.63064591
O       -1.81591363       1.20289143      -0.35091232
O        0.63072295       1.97789112      -0.37433645
C        0.65962878      -2.50267403      -0.85986982
O        0.63888945      -2.88463925      -2.00925274
O        1.04077686      -3.35541559       0.14955273
O       -0.52556072       2.71943492       1.93854929
H        0.27473621       0.16831738       1.28381131
H        0.62278110      -1.60870210       1.63726882
H        0.05514335       2.55979817       1.14557993
H        1.25229546      -4.17942261      -0.31195855
H       -1.61738653       1.48823456       0.55553148
H       -0.69618238       3.66713657       1.91703245
17
Properties=species:S:1:pos:R:3 relative_energy_eV=0.0430720696458593 branch=left pbc="F F F"
C        0.36093503      -0.82708816       0.93147599
C        0.29596669      -1.12491205      -0.37438303
O       -0.06926776      -0.33255141      -1.39135947
P       -0.44624572       1.32969192      -1.25537026
O       -0.77383907       1.73180950      -2.64754244
O       -1.81801398       1.23105646      -0.35222020
O        0.63846835       1.97688240      -0.41770592
C        0.66913241      -2.48683193      -0.84850900
O        0.67206052      -2.86949773      -1.99799174
O        1.04271489      -3.34125425       0.16357580
O       -0.47555741       2.65350244       1.93915011
H        0.20014635       0.16957154       1.29688134
H        0.62108828      -1.58871188       1.64525856
H        0.10047217       2.54099225       1.13470425
H        1.26803718      -4.16118420      -0.30007655
H       -1.60135242       1.50321705       0.55484065
H       -0.70056963       3.58968841       1.92199865
17
Properties=species:S:1:pos:R:3 relative_energy_eV=0.04562632257875521 branch=left pbc="F F F"
C        0.34931689      -0.81887314       0.93865884
C        0.29391222      -1.11759780      -0.36694125
O       -0.08433564      -0.33227641      -1.38437648
P       -0.45005504       1.33636974      -1.26337047
O       -0.79257351       1.72250026      -2.65701452
O       -1.82324758       1.25595850      -0.35936521
O        0.64353269       1.98631887      -0.43754602
C        0.67675207      -2.47603643      -0.84011179
O        0.68942539      -2.85341519      -1.99116098
O        1.04307575      -3.33296126       0.17190357
O       -0.43239214       2.61169824       1.93695839
H        0.14660640       0.16838809       1.31030684
H        0.62319046      -1.57884411       1.64832335
H        0.14093173       2.51723545       1.12829814
H        1.27344505      -4.14852102      -0.29648893
H       -1.59727109       1.52193300       0.54739602
H       -0.71613765       3.53250344       1.91725707
17
Properties=species:S:1:pos:R:3 relative_energy_eV=0.04815168189088581 branch=left pbc="F F F"
C        0.33105770      -0.81542498       0.94612696
C        0.28856804      -1.11107048      -0.36099321
O       -0.08212290      -0.32599290      -1.38092774
P       -0.45479146       1.33764848      -1.27048423
O       -0.80157728       1.70743754      -2.66709616
O       -1.82613428       1.27416836      -0.36143339
O        0.64268196       1.99087703      -0.45477062
C        0.68109449      -2.46720115      -0.83800018
O        0.70074027      -2.84197338      -1.98983755
O        1.04492088      -3.32601762       0.17358653
O       -0.39623874       2.58482255       1.94720894
H        0.11513598       0.16786525       1.32352816
H        0.63109527      -1.57043443       1.65116102
H        0.16523495       2.50221765       1.12821668
H        1.27506654      -4.14346440      -0.29215742
H       -1.60277383       1.54316842       0.54484070
H       -0.72778154       3.48775420       1.90375789
17
Properties=species:S:1:pos:R:3 relative_energy_eV=0.05084327483200468 branch=left pbc="F F F"
C        0.33220532      -0.81598359       0.94923444
C        0.28299378      -1.10985164      -0.35734499
O       -0.08707015      -0.32549659      -1.37779309
P       -0.45701975       1.34048297      -1.27726644
O       -0.80048208       1.69623114      -2.67892757
O       -1.82433957       1.27769814      -0.35779688
O        0.63746222       2.01086613      -0.47036427
C        0.68031517      -2.46149746      -0.83484342
O        0.70435018      -2.82862397      -1.98890339
O        1.04818410      -3.32006422       0.17498558
O       -0.38400826       2.57235755       1.95386758
H        0.10148301       0.15997222       1.33393656
H        0.63180024      -1.56822990       1.65666581
H        0.17471023       2.47980092       1.13389788
H        1.27161563      -4.13849228      -0.29156299
H       -1.59282615       1.55748995       0.54442010
H       -0.73519787       3.46772072       1.89052145
17
Properties=species:S:1:pos:R:3 relative_energy_eV=0.05640563372071483 branch=left pbc="F F F"
C        0.32703733      -0.81365982       0.96534598
C        0.28915729      -1.09851656      -0.34485855
O       -0.09227620      -0.31661897      -1.36185293
P       -0.45981478       1.34884502      -1.28490135
O       -0.81422300       1.67729315      -2.69045795
O       -1.81703213       1.28906445      -0.35728995
O        0.63125158       2.03407622      -0.48420334
C        0.68531147      -2.45075756      -0.83378579
O        0.70352210      -2.81958997      -1.98741297
O        1.04579901      -3.31527064       0.17302810
O       -0.39362734       2.54390388       1.94759660
H        0.08704798       0.16118423       1.35526443
H        0.63467485      -1.57818082       1.65804048
H        0.18642352       2.45278270       1.14282205
H        1.26755119      -4.13220408      -0.29717027
H       -1.56321643       1.57114535       0.53888013
H       -0.73341038       3.44088356       1.86368175
17
Properties=species:S:1:pos:R:3 relative_energy_eV=0.06675810992601328 branch=left pbc="F F F"
C        0.32798716      -0.81236250       0.98069976
C        0.29325630      -1.08450378      -0.33045964
O       -0.06710483      -0.29983757      -1.35099046
P       -0.46454302       1.35715230      -1.28421747
O       -0.83831895       1.67007410      -2.68817879
O       -1.81506766       1.31866544      -0.34714733
O        0.64629904       2.04387296      -0.51449538
C        0.68246025      -2.43583381      -0.82103137
O        0.69855505      -2.79066852      -1.97913204
O        1.04549029      -3.31293939       0.17468025
O       -0.42566995       2.49243552       1.90031926
H        0.07899604       0.14674043       1.39895656
H        0.63465014      -1.58143034       1.66656739
H        0.19518347       2.41168993       1.12526939
H        1.26195859      -4.12280188      -0.31076981
H       -1.54074156       1.58971935       0.54879607
H       -0.72921424       3.40440791       1.83386013
17
Properties=species:S:1:pos:R:3 relative_energy_eV=0.0886106995458249 branch=left pbc="F F F"
C        0.33132963      -0.81365247       1.00691877
C        0.29596532      -1.07297418      -0.30836947
O       -0.06273273      -0.28974223      -1.33168175
P       -0.44617679       1.37273910      -1.27794247
O       -0.85755014       1.69631986      -2.67288535
O       -1.78542934       1.30230343      -0.32680337
O        0.68533318       2.06322622      -0.53954866
C        0.68023525      -2.42020997      -0.81342532
O        0.69144674      -2.76510481      -1.97592380
O        1.04105297      -3.30643646       0.17333500
O       -0.43160902       2.43860943       1.85187156
H        0.07373941       0.14155151       1.43203712
H        0.63697742      -1.59305939       1.68535592
H        0.16186007       2.36660162       1.05062384
H        1.25728316      -4.11057509      -0.32049053
H       -1.56287760       1.62876598       0.56716238
H       -0.72467140       3.35601755       1.80249278
17
Properties=species:S:1:pos:R:3 relative_energy_eV=0.19364695046533598 branch=left pbc="F F F"
C        0.33094715      -0.81356609       1.01969069
C        0.29971468      -1.06699895      -0.29597302
O       -0.04219049      -0.26770130      -1.31786565
P       -0.47902080       1.36541012      -1.23536073
O       -0.79434879       1.74302457      -2.63386824
O       -1.79381447       1.28535985      -0.26341490
O        0.62633666       2.07704803      -0.45975671
C        0.67804120      -2.41048023      -0.80783397
O        0.68618915      -2.74809770      -1.97502090
O        1.04005039      -3.30375762       0.17245814
O       -0.42858936       2.37543150       1.74853430
H        0.07234466       0.13779393       1.45028292
H        0.63781669      -1.59348864       1.69562862
H        0.12058093       2.33022936       0.86378638
H        1.25464926      -4.10775039      -0.32243834
H       -1.50554709       1.70398874       0.59478992
H       -0.71898357       3.28793499       1.76908807
17
Properties=species:S:1:pos:R:3 relative_energy_eV=0.39750407875544624 branch=left pbc="F F F"
C        0.33531808      -0.81221840       1.02858760
C        0.30513753      -1.06595260      -0.28537325
O       -0.03675562      -0.25009107      -1.30235297
P       -0.51095788       1.35538750      -1.21018084
O       -0.77414273       1.76634997      -2.60821262
O       -1.78027296       1.30893507      -0.24172557
O        0.63395812       2.07551185      -0.41154515
C        0.67948363      -2.40766060      -0.81103215
O        0.68391275      -2.74394570      -1.97618971
O        1.04176173      -3.29863228       0.17052823
O       -0.54543653       2.33794789       1.71501515
H        0.07319063       0.13738689       1.46055167
H        0.63848079      -1.59826742       1.70037390
H        0.18612101       2.28554914       0.62977022
H        1.24891469      -4.10666886      -0.32140480
H       -1.44922377       1.73500408       0.66137598
H       -0.74531319       3.27574472       1.80454062
17
Properties=species:S:1:pos:R:3 relative_energy_eV=0.41108045032888185 branch=ts pbc="F F F"
C        0.33618021      -0.81201873       1.02887451
C        0.30617121      -1.06595185      -0.28490015
O       -0.03596975      -0.24530004      -1.29985567
P       -0.52190974       1.35084883      -1.20511950
O       -0.76912558       1.76874782      -2.60284970
O       -1.76204471       1.32756482      -0.22130254
O        0.65296505       2.07300449      -0.42632601
C        0.67963758      -2.40719033      -0.81150596
O        0.68378053      -2.74417556      -1.97653483
O        1.04209041      -3.29824065       0.17062200
O       -0.57783265       2.33052697       1.71485043
H        0.07499407       0.13788263       1.46150219
H        0.63741699      -1.59898202       1.70059704
H        0.25242238       2.27488168       0.55697398
H        1.24791440      -4.10668586      -0.32127868
H       -1.39714016       1.76764588       0.69775350
H       -0.84953882       3.24745198       1.81850306
17
Properties=species:S:1:pos:R:3 relative_energy_eV=0.3961415480735013 branch=right pbc="F F F"
C        0.33669281      -0.81173416       1.02826748
C        0.30573885      -1.06576936      -0.28566400
O       -0.03270515      -0.24936051      -1.30314460
P       -0.53419680       1.34831362      -1.20868084
O       -0.76403265       1.76935781      -2.60941871
O       -1.74542097       1.34093712      -0.21011675
O        0.67604874       2.06669448      -0.45105043
C        0.67909440      -2.40788058      -0.81093524
O        0.68392920      -2.74404293      -1.97616884
O        1.04142167      -3.29880508       0.17057716
O       -0.60961787       2.31831534       1.72151848
H        0.07722088       0.13871848       1.45990529
H        0.63648270      -1.59869870       1.70046295
H        0.30791097       2.27563836       0.51127412
H        1.24856387      -4.10684022      -0.32133960
H       -1.33717123       1.81775355       0.76403452
H       -0.95411289       3.21304273       1.81776011
17
Properties=species:S:1:pos:R:3 relative_energy_eV=0.22534332697978243 branch=right pbc="F F F"
C        0.33805842      -0.81099970       1.02109724
C        0.30324372      -1.06650725      -0.29492464
O       -0.02402593      -0.26436602      -1.32226650
P       -0.56236806       1.34140882      -1.22900617
O       -0.74614845       1.76129131      -2.63916836
O       -1.73056238       1.35386662      -0.24246721
O        0.70232002       2.05240343      -0.47026819
C        0.67675383      -2.41073673      -0.80757603
O        0.68539515      -2.74644380      -1.97457593
O        1.03823353      -3.30429990       0.17255263
O       -0.71682409       2.27960304       1.76318127
H        0.08056688       0.14041970       1.45086046
H        0.63628287      -1.59467639       1.69731145
H        0.34716324       2.28414570       0.44072518
H        1.25365060      -4.10799144      -0.32226285
H       -1.27676737       1.89679827       0.96823777
H       -0.98912549       3.20172472       1.78583094
17
Properties=species:S:1:pos:R:3 relative_energy_eV=0.09387551344116218 branch=right pbc="F F F"
C        0.33722789      -0.81056161       1.00525993
C        0.30824559      -1.06933732      -0.30994063
O        0.00173650      -0.26556931      -1.33279515
P       -0.60645297       1.32309128      -1.25935317
O       -0.66350601       1.75338553      -2.68086166
O       -1.80925963       1.29608408      -0.33111699
O        0.67675660       2.05868628      -0.53933438
C        0.67953918      -2.42040101      -0.81420262
O        0.69084938      -2.76588324      -1.97495596
O        1.03679999      -3.30729364       0.17344195
O       -0.74251069       2.34580761       1.88931878
H        0.07596840       0.14127131       1.43150769
H        0.63302000      -1.59165131       1.68228167
H        0.45321688       2.25272577       0.39304548
H        1.25486086      -4.11114828      -0.32059598
H       -1.28769675       1.91178138       1.16771912
H       -1.02294879       3.26465327       1.81786278
17
Properties=species:S:1:pos:R:3 relative_energy_eV=0.07098551025046618 branch=right pbc="F F F"
C        0.33677593      -0.81147537       0.98901841
C        0.31359998      -1.07472777      -0.32734143
O        0.00265890      -0.27663559      -1.35593305
P       -0.58776635       1.32145130      -1.27656814
O       -0.66823049       1.73323332      -2.70320139
O       -1.75906346       1.30206111      -0.31828611
O        0.67371304       2.08137133      -0.55401138
C        0.68602739      -2.42984106      -0.81920736
O        0.69591682      -2.78298565      -1.97818760
O        1.04054174      -3.31240548       0.17482768
O       -0.75640390       2.38386401       1.91511865
H        0.06652477       0.14247084       1.40857714
H        0.62834657      -1.58916353       1.67543271
H        0.45986025       2.21440033       0.38763573
H        1.25428983      -4.12183949      -0.31237052
H       -1.33204161       1.92505790       1.24433009
H       -1.03890295       3.30080464       1.84744744
17
Properties=species:S:1:pos:R:3 relative_energy_eV=0.05801980892647407 branch=right pbc="F F F"
C        0.33420973      -0.80985673       0.96885504
C        0.32456403      -1.08543091      -0.34375567
O        0.03157035      -0.27729410      -1.36865781
P       -0.58295467       1.31528536      -1.27317278
O       -0.68673852       1.71854607      -2.70066750
O       -1.73444269       1.30804138      -0.28322306
O        0.70019382       2.06840356      -0.56967282
C        0.69288304      -2.44534649      -0.83117176
O        0.70644642      -2.81103033      -1.98622784
O        1.04521577      -3.31491611       0.17348784
O       -0.79655037       2.41069589       1.96522631
H        0.04635859       0.14696363       1.37048164
H        0.62270474      -1.58172842       1.66005987
H        0.46446816       2.19524508       0.36676355
H        1.25281966      -4.13366241      -0.29960825
H       -1.35392110       1.96564421       1.26905893
H       -1.05098052       3.33608111       1.87950521
17
Properties=species:S:1:pos:R:3 relative_energy_eV=0.050898208104626974 branch=right pbc="F F F"
C        0.33124717      -0.81491880       0.95093869
C        0.33543273      -1.09111645      -0.36042451
O        0.03814634      -0.28509168      -1.38751863
P       -0.57759059       1.30182613      -1.26973003
O       -0.71243926       1.72127277      -2.68881817
O       -1.72138033       1.28617302      -0.27562489
O        0.70965859       2.05625086      -0.57169574
C        0.70325543      -2.45267701      -0.83663712
O        0.71279326      -2.82635382      -1.98869376
O        1.04794747      -3.31944336       0.17447058
O       -0.83062470       2.43528335       1.99394341
H        0.02713817       0.13857473       1.34150132
H        0.61861486      -1.57329278       1.65748577
H        0.49919680       2.20118481       0.36650879
H        1.25229488      -4.14397132      -0.29080493
H       -1.35931612       2.00373361       1.26748013
H       -1.05852828       3.36820677       1.91489993
17
Properties=species:S:1:pos:R:3 relative_energy_eV=0.047787288789550075 branch=right pbc="F F F"
C        0.33079753      -0.81533029       0.94511549
C        0.33315012      -1.09850435      -0.36564978
O        0.03441344      -0.29131126      -1.39203395
P       -0.57859584       1.30010609      -1.26040951
O       -0.71566888       1.73121232      -2.67599777
O       -1.71239836       1.26445713      -0.25475499
O        0.71314559       2.05820005      -0.57488648
C        0.70625537      -2.46028841      -0.84006720
O        0.72283117      -2.83498600      -1.99201328
O        1.05359702      -3.32319323       0.17375649
O       -0.83062465       2.45201506       1.98391492
H        0.00821977       0.13518159       1.33093758
H        0.61951459      -1.57307120       1.65191607
H        0.51724063       2.19646877       0.36672370
H        1.25225708      -4.14991376      -0.28952646
H       -1.36650286       2.03173069       1.25673786
H       -1.07178528       3.38286767       1.93351815
17
Properties=species:S:1:pos:R:3 relative_energy_eV=0.04575743729583337 branch=right pbc="F F F"
C        0.31743592      -0.82723278       0.94331361
C        0.33209306      -1.10283738      -0.36807433
O        0.03726458      -0.29235423      -1.39290088
P       -0.57896112       1.29581824      -1.25455520
O       -0.72751433       1.74016461      -2.66440392
O       -1.71147627       1.26067900      -0.24729152
O        0.71767616       2.04748621      -0.57377580
C        0.71298000      -2.46213041      -0.84253306
O        0.73329005      -2.83839666      -1.99375369
O        1.05387159      -3.32785781       0.17063161
O       -0.81938221       2.48149151       1.97069293
H       -0.01169371       0.12054193       1.32577978
H        0.62964600      -1.57486392       1.65022030
H        0.52514835       2.18401767       0.36896093
H        1.25798696      -4.15351844      -0.29300595
H       -1.35862028       2.04953781       1.25326758
H       -1.09389829       3.40509545       1.94470854
17
Properties=species:S:1:pos:R:3 relative_energy_eV=0.04311742501522531 branch=right pbc="F F F"
C        0.31326426      -0.84016635       0.93788330
C        0.32955658      -1.11409592      -0.37543895
O        0.03169392      -0.30040286      -1.39834144
P       -0.57989718       1.29354210      -1.24602058
O       -0.74547402       1.74215678      -2.65328070
O       -1.69947885       1.25572528      -0.22435962
O        0.72890236       2.02482565      -0.56889784
C        0.71855476      -2.47139450      -0.85054840
O        0.75718538      -2.84090956      -2.00368759
O        1.05808679      -3.33642623       0.16513478
O       -0.80545868       2.53906042       1.96405335
H       -0.05971401       0.09182502       1.32151272
H        0.63830875      -1.58250774       1.64615640
H        0.53869132       2.17009886       0.37258004
H        1.26989294      -4.15925554      -0.29923939
H       -1.34190626       2.09063261       1.25501464
H       -1.13636154       3.44293270       1.95476040
17
Properties=species:S:1:pos:R:3 relative_energy_eV=0.03912775037315441 branch=right pbc="F F F"
C        0.29443009      -0.86604176       0.93203997
C        0.32631527      -1.13074051      -0.38174293
O        0.00145376      -0.32126778      -1.39793788
P       -0.57963129       1.27748461      -1.22532986
O       -0.75813085       1.72930141      -2.62901595
O       -1.68058725       1.26063498      -0.18131810
O        0.74755995       1.99440147      -0.56645500
C        0.73994350      -2.47692009      -0.86558529
O        0.79427485      -2.83878730      -2.02041382
O        1.06146540      -3.34881747       0.14773109
O       -0.79922163       2.63615055       1.95899156
H       -0.13417867       0.03850340       1.31858948
H        0.64895186      -1.59918946       1.63331361
H        0.55974344       2.16233891       0.37148824
H        1.29407951      -4.16659763      -0.31546164
H       -1.30590325       2.14011164       1.26051494
H       -1.19471800       3.51507565       1.95787310
17
Properties=species:S:1:pos:R:3 relative_energy_eV=0.03368966186826583 branch=right pbc="F F F"
C        0.24944931      -0.92231294       0.93771779
C        0.29986288      -1.16143930      -0.38043150
O       -0.04954649      -0.34554468      -1.38416417
P       -0.58184711       1.26871088      -1.19867146
O       -0.77436470       1.71571082      -2.60233230
O       -1.65512173       1.27225980      -0.12655995
O        0.77412895       1.95572930      -0.56731323
C        0.75815858      -2.48527242      -0.87932835
O        0.85203197      -2.81705640      -2.04087183
O        1.08417246      -3.36844616       0.12468734
O       -0.79391282       2.74976692       1.95699239
H       -0.20964023      -0.03033921       1.32024107
H        0.66393516      -1.63410921       1.63172228
H        0.60377072       2.17804682       0.36123186
H        1.32864259      -4.17436035      -0.35262071
H       -1.27677429       2.21041089       1.27130642
H       -1.25709837       3.59388587       1.92567642
17
Properties=species:S:1:pos:R:3 relative_energy_eV=0.029034105100436136 branch=right pbc="F F F"
C        0.24147364      -0.93666794       0.94766705
C        0.28135096      -1.17630145      -0.37068989
O       -0.06060763      -0.35266004      -1.37042355
P       -0.58116924       1.26774741      -1.19211151
O       -0.78425859       1.71079969      -2.59542220
O       -1.65227336       1.29010660      -0.11886922
O        0.78638168       1.95221992      -0.57654014
C        0.76281970      -2.48801434      -0.88322140
O        0.86872433      -2.80526725      -2.04762316
O        1.09745194      -3.37647729       0.11112017
O       -0.81086268       2.76692839       1.95889771
H       -0.21133158      -0.04449247       1.33454597
H        0.64486427      -1.65373291       1.64081410
H        0.62128787       2.19330118       0.34803270
H        1.34654482      -4.17707895      -0.37278708
H       -1.28761535       2.21173745       1.28335252
H       -1.24693385       3.62349274       1.90054019
17
Properties=species:S:1:pos:R:3 relative_energy_eV=0.025190813350491226 branch=right pbc="F F F"
C        0.22870184      -0.95431006       0.95829724
C        0.29002902      -1.17769908      -0.36289304
O       -0.07045985      -0.35703646      -1.35928883
P       -0.58657417       1.26362780      -1.18261618
O       -0.80275433       1.70984633      -2.58312424
O       -1.64976084       1.29216501      -0.10174772
O        0.79321620       1.93688653      -0.58370713
C        0.77396326      -2.48786932      -0.88701623
O        0.88375380      -2.79183100      -2.05455051
O        1.10193896      -3.39327532       0.09508274
O       -0.81544421       2.79998797       1.95760440
H       -0.22544633      -0.06518590       1.35368284
H        0.60959665      -1.68560833       1.65003147
H        0.63745774       2.19426043       0.33722308
H        1.38141766      -4.17915448      -0.39831018
H       -1.29440462       2.24039278       1.28633815
H       -1.23938382       3.66044378       1.87227664
17
Properties=species:S:1:pos:R:3 relative_energy_eV=0.02066694809764158 branch=right pbc="F F F"
C        0.20560100      -0.98554085       0.97257000
C        0.27714432      -1.19203681      -0.34993492
O       -0.06678075      -0.36171714      -1.34291676
P       -0.59483637       1.25347231      -1.16694377
O       -0.82609284       1.69533581      -2.56667918
O       -1.64378048       1.27706906      -0.07212269
O        0.78584884       1.93636514      -0.58379061
C        0.78418166      -2.48133204      -0.88687341
O        0.90692281      -2.75528195      -2.06017649
O        1.11620094      -3.40048873       0.07960093
O       -0.80213913       2.85199373       1.93376973
H       -0.23997394      -0.09294882       1.36793635
H        0.55521372      -1.74123163       1.65473186
H        0.63883494       2.17051740       0.34459123
H        1.42400378      -4.16066067      -0.43528430
H       -1.28664559       2.27886685       1.27925922
H       -1.21785584       3.71325896       1.82954556
17
Properties=species:S:1:pos:R:3 relative_energy_eV=0.01865036811432219 branch=right pbc="F F F"
C        0.19218998      -0.98879980       0.97332371
C        0.27763224      -1.18927828      -0.34973150
O       -0.05940540      -0.35687992      -1.34194144
P       -0.59785620       1.25064985      -1.16418756
O       -0.83425838       1.68057949      -2.56630745
O       -1.64724947       1.27086085      -0.06973000
O        0.77779024       1.94635038      -0.57965629
C        0.78624578      -2.47902860      -0.89185850
O        0.91264395      -2.75563434      -2.06446468
O        1.12559856      -3.39503563       0.07417287
O       -0.80361681       2.84925687       1.94010838
H       -0.23357108      -0.08780833       1.37233647
H        0.52882655      -1.74982383       1.65585180
H        0.63364015       2.16660546       0.35335374
H        1.43265409      -4.15956148      -0.43577283
H       -1.28526592       2.28107395       1.27913287
H       -1.19015121       3.72211399       1.81265321
17
Properties=species:S:1:pos:R:3 relative_energy_eV=0.016325032727763755 branch=right pbc="F F F"
C        0.17102448      -1.00547608       0.97216404
C        0.27516579      -1.19676015      -0.35144714
O       -0.05920318      -0.35504406      -1.33811123
P       -0.61309058       1.25276696      -1.15141817
O       -0.84958045       1.68702830      -2.55238815
O       -1.66339205       1.27024786      -0.05745891
O        0.75701006       1.95530390      -0.56896692
C        0.80139005      -2.47978814      -0.89467754
O        0.93376133      -2.74850806      -2.06811866
O        1.15121860      -3.39372997       0.07125409
O       -0.77692694       2.86541574       1.92533164
H       -0.26035489      -0.10761496       1.37448120
H        0.49052365      -1.77146091       1.65757501
H        0.62554232       2.16658314       0.36762844
H        1.45381227      -4.15993121      -0.43855588
H       -1.27267062       2.28718795       1.28444798
H       -1.14838269       3.73942025       1.76554313
17
Properties=species:S:1:pos:R:3 relative_energy_eV=0.013925004343036562 branch=right pbc="F F F"
C        0.15449456      -1.01577461       0.97223889
C        0.27430841      -1.19471788      -0.35077161
O       -0.06345143      -0.34899036      -1.33274883
P       -0.62042088       1.25692017      -1.14601440
O       -0.86449864       1.69247291      -2.54549468
O       -1.66950671       1.26317084      -0.05071954
O        0.74833045       1.96239263      -0.55972281
C        0.81562180      -2.47234828      -0.89406115
O        0.94646943      -2.74959175      -2.06605211
O        1.16782047      -3.38315663       0.07464228
O       -0.76201116       2.85818046       1.92512180
H       -0.28836961      -0.11846859       1.36046487
H        0.46164080      -1.79011483       1.65355768
H        0.60125221       2.18056951       0.37496591
H        1.46903723      -4.15145327      -0.43277343
H       -1.27017018       2.27624532       1.29789128
H       -1.08469951       3.74030480       1.71675884
17
Properties=species:S:1:pos:R:3 relative_energy_eV=0.010204017075011507 branch=right pbc="F F F"
C        0.10537999      -1.03984485       0.97543115
C        0.25664347      -1.19694888      -0.34823002
O       -0.07412412      -0.34783657      -1.33013091
P       -0.63579782       1.25237751      -1.12748362
O       -0.88389800       1.70768758      -2.52048156
O       -1.68649483       1.24737193      -0.03267959
O        0.73122847       1.95056201      -0.53438748
C        0.82694548      -2.45856076      -0.89485437
O        0.98277379      -2.72669348      -2.06609379
O        1.19010613      -3.36206997       0.07456238
O       -0.70623183       2.85976889       1.89309968
H       -0.36461256      -0.16480582       1.38394740
H        0.42931582      -1.81353183       1.64952049
H        0.56259360       2.21585732       0.38719983
H        1.51331776      -4.11917619      -0.43466670
H       -1.24890936       2.26258008       1.31088628
H       -0.98238854       3.73890325       1.61164415
17
Properties=species:S:1:pos:R:3 relative_energy_eV=0.009432156493858201 branch=right pbc="F F F"
C        0.09604708      -1.04249723       0.97565547
C        0.25038287      -1.19721403      -0.34758076
O       -0.07522600      -0.34539028      -1.32866479
P       -0.63958963       1.25299215      -1.12380375
O       -0.88780763       1.70261552      -2.51869911
O       -1.68897414       1.24501467      -0.02752867
O        0.72975820       1.94773767      -0.53133763
C        0.82912265      -2.45570334      -0.89303169
O        0.98670504      -2.71618055      -2.06550523
O        1.19238486      -3.36499816       0.07317407
O       -0.70186658       2.86059354       1.88992896
H       -0.37706787      -0.16927404       1.38403982
H        0.42223026      -1.81697078       1.64763488
H        0.56261970       2.21781086       0.38930272
H        1.52887373      -4.11701533      -0.43615081
H       -1.24949009       2.26308090       1.31222143
H       -0.96225500       3.74103867       1.59762849
17
Properties=species:S:1:pos:R:3 relative_energy_eV=0.008838480429403717 branch=right pbc="F F F"
C        0.08524747      -1.04462791       0.97734594
C        0.24577895      -1.19966317      -0.34439896
O       -0.08166095      -0.34884213      -1.32555061
P       -0.64212401       1.25077249      -1.12102555
O       -0.89327328       1.70127521      -2.51477300
O       -1.69251782       1.24847610      -0.02579980
O        0.72766802       1.94621203      -0.52948883
C        0.83064144      -2.45394533      -0.89269224
O        0.99560448      -2.70766258      -2.06555472
O        1.19186946      -3.36606562       0.07077707
O       -0.69084109       2.86082288       1.88574470
H       -0.40008004      -0.17461689       1.37821588
H        0.41952170      -1.81509408       1.64922777
H        0.56257021       2.21058222       0.39385425
H        1.54801553      -4.10894743      -0.43824969
H       -1.24746209       2.26624850       1.31506004
H       -0.94311039       3.74071600       1.58459129
17
Properties=species:S:1:pos:R:3 relative_energy_eV=0.008086379635642515 branch=right pbc="F F F"
C        0.07421285      -1.04665160       0.97806081
C        0.23730467      -1.20172802      -0.34408883
O       -0.09590591      -0.35158970      -1.32437293
P       -0.64868172       1.25100108      -1.12091055
O       -0.89331848       1.70067825      -2.51622758
O       -1.69966444       1.25401035      -0.02600645
O        0.72419883       1.94008803      -0.53029854
C        0.83260500      -2.45069021      -0.89287195
O        1.00929908      -2.70066157      -2.06503209
O        1.19433236      -3.36241502       0.07029076
O       -0.68393857       2.85604206       1.88934250
H       -0.42404253      -0.18152596       1.37316110
H        0.41593550      -1.80409526       1.66191906
H        0.56508225       2.19853487       0.39515164
H        1.56584467      -4.09575103      -0.44180226
H       -1.24151684       2.26399326       1.31608840
H       -0.91589895       3.73640086       1.57488049
17
Properties=species:S:1:pos:R:3 relative_energy_eV=0.0067016642351518385 branch=right pbc="F F F"
C        0.04444815      -1.04390795       0.97970455
C        0.21695531      -1.20242975      -0.34011895
O       -0.13733180      -0.36604891      -1.32570346
P       -0.65960529       1.24720744      -1.12803066
O       -0.90152332       1.70699607      -2.52056592
O       -1.70387213       1.26625242      -0.02694906
O        0.72648448       1.91428036      -0.54265027
C        0.84499032      -2.43737760      -0.88588294
O        1.03891851      -2.67172937      -2.05835682
O        1.21399407      -3.35250060       0.07165186
O       -0.67270281       2.84854182       1.89969476
H       -0.47747357      -0.19000513       1.36846831
H        0.40899276      -1.78651586       1.66706229
H        0.57699688       2.14372889       0.39192390
H        1.59828159      -4.07732284      -0.44424034
H       -1.23423322       2.27142009       1.31641467
H       -0.86747179       3.73505151       1.57486198
17
Properties=species:S:1:pos:R:3 relative_energy_eV=0.005133170539920684 branch=right pbc="F F F"
C        0.02792796      -1.04635923       0.98060840
C        0.20408215      -1.20035552      -0.34066682
O       -0.16740859      -0.37437159      -1.32864645
P       -0.67099348       1.24385536      -1.12872886
O       -0.90767056       1.70114554      -2.52256492
O       -1.71769538       1.28116770      -0.03048712
O        0.72684020       1.88999163      -0.54823929
C        0.85649103      -2.42214503      -0.88529526
O        1.06229140      -2.65442639      -2.05647027
O        1.23079591      -3.33057344       0.07587514
O       -0.66337014       2.84255204       1.90486881
H       -0.50494270      -0.19830832       1.37097054
H        0.39444640      -1.79206579       1.66627590
H        0.59672325       2.11551014       0.38845133
H        1.61217940      -4.05786860      -0.43882484
H       -1.23103412       2.27586869       1.31553095
H       -0.83281439       3.73202352       1.57462687
17
Properties=species:S:1:pos:R:3 relative_energy_eV=0.004199062885163585 branch=right pbc="F F F"
C       -0.00725968      -1.05498457       0.97983041
C        0.18152999      -1.20351306      -0.33925254
O       -0.20973932      -0.38545800      -1.32549392
P       -0.68510470       1.24123384      -1.13011646
O       -0.92033970       1.70045081      -2.52367874
O       -1.72402889       1.29676880      -0.02548705
O        0.72723357       1.86288117      -0.55803832
C        0.86914974      -2.40561233      -0.88116834
O        1.09820441      -2.62202869      -2.05077653
O        1.24826322      -3.31331682       0.07906175
O       -0.64033755       2.83843608       1.90572695
H       -0.55806868      -0.21782175       1.36736203
H        0.37352403      -1.79016643       1.66689355
H        0.60837872       2.06938698       0.38481853
H        1.65519346      -4.02605410      -0.43523679
H       -1.22682849       2.28739175       1.32203894
H       -0.77392144       3.72804721       1.56080097
17
Properties=species:S:1:pos:R:3 relative_energy_eV=0.0032063095895864535 branch=right pbc="F F F"
C       -0.03439756      -1.06476998       0.97581957
C        0.16282552      -1.20524851      -0.34304829
O       -0.23855908      -0.39142100      -1.32955213
P       -0.69841080       1.24057730      -1.13139365
O       -0.93583342       1.70405596      -2.52312600
O       -1.73196728       1.30632817      -0.02223291
O        0.72348265       1.84867492      -0.56683015
C        0.87700048      -2.39449985      -0.88079394
O        1.12758711      -2.60597274      -2.04681513
O        1.25878837      -3.29473542       0.08563097
O       -0.62181474       2.83321332       1.91091932
H       -0.58173081      -0.22555215       1.36370614
H        0.33710031      -1.80771348       1.66048977
H        0.61445485       2.04758814       0.37863657
H        1.69723142      -3.99838527      -0.41491721
H       -1.21507861       2.29111162       1.32582750
H       -0.72482956       3.72238999       1.55496414
17
Properties=species:S:1:pos:R:3 relative_energy_eV=0.0028328524640528485 branch=right pbc="F F F"
C       -0.04325523      -1.06505991       0.97182757
C        0.15484864      -1.20697758      -0.34667309
O       -0.24623039      -0.39376369      -1.33381448
P       -0.70048699       1.24054559      -1.13382578
O       -0.94061195       1.70531363      -2.52455211
O       -1.72964055       1.31047152      -0.02108603
O        0.72438900       1.84398648      -0.57306258
C        0.87675431      -2.39405957      -0.87784302
O        1.13637294      -2.60659962      -2.04168844
O        1.25855535      -3.29150077       0.09155625
O       -0.61434804       2.83062426       1.91468493
H       -0.58768828      -0.22561450       1.36323592
H        0.32804217      -1.80958565       1.65407244
H        0.62083583       2.04313921       0.37270131
H        1.71003897      -3.98549804      -0.41046028
H       -1.20664436       2.28910534       1.32759819
H       -0.72508255       3.72111431       1.56461368
17
Properties=species:S:1:pos:R:3 relative_energy_eV=0.002110666740918532 branch=right pbc="F F F"
C       -0.06578653      -1.06783997       0.96979121
C        0.14258972      -1.20636426      -0.34736747
O       -0.26415320      -0.39836482      -1.33682869
P       -0.70308612       1.23927858      -1.13868270
O       -0.95205246       1.70363047      -2.52787525
O       -1.72404802       1.31756292      -0.01876842
O        0.73226265       1.82969527      -0.59140695
C        0.87978978      -2.38507064      -0.87488639
O        1.14807635      -2.59588298      -2.03706953
O        1.26469989      -3.27724382       0.09781315
O       -0.58574127       2.82024039       1.91126701
H       -0.62065010      -0.23269125       1.35506582
H        0.30849967      -1.80739049       1.65593015
H        0.63932771       2.03508332       0.35400117
H        1.73282423      -3.96592265      -0.39599253
H       -1.18001467       2.27761360       1.32630314
H       -0.73668868       3.71930710       1.59599071
17
Properties=species:S:1:pos:R:3 relative_energy_eV=0.0013533715209632646 branch=right pbc="F F F"
C       -0.08472482      -1.07116078       0.96773825
C        0.13780588      -1.20815337      -0.34772994
O       -0.26038269      -0.39715638      -1.33865027
P       -0.70506691       1.23952506      -1.14347555
O       -0.96157047       1.69766681      -2.53358279
O       -1.72047632       1.32109480      -0.01820654
O        0.72996149       1.83744021      -0.60413273
C        0.88439388      -2.38250438      -0.87080515
O        1.15071145      -2.59467547      -2.03327392
O        1.28171179      -3.26541193       0.10631401
O       -0.55972352       2.80742682       1.91175369
H       -0.63930465      -0.23456602       1.35090198
H        0.27654519      -1.81365921       1.65777360
H        0.63670541       2.05549049       0.33918872
H        1.74256451      -3.95805102      -0.38990293
H       -1.16294667       2.26663374       1.33456995
H       -0.73035474       3.70570115       1.60880391
17
Properties=species:S:1:pos:R:3 relative_energy_eV=0.0008080363040789962 branch=right pbc="F F F"
C       -0.11397010      -1.07722725       0.96887914
C        0.12622374      -1.20712369      -0.34349360
O       -0.27753300      -0.40230064      -1.33739465
P       -0.71235659       1.23721249      -1.14902031
O       -0.97533995       1.68908938      -2.53979426
O       -1.72177441       1.33054674      -0.01945275
O        0.72942045       1.82906706      -0.62110801
C        0.89164949      -2.37063150      -0.86446372
O        1.16676904      -2.57746128      -2.02590086
O        1.29519731      -3.25273227       0.10996119
O       -0.53514193       2.79412220       1.91396629
H       -0.68059051      -0.24470844       1.34268737
H        0.24614423      -1.81753029       1.66179462
H        0.64532759       2.04348528       0.32353747
H        1.77611363      -3.93222228      -0.38416186
H       -1.14617287       2.26484575       1.33470140
H       -0.69811716       3.69920919       1.62654690
17
Properties=species:S:1:pos:R:3 relative_energy_eV=7.93854269431904e-07 branch=right pbc="F F F"
C       -0.12953477      -1.07911662       0.96646720
C        0.12081258      -1.20579123      -0.34462038
O       -0.27660563      -0.40114182      -1.34078168
P       -0.71440952       1.24006819      -1.16551046
O       -0.98030691       1.67698152      -2.56055439
O       -1.71981751       1.34366488      -0.03322623
O        0.72603943       1.84384334      -0.64764049
C        0.89316356      -2.36807021      -0.85840236
O        1.16767910      -2.58224672      -2.01857567
O        1.30480389      -3.23860874       0.12334009
O       -0.51729048       2.76760523       1.92415946
H       -0.70636952      -0.25325452       1.34033985
H        0.23406973      -1.81791838       1.65945028
H        0.64964643       2.04712753       0.30001453
H        1.78676968      -3.92066671      -0.36672386
H       -1.13481310       2.26608121       1.32693865
H       -0.68798776       3.68708346       1.69260962
