17
Properties=species:S:1:pos:R:3 relative_energy_eV=2.580385411692987 branch=ts pbc="F F F"
C        0.30524950      -1.05719198       0.39845511
C       -1.00283999      -0.82162305       0.75466616
O       -1.39091603       0.41554445       0.64507988
P        1.89010651       1.92982139      -1.14142766
O        1.97919702       3.35412814      -1.61183838
O        2.98064301       0.91220159      -1.15820778
O        0.54525164       1.25166563      -1.90612063
C       -2.00906036      -1.87990300       1.05096115
O       -3.15533925      -1.68917352       1.39558354
O       -1.50527466      -3.13558001       0.89009776
O        1.31500989       1.93227651       0.44291806
H        1.07246132      -0.41490971       0.79445995
H        0.66887849      -1.98835399       0.00757257
H        0.08538246       1.98287883      -2.33896872
H       -2.24414612      -3.72333416       1.10956840
H        0.67100121       2.64594665       0.53275594
H       -0.12803387       0.29949412       0.01836977
