17
Properties=species:S:1:pos:R:3 relative_energy_eV=0.0 branch=left pbc="F F F"
O        2.59253617      -1.49111670       0.02053776
C        2.07671794      -0.40209491       0.14333249
O        2.75473635       0.63327926       0.73540575
C        0.70290099      -0.03123285      -0.29253789
O       -0.06862785      -1.11133955      -0.47532291
P       -1.77765351      -1.05066791      -0.64949092
O       -2.16737260      -2.48833895      -0.71327292
O       -2.31551976      -0.03231581       0.31190987
O       -1.88037049      -0.38874595      -2.16829148
C        0.36789574       1.25366698      -0.47658664
O       -0.91544512       0.88580410       2.56831166
H        3.60575781       0.24398728       0.98757289
H       -0.12762508       1.11753583       2.06600847
H       -1.83519865      -1.13094306      -2.78241535
H       -0.64123531       1.52892591      -0.72379837
H        1.09737558       2.03267766      -0.33459097
H       -1.49213753       0.53800494       1.85500336
17
Properties=species:S:1:pos:R:3 relative_energy_eV=0.0002597264501673635 branch=left pbc="F F F"
O        2.59520462      -1.48608674       0.01450478
C        2.07562999      -0.39948077       0.14275143
O        2.74821419       0.63325783       0.74522671
C        0.70262634      -0.02744971      -0.29525307
O       -0.06874960      -1.10691759      -0.48104355
P       -1.77937886      -1.04980608      -0.65001904
O       -2.16612309      -2.48885828      -0.70728138
O       -2.31480524      -0.02844371       0.30940449
O       -1.89046321      -0.39478470      -2.17118314
C        0.37065649       1.25816074      -0.47928432
O       -0.90633273       0.87843610       2.56496394
H        3.59644200       0.24291501       1.00491235
H       -0.11910339       1.11110728       2.06196194
H       -1.84334775      -1.14112217      -2.78117207
H       -0.63719464       1.53549825      -0.72905629
H        1.10209560       2.03426617      -0.33099919
H       -1.48863590       0.53639470       1.85334127
17
Properties=species:S:1:pos:R:3 relative_energy_eV=0.0007149819939513691 branch=left pbc="F F F"
O        2.59178855      -1.48392124       0.00963480
C        2.07260464      -0.39755412       0.14046490
O        2.74108343       0.63211307       0.75316890
C        0.70156885      -0.02438964      -0.30278251
O       -0.06897398      -1.10389389      -0.49161719
P       -1.78027699      -1.05022418      -0.64955846
O       -2.16785959      -2.48914121      -0.69759297
O       -2.31192358      -0.02668778       0.30951759
O       -1.89693113      -0.40088156      -2.17249716
C        0.37232269       1.26238112      -0.48405324
O       -0.89869102       0.87300816       2.56791888
H        3.58585235       0.23992225       1.02139516
H       -0.11789906       1.11789562       2.05982378
H       -1.84182342      -1.14662560      -2.78203204
H       -0.63447689       1.54583915      -0.73181285
H        1.10735028       2.03524617      -0.33516674
H       -1.47698008       0.52400010       1.85696407
17
Properties=species:S:1:pos:R:3 relative_energy_eV=0.0011567336368898395 branch=left pbc="F F F"
O        2.58930011      -1.48280287       0.00544141
C        2.06968186      -0.39772120       0.14337582
O        2.73542294       0.62709040       0.76562339
C        0.70126754      -0.02132926      -0.30454258
O       -0.06975662      -1.09877701      -0.49885870
P       -1.78097660      -1.04798899      -0.64915504
O       -2.15859593      -2.48968655      -0.69122771
O       -2.31139525      -0.02113086       0.30698336
O       -1.90757929      -0.40409420      -2.17301756
C        0.37311056       1.26536681      -0.48735288
O       -0.89201872       0.86375561       2.56942435
H        3.58281713       0.23598621       1.02729899
H       -0.11705242       1.12300362       2.06101956
H       -1.84149389      -1.15121686      -2.77934773
H       -0.63235265       1.54890992      -0.74005605
H        1.10661881       2.03941585      -0.33931585
H       -1.47026244       0.51830593       1.85548221
17
Properties=species:S:1:pos:R:3 relative_energy_eV=0.0020463368091441225 branch=left pbc="F F F"
O        2.59777929      -1.47306779      -0.00665771
C        2.07086262      -0.39210549       0.14037178
O        2.72205074       0.62412252       0.79166318
C        0.70577316      -0.01426458      -0.31599966
O       -0.06390206      -1.09253163      -0.51269136
P       -1.77633419      -1.04089820      -0.65048156
O       -2.15959770      -2.48156937      -0.67308107
O       -2.30150691      -0.00257372       0.29701237
O       -1.91165290      -0.41621006      -2.18194266
C        0.37566247       1.27173800      -0.49927316
O       -0.88823530       0.85059651       2.57165795
H        3.56849987       0.23028761       1.05239368
H       -0.10240810       1.10523636       2.07610192
H       -1.87219638      -1.17518610      -2.77596137
H       -0.63298889       1.54809339      -0.74805507
H        1.10628374       2.04762969      -0.34332456
H       -1.46135428       0.51778963       1.85004235
17
Properties=species:S:1:pos:R:3 relative_energy_eV=0.0027104333275929093 branch=left pbc="F F F"
O        2.59586520      -1.46900065      -0.01210213
C        2.06895866      -0.38953756       0.14207566
O        2.72237108       0.62270563       0.79660483
C        0.70430264      -0.01221523      -0.31478897
O       -0.06435801      -1.09079029      -0.51498743
P       -1.77591279      -1.04068558      -0.65174580
O       -2.15802872      -2.48164200      -0.66439206
O       -2.29657562       0.00229946       0.29267441
O       -1.91409697      -0.42104315      -2.18515823
C        0.37338574       1.27287586      -0.50103852
O       -0.88009743       0.83768793       2.57394340
H        3.56347260       0.22215565       1.06571700
H       -0.09780282       1.11347899       2.08546121
H       -1.87877545      -1.17820887      -2.78165735
H       -0.63389197       1.54771157      -0.75543508
H        1.09979547       2.05264871      -0.34681845
H       -1.45187645       0.51864642       1.84342262
17
Properties=species:S:1:pos:R:3 relative_energy_eV=0.0034415343434375245 branch=left pbc="F F F"
O        2.59723254      -1.46566119      -0.01717769
C        2.06800766      -0.38793446       0.14313660
O        2.71392998       0.62143366       0.81028645
C        0.70349881      -0.00859413      -0.31439458
O       -0.06340963      -1.08867592      -0.51737676
P       -1.77494659      -1.04027323      -0.65580423
O       -2.16482587      -2.47963338      -0.66341457
O       -2.29218095       0.00901904       0.28364039
O       -1.91122660      -0.42824359      -2.19247736
C        0.37001390       1.27694778      -0.49570298
O       -0.87359538       0.83863579       2.56517584
H        3.55703824       0.22682749       1.08173698
H       -0.07855325       1.10083396       2.08979461
H       -1.89717006      -1.19226577      -2.78090750
H       -0.63778235       1.54799696      -0.75306416
H        1.09495885       2.05811991      -0.33828969
H       -1.43425416       0.51855404       1.82661375
17
Properties=species:S:1:pos:R:3 relative_energy_eV=0.004591460336087039 branch=left pbc="F F F"
O        2.60480393      -1.45160386      -0.02762712
C        2.06696662      -0.38074050       0.14682626
O        2.69995018       0.62204616       0.83502703
C        0.70457391      -0.00487224      -0.31570751
O       -0.06071447      -1.08480534      -0.52468557
P       -1.77342355      -1.03495331      -0.65947496
O       -2.16585956      -2.47360115      -0.66148054
O       -2.28956592       0.01684239       0.27845697
O       -1.90900161      -0.44218198      -2.20403806
C        0.37285982       1.28078487      -0.49621135
O       -0.86466132       0.84171633       2.55769346
H        3.54765587       0.23195709       1.09833945
H       -0.05214022       1.05097123       2.08373476
H       -1.93283483      -1.21889424      -2.77630078
H       -0.63148538       1.55741771      -0.75906182
H        1.09407011       2.06152761      -0.32336265
H       -1.43445834       0.53547621       1.81964756
17
Properties=species:S:1:pos:R:3 relative_energy_eV=0.005451658682432026 branch=left pbc="F F F"
O        2.61987142      -1.44189054      -0.03396999
C        2.06950873      -0.37770117       0.14441734
O        2.69332473       0.62543607       0.84182056
C        0.70530625      -0.00430250      -0.31930634
O       -0.06031409      -1.08361361      -0.53168890
P       -1.77272458      -1.03261946      -0.66225725
O       -2.16899719      -2.47049554      -0.65447345
O       -2.28324971       0.02590421       0.27055491
O       -1.90816724      -0.44787969      -2.20932659
C        0.37680852       1.28260579      -0.49775242
O       -0.86541720       0.84196480       2.55763404
H        3.53982943       0.23575065       1.11044825
H       -0.04442098       1.02079458       2.08511552
H       -1.95654519      -1.23194568      -2.76894091
H       -0.62756529       1.56051611      -0.76019230
H        1.10221611       2.05943614      -0.32190746
H       -1.44272841       0.54512682       1.82160013
17
Properties=species:S:1:pos:R:3 relative_energy_eV=0.006866067167720757 branch=left pbc="F F F"
O        2.62477678      -1.43823818      -0.03824784
C        2.06900155      -0.37736937       0.14149057
O        2.68238994       0.62945978       0.84151423
C        0.70556407      -0.00969530      -0.32026591
O       -0.05847738      -1.09028368      -0.52827815
P       -1.77061339      -1.03175266      -0.66256098
O       -2.16739173      -2.46949707      -0.65302909
O       -2.28112837       0.03652929       0.25964428
O       -1.90696466      -0.45110351      -2.21035642
C        0.37692106       1.27747523      -0.49426522
O       -0.86383099       0.83477062       2.55672742
H        3.52849315       0.24521136       1.11597309
H       -0.03947333       1.02114133       2.09228722
H       -1.96963779      -1.23390110      -2.77039476
H       -0.62565308       1.56523055      -0.75014678
H        1.10745064       2.04874345      -0.31949236
H       -1.43469101       0.55036632       1.81117588
17
Properties=species:S:1:pos:R:3 relative_energy_eV=0.00920425540607539 branch=left pbc="F F F"
O        2.63502267      -1.43743759      -0.04077528
C        2.07034205      -0.38159744       0.14220150
O        2.67305266       0.63059400       0.84809113
C        0.70533807      -0.01638463      -0.32096416
O       -0.06388129      -1.09210358      -0.53415204
P       -1.77556673      -1.02884008      -0.66869986
O       -2.17228994      -2.46573966      -0.64340662
O       -2.28418222       0.03887818       0.25545683
O       -1.91108158      -0.45299289      -2.22095078
C        0.38178636       1.27232420      -0.49127459
O       -0.86230840       0.82978312       2.55558574
H        3.52978973       0.26695470       1.11781468
H       -0.03522253       1.02889008       2.10547812
H       -1.97878408      -1.23578040      -2.77998228
H       -0.62416497       1.55896086      -0.73427544
H        1.11740964       2.04055522      -0.32274661
H       -1.42852387       0.55102300       1.80437483
17
Properties=species:S:1:pos:R:3 relative_energy_eV=0.013757518729107687 branch=left pbc="F F F"
O        2.64675781      -1.42987537      -0.03654287
C        2.06919115      -0.38291999       0.15455125
O        2.66360838       0.62604323       0.86781284
C        0.70345603      -0.01639151      -0.31587012
O       -0.06489990      -1.08989949      -0.54215020
P       -1.78366855      -1.03629244      -0.67176500
O       -2.18550990      -2.47236609      -0.64421620
O       -2.28593406       0.03889145       0.24578216
O       -1.92124347      -0.46237224      -2.22307685
C        0.38135556       1.27256637      -0.49166296
O       -0.85438529       0.82781539       2.56389385
H        3.53656927       0.27944355       1.10443341
H       -0.02977729       1.02962447       2.10909333
H       -1.98304839      -1.23354943      -2.79996158
H       -0.62473270       1.56407441      -0.72988218
H        1.12579124       2.03216291      -0.32635928
H       -1.41679420       0.56013182       1.80769559
17
Properties=species:S:1:pos:R:3 relative_energy_eV=0.026423972121847328 branch=left pbc="F F F"
O        2.68294399      -1.42332819      -0.04104453
C        2.09301324      -0.38113674       0.14812226
O        2.67962916       0.63433206       0.87072564
C        0.71947934      -0.02748928      -0.32460362
O       -0.05832262      -1.10008425      -0.55833341
P       -1.78893802      -1.02679915      -0.66842045
O       -2.21962260      -2.45516136      -0.63043666
O       -2.27542187       0.06142987       0.24346233
O       -1.95063043      -0.46466657      -2.21960905
C        0.39879616       1.26452141      -0.48766233
O       -0.89285751       0.81838763       2.56237083
H        3.55426969       0.28699828       1.10925955
H       -0.05769630       1.03521025       2.12604122
H       -1.99542345      -1.24389407      -2.78633802
H       -0.61065444       1.55672391      -0.71133631
H        1.13614830       2.04205475      -0.35813112
H       -1.43797686       0.52998855       1.79770890
17
Properties=species:S:1:pos:R:3 relative_energy_eV=0.0646600199106615 branch=left pbc="F F F"
O        2.65052669      -1.40857181       0.00549460
C        2.04848997      -0.37174815       0.17332184
O        2.64293694       0.64518879       0.87249735
C        0.68490433      -0.04832461      -0.31900120
O       -0.05733057      -1.13847518      -0.57052810
P       -1.80541617      -1.03703764      -0.73009229
O       -2.24291642      -2.46398149      -0.70531159
O       -2.26794919       0.03716789       0.20374383
O       -1.93004410      -0.45731340      -2.28814669
C        0.35062557       1.24101958      -0.47817012
O       -0.82011667       0.93643354       2.61061663
H        3.51909995       0.28357865       1.08502629
H        0.03860537       1.08433861       2.19288933
H       -1.94580999      -1.25410813      -2.83247799
H       -0.65922712       1.53654013      -0.66967896
H        1.09393747       2.00828183      -0.36456681
H       -1.32358060       0.51409826       1.88615895
17
Properties=species:S:1:pos:R:3 relative_energy_eV=0.12635752998903627 branch=left pbc="F F F"
O        2.59791584      -1.44809747       0.07673687
C        2.00240868      -0.39647829       0.18158643
O        2.60618298       0.66797615       0.81948602
C        0.63312670      -0.07568427      -0.31818270
O       -0.10671217      -1.15133237      -0.61076099
P       -1.83250968      -1.05909809      -0.80896268
O       -2.23205996      -2.49623650      -0.87049854
O       -2.34050447      -0.01761087       0.14253161
O       -1.88628566      -0.47123636      -2.36404435
C        0.27603189       1.20894098      -0.46634233
O       -0.64710794       1.09634418       2.72289014
H        3.44658657       0.29492979       1.12532817
H        0.21997263       1.15807370       2.29234401
H       -1.85267289      -1.26477715      -2.91587150
H       -0.74412447       1.47157040      -0.66326026
H        1.00028146       1.99487428      -0.34377976
H       -1.16379465       0.59492846       2.07257463
17
Properties=species:S:1:pos:R:3 relative_energy_eV=0.15760829897408257 branch=left pbc="F F F"
O        2.49321679      -1.48401857       0.12782293
C        1.93509180      -0.41107154       0.19326097
O        2.53101228       0.65801037       0.82092908
C        0.58898039      -0.07569156      -0.33524228
O       -0.12941393      -1.16612103      -0.61928015
P       -1.83224102      -1.12352623      -0.88847882
O       -2.21633311      -2.56218402      -0.99881778
O       -2.41131281      -0.12525874       0.06126282
O       -1.85006503      -0.47985186      -2.42472004
C        0.21995334       1.20359419      -0.48679426
O       -0.41793203       1.20170590       2.89431112
H        3.38278178       0.31215180       1.12180311
H        0.37935151       1.18915481       2.35339474
H       -1.76985602      -1.24826983      -3.00448800
H       -0.79644373       1.45338428      -0.73419573
H        0.93131057       1.99112403      -0.31280889
H       -1.06136645       0.77395419       2.30381561
17
Properties=species:S:1:pos:R:3 relative_energy_eV=0.17061685888984357 branch=left pbc="F F F"
O        2.44581281      -1.48582573       0.15493366
C        1.89824783      -0.40814193       0.20144134
O        2.50509279       0.65999201       0.82208998
C        0.55646919      -0.07781281      -0.34162531
O       -0.14297338      -1.18117623      -0.62690926
P       -1.85134402      -1.16222081      -0.92539211
O       -2.18932397      -2.61270967      -1.05525330
O       -2.45907438      -0.17177282       0.01611943
O       -1.82625648      -0.49035459      -2.44945413
C        0.19276200       1.20637446      -0.48873468
O       -0.28944603       1.25599932       2.94558478
H        3.34903568       0.30985934       1.14313705
H        0.46845229       1.15011652       2.36148713
H       -1.74552162      -1.23554339      -3.05571266
H       -0.81007022       1.45931767      -0.77564205
H        0.88983881       2.00135846      -0.27924423
H       -1.01496733       0.88962615       2.42494867
17
Properties=species:S:1:pos:R:3 relative_energy_eV=0.17661327316818642 branch=left pbc="F F F"
O        2.43566072      -1.48553661       0.18231397
C        1.88745689      -0.40710837       0.21259635
O        2.50374443       0.66534281       0.81554853
C        0.54236097      -0.07943105      -0.33166437
O       -0.15973516      -1.17781734      -0.62014445
P       -1.86060604      -1.17817793      -0.94728875
O       -2.17218019      -2.63267452      -1.08942195
O       -2.50905659      -0.20785598      -0.01395310
O       -1.83366213      -0.49059805      -2.46341681
C        0.17292114       1.20157873      -0.48595377
O       -0.22018471       1.27647211       2.96473464
H        3.33219677       0.29578748       1.15552986
H        0.51670683       1.15471761       2.35831553
H       -1.72267713      -1.22394140      -3.07946570
H       -0.82559978       1.45783010      -0.79018453
H        0.85687031       1.99512567      -0.24332315
H       -0.96748257       0.94337260       2.44755196
17
Properties=species:S:1:pos:R:3 relative_energy_eV=0.17913065515676863 branch=left pbc="F F F"
O        2.42763328      -1.48748099       0.19302146
C        1.88039262      -0.40859912       0.21946038
O        2.49986469       0.66367653       0.81850908
C        0.53425197      -0.08004536      -0.32410051
O       -0.16410887      -1.17956392      -0.61675420
P       -1.86960211      -1.18371080      -0.95779931
O       -2.16472523      -2.64071408      -1.10796159
O       -2.52944885      -0.22437425      -0.02124859
O       -1.84372859      -0.48926831      -2.47260430
C        0.16146383       1.20149129      -0.47067813
O       -0.19535720       1.27279534       2.97760204
H        3.33212262       0.29328226       1.14897646
H        0.53891830       1.18026764       2.35933424
H       -1.70517742      -1.21892069      -3.08823867
H       -0.82969930       1.45070725      -0.80507739
H        0.85040285       1.99402947      -0.23361309
H       -0.94646889       0.96351355       2.45294632
17
Properties=species:S:1:pos:R:3 relative_energy_eV=0.18162820808356628 branch=left pbc="F F F"
O        2.41613309      -1.49296372       0.19815994
C        1.87554758      -0.41128110       0.22374828
O        2.50079474       0.66304959       0.81618533
C        0.53035938      -0.08332856      -0.31889852
O       -0.17406076      -1.17872091      -0.61277701
P       -1.87669702      -1.18881336      -0.96403167
O       -2.16343129      -2.64606084      -1.12996640
O       -2.54229713      -0.23263503      -0.02865998
O       -1.85434095      -0.48917679      -2.47441073
C        0.16221933       1.19748606      -0.47168075
O       -0.18185265       1.26474013       2.98927494
H        3.33572891       0.29727426       1.14557489
H        0.55265118       1.22027542       2.36820227
H       -1.68658943      -1.21349843      -3.08908077
H       -0.83134214       1.43522126      -0.80412687
H        0.84158117       1.99496994      -0.22450669
H       -0.92767027       0.97054793       2.44876791
17
Properties=species:S:1:pos:R:3 relative_energy_eV=0.185577075520996 branch=left pbc="F F F"
O        2.41342651      -1.50486465       0.20495098
C        1.87032354      -0.42425008       0.23278890
O        2.49408070       0.65421157       0.81678362
C        0.52592506      -0.08758089      -0.31288632
O       -0.17726417      -1.18079779      -0.61581620
P       -1.88180841      -1.19094240      -0.96945040
O       -2.16540382      -2.64811983      -1.14073255
O       -2.55594043      -0.24441410      -0.03090148
O       -1.85243619      -0.48363001      -2.47614752
C        0.15781545       1.19359972      -0.46928333
O       -0.17613489       1.25196948       2.99739809
H        3.34141683       0.30584460       1.13127704
H        0.56648986       1.27444699       2.37816796
H       -1.66743018      -1.20717955      -3.08693719
H       -0.83404657       1.43679455      -0.80053618
H        0.82814586       1.99756790      -0.22369365
H       -0.91042541       0.96443030       2.43679234
17
Properties=species:S:1:pos:R:3 relative_energy_eV=0.19874581466865493 branch=left pbc="F F F"
O        2.39739625      -1.51563617       0.22862660
C        1.85382761      -0.43443311       0.24498459
O        2.48130195       0.64564624       0.82226520
C        0.51317714      -0.09890134      -0.31227422
O       -0.18876611      -1.19605323      -0.60883119
P       -1.88762466      -1.19644602      -0.97324354
O       -2.17565461      -2.65027948      -1.15832252
O       -2.57371231      -0.26062534      -0.03196436
O       -1.82959931      -0.47144070      -2.47210029
C        0.13717196       1.18419839      -0.44451009
O       -0.16862477       1.22480151       2.99028263
H        3.34946868       0.30706240       1.08857679
H        0.57738990       1.41866943       2.40842263
H       -1.62488425      -1.18225472      -3.09164420
H       -0.85744173       1.43361055      -0.77430645
H        0.82124466       1.98511107      -0.21549930
H       -0.84793664       0.91405629       2.37131174
17
Properties=species:S:1:pos:R:3 relative_energy_eV=0.21367219288367778 branch=left pbc="F F F"
O        2.37662858      -1.51797007       0.23820142
C        1.84197361      -0.43263172       0.25316160
O        2.47885349       0.65068433       0.81429018
C        0.49003952      -0.10863228      -0.27081335
O       -0.19622562      -1.20343097      -0.60119315
P       -1.89181319      -1.20422975      -0.97926077
O       -2.18457814      -2.65630496      -1.17389891
O       -2.56704817      -0.26627041      -0.03279882
O       -1.81609332      -0.46357420      -2.46956263
C        0.11728358       1.17241959      -0.41510454
O       -0.15816660       1.19592612       2.97543859
H        3.34694977       0.29851952       1.05912380
H        0.56512771       1.52899452       2.43155749
H       -1.59155982      -1.15888022      -3.09937900
H       -0.86704831       1.43090407      -0.75366235
H        0.81698268       1.96342301      -0.21649244
H       -0.78457197       0.87813921       2.31216679
17
Properties=species:S:1:pos:R:3 relative_energy_eV=0.22530343837934197 branch=left pbc="F F F"
O        2.36285987      -1.51534212       0.24977266
C        1.82692106      -0.43067673       0.26788419
O        2.48247354       0.65443353       0.80255204
C        0.48369165      -0.11378176      -0.27342264
O       -0.20277682      -1.22000848      -0.57469181
P       -1.89021792      -1.20717259      -0.98061214
O       -2.19523261      -2.65428688      -1.18835073
O       -2.57151129      -0.26780044      -0.03958593
O       -1.80821899      -0.45518555      -2.46496857
C        0.11205925       1.16739752      -0.41880111
O       -0.15826275       1.18893753       2.95023730
H        3.34754204       0.29272333       1.04622520
H        0.55236709       1.60483112       2.44974567
H       -1.56858670      -1.14061819      -3.09974770
H       -0.89347315       1.41582792      -0.70732773
H        0.81662704       1.95041270      -0.19027899
H       -0.71952750       0.83739493       2.24314414
17
Properties=species:S:1:pos:R:3 relative_energy_eV=0.24156836959082284 branch=left pbc="F F F"
O        2.37024979      -1.53672192       0.26854155
C        1.84416426      -0.44634946       0.24303575
O        2.50626254       0.65433290       0.73567068
C        0.48404937      -0.12906376      -0.27516899
O       -0.21568345      -1.23308026      -0.55024841
P       -1.89849680      -1.20482556      -0.98564709
O       -2.20624961      -2.64812654      -1.21338141
O       -2.57308349      -0.26360256      -0.04088388
O       -1.80804293      -0.44783611      -2.46789393
C        0.09276412       1.15039819      -0.40517823
O       -0.14196091       1.16524945       2.94916974
H        3.33593863       0.29209578       1.08150850
H        0.51630055       1.70600897       2.50093994
H       -1.53498034      -1.12344165      -3.10024838
H       -0.91325677       1.40400856      -0.68086713
H        0.78719337       1.94360454      -0.19963195
H       -0.66843451       0.82443534       2.21205691
17
Properties=species:S:1:pos:R:3 relative_energy_eV=0.2529420055070659 branch=left pbc="F F F"
O        2.37015557      -1.54355186       0.27838951
C        1.85237514      -0.44965578       0.23194254
O        2.51868078       0.65800688       0.70547598
C        0.48992342      -0.13521869      -0.27596991
O       -0.21618373      -1.23293916      -0.56578175
P       -1.90699735      -1.19970077      -0.98596013
O       -2.21798622      -2.64273108      -1.21175084
O       -2.60391565      -0.26953328      -0.04726084
O       -1.78556585      -0.43362039      -2.46010110
C        0.09408586       1.14109384      -0.38975247
O       -0.14498351       1.16019171       2.93764785
H        3.32445168       0.29399365       1.09986311
H        0.49825154       1.73817860       2.51212921
H       -1.52525982      -1.11910247      -3.08681262
H       -0.92305471       1.37410821      -0.65346429
H        0.77902343       1.94956886      -0.19237892
H       -0.62626670       0.81799774       2.17555831
17
Properties=species:S:1:pos:R:3 relative_energy_eV=0.2709359643085918 branch=left pbc="F F F"
O        2.37196869      -1.54474296       0.27890606
C        1.84636959      -0.45036576       0.24414821
O        2.52357897       0.65940535       0.69637248
C        0.49176615      -0.13452358      -0.28071212
O       -0.21504017      -1.23210747      -0.57002332
P       -1.90883168      -1.19664065      -0.98445999
O       -2.22276642      -2.63916000      -1.20937129
O       -2.61909786      -0.27284995      -0.05097469
O       -1.77466470      -0.42748766      -2.45521072
C        0.09296883       1.14199045      -0.37781355
O       -0.15069112       1.16155648       2.91134925
H        3.32075176       0.29600058       1.10310771
H        0.49525790       1.74533588       2.51122240
H       -1.52363604      -1.11773110      -3.07998883
H       -0.92422032       1.36067725      -0.63337622
H        0.77535551       1.95017082      -0.18235528
H       -0.60233519       0.80755834       2.15095352
17
Properties=species:S:1:pos:R:3 relative_energy_eV=0.3884978002606658 branch=left pbc="F F F"
O        2.35822005      -1.54148073       0.34113905
C        1.86392732      -0.44470754       0.22561423
O        2.49644420       0.65565911       0.76188338
C        0.50495223      -0.12717530      -0.30235052
O       -0.22869902      -1.22115742      -0.52074050
P       -1.92087626      -1.18923558      -0.97424040
O       -2.22710422      -2.62910975      -1.21477169
O       -2.65814638      -0.26501672      -0.05685801
O       -1.74713505      -0.41640522      -2.43359171
C        0.08867224       1.14829652      -0.38688608
O       -0.22826545       1.22018642       2.74606165
H        3.34547273       0.30721749       1.07489870
H        0.53389084       1.74832979       2.47529271
H       -1.52640780      -1.10964837      -3.06567087
H       -0.96491775       1.34977827      -0.49077135
H        0.75124119       1.93706457      -0.07684164
H       -0.46453499       0.68449046       1.96960675
17
Properties=species:S:1:pos:R:3 relative_energy_eV=0.7780646408027678 branch=left pbc="F F F"
O        2.35420480      -1.53026977       0.36330694
C        1.82098046      -0.44462241       0.34099323
O        2.48691116       0.66567785       0.82197097
C        0.47160029      -0.12838498      -0.21686501
O       -0.25901821      -1.23102000      -0.44402027
P       -1.92294980      -1.16933456      -0.95967522
O       -2.21164851      -2.61366198      -1.21850003
O       -2.66227028      -0.25135029      -0.05092340
O       -1.73234440      -0.39688443      -2.42546844
C        0.05323477       1.15202028      -0.26851594
O       -0.34909766       1.26087086       2.35379518
H        3.37240288       0.33049506       1.02691081
H        0.53081133       1.65231317       2.34328442
H       -1.53212755      -1.10033001      -3.05405650
H       -0.99188718       1.39826227      -0.29300896
H        0.70498856       1.93722264       0.06510609
H       -0.15705679       0.57608223       1.68743990
17
Properties=species:S:1:pos:R:3 relative_energy_eV=1.5041505706612952 branch=left pbc="F F F"
O        2.35174999      -1.52680272       0.35070834
C        1.80648467      -0.44687960       0.38182513
O        2.48692214       0.67256835       0.81325021
C        0.41820287      -0.13821706      -0.02965544
O       -0.25564501      -1.22009316      -0.46453923
P       -1.91376350      -1.16840573      -0.95427946
O       -2.20958032      -2.61001541      -1.22075218
O       -2.65746931      -0.24587106      -0.05060762
O       -1.72961805      -0.39456051      -2.42171968
C        0.02955578       1.15807628      -0.14753260
O       -0.32527814       1.28671697       2.14635144
H        3.37071831       0.33782949       1.01932424
H        0.53610143       1.68462626       2.34770844
H       -1.53387277      -1.09756591      -3.05207023
H       -1.01038388       1.41938700      -0.25776696
H        0.71270909       1.95821898       0.09422817
H       -0.10009942       0.43807374       1.51730124
17
Properties=species:S:1:pos:R:3 relative_energy_eV=3.1068544505651516 branch=ts pbc="F F F"
O        2.34900106      -1.52727111       0.34904982
C        1.81323709      -0.44339098       0.38160798
O        2.48836046       0.67226865       0.80907385
C        0.37949241      -0.15944046       0.08713161
O       -0.24669459      -1.21591784      -0.48236414
P       -1.91148410      -1.17137430      -0.95232921
O       -2.20994916      -2.60877291      -1.22156028
O       -2.65651865      -0.24344375      -0.05115485
O       -1.72865224      -0.39303746      -2.42204052
C        0.00924516       1.19364323      -0.07888696
O       -0.34770267       1.40543520       2.13701458
H        3.37238958       0.33958672       1.01922160
H        0.54399294       1.70955739       2.36053354
H       -1.53552727      -1.09732485      -3.05278505
H       -1.02300508       1.42260834      -0.25615823
H        0.72657452       1.97262941       0.08125197
H       -0.02275570       0.14425091       1.29238823
17
Properties=species:S:1:pos:R:3 relative_energy_eV=1.8977564048946078 branch=right pbc="F F F"
O        2.37760094      -1.53152333       0.33168780
C        1.81402182      -0.45317263       0.35698342
O        2.49945277       0.67112493       0.79410447
C        0.36528456      -0.22060699       0.22021525
O       -0.23637498      -1.20732417      -0.58031212
P       -1.88714710      -1.17111375      -0.95354966
O       -2.22113188      -2.61212817      -1.22387541
O       -2.64570797      -0.24267283      -0.05786615
O       -1.73232692      -0.38660054      -2.42771031
C       -0.07195480       1.30225038       0.32528180
O       -0.27849986       1.45457590       1.73915668
H        3.37960077       0.34099218       1.02082859
H        0.50582053       1.70479729       2.30736424
H       -1.53819534      -1.09472813      -3.05239847
H       -1.02044101       1.43959256      -0.25875738
H        0.73550521       1.98679743       0.02063131
H       -0.02223308      -0.08733388       1.36642997
17
Properties=species:S:1:pos:R:3 relative_energy_eV=0.7326048141076171 branch=right pbc="F F F"
O        2.39990590      -1.51414177       0.28128955
C        1.81618409      -0.47271284       0.44099867
O        2.50654330       0.66236823       0.79133663
C        0.32708820      -0.20762466       0.35764211
O       -0.21437621      -1.10313937      -0.55879125
P       -1.87532384      -1.16175233      -0.96622344
O       -2.21235226      -2.59695460      -1.22463574
O       -2.63111753      -0.25444859      -0.04989836
O       -1.75096782      -0.38729885      -2.44334560
C       -0.05368575       1.32493036       0.37250197
O       -0.37254053       1.69834647       1.72178705
H        3.39206267       0.33761409       1.00288274
H        0.48770080       1.69429077       2.14713752
H       -1.54556916      -1.09029019      -3.07114575
H       -0.95587776       1.45958055      -0.18298042
H        0.71145357       1.97505517      -0.06082309
H       -0.00585403      -0.47089631       1.37048123
17
Properties=species:S:1:pos:R:3 relative_energy_eV=0.5510506939899642 branch=right pbc="F F F"
O        2.37109309      -1.48681616       0.25563643
C        1.80123586      -0.44478260       0.48520683
O        2.52285601       0.65546482       0.90313244
C        0.29156848      -0.21744390       0.41981226
O       -0.20208085      -1.01621919      -0.60664404
P       -1.86095860      -1.12761923      -0.96914414
O       -2.12752199      -2.57948555      -1.21721412
O       -2.63916389      -0.25433500      -0.03439011
O       -1.76891115      -0.37242029      -2.45990030
C       -0.08465040       1.29324930       0.36700458
O       -0.30306007       1.82675329       1.67094464
H        3.44324151       0.34341468       0.95098609
H        0.51198193       1.71839972       2.17704448
H       -1.57652635      -1.08424579      -3.08390065
H       -1.00992838       1.38004108      -0.19935537
H        0.70544473       1.86103146      -0.12140890
H       -0.05134627      -0.60206055       1.39040371
17
Properties=species:S:1:pos:R:3 relative_energy_eV=0.48636002326384187 branch=right pbc="F F F"
O        2.37123535      -1.48058087       0.24116878
C        1.78955034      -0.46241538       0.52737297
O        2.48360191       0.62456591       1.00792565
C        0.29323292      -0.21362330       0.44117472
O       -0.16279116      -0.96124452      -0.64551524
P       -1.82644985      -1.12971110      -0.97899960
O       -2.05228102      -2.59054407      -1.22293361
O       -2.61905541      -0.26735567      -0.04793265
O       -1.81066809      -0.35725757      -2.45992550
C       -0.06035426       1.26908249       0.37283126
O       -0.24932245       1.86294771       1.65353258
H        3.41062018       0.35557594       0.91525471
H        0.55152959       1.74870356       2.17711461
H       -1.62965629      -1.06263353      -3.09144200
H       -1.01631865       1.33256685      -0.12586768
H        0.67866096       1.80788422      -0.22181996
H       -0.12826044      -0.58303445       1.38627478
17
Properties=species:S:1:pos:R:3 relative_energy_eV=0.43694848973245826 branch=right pbc="F F F"
O        2.38477869      -1.48192466       0.23341722
C        1.77696808      -0.50133223       0.58196379
O        2.44872156       0.58670163       1.09759416
C        0.27318549      -0.21706197       0.44398529
O       -0.15705430      -0.94080959      -0.66954434
P       -1.81273088      -1.14473151      -0.99438380
O       -1.96780041      -2.61271611      -1.24574172
O       -2.59685337      -0.33039515      -0.01224813
O       -1.84403446      -0.36042818      -2.47677950
C       -0.06254148       1.29125874       0.36913074
O       -0.16230130       1.90544930       1.65978401
H        3.38759799       0.38024150       0.96248101
H        0.68274241       1.77452919       2.10361149
H       -1.69807548      -1.04314080      -3.14464623
H       -1.05686784       1.34024877      -0.06130231
H        0.64486436       1.83081688      -0.28170836
H       -0.21732530      -0.58377941       1.36260041
17
Properties=species:S:1:pos:R:3 relative_energy_eV=0.3326151548899361 branch=right pbc="F F F"
O        2.33150201      -1.45618332       0.26067903
C        1.73067010      -0.47579333       0.61812431
O        2.39903968       0.55840577       1.24645737
C        0.24132297      -0.19349256       0.43308312
O       -0.12809934      -0.86165797      -0.73797708
P       -1.77015837      -1.20755716      -1.02835863
O       -1.88337206      -2.67157321      -1.33060443
O       -2.58422531      -0.47814187      -0.00771886
O       -1.90391045      -0.36934035      -2.46233321
C       -0.07196269       1.31143899       0.38612732
O        0.02890299       1.95428976       1.65644318
H        3.34072894       0.37414781       1.11924378
H        0.94202623       1.83159607       1.93868373
H       -1.82178729      -1.01992368      -3.16734080
H       -1.09585131       1.38474948       0.04564441
H        0.56235592       1.81223091      -0.34647178
H       -0.29390815      -0.60026863       1.30453212
17
Properties=species:S:1:pos:R:3 relative_energy_eV=0.30106578394406824 branch=right pbc="F F F"
O        2.33325204      -1.45584317       0.28450849
C        1.73048166      -0.46159616       0.60379515
O        2.39514214       0.57502467       1.23193995
C        0.24289364      -0.18015780       0.41281183
O       -0.14075246      -0.83805608      -0.75760231
P       -1.78138124      -1.20571147      -1.03200796
O       -1.84311768      -2.66485355      -1.37269036
O       -2.60354000      -0.52456478       0.01929119
O       -1.92184497      -0.36133717      -2.46818407
C       -0.07542716       1.31508743       0.38379663
O        0.05182789       1.94935261       1.65362079
H        3.32669650       0.31122777       1.20596037
H        0.97829067       1.87592039       1.90594079
H       -1.84097971      -1.03992032      -3.14983451
H       -1.11666881       1.40309270       0.09258177
H        0.55884294       1.79776238      -0.37379126
H       -0.27044163      -0.60250073       1.28807699
17
Properties=species:S:1:pos:R:3 relative_energy_eV=0.2868829424805881 branch=right pbc="F F F"
O        2.33651948      -1.47412424       0.29351715
C        1.73394255      -0.48027087       0.61307977
O        2.40029993       0.56082863       1.23058337
C        0.24717494      -0.17350474       0.41331371
O       -0.13504042      -0.79524383      -0.77763970
P       -1.76645479      -1.21123614      -1.04319846
O       -1.78425257      -2.66514241      -1.41056465
O       -2.59359383      -0.57498501       0.02969201
O       -1.97253909      -0.35843105      -2.46259120
C       -0.07837696       1.32351301       0.39170978
O        0.08304922       1.99369369       1.64157787
H        3.31971366       0.25859849       1.29453155
H        1.01865399       1.93519142       1.86190878
H       -1.88169432      -1.03494699      -3.14488635
H       -1.12643611       1.39362733       0.12596437
H        0.50542519       1.79972940      -0.40155785
H       -0.28311704      -0.60436986       1.27277318
17
Properties=species:S:1:pos:R:3 relative_energy_eV=0.27854647713320446 branch=right pbc="F F F"
O        2.30644098      -1.49536484       0.30805287
C        1.73328460      -0.48035827       0.61363813
O        2.41785737       0.54245721       1.24268581
C        0.25451601      -0.15936880       0.40132848
O       -0.12349680      -0.78105264      -0.79184886
P       -1.75029575      -1.22199832      -1.04159567
O       -1.74786497      -2.67295070      -1.42104010
O       -2.57175308      -0.60164977       0.04569682
O       -1.99723299      -0.35657213      -2.44659678
C       -0.08331631       1.33462607       0.38058522
O        0.08032468       2.00067045       1.63227396
H        3.32709960       0.21755346       1.33604638
H        1.02124035       1.96834778       1.83480315
H       -1.90966010      -1.01092095      -3.14993174
H       -1.13982909       1.37329590       0.14085967
H        0.48705697       1.82713169      -0.41678295
H       -0.28109764      -0.59091919       1.26003888
17
Properties=species:S:1:pos:R:3 relative_energy_eV=0.27423802353587234 branch=right pbc="F F F"
O        2.29853105      -1.50356505       0.32944002
C        1.72989379      -0.48197097       0.62369509
O        2.41855547       0.52772467       1.26519819
C        0.25890715      -0.15069785       0.38919672
O       -0.11045527      -0.76625583      -0.80927819
P       -1.73609303      -1.22907019      -1.03776175
O       -1.71921569      -2.67674077      -1.42782989
O       -2.54731905      -0.63533471       0.07277821
O       -2.00659569      -0.34523966      -2.42914344
C       -0.09036541       1.33991956       0.37251618
O        0.08176573       2.01351249       1.61758030
H        3.32006728       0.18041839       1.34574474
H        1.02375157       1.98000626       1.81758139
H       -1.93248354      -0.98789795      -3.14474870
H       -1.14801714       1.37962073       0.13423788
H        0.46459666       1.83475425      -0.43196925
H       -0.28224992      -0.58625631       1.24097581
17
Properties=species:S:1:pos:R:3 relative_energy_eV=0.2703173471891205 branch=right pbc="F F F"
O        2.28972641      -1.51670379       0.34970424
C        1.72232963      -0.49037865       0.63443597
O        2.41075569       0.51378047       1.28649591
C        0.25596831      -0.13883651       0.37817132
O       -0.09818208      -0.75805706      -0.82346695
P       -1.71456524      -1.24575534      -1.03319107
O       -1.69056402      -2.68075565      -1.46912085
O       -2.50682544      -0.68833219       0.10859737
O       -2.02853753      -0.33169163      -2.39010298
C       -0.08938699       1.35370405       0.35314585
O        0.09193570       2.03051597       1.59584016
H        3.31223393       0.16500593       1.37546750
H        1.03011085       1.97401280       1.80003108
H       -1.96133927      -0.95883849      -3.11905428
H       -1.15028407       1.39377468       0.12638324
H        0.45916184       1.84227574      -0.46060536
H       -0.30926346      -0.57079323       1.21548247
17
Properties=species:S:1:pos:R:3 relative_energy_eV=0.2609520611113112 branch=right pbc="F F F"
O        2.24204468      -1.53869418       0.40282081
C        1.70502361      -0.49151895       0.66126211
O        2.40330916       0.50310357       1.31748884
C        0.26549076      -0.12278309       0.35459984
O       -0.06732577      -0.75067189      -0.84847186
P       -1.67734999      -1.27553630      -1.01912126
O       -1.62393317      -2.66740752      -1.57306290
O       -2.41646357      -0.85001913       0.21322367
O       -2.10310233      -0.28729764      -2.29431459
C       -0.07110602       1.37001208       0.29775914
O        0.09473387       2.07986819       1.52327092
H        3.28901512       0.12798025       1.44811359
H        1.01212967       1.95196814       1.79345644
H       -2.03351621      -0.87160160      -3.06066263
H       -1.13003859       1.40630046       0.06369070
H        0.48052330       1.84023580      -0.52518281
H       -0.34615947      -0.53101130       1.17334448
17
Properties=species:S:1:pos:R:3 relative_energy_eV=0.24140121641175938 branch=right pbc="F F F"
O        2.22828610      -1.55586731       0.50171521
C        1.69181507      -0.49119410       0.68834928
O        2.37972581       0.51615026       1.33839272
C        0.26632567      -0.10524195       0.32899618
O       -0.06612146      -0.76014612      -0.85940628
P       -1.65611350      -1.35113359      -1.01311187
O       -1.56205032      -2.66698117      -1.72973035
O       -2.31845550      -1.10073407       0.30828491
O       -2.22150610      -0.23038488      -2.12719221
C       -0.02490138       1.39056534       0.21420053
O        0.09486353       2.12283438       1.43039974
H        3.23560063       0.11037627       1.55104302
H        0.96845701       1.92537235       1.78545061
H       -2.15465251      -0.69801637      -2.96965847
H       -1.06725310       1.45070722      -0.08490622
H        0.58761704       1.82311000      -0.58688949
H       -0.35836064      -0.48649005       1.15227854
17
Properties=species:S:1:pos:R:3 relative_energy_eV=0.22195777930755867 branch=right pbc="F F F"
O        2.21761946      -1.57334980       0.56554992
C        1.68554727      -0.50142531       0.71487702
O        2.36102071       0.51761089       1.36274992
C        0.27387788      -0.10403400       0.30142428
O       -0.03927105      -0.79401044      -0.87696629
P       -1.63065839      -1.40135486      -1.00390023
O       -1.52810954      -2.65052216      -1.82399039
O       -2.27843354      -1.28451844       0.34349984
O       -2.29367477      -0.20855436      -1.97380045
C        0.01060775       1.39778538       0.14946208
O        0.07002572       2.13500145       1.37065183
H        3.21077230       0.12275695       1.60921108
H        0.91990092       1.92608218       1.76827652
H       -2.25214244      -0.54459780      -2.87752522
H       -1.00972410       1.49187015      -0.21261505
H        0.68481207       1.81488135      -0.60943018
H       -0.37889291      -0.45069561       1.12074213
17
Properties=species:S:1:pos:R:3 relative_energy_eV=0.20445935010138783 branch=right pbc="F F F"
O        2.21141356      -1.57490671       0.60043039
C        1.66990220      -0.50752530       0.74147205
O        2.32390290       0.52215557       1.39720796
C        0.27106365      -0.11672009       0.29431398
O       -0.03657583      -0.82567152      -0.87118546
P       -1.61696359      -1.43020566      -0.99282302
O       -1.50613267      -2.59746672      -1.92200126
O       -2.22097466      -1.43293459       0.37627704
O       -2.32722001      -0.16263370      -1.82429182
C        0.05374008       1.38066819       0.09556420
O        0.02940732       2.13843533       1.29956271
H        3.19501547       0.15829302       1.62003185
H        0.85531581       1.95553380       1.75861542
H       -2.32101657      -0.42132150      -2.75279613
H       -0.92650449       1.48101681      -0.35822211
H        0.78727557       1.77780862      -0.61869812
H       -0.41837035      -0.45160060       1.08476014
17
Properties=species:S:1:pos:R:3 relative_energy_eV=0.19349270128441276 branch=right pbc="F F F"
O        2.21236983      -1.57778664       0.60989993
C        1.66256675      -0.51434576       0.75277945
O        2.30321575       0.51536473       1.41740865
C        0.27337284      -0.12290857       0.29370273
O       -0.02081817      -0.83219243      -0.87683078
P       -1.60609274      -1.44167147      -0.99742545
O       -1.52290158      -2.56426483      -1.98590826
O       -2.17749318      -1.50378133       0.38913232
O       -2.33158667      -0.14109543      -1.76790222
C        0.05722247       1.37462136       0.07843685
O        0.00807406       2.14123188       1.27814904
H        3.16928150       0.14748165       1.65032848
H        0.86297786       2.01736671       1.70458549
H       -2.34952551      -0.38546588      -2.69966647
H       -0.91639852       1.46028585      -0.39681594
H        0.81860964       1.76463746      -0.60999903
H       -0.41959564      -0.44455258       1.08834326
17
Properties=species:S:1:pos:R:3 relative_energy_eV=0.18967691993384506 branch=right pbc="F F F"
O        2.21843267      -1.57453228       0.60901863
C        1.66282692      -0.51569933       0.76137221
O        2.29313906       0.50931404       1.44467850
C        0.27203936      -0.12815092       0.29636236
O       -0.01820593      -0.84202931      -0.87347593
P       -1.60249019      -1.44448933      -1.00489328
O       -1.52260933      -2.54150437      -2.02213048
O       -2.16056935      -1.54668490       0.38135043
O       -2.33675077      -0.13149459      -1.74874534
C        0.05675914       1.36849595       0.07484710
O        0.02334044       2.15339416       1.26354996
H        3.15510124       0.14243163       1.69219404
H        0.89149768       2.06553238       1.67294313
H       -2.37359763      -0.37191368      -2.68223795
H       -0.92089386       1.46385158      -0.38849784
H        0.80574155       1.74215784      -0.63636513
H       -0.42048225      -0.45575419       1.08824762
17
Properties=species:S:1:pos:R:3 relative_energy_eV=0.18645503690640908 branch=right pbc="F F F"
O        2.22670955      -1.56860320       0.60932658
C        1.66241760      -0.51551435       0.77188362
O        2.27831855       0.50004459       1.48067666
C        0.27534787      -0.12890705       0.29898784
O       -0.00634824      -0.85116527      -0.86833347
P       -1.58962138      -1.44777445      -1.00932973
O       -1.52312516      -2.52411513      -2.04868701
O       -2.14402905      -1.57435335       0.37723789
O       -2.32503108      -0.11713119      -1.71922824
C        0.05143832       1.36469307       0.05818651
O        0.03767947       2.17626831       1.22868030
H        3.14649257       0.13451126       1.71432007
H        0.89405031       2.06177321       1.65285631
H       -2.38933553      -0.34027062      -2.65358631
H       -0.93788431       1.44128520      -0.38449340
H        0.78322734       1.73088986      -0.67538901
H       -0.41702800      -0.44870605       1.09510950
17
Properties=species:S:1:pos:R:3 relative_energy_eV=0.18515470783313503 branch=right pbc="F F F"
O        2.23785193      -1.56228194       0.60243688
C        1.66951165      -0.51266461       0.76981278
O        2.27952643       0.50145061       1.48530831
C        0.27873834      -0.13058316       0.29998828
O       -0.00819443      -0.85625871      -0.86198803
P       -1.59512087      -1.44609342      -1.00758617
O       -1.52322448      -2.51175980      -2.05697411
O       -2.15515290      -1.57870075       0.37589287
O       -2.32238436      -0.11044291      -1.71532674
C        0.04848522       1.36147329       0.05431929
O        0.04145994       2.17587067       1.22225558
H        3.13940117       0.13470443       1.73869251
H        0.90052589       2.05655112       1.64073339
H       -2.38605385      -0.33615189      -2.64965359
H       -0.94400335       1.43182960      -0.38109199
H        0.77137188       1.72447693      -0.68887195
H       -0.40945932      -0.44849453       1.10027079
17
Properties=species:S:1:pos:R:3 relative_energy_eV=0.18429158362050657 branch=right pbc="F F F"
O        2.25326147      -1.55025604       0.58440101
C        1.67394010      -0.50915577       0.76763200
O        2.27777221       0.50013801       1.49507041
C        0.27916770      -0.13484546       0.30275473
O       -0.00656334      -0.86179111      -0.85863796
P       -1.59928882      -1.43700363      -1.00543928
O       -1.53044711      -2.51725605      -2.04017214
O       -2.16220502      -1.54925504       0.37787852
O       -2.31763369      -0.10513658      -1.72996814
C        0.03976584       1.35525326       0.05690489
O        0.04071833       2.16565398       1.22755304
H        3.14282196       0.13649052       1.73952294
H        0.90538614       2.04733607       1.63524216
H       -2.36596854      -0.33678189      -2.66420493
H       -0.95591421       1.42389687      -0.37254967
H        0.75355292       1.72123522      -0.69399551
H       -0.40508714      -0.45559724       1.10622619
17
Properties=species:S:1:pos:R:3 relative_energy_eV=0.18230459410551703 branch=right pbc="F F F"
O        2.29735660      -1.52503651       0.53435239
C        1.69169471      -0.50558071       0.75226262
O        2.26985121       0.49520207       1.51142690
C        0.28603041      -0.14999005       0.30777145
O       -0.01046695      -0.88013474      -0.84880968
P       -1.61361708      -1.42392540      -0.99902193
O       -1.55848639      -2.53079060      -2.00559083
O       -2.19705574      -1.48137647       0.38025978
O       -2.29625576      -0.09583259      -1.76378559
C        0.02633950       1.33852415       0.06810533
O        0.03360597       2.15716340       1.23209055
H        3.14505265       0.14768935       1.74083209
H        0.90281178       2.05176256       1.63194692
H       -2.31900133      -0.33184544      -2.69743584
H       -0.97733822       1.39298703      -0.34303347
H        0.72766263       1.70988278      -0.69145693
H       -0.38490557      -0.47577332       1.11830491
17
Properties=species:S:1:pos:R:3 relative_energy_eV=0.18168111503473483 branch=right pbc="F F F"
O        2.30596008      -1.51855218       0.51589614
C        1.69564007      -0.50460209       0.74528763
O        2.26957224       0.49291364       1.51167505
C        0.28733705      -0.15206977       0.30721665
O       -0.01234990      -0.88544794      -0.84653947
P       -1.62029983      -1.42099695      -0.99480278
O       -1.57411532      -2.54089759      -1.98785796
O       -2.20796480      -1.46425411       0.38308045
O       -2.28209892      -0.09152674      -1.77547899
C        0.02429582       1.33782756       0.07041294
O        0.02732373       2.15053936       1.23917295
H        3.14838108       0.15176019       1.73656250
H        0.89654784       2.04725942       1.64093534
H       -2.29858907      -0.33608721      -2.70728636
H       -0.97911134       1.39036757      -0.34190357
H        0.72210303       1.71541689      -0.68957161
H       -0.37935332      -0.47872441       1.12141992
17
Properties=species:S:1:pos:R:3 relative_energy_eV=0.18120926772462553 branch=right pbc="F F F"
O        2.31728107      -1.50296408       0.48663187
C        1.69603789      -0.50090070       0.74015665
O        2.26135290       0.48300372       1.53131917
C        0.28533668      -0.15062148       0.30625131
O       -0.01584949      -0.88446141      -0.84677956
P       -1.62034677      -1.42458677      -0.99116205
O       -1.57499466      -2.54299339      -1.98547412
O       -2.20610063      -1.46860265       0.38751527
O       -2.28603742      -0.09635040      -1.77082272
C        0.02537229       1.33888019       0.06730832
O        0.03178770       2.15620177       1.23311740
H        3.13905714       0.13614397       1.75423057
H        0.89909946       2.04951576       1.63654876
H       -2.28983263      -0.33558834      -2.70444288
H       -0.97901204       1.39235274      -0.34256773
H        0.72288726       1.71552356      -0.69451398
H       -0.38276012      -0.47162684       1.12090260
17
Properties=species:S:1:pos:R:3 relative_energy_eV=0.17913178519302164 branch=right pbc="F F F"
O        2.38268803      -1.40947691       0.34917350
C        1.70289366      -0.48385796       0.72022440
O        2.19911358       0.41840102       1.64324574
C        0.28470621      -0.14886051       0.30518680
O       -0.02273728      -0.88980308      -0.83842721
P       -1.62896004      -1.43087348      -0.97826412
O       -1.58057742      -2.55369099      -1.96684636
O       -2.21214465      -1.47177487       0.40067298
O       -2.29987967      -0.10525193      -1.75569901
C        0.02547770       1.34081682       0.04897116
O        0.06092187       2.17927116       1.19733699
H        3.09177454       0.09481463       1.83708969
H        0.92164778       2.05080733       1.60831964
H       -2.25197684      -0.31532399      -2.69470072
H       -0.98648377       1.38971132      -0.34208728
H        0.70924940       1.69334730      -0.73535206
H       -0.37243373      -0.46532989       1.12937519
17
Properties=species:S:1:pos:R:3 relative_energy_eV=0.17724101430212613 branch=right pbc="F F F"
O        2.40693643      -1.34534853       0.27654348
C        1.69466093      -0.47603862       0.71118436
O        2.14132941       0.35459578       1.72038426
C        0.27975180      -0.13499753       0.29460845
O       -0.03086053      -0.87285618      -0.84733601
P       -1.62479107      -1.44610242      -0.97054117
O       -1.55723402      -2.55708490      -1.97207917
O       -2.19109755      -1.51128632       0.41530950
O       -2.33022375      -0.12682505      -1.72602745
C        0.04016003       1.35751614       0.02872992
O        0.09749924       2.20762359       1.16849207
H        3.04611462       0.05627078       1.89926786
H        0.94256213       2.03949726       1.59853731
H       -2.26287495      -0.32027658      -2.66846982
H       -0.97417814       1.41856749      -0.35588440
H        0.72325260       1.68846769      -0.76514076
H       -0.37772697      -0.43879676       1.12064087
17
Properties=species:S:1:pos:R:3 relative_energy_eV=0.1704567393535399 branch=right pbc="F F F"
O        2.49292939      -1.18022265       0.18781617
C        1.69468233      -0.44462607       0.70979092
O        2.02650195       0.24181693       1.85826330
C        0.28316658      -0.11992606       0.26979004
O       -0.02735020      -0.86760995      -0.86574123
P       -1.61724756      -1.46508203      -0.96128772
O       -1.56991804      -2.54377507      -1.99879500
O       -2.13667196      -1.58428772       0.43791186
O       -2.36900151      -0.14034452      -1.65840591
C        0.07878848       1.37316296      -0.02380772
O        0.16337425       2.23863046       1.10270770
H        2.94556594      -0.01386780       2.03562395
H        0.96352127       2.00508211       1.58253060
H       -2.34833726      -0.32754524      -2.60385014
H       -0.93481710       1.45073895      -0.40672684
H        0.76671417       1.67214357      -0.82594917
H       -0.38861929      -0.40136227       1.08834812
17
Properties=species:S:1:pos:R:3 relative_energy_eV=0.16739663772386848 branch=right pbc="F F F"
O        2.53163369      -1.09981120       0.14436540
C        1.69867637      -0.43199598       0.70111271
O        1.99263366       0.20721177       1.88954235
C        0.28843200      -0.11771603       0.25752098
O       -0.02090800      -0.87070082      -0.87477481
P       -1.61230381      -1.46560434      -0.95146026
O       -1.58342564      -2.54913950      -1.98389851
O       -2.11318016      -1.58128820       0.45525856
O       -2.37073376      -0.13952759      -1.63930195
C        0.09877148       1.37702972      -0.04592156
O        0.16598481       2.24122595       1.08349424
H        2.90602272      -0.05158088       2.08535063
H        0.93310052       1.97217212       1.60152755
H       -2.40027833      -0.33379404      -2.58241982
H       -0.90639565       1.45696463      -0.45015035
H        0.80608750       1.67106760      -0.83339775
H       -0.39083560      -0.39158782       1.07137142
17
Properties=species:S:1:pos:R:3 relative_energy_eV=0.16668013966045692 branch=right pbc="F F F"
O        2.52058138      -1.11094291       0.15183793
C        1.69423743      -0.43046464       0.70471279
O        1.99096256       0.20852207       1.89170643
C        0.28489178      -0.11222893       0.25926386
O       -0.01861521      -0.86483201      -0.87482666
P       -1.60361918      -1.47099090      -0.95695824
O       -1.56484317      -2.54230588      -2.00188326
O       -2.10430771      -1.60773526       0.44836201
O       -2.37326861      -0.14102289      -1.62750920
C        0.09950934       1.38042047      -0.04734966
O        0.17493565       2.24818253       1.07842627
H        2.89848421      -0.06245374       2.09611734
H        0.94638217       1.98466287       1.59163690
H       -2.42738608      -0.33472193      -2.56998456
H       -0.90544375       1.46778661      -0.45046461
H        0.80764129       1.66619130      -0.83677676
H       -0.39686027      -0.38514154       1.07190810
17
Properties=species:S:1:pos:R:3 relative_energy_eV=0.16647533227296663 branch=right pbc="F F F"
O        2.52036030      -1.11198179       0.15320367
C        1.69403419      -0.43131639       0.70532033
O        1.98910172       0.20507213       1.89407331
C        0.28617687      -0.11033260       0.25711549
O       -0.01837611      -0.86222862      -0.87705666
P       -1.60263887      -1.47098279      -0.95799233
O       -1.56232309      -2.53999074      -2.00555477
O       -2.10173839      -1.61100908       0.44764319
O       -2.37646858      -0.14254921      -1.62740994
C        0.10385581       1.38366401      -0.04797372
O        0.17171869       2.24721515       1.08187764
H        2.89709923      -0.06535123       2.09771955
H        0.94459987       1.98572668       1.59415156
H       -2.44517228      -0.34732749      -2.56658291
H       -0.89806011       1.47356556      -0.45816901
H        0.81723278       1.67286840      -0.83161486
H       -0.39612015      -0.38211692       1.06946800
17
Properties=species:S:1:pos:R:3 relative_energy_eV=0.16634135191270616 branch=right pbc="F F F"
O        2.51979387      -1.12561519       0.15472704
C        1.69998029      -0.43327929       0.70255587
O        2.00592695       0.21794147       1.88114572
C        0.28973568      -0.11503096       0.26032612
O       -0.01717117      -0.86597079      -0.87410731
P       -1.60635100      -1.46194041      -0.95790196
O       -1.57051322      -2.54515536      -1.99094979
O       -2.11449725      -1.57892875       0.44674848
O       -2.36411829      -0.13590328      -1.65003565
C        0.09628620       1.37858371      -0.03938934
O        0.16082144       2.23998725       1.09209314
H        2.91448504      -0.05281138       2.08170453
H        0.93497594       1.98100605       1.60323895
H       -2.43424268      -0.35436818      -2.58598588
H       -0.90782710       1.46083353      -0.44600220
H        0.80482578       1.67562988      -0.82439345
H       -0.38882887      -0.39205307       1.07444439
