16
Properties=species:S:1:pos:R:3 relative_energy_eV=2.1776609396983986 branch=ts pbc="F F F"
O        1.23545107       1.18203522       1.46246321
C        1.95067346       0.42153946       0.61455850
C        1.48045996      -0.41902329      -0.39687391
O        2.44678965      -0.57989914      -1.29782318
C        0.12118228      -0.80448914      -0.77961908
O       -0.75510231      -0.96701186       0.31961877
P       -1.93384472       0.19259875       0.58838675
O       -2.76530516      -0.28888835       1.73424852
O       -1.24685499       1.53967925       0.51321405
O       -2.83651084       0.06429034      -0.81009682
H        2.87642965       0.08962168       1.09460582
H        2.76098494       0.54706672      -0.60152147
H        0.31220328       1.37087528       1.10945745
H       -0.27051079      -0.07989121      -1.50701762
H        0.17567478      -1.75867206      -1.30965620
H       -3.58953083      -0.49119676      -0.57791487
