17
Properties=species:S:1:pos:R:3 relative_energy_eV=0.0 branch=left pbc="F F F"
O       -2.51762389      -1.22188567       1.58289644
C       -1.80968954      -0.55416970       0.86407707
O       -2.22729800       0.62471526       0.37951094
C       -0.39955468      -0.94454345       0.44068271
O       -0.18819952      -2.32349056       0.67474687
C        0.66680163      -0.09563504       1.13906375
O        1.95986688      -0.49677777       0.71750164
P        0.63262367       1.61045623      -2.14238126
O        0.54487334       2.23460207      -3.49461437
O       -0.41702578       1.91054700      -1.09770795
O        1.76500663       0.68478813      -1.77866660
H       -1.53740943       1.06879316      -0.18247761
H       -0.31930940      -0.72966536      -0.63355113
H        0.77521783      -2.41601060       0.65393517
H        0.49569443       0.95799426       0.92072087
H        0.60953022      -0.24831224       2.21821735
H        2.05903220      -0.13272613      -0.18666960
17
Properties=species:S:1:pos:R:3 relative_energy_eV=0.0002648379922902677 branch=left pbc="F F F"
O       -2.52426097      -1.22200302       1.57489110
C       -1.81115674      -0.55437226       0.86122224
O       -2.22536727       0.62482488       0.37507305
C       -0.39919192      -0.94591591       0.44328833
O       -0.18860812      -2.32427988       0.68206443
C        0.66826332      -0.09490972       1.13917403
O        1.96139143      -0.49802348       0.71912517
P        0.62960050       1.61285959      -2.13978538
O        0.53778662       2.22948033      -3.49533170
O       -0.41557239       1.91946402      -1.09259034
O        1.76019322       0.68577534      -1.77605866
H       -1.53244036       1.07084226      -0.18165393
H       -0.31714658      -0.73586396      -0.63195496
H        0.77423888      -2.41937555       0.64452879
H        0.49923845       0.95875471       0.91928184
H        0.61337314      -0.24344455       2.21886007
H        2.06219540      -0.13513319      -0.18484969
17
Properties=species:S:1:pos:R:3 relative_energy_eV=0.0009001496073324233 branch=left pbc="F F F"
O       -2.52962902      -1.22168202       1.57050495
C       -1.81330512      -0.55076297       0.86300835
O       -2.22468973       0.63129110       0.38170445
C       -0.40142853      -0.94450456       0.44682189
O       -0.19693744      -2.32401032       0.68257285
C        0.67193713      -0.10052535       1.13980866
O        1.95951170      -0.51232339       0.71067478
P        0.63135775       1.61413548      -2.13813676
O        0.52004386       2.20253270      -3.50459265
O       -0.42039726       1.91347028      -1.09549098
O        1.79114238       0.73056105      -1.75619764
H       -1.53425001       1.07386358      -0.18121549
H       -0.31918588      -0.73013401      -0.62762330
H        0.76423026      -2.42738273       0.63030288
H        0.50711553       0.95341645       0.91831245
H        0.62147048      -0.24956900       2.21962153
H        2.06555068      -0.12969668      -0.18479144
17
Properties=species:S:1:pos:R:3 relative_energy_eV=0.0013734651038248558 branch=left pbc="F F F"
O       -2.53102769      -1.22207794       1.56683739
C       -1.81354336      -0.54896304       0.86267116
O       -2.22116564       0.63840539       0.39166563
C       -0.40393195      -0.94371069       0.44122575
O       -0.20402302      -2.32606311       0.66503279
C        0.67044959      -0.10584361       1.14073792
O        1.95704187      -0.51521913       0.70706768
P        0.63526533       1.61304781      -2.13465827
O        0.49124068       2.14679215      -3.52085373
O       -0.40900311       1.92068220      -1.08598302
O        1.82148879       0.77285298      -1.73907298
H       -1.53008380       1.08038205      -0.16993778
H       -0.32079903      -0.72142014      -0.63203853
H        0.75697236      -2.43247288       0.61632308
H        0.50628629       0.95032157       0.92720617
H        0.62065701      -0.26062966       2.22039756
H        2.06671282      -0.11740402      -0.18133620
17
Properties=species:S:1:pos:R:3 relative_energy_eV=0.003165010184602579 branch=left pbc="F F F"
O       -2.53729570      -1.22862627       1.53913952
C       -1.81369482      -0.54681490       0.84988523
O       -2.21004720       0.65380701       0.39967704
C       -0.40290952      -0.94187574       0.42910906
O       -0.20940133      -2.32670713       0.64181601
C        0.67183776      -0.11427329       1.14038275
O        1.95989806      -0.51931500       0.70835812
P        0.62780712       1.60733920      -2.12388853
O        0.42884101       2.04922235      -3.53656638
O       -0.38585167       1.96441824      -1.06109729
O        1.84208140       0.81573549      -1.70874646
H       -1.51341412       1.10436807      -0.14927714
H       -0.31431624      -0.71383985      -0.64304534
H        0.75248122      -2.43588997       0.60978596
H        0.50854470       0.94178517       0.93456593
H        0.61305602      -0.27492868       2.21785480
H        2.07492096      -0.10572422      -0.17266828
17
Properties=species:S:1:pos:R:3 relative_energy_eV=0.005517022960702889 branch=left pbc="F F F"
O       -2.54373534      -1.23012348       1.51554827
C       -1.80984088      -0.54482049       0.84136360
O       -2.19430427       0.66285882       0.40443759
C       -0.40233351      -0.94413066       0.41959633
O       -0.21684566      -2.33064638       0.62696832
C        0.67002637      -0.11833993       1.13493851
O        1.95810644      -0.52423832       0.70480124
P        0.62313550       1.61194304      -2.11022641
O        0.38646561       1.98210148      -3.53598479
O       -0.38251492       1.98949242      -1.04592098
O        1.86341009       0.86534948      -1.69095416
H       -1.49200310       1.11365658      -0.13646347
H       -0.31282412      -0.70894455      -0.65166854
H        0.74355794      -2.44348230       0.62443290
H        0.51186086       0.94176757       0.93536082
H        0.61282357      -0.28767949       2.21207186
H        2.07755337      -0.10608293      -0.17301579
17
Properties=species:S:1:pos:R:3 relative_energy_eV=0.006801139224990038 branch=left pbc="F F F"
O       -2.54788021      -1.22769268       1.50116390
C       -1.81044442      -0.53977734       0.83335598
O       -2.18829102       0.67650562       0.41182438
C       -0.40246842      -0.94402109       0.41185772
O       -0.21576280      -2.33029447       0.62051741
C        0.67047568      -0.12617095       1.13370017
O        1.96084561      -0.52510176       0.70423079
P        0.61997278       1.60565354      -2.10421030
O        0.35173040       1.92628377      -3.53629289
O       -0.36976816       2.00662941      -1.03414786
O        1.87756687       0.89332538      -1.67562150
H       -1.48919633       1.13185161      -0.12968131
H       -0.31026760      -0.71104051      -0.65980871
H        0.74636134      -2.43851956       0.61563377
H        0.50742626       0.93277690       0.94211031
H        0.60673812      -0.30491733       2.20825273
H        2.08550011      -0.09680932      -0.16759900
17
Properties=species:S:1:pos:R:3 relative_energy_eV=0.007760236170724966 branch=left pbc="F F F"
O       -2.55155671      -1.22787343       1.48739940
C       -1.81080420      -0.53514069       0.82859210
O       -2.18640149       0.68383050       0.41488610
C       -0.40260111      -0.93761322       0.40544059
O       -0.21376774      -2.32519953       0.60656498
C        0.67085859      -0.12541069       1.13386813
O        1.96007400      -0.52977084       0.70339076
P        0.61600999       1.59622695      -2.09428553
O        0.33081855       1.88534968      -3.53008842
O       -0.36887144       2.00763781      -1.02289349
O        1.88334553       0.89957278      -1.66866865
H       -1.48807240       1.13536537      -0.13124080
H       -0.31200720      -0.70215454      -0.66603426
H        0.74839905      -2.42893663       0.61161859
H        0.51500835       0.93739089       0.95029963
H        0.60906846      -0.31711651       2.20730550
H        2.09303811      -0.08747652      -0.16086883
17
Properties=species:S:1:pos:R:3 relative_energy_eV=0.008690901409863727 branch=left pbc="F F F"
O       -2.55401450      -1.23140604       1.47187264
C       -1.81142830      -0.53463213       0.81918353
O       -2.18595569       0.68555619       0.40690589
C       -0.39993686      -0.93188392       0.40307251
O       -0.20820929      -2.31937083       0.59904742
C        0.67276365      -0.12502819       1.13883337
O        1.96220713      -0.53037418       0.70874841
P        0.60844329       1.58539152      -2.08926864
O        0.30774881       1.85625433      -3.52515692
O       -0.35791693       2.01770591      -1.00960977
O        1.87626403       0.88625704      -1.66989032
H       -1.48160020       1.14363116      -0.12654817
H       -0.30650930      -0.69106721      -0.66660165
H        0.75508920      -2.41934074       0.59624258
H        0.52228280       0.93831503       0.96188820
H        0.59987349      -0.31515282       2.21128901
H        2.09343715      -0.08617356      -0.15472215
17
Properties=species:S:1:pos:R:3 relative_energy_eV=0.009805333305848762 branch=left pbc="F F F"
O       -2.55441747      -1.23384118       1.45555295
C       -1.81006644      -0.53113382       0.81196990
O       -2.18686549       0.68756966       0.39929762
C       -0.39559688      -0.92374621       0.39989465
O       -0.20799334      -2.31352210       0.58619565
C        0.67187639      -0.11992136       1.14595129
O        1.96344298      -0.52401452       0.72330240
P        0.60373140       1.57285612      -2.08537970
O        0.27602391       1.82817049      -3.51736845
O       -0.34766386       2.01606703      -0.99705005
O        1.87619590       0.87906645      -1.67509435
H       -1.47492347       1.14855397      -0.12170013
H       -0.29434635      -0.67641528      -0.66774255
H        0.75387590      -2.42004338       0.57559391
H        0.52424371       0.94434217       0.96854239
H        0.59793014      -0.31873031       2.21661422
H        2.09709171      -0.08657605      -0.14329365
17
Properties=species:S:1:pos:R:3 relative_energy_eV=0.010941339056444122 branch=left pbc="F F F"
O       -2.54850378      -1.23441252       1.45718061
C       -1.80935530      -0.52906589       0.80982723
O       -2.19142458       0.69015489       0.40142215
C       -0.39316814      -0.91594272       0.39744265
O       -0.20586485      -2.30744358       0.56851600
C        0.67393774      -0.11799593       1.15253296
O        1.96658249      -0.51918767       0.72894549
P        0.60025525       1.56056903      -2.07965552
O        0.27410335       1.78722075      -3.51743311
O       -0.34859830       2.02408861      -0.99742460
O        1.87701153       0.87877575      -1.66003193
H       -1.48476740       1.15588404      -0.12209259
H       -0.28948582      -0.65910419      -0.66722854
H        0.75584983      -2.41687599       0.54101829
H        0.52143589       0.94771001       0.98379223
H        0.60021893      -0.32171166       2.22241252
H        2.09431214      -0.09398107      -0.14393761
17
Properties=species:S:1:pos:R:3 relative_energy_eV=0.01194325668620877 branch=left pbc="F F F"
O       -2.54435053      -1.23251805       1.45996960
C       -1.80531082      -0.52574410       0.81532416
O       -2.19055412       0.69202241       0.40665339
C       -0.39050691      -0.91316984       0.39633298
O       -0.20996856      -2.30702050       0.55798917
C        0.67616167      -0.11988778       1.15524351
O        1.96980689      -0.51819097       0.73816111
P        0.59884903       1.56076370      -2.07939481
O        0.27148334       1.76834794      -3.52036030
O       -0.35586340       2.02931442      -1.00409427
O        1.87572849       0.88202689      -1.65669483
H       -1.48881021       1.15389793      -0.12589944
H       -0.28984105      -0.65108952      -0.66783978
H        0.74991913      -2.42444967       0.52151708
H        0.52163230       0.94430349       0.98632602
H        0.59825578      -0.32051642       2.22447535
H        2.10590804      -0.08940792      -0.13242269
17
Properties=species:S:1:pos:R:3 relative_energy_eV=0.01484909425926162 branch=left pbc="F F F"
O       -2.53333742      -1.22877123       1.48889488
C       -1.80495619      -0.52747609       0.82609491
O       -2.18948040       0.69333214       0.42071030
C       -0.39543162      -0.91208551       0.39530326
O       -0.20748386      -2.30580732       0.54885044
C        0.66789168      -0.11930764       1.16066342
O        1.96315976      -0.51111929       0.73858148
P        0.61133487       1.55396439      -2.08503469
O        0.27826419       1.72002554      -3.52936951
O       -0.34662777       2.03881239      -1.02093014
O        1.89618269       0.90310410      -1.64426836
H       -1.49451312       1.14899552      -0.12484516
H       -0.30133147      -0.64301941      -0.66694752
H        0.74923619      -2.42520328       0.45735930
H        0.51741904       0.94997859       1.00766214
H        0.58626742      -0.33716006       2.22743352
H        2.09594537      -0.06958065      -0.12487189
17
Properties=species:S:1:pos:R:3 relative_energy_eV=0.017404313271981664 branch=left pbc="F F F"
O       -2.52891074      -1.22009516       1.51710727
C       -1.80512005      -0.52619561       0.84191574
O       -2.19564735       0.68967572       0.42697723
C       -0.39955278      -0.91029613       0.39374364
O       -0.21323917      -2.30576716       0.53153913
C        0.66836463      -0.12580226       1.16078058
O        1.96113980      -0.51720477       0.73503548
P        0.61314508       1.54605007      -2.09106940
O        0.29770048       1.68564791      -3.54289043
O       -0.35667983       2.03523271      -1.03917165
O        1.90753416       0.92937585      -1.62681301
H       -1.50072669       1.14983232      -0.11395132
H       -0.30496590      -0.62605489      -0.66581368
H        0.74184937      -2.42191755       0.42375155
H        0.51032673       0.94333851       1.01176090
H        0.58980128      -0.34971878       2.22523460
H        2.10752057      -0.04741841      -0.11285028
17
Properties=species:S:1:pos:R:3 relative_energy_eV=0.021292561552400002 branch=left pbc="F F F"
O       -2.51703825      -1.20317772       1.54899385
C       -1.80737303      -0.51823022       0.84974109
O       -2.19960366       0.69649020       0.43418727
C       -0.40662611      -0.91043544       0.39296954
O       -0.21865688      -2.30793405       0.51132923
C        0.66441908      -0.13576576       1.16284055
O        1.95758224      -0.51651209       0.72277387
P        0.62780092       1.54630593      -2.08938213
O        0.31493973       1.64493992      -3.54592751
O       -0.37738898       2.00202524      -1.05648406
O        1.93883453       0.98179709      -1.60734328
H       -1.50104419       1.15048946      -0.10706161
H       -0.31641732      -0.62109723      -0.66263846
H        0.73609989      -2.42066826       0.38820566
H        0.50125478       0.93262846       1.01936460
H        0.59559354      -0.36477229       2.22832220
H        2.10016357      -0.02740071      -0.11460442
17
Properties=species:S:1:pos:R:3 relative_energy_eV=0.028726686650770716 branch=left pbc="F F F"
O       -2.49693538      -1.19114692       1.59358794
C       -1.80153478      -0.51009798       0.87558807
O       -2.20408662       0.70095716       0.46160098
C       -0.41472571      -0.90102779       0.38401987
O       -0.23678469      -2.30183865       0.47145725
C        0.66903666      -0.14884870       1.16095771
O        1.95069828      -0.53887471       0.70098456
P        0.64010706       1.53428954      -2.09080735
O        0.35676011       1.58996161      -3.55357461
O       -0.42240787       1.94972993      -1.10002687
O        1.98001559       1.09163956      -1.55577032
H       -1.53292461       1.14844492      -0.12095151
H       -0.34688328      -0.58739635      -0.66839490
H        0.71853095      -2.42104351       0.36785056
H        0.51939728       0.92477233       1.04029759
H        0.61069941      -0.38944369       2.22536042
H        2.10357787      -0.02139392      -0.11689299
17
Properties=species:S:1:pos:R:3 relative_energy_eV=0.03564169600940659 branch=left pbc="F F F"
O       -2.48329681      -1.18128609       1.62308274
C       -1.80274449      -0.49805930       0.89340021
O       -2.21045971       0.71281456       0.48667790
C       -0.42120166      -0.89391889       0.38149419
O       -0.25691277      -2.29815357       0.45279963
C        0.67938055      -0.15689956       1.14951747
O        1.95672956      -0.55171412       0.68162017
P        0.64464308       1.54005207      -2.08836408
O        0.40058385       1.54430538      -3.56307234
O       -0.45951207       1.91291676      -1.12525619
O        1.98708692       1.17646110      -1.50539631
H       -1.55211072       1.12966212      -0.13186712
H       -0.35557326      -0.57197214      -0.66498198
H        0.69736629      -2.42695627       0.35903386
H        0.53779156       0.92021393       1.04064846
H        0.61557537      -0.41567634       2.20663559
H        2.11519462      -0.01310659      -0.12068584
17
Properties=species:S:1:pos:R:3 relative_energy_eV=0.05013786723429803 branch=left pbc="F F F"
O       -2.45730026      -1.17978665       1.66214443
C       -1.80353391      -0.49208349       0.91075245
O       -2.23899107       0.71030857       0.51396004
C       -0.42994744      -0.87670795       0.36900984
O       -0.28481452      -2.28077974       0.45921291
C        0.69212493      -0.16999451       1.13302461
O        1.96051105      -0.57431946       0.63799372
P        0.65486483       1.54241055      -2.07281574
O        0.48764419       1.47911899      -3.55655682
O       -0.52474419       1.89248554      -1.19087859
O        1.99397672       1.26909972      -1.42913383
H       -1.60425084       1.13477862      -0.12026422
H       -0.36206738      -0.56141085      -0.68329062
H        0.66884566      -2.41701521       0.35828833
H        0.57888932       0.90927994       1.03958389
H        0.63665353      -0.45608618       2.18714830
H        2.12467974      -0.00061435      -0.14289247
17
Properties=species:S:1:pos:R:3 relative_energy_eV=0.06130528298308491 branch=left pbc="F F F"
O       -2.43100563      -1.16285044       1.70602205
C       -1.79800500      -0.48094902       0.93396063
O       -2.25127556       0.71770259       0.53094544
C       -0.43671791      -0.87891519       0.36984517
O       -0.29877624      -2.28703029       0.43185863
C        0.71212111      -0.18756028       1.11228713
O        1.95518310      -0.62443681       0.58948271
P        0.64850801       1.55644318      -2.06572291
O        0.59314477       1.41004309      -3.55037604
O       -0.60093241       1.89225544      -1.28414438
O        1.94197364       1.37697821      -1.31522846
H       -1.64331879       1.15066155      -0.12289069
H       -0.39891367      -0.55137654      -0.67581808
H        0.65450615      -2.43044393       0.36312486
H        0.61951124       0.89725103       1.02620278
H        0.67698573      -0.46826683       2.16576611
H        2.14955183      -0.00082163      -0.14002867
17
Properties=species:S:1:pos:R:3 relative_energy_eV=0.07168093376094475 branch=left pbc="F F F"
O       -2.42026680      -1.13458155       1.73790628
C       -1.78794656      -0.46909795       0.95032622
O       -2.24138685       0.72638352       0.54031100
C       -0.43806426      -0.88207736       0.36785349
O       -0.30056456      -2.28992106       0.43620474
C        0.71880339      -0.20218088       1.09931941
O        1.95160647      -0.64134472       0.54801837
P        0.64357296       1.55922650      -2.05394161
O        0.67188679       1.36392058      -3.53514979
O       -0.64448871       1.88891474      -1.33464943
O        1.90030052       1.45263951      -1.22250821
H       -1.64884256       1.15464104      -0.12978590
H       -0.42166075      -0.56372271      -0.68382124
H        0.65328113      -2.44363101       0.34729514
H        0.63028695       0.87951590       1.01684860
H        0.69402561      -0.47182042       2.15887544
H        2.13199766       0.00182034      -0.16781619
17
Properties=species:S:1:pos:R:3 relative_energy_eV=0.08764837727358099 branch=left pbc="F F F"
O       -2.41851002      -1.08517319       1.79407707
C       -1.78333188      -0.45926669       0.97714156
O       -2.19683699       0.74648286       0.55419007
C       -0.45278055      -0.90321780       0.37344654
O       -0.31655573      -2.31172132       0.43630960
C        0.72197499      -0.21700652       1.07225445
O        1.93895548      -0.65241812       0.48735415
P        0.63781821       1.58158555      -2.01772952
O        0.78317474       1.28799550      -3.47476985
O       -0.71988542       1.87631835      -1.42313126
O        1.83642458       1.57371347      -1.10563952
H       -1.61624981       1.12400017      -0.15815840
H       -0.44912307      -0.57617814      -0.67496859
H        0.63491319      -2.45449123       0.32303038
H        0.63261439       0.86455332       0.97935129
H        0.73646547      -0.48892985       2.12865460
H        2.12347291       0.02243862      -0.19612601
17
Properties=species:S:1:pos:R:3 relative_energy_eV=0.09843213153726538 branch=left pbc="F F F"
O       -2.39706619      -1.07167890       1.81066647
C       -1.77154060      -0.44537754       0.98730653
O       -2.17827837       0.75965856       0.55737096
C       -0.45817164      -0.90900341       0.37771697
O       -0.33775713      -2.31670900       0.47106106
C        0.72392912      -0.22349761       1.05327928
O        1.93110573      -0.64402823       0.43674883
P        0.64318312       1.57788077      -1.99462322
O        0.84156014       1.24528697      -3.43604222
O       -0.73939312       1.85189986      -1.44625671
O        1.82275625       1.66037179      -1.05215853
H       -1.59801555       1.12408271      -0.16582725
H       -0.45761602      -0.62155698      -0.68007238
H        0.60475067      -2.46464058       0.29732513
H        0.60827606       0.85788526       0.97931171
H        0.75002359      -0.50427970       2.10811411
H        2.10479454       0.05239116      -0.22863409
17
Properties=species:S:1:pos:R:3 relative_energy_eV=0.11668238569473033 branch=left pbc="F F F"
O       -2.38200411      -1.02563940       1.83689808
C       -1.76329624      -0.43097280       0.98482922
O       -2.14570173       0.78359131       0.57309751
C       -0.46954766      -0.93720364       0.36574293
O       -0.37267224      -2.34182333       0.54023719
C        0.72014147      -0.23349817       1.01288023
O        1.92652684      -0.59719150       0.35466969
P        0.66089012       1.58486970      -1.95908151
O        0.91423416       1.16867575      -3.37057554
O       -0.75309067       1.78052372      -1.46360752
O        1.79171286       1.79745786      -0.98443070
H       -1.57879623       1.13344757      -0.16556560
H       -0.47489101      -0.68386309      -0.70366303
H        0.53025711      -2.54899647       0.26218341
H        0.58055591       0.84539971       0.96534101
H        0.79078821      -0.52822584       2.06694468
H        2.11743391       0.16213403      -0.24061335
17
Properties=species:S:1:pos:R:3 relative_energy_eV=0.12869387761020334 branch=left pbc="F F F"
O       -2.38721985      -1.00149363       1.85326389
C       -1.76008040      -0.41490703       1.00063549
O       -2.12778960       0.80229522       0.57914085
C       -0.47049681      -0.95317928       0.36940444
O       -0.39951135      -2.36105189       0.55911528
C        0.72912956      -0.24041474       0.98160565
O        1.92607817      -0.57074547       0.29778168
P        0.66199507       1.58305897      -1.93570055
O        0.96015880       1.12587292      -3.32456791
O       -0.77110651       1.73931806      -1.47360046
O        1.77536051       1.90019495      -0.96644369
H       -1.56212007       1.14170290      -0.17194372
H       -0.48421799      -0.73043809      -0.70451190
H        0.47772314      -2.62164523       0.24824187
H        0.56706872       0.83564969       0.94427814
H        0.81415733      -0.54362154       2.02701420
H        2.14341201       0.23808976      -0.20842653
17
Properties=species:S:1:pos:R:3 relative_energy_eV=0.1473502825065225 branch=left pbc="F F F"
O       -2.37771621      -0.98888722       1.85510809
C       -1.74266117      -0.41016992       1.00282112
O       -2.09194999       0.80891245       0.58489311
C       -0.47200887      -0.96650775       0.36708968
O       -0.44060802      -2.37126613       0.56254573
C        0.73511938      -0.24831129       0.95938253
O        1.93753224      -0.54230180       0.26598025
P        0.65265743       1.57722223      -1.92503798
O        0.97245098       1.10981313      -3.30442723
O       -0.78755334       1.72041950      -1.48591314
O        1.73746633       1.91024396      -0.93494355
H       -1.54348731       1.13299830      -0.18579335
H       -0.49946591      -0.74486664      -0.70424800
H        0.42243366      -2.66075750       0.24647053
H        0.55586028       0.82340914       0.90497912
H        0.84922926      -0.53330205       2.00896055
H        2.18524201       0.31203728      -0.14258070
17
Properties=species:S:1:pos:R:3 relative_energy_eV=0.17606751000857912 branch=left pbc="F F F"
O       -2.37637721      -0.99829043       1.86411884
C       -1.75469015      -0.40507599       1.00858734
O       -2.08785732       0.82181777       0.58869680
C       -0.48535725      -0.96519995       0.35921009
O       -0.44839707      -2.37139440       0.57939679
C        0.73316465      -0.25137704       0.94541814
O        1.92461327      -0.53757033       0.23429534
P        0.65589891       1.57952189      -1.92155885
O        0.98072554       1.08908733      -3.29615314
O       -0.79093507       1.70716127      -1.48839900
O        1.74166264       1.94763000      -0.92485919
H       -1.52431956       1.11553800      -0.19373463
H       -0.50965627      -0.74009800      -0.71983089
H        0.40361948      -2.68288284       0.25022454
H        0.53157100       0.81515511       0.91208414
H        0.88204488      -0.53374258       1.99726697
H        2.21683032       0.33840593      -0.11947655
17
Properties=species:S:1:pos:R:3 relative_energy_eV=0.27976614101135056 branch=left pbc="F F F"
O       -2.43699965      -0.96717419       1.88277141
C       -1.77705174      -0.42060659       1.02967232
O       -2.10623983       0.79291361       0.59158464
C       -0.50552034      -0.98388507       0.38233502
O       -0.47036978      -2.38227401       0.62868041
C        0.71934150      -0.22134914       0.88321230
O        1.80388842      -0.41635450      -0.03154777
P        0.75657254       1.56318361      -1.85626608
O        1.07276882       0.94704819      -3.17925060
O       -0.70528427       1.60999125      -1.44899832
O        1.80490971       2.17912710      -0.96046209
H       -1.52031994       1.09137647      -0.15970045
H       -0.56877648      -0.79510260      -0.69060221
H        0.35637185      -2.72244617       0.26732070
H        0.45814516       0.84015349       1.00024659
H        0.96228358      -0.63064535       1.87246498
H        2.24882128       0.44472974      -0.13617420
17
Properties=species:S:1:pos:R:3 relative_energy_eV=0.34741572923303465 branch=left pbc="F F F"
O       -2.45621658      -0.98685633       1.89928319
C       -1.81395609      -0.41792518       1.04309857
O       -2.13703894       0.79419868       0.58904354
C       -0.55681058      -1.00408347       0.39824888
O       -0.47616203      -2.39327244       0.69711489
C        0.69072975      -0.24165597       0.84756758
O        1.68255669      -0.29810048      -0.18313470
P        0.82888673       1.55774384      -1.82746652
O        1.20902774       0.83331874      -3.07866124
O       -0.61438951       1.55887131      -1.35622254
O        1.82649386       2.36546111      -1.03739258
H       -1.52373215       1.09854592      -0.15608901
H       -0.63639367      -0.85038657      -0.68054477
H        0.32749406      -2.71114360       0.26811553
H        0.45845739       0.80194977       1.03834108
H        1.06874915      -0.69613502       1.77290005
H        2.21484503       0.51815553      -0.15891536
17
Properties=species:S:1:pos:R:3 relative_energy_eV=0.3827233972551767 branch=left pbc="F F F"
O       -2.45744783      -0.98216026       1.89457522
C       -1.81359105      -0.41908957       1.04233672
O       -2.14424554       0.79091446       0.59096825
C       -0.55289750      -0.99813992       0.39534011
O       -0.47385864      -2.38182033       0.71233469
C        0.69523018      -0.24012873       0.83364285
O        1.67230025      -0.30802540      -0.19904434
P        0.84985562       1.54553741      -1.80858402
O        1.23073487       0.81905319      -3.05629761
O       -0.59693175       1.55166731      -1.34489886
O        1.83235536       2.41400623      -1.06283736
H       -1.52888120       1.09105904      -0.14714279
H       -0.65625323      -0.86525953      -0.68584249
H        0.31878304      -2.70249748       0.26828586
H        0.44386788       0.79742944       1.05610835
H        1.10477835      -0.70035868       1.73531503
H        2.16874203       0.51649862      -0.14897305
17
Properties=species:S:1:pos:R:3 relative_energy_eV=0.5901739832552266 branch=left pbc="F F F"
O       -2.45908731      -0.99239732       1.90919514
C       -1.82876925      -0.42030667       1.04562677
O       -2.15368269       0.79286311       0.60147373
C       -0.57610934      -1.00295578       0.38681362
O       -0.46515513      -2.37664282       0.73380868
C        0.66778008      -0.20713615       0.79412878
O        1.63481344      -0.17508771      -0.27426592
P        0.89429883       1.51713485      -1.78007529
O        1.26111457       0.75779300      -3.01935925
O       -0.56618629       1.49511969      -1.31791156
O        1.90320432       2.24301569      -0.94575117
H       -1.53732429       1.09424959      -0.14245557
H       -0.68653137      -0.88285244      -0.69396717
H        0.31135912      -2.70914960       0.26821040
H        0.42157605       0.81610983       1.08848619
H        1.19562167      -0.69623551       1.61101992
H        2.07561835       0.67516404      -0.18969078
17
Properties=species:S:1:pos:R:3 relative_energy_eV=0.93405342614642 branch=ts pbc="F F F"
O       -2.46439594      -0.99102857       1.91272482
C       -1.82869648      -0.42300465       1.05339828
O       -2.15891265       0.78880469       0.60555347
C       -0.57722639      -1.00151658       0.39029143
O       -0.46513830      -2.37516269       0.73499414
C        0.67821420      -0.19580664       0.75860257
O        1.54350057      -0.07518034      -0.36492269
P        0.89940988       1.28923383      -1.69081121
O        1.28610954       0.78511276      -3.03459228
O       -0.54788880       1.52784574      -1.31900077
O        1.95420628       2.12128120      -0.85010180
H       -1.54035409       1.09102350      -0.13326294
H       -0.70150266      -0.89272546      -0.69097472
H        0.31145932      -2.70792808       0.27001442
H        0.41674967       0.80557482       1.09830839
H        1.20851243      -0.69193891       1.57397894
H        2.09066311       1.01061882      -0.26573878
17
Properties=species:S:1:pos:R:3 relative_energy_eV=0.7626886427860882 branch=right pbc="F F F"
O       -2.46505350      -0.99038416       1.91306450
C       -1.82741409      -0.42480117       1.05341842
O       -2.15936475       0.78866033       0.60579535
C       -0.57770438      -1.00047328       0.39127196
O       -0.46550670      -2.37568467       0.73529122
C        0.68017759      -0.19528787       0.75335475
O        1.52815164      -0.07487421      -0.37636970
P        0.89510621       1.26434017      -1.68467127
O        1.28859708       0.78996533      -3.03551434
O       -0.54582166       1.53262297      -1.31917045
O        1.96212476       2.11867344      -0.84116201
H       -1.54005988       1.08932724      -0.13078640
H       -0.70642450      -0.89460669      -0.69065615
H        0.31311760      -2.70468055       0.27021359
H        0.41129635       0.80230709       1.10528873
H        1.20663751      -0.69349641       1.57307298
H        2.11901926       1.17011351      -0.30080511
17
Properties=species:S:1:pos:R:3 relative_energy_eV=0.2569407017872436 branch=right pbc="F F F"
O       -2.46875874      -0.98740098       1.91624627
C       -1.82616626      -0.42897158       1.05649947
O       -2.16049145       0.78327536       0.60802721
C       -0.58705994      -1.00356659       0.39580881
O       -0.46510359      -2.37674683       0.73767525
C        0.66262106      -0.19558572       0.73265482
O        1.40111315      -0.14661720      -0.47424546
P        0.88000515       1.07879496      -1.62060095
O        1.30548728       0.81293777      -3.02665676
O       -0.53292903       1.55612880      -1.31586801
O        1.98380411       2.12754000      -0.82887423
H       -1.53896095       1.08952296      -0.13034923
H       -0.71214214      -0.89692702      -0.68754953
H        0.31552122      -2.69915142       0.26944293
H        0.40640938       0.80072407       1.11282483
H        1.21095473      -0.69443702       1.55571099
H        2.24257454       1.38220153      -0.27911043
17
Properties=species:S:1:pos:R:3 relative_energy_eV=0.010067728097055806 branch=right pbc="F F F"
O       -2.47297895      -0.98925018       1.92335553
C       -1.83697050      -0.42838663       1.06186252
O       -2.16063155       0.78313218       0.60834616
C       -0.60988728      -1.01397501       0.40231287
O       -0.46456988      -2.38157280       0.74349014
C        0.63687110      -0.20380109       0.71570476
O        1.34947576      -0.19349282      -0.52321771
P        0.88510951       1.06404328      -1.60381732
O        1.31125982       0.79882892      -2.99563134
O       -0.51780199       1.53706403      -1.30063357
O        1.96063139       2.15020369      -0.86116799
H       -1.53633055       1.09184038      -0.13387475
H       -0.72306583      -0.90172302      -0.67866749
H        0.31598591      -2.69407791       0.26775449
H        0.40694242       0.79785708       1.10255758
H        1.21734107      -0.69186119       1.51759776
H        2.35549803       1.47689220      -0.22433581
17
Properties=species:S:1:pos:R:3 relative_energy_eV=-0.2368470393230382 branch=right pbc="F F F"
O       -2.49719536      -0.98710801       1.94812264
C       -1.86264108      -0.42737399       1.06934169
O       -2.16725633       0.78461595       0.61277722
C       -0.64798582      -1.03406396       0.41252321
O       -0.47031509      -2.39791525       0.76084860
C        0.60650398      -0.22204952       0.67454384
O        1.30950942      -0.23339670      -0.57361483
P        0.92164978       1.08337499      -1.56481427
O        1.33073930       0.74941530      -2.96057123
O       -0.51201545       1.49587473      -1.25682686
O        1.96672995       2.14944227      -0.84739139
H       -1.53204000       1.08709645      -0.13403102
H       -0.76626871      -0.92141019      -0.66372872
H        0.30976959      -2.68092194       0.26531933
H        0.40489886       0.78501545       1.05376923
H        1.23096952      -0.69710647       1.42904431
H        2.49182591       1.66823197      -0.20367621
17
Properties=species:S:1:pos:R:3 relative_energy_eV=-0.292069373990671 branch=right pbc="F F F"
O       -2.51517591      -0.97333468       1.95649360
C       -1.87773361      -0.43268229       1.08336228
O       -2.17490528       0.78228271       0.61761494
C       -0.65858624      -1.04131320       0.41204464
O       -0.47905788      -2.40335505       0.77060105
C        0.60742847      -0.23169703       0.65269096
O        1.32248512      -0.22717324      -0.57273568
P        0.93663163       1.06935214      -1.55692704
O        1.34557496       0.73622563      -2.94246813
O       -0.49627650       1.48837130      -1.23460463
O        1.96077930       2.16878799      -0.84431082
H       -1.53269577       1.07447843      -0.12312823
H       -0.80468109      -0.94193150      -0.66428380
H        0.30024297      -2.67565370       0.26695475
H        0.39664366       0.77526090       1.01641513
H        1.24031900      -0.71521310       1.39287728
H        2.54588570       1.74931576      -0.20896084
17
Properties=species:S:1:pos:R:3 relative_energy_eV=-0.3311203063458379 branch=right pbc="F F F"
O       -2.53227617      -0.96343796       1.96568340
C       -1.88118482      -0.43110038       1.09296343
O       -2.18239691       0.77698845       0.62340282
C       -0.66317974      -1.04501169       0.40622330
O       -0.49190755      -2.40301021       0.77560968
C        0.61733603      -0.24281549       0.64775014
O        1.38153171      -0.20690917      -0.55201329
P        0.94958010       1.07313011      -1.55572107
O        1.36607779       0.73537035      -2.94482816
O       -0.47365886       1.49323380      -1.22305273
O        1.94549356       2.21382133      -0.85029180
H       -1.53457596       1.05980898      -0.10640211
H       -0.84725776      -0.96725425      -0.67011685
H        0.28550847      -2.68230616       0.27477788
H        0.38461574       0.76565306       0.98975784
H        1.24156574      -0.74259008       1.39063918
H        2.55160718       1.76815035      -0.24274618
17
Properties=species:S:1:pos:R:3 relative_energy_eV=-0.34658270307045314 branch=right pbc="F F F"
O       -2.52645917      -0.96857629       1.96908630
C       -1.88131063      -0.43029380       1.09584786
O       -2.18253960       0.77806167       0.62544227
C       -0.66849696      -1.04947646       0.40432913
O       -0.50146629      -2.40696438       0.77739847
C        0.61527623      -0.25094347       0.64488014
O        1.38915317      -0.21442162      -0.55897959
P        0.96354604       1.08158704      -1.55234968
O        1.38155341       0.74058036      -2.94048904
O       -0.46313413       1.49047324      -1.22133171
O        1.94191492       2.24493630      -0.85972227
H       -1.53203622       1.06253767      -0.10443330
H       -0.86515901      -0.97668404      -0.66933797
H        0.27673254      -2.69629761       0.28340781
H        0.38286299       0.75618795       0.99697070
H        1.22706442      -0.74974569       1.40101215
H        2.55937686       1.79076012      -0.27009581
17
Properties=species:S:1:pos:R:3 relative_energy_eV=-0.35978746887485613 branch=right pbc="F F F"
O       -2.51958990      -0.97182028       1.97560910
C       -1.88175761      -0.43270989       1.09872874
O       -2.18060123       0.77936814       0.62907208
C       -0.67666975      -1.05851341       0.40180591
O       -0.51706322      -2.41669333       0.78286723
C        0.60914307      -0.26330356       0.63503297
O        1.38264556      -0.22047011      -0.56262879
P        0.97675440       1.08628147      -1.54852739
O        1.40922026       0.74624395      -2.92964716
O       -0.45134091       1.48314224      -1.21432406
O        1.93819767       2.27472308      -0.86962051
H       -1.52874186       1.06587272      -0.10052366
H       -0.89063861      -0.98926896      -0.66885980
H        0.26256356      -2.71402425       0.29603257
H        0.38251586       0.73857321       1.00000773
H        1.20772669      -0.75937964       1.40027846
H        2.59451460       1.85369960      -0.30366801
17
Properties=species:S:1:pos:R:3 relative_energy_eV=-0.3777224835648667 branch=right pbc="F F F"
O       -2.50501724      -0.96885390       1.98212833
C       -1.87267891      -0.43766966       1.09673526
O       -2.16955182       0.77731206       0.63709075
C       -0.68322651      -1.07242129       0.39209587
O       -0.54370208      -2.42915827       0.78642236
C        0.59953931      -0.27568385       0.63732102
O        1.38661216      -0.19568026      -0.53974040
P        0.97704032       1.09310132      -1.55308533
O        1.45286749       0.76599759      -2.92535726
O       -0.45335826       1.48431682      -1.22173515
O        1.92216108       2.29036328      -0.87947892
H       -1.52463836       1.06923555      -0.09133607
H       -0.90608218      -1.00194003      -0.67720351
H        0.23885919      -2.74542590       0.31837553
H        0.37967989       0.71933889       1.01253105
H        1.18359617      -0.78058188       1.40711913
H        2.63477836       1.90947053      -0.36024721
17
Properties=species:S:1:pos:R:3 relative_energy_eV=-0.38760670903502614 branch=right pbc="F F F"
O       -2.49603201      -0.96689459       1.98649133
C       -1.86885387      -0.43828549       1.09512733
O       -2.16105167       0.77824048       0.64209429
C       -0.68463232      -1.07688405       0.38523807
O       -0.55730068      -2.43315415       0.78269667
C        0.59631090      -0.27509452       0.64742966
O        1.39615493      -0.17889911      -0.52808662
P        0.97365044       1.09795752      -1.55195535
O        1.46471252       0.77691596      -2.92219871
O       -0.46416676       1.48767713      -1.24447669
O        1.90675130       2.29328676      -0.87503202
H       -1.51993331       1.07031367      -0.08949323
H       -0.89477737      -1.00582333      -0.68714705
H        0.22785782      -2.76328733       0.32999052
H        0.37055629       0.71953390       1.03123655
H        1.17795526      -0.79514220       1.41309634
H        2.64967714       1.91126034      -0.39337565
17
Properties=species:S:1:pos:R:3 relative_energy_eV=-0.40499898846974247 branch=right pbc="F F F"
O       -2.48554768      -0.96131956       1.99925919
C       -1.87068260      -0.43822630       1.09574311
O       -2.14761662       0.78755519       0.65040509
C       -0.68961656      -1.08235341       0.37594441
O       -0.58371275      -2.44162468       0.77673778
C        0.59165151      -0.27735671       0.65223012
O        1.39411791      -0.16913864      -0.51684746
P        0.97722008       1.10852278      -1.53814636
O        1.48187168       0.77898520      -2.89885476
O       -0.47461500       1.47637436      -1.28237406
O        1.88200470       2.32247098      -0.84092270
H       -1.50840501       1.06816210      -0.09121280
H       -0.87599293      -1.01757317      -0.70216782
H        0.20709424      -2.79099196       0.34885924
H        0.35013292       0.70763547       1.06248851
H        1.17223811      -0.81884962       1.40152295
H        2.69673660       1.94944896      -0.47102896
17
Properties=species:S:1:pos:R:3 relative_energy_eV=-0.41579711912345374 branch=right pbc="F F F"
O       -2.47957155      -0.95052311       2.00534498
C       -1.86818394      -0.43650786       1.09439806
O       -2.13617699       0.79349413       0.65511868
C       -0.69592713      -1.09037930       0.37042167
O       -0.60713047      -2.44959329       0.77678526
C        0.58435398      -0.29043287       0.64928853
O        1.38542813      -0.15660542      -0.50571113
P        0.98160443       1.11682745      -1.52795441
O        1.51350016       0.77705413      -2.87636676
O       -0.47626273       1.46262360      -1.29273425
O        1.85997820       2.35079985      -0.80396400
H       -1.50179133       1.06390375      -0.09235434
H       -0.87366310      -1.02717567      -0.70824970
H        0.18688002      -2.80943464       0.36350791
H        0.34153270       0.68058872       1.07964219
H        1.16582260      -0.83637745       1.38931385
H        2.73648564       2.00345895      -0.55485103
17
Properties=species:S:1:pos:R:3 relative_energy_eV=-0.441786910087103 branch=right pbc="F F F"
O       -2.48103579      -0.93157009       1.99630194
C       -1.86029496      -0.42491617       1.08745617
O       -2.12318329       0.79868161       0.64573073
C       -0.69954726      -1.09769257       0.37138778
O       -0.62078210      -2.45450947       0.77828207
C        0.58404782      -0.30936369       0.65772219
O        1.38028402      -0.14847845      -0.50543746
P        0.97350271       1.11651652      -1.51072587
O        1.56231557       0.78743974      -2.84317637
O       -0.48763388       1.46277645      -1.28469466
O        1.81458720       2.33522880      -0.74604856
H       -1.49677305       1.06188894      -0.10982030
H       -0.86482146      -1.01847628      -0.70732443
H        0.17466603      -2.80651537       0.36451369
H        0.34576190       0.65465051       1.10590279
H        1.17796697      -0.85458731       1.39413662
H        2.73781819       2.03064779      -0.67257080
17
Properties=species:S:1:pos:R:3 relative_energy_eV=-0.4551720373056014 branch=right pbc="F F F"
O       -2.49259587      -0.93024495       1.99339031
C       -1.86680078      -0.42148674       1.08887006
O       -2.12886933       0.80054663       0.63648746
C       -0.69920475      -1.09316337       0.37843658
O       -0.61325216      -2.45244108       0.77983869
C        0.59187033      -0.31182151       0.65736150
O        1.37703599      -0.17642028      -0.51591929
P        0.97346459       1.10850109      -1.50201548
O        1.56559976       0.79106032      -2.83297739
O       -0.48416027       1.46521501      -1.27095034
O        1.80743363       2.32331576      -0.73836155
H       -1.49625621       1.06320554      -0.11900889
H       -0.87466783      -1.01525284      -0.70000608
H        0.18188646      -2.79217613       0.35407111
H        0.35406598       0.65635067       1.09975983
H        1.18959927      -0.85535075       1.39179442
H        2.73172979       2.04188350      -0.67913543
17
Properties=species:S:1:pos:R:3 relative_energy_eV=-0.46352853876305744 branch=right pbc="F F F"
O       -2.50128611      -0.92532466       1.99284853
C       -1.87295692      -0.41864735       1.08846020
O       -2.13129907       0.80358093       0.62872123
C       -0.69940251      -1.08935399       0.38443456
O       -0.61391184      -2.45160983       0.77849504
C        0.59584784      -0.31832038       0.66065121
O        1.36935485      -0.19951720      -0.51510224
P        0.97409154       1.10296413      -1.49266589
O        1.57665818       0.79992537      -2.82122418
O       -0.48412764       1.46055528      -1.27032202
O        1.79911208       2.32110042      -0.71665288
H       -1.49277836       1.06454062      -0.12639481
H       -0.88133880      -1.01637155      -0.69375111
H        0.18196557      -2.78926015       0.34993573
H        0.36453767       0.65112221       1.10045709
H        1.19563182      -0.86426134       1.38804409
H        2.73678033       2.07059836      -0.71429903
17
Properties=species:S:1:pos:R:3 relative_energy_eV=-0.4819237101692124 branch=right pbc="F F F"
O       -2.52216112      -0.90768230       1.98828482
C       -1.88285076      -0.41059754       1.08621718
O       -2.13880982       0.80407652       0.61048639
C       -0.70704751      -1.09121535       0.39838118
O       -0.62259008      -2.45666980       0.77735394
C        0.59675492      -0.33772725       0.67652399
O        1.36504908      -0.21541719      -0.51006861
P        0.98144123       1.09782276      -1.47783237
O        1.60887073       0.84102287      -2.80726510
O       -0.48763838       1.43449800      -1.29035274
O        1.79282118       2.30222383      -0.66265175
H       -1.48613832       1.06754195      -0.13079910
H       -0.89560612      -1.01816181      -0.67515452
H        0.17143604      -2.79748873       0.34729522
H        0.40903032       0.64405624       1.10847086
H        1.19380365      -0.90294022       1.39733426
H        2.74051362       2.14837878      -0.81458802
17
Properties=species:S:1:pos:R:3 relative_energy_eV=-0.48645126182964304 branch=right pbc="F F F"
O       -2.53448109      -0.90032514       1.98688815
C       -1.88697330      -0.40748395       1.08887644
O       -2.14376484       0.80427038       0.60475885
C       -0.71066812      -1.09428539       0.40346770
O       -0.62860679      -2.46229929       0.78388132
C        0.60167741      -0.34261909       0.67432850
O        1.36836809      -0.21658803      -0.51470395
P        0.98969090       1.09861697      -1.47283905
O        1.62125793       0.85530543      -2.80217206
O       -0.48308676       1.41788833      -1.29553665
O        1.79497407       2.29388910      -0.64181220
H       -1.48554286       1.06482429      -0.13041484
H       -0.90171899      -1.01685975      -0.66954251
H        0.16413494      -2.79847194       0.34575301
H        0.42650724       0.63990557       1.11383272
H        1.18796769      -0.91765524       1.39859860
H        2.73714316       2.18360848      -0.85172835
17
Properties=species:S:1:pos:R:3 relative_energy_eV=-0.49280174518207787 branch=right pbc="F F F"
O       -2.53675579      -0.90080833       1.98981040
C       -1.88726424      -0.40886347       1.09211730
O       -2.13999000       0.80548865       0.61046583
C       -0.70977615      -1.09182403       0.40045959
O       -0.63610034      -2.45822442       0.79249441
C        0.60387054      -0.34168255       0.66738349
O        1.37335315      -0.22254185      -0.51563230
P        0.99370629       1.09670251      -1.47356892
O        1.63644057       0.86088414      -2.79896339
O       -0.47916142       1.41284151      -1.29423851
O        1.79689007       2.29301094      -0.63791744
H       -1.48681007       1.05808964      -0.13206665
H       -0.89612599      -1.01603062      -0.67540016
H        0.14980976      -2.80196918       0.35062119
H        0.42118437       0.63028479       1.12740384
H        1.18088320      -0.92013256       1.38817023
H        2.73272474       2.20649550      -0.86950320
17
Properties=species:S:1:pos:R:3 relative_energy_eV=-0.4965035568748135 branch=right pbc="F F F"
O       -2.54342160      -0.89755545       1.99018863
C       -1.89105590      -0.40689949       1.09390393
O       -2.13924775       0.80714790       0.61250942
C       -0.71472813      -1.09022437       0.40169865
O       -0.64649915      -2.45210771       0.80172139
C        0.60241669      -0.34850734       0.66800391
O        1.37867500      -0.22781644      -0.51457767
P        1.00457128       1.09426611      -1.47054078
O        1.66090230       0.87991759      -2.79396834
O       -0.47285600       1.39798785      -1.30037187
O        1.80133132       2.28559747      -0.62244429
H       -1.48741989       1.05095222      -0.13212701
H       -0.89595115      -1.01771065      -0.67430206
H        0.13007135      -2.81065749       0.35540188
H        0.43041596       0.62075436       1.13765408
H        1.17575287      -0.93860398       1.38132268
H        2.72392145       2.25517999      -0.91243676
17
Properties=species:S:1:pos:R:3 relative_energy_eV=-0.49978248621118837 branch=right pbc="F F F"
O       -2.54476224      -0.89615119       1.98556878
C       -1.89463007      -0.40028533       1.09107174
O       -2.13839086       0.81588571       0.61294737
C       -0.71979743      -1.08869083       0.40512872
O       -0.65758003      -2.44799432       0.81125282
C        0.60265628      -0.35972659       0.67435361
O        1.37183985      -0.23756969      -0.51352077
P        1.01620870       1.08994544      -1.46127477
O        1.68757493       0.89434224      -2.78128895
O       -0.46385247       1.38487310      -1.30482018
O        1.80346031       2.27722787      -0.60322287
H       -1.48731820       1.04748901      -0.13621544
H       -0.89544226      -1.01945527      -0.67132630
H        0.10956506      -2.81666946       0.35741760
H        0.43943218       0.61257783       1.13942358
H        1.18402321      -0.96094723       1.37551265
H        2.70389171       2.30686916      -0.95937169
17
Properties=species:S:1:pos:R:3 relative_energy_eV=-0.5019803348259302 branch=right pbc="F F F"
O       -2.53954285      -0.89626234       1.98443436
C       -1.89068855      -0.39932566       1.08946805
O       -2.13459887       0.81931813       0.61423047
C       -0.71796072      -1.09230800       0.40372883
O       -0.66471048      -2.45400247       0.81219763
C        0.60533762      -0.36139035       0.67378356
O        1.37041304      -0.23725388      -0.51253498
P        1.01462003       1.09139581      -1.45947247
O        1.69328804       0.88820683      -2.77389041
O       -0.46529701       1.38785364      -1.30581611
O        1.80311174       2.28277276      -0.60374668
H       -1.48620830       1.05301322      -0.13707599
H       -0.89422584      -1.02163760      -0.67394469
H        0.10425908      -2.82020829       0.35962718
H        0.43440832       0.60997899       1.13972505
H        1.18631322      -0.96125433       1.37611477
H        2.69836017       2.31282397      -0.96519263
17
Properties=species:S:1:pos:R:3 relative_energy_eV=-0.5041682670271257 branch=right pbc="F F F"
O       -2.53925112      -0.88962012       1.98315852
C       -1.88706155      -0.39693407       1.08837607
O       -2.12680738       0.82276141       0.61554004
C       -0.71995095      -1.09743873       0.40331880
O       -0.68171606      -2.45778835       0.81419090
C        0.60660117      -0.37096387       0.67370519
O        1.37613554      -0.23893969      -0.50958043
P        1.01973658       1.09140849      -1.45331953
O        1.71518840       0.88899635      -2.75898332
O       -0.46358707       1.38419605      -1.31444607
O        1.80610237       2.28437287      -0.59470614
H       -1.48298835       1.06209456      -0.13613025
H       -0.89378475      -1.02998805      -0.67360184
H        0.08319908      -2.83596859       0.36584510
H        0.43701351       0.59938251       1.14281430
H        1.18801563      -0.97263967       1.37437496
H        2.68003360       2.35878920      -0.99892029
17
Properties=species:S:1:pos:R:3 relative_energy_eV=-0.5050884938173112 branch=right pbc="F F F"
O       -2.54426317      -0.88363162       1.98247731
C       -1.88818260      -0.39487601       1.08826068
O       -2.12452070       0.82410903       0.61329427
C       -0.72024133      -1.09739066       0.40464890
O       -0.68407074      -2.45737085       0.81319220
C        0.60732205      -0.37468487       0.67400224
O        1.37693508      -0.24304467      -0.50949103
P        1.02329084       1.08818928      -1.45062836
O        1.71910693       0.89005712      -2.75688387
O       -0.46003849       1.38231628      -1.31681448
O        1.80514793       2.27799855      -0.58746996
H       -1.47902001       1.06517555      -0.13644684
H       -0.89300939      -1.03151581      -0.67169635
H        0.07803834      -2.84184331       0.36487877
H        0.44336044       0.59496404       1.14403817
H        1.18991192      -0.97437009       1.37472342
H        2.66711153       2.37763830      -1.00844903
17
Properties=species:S:1:pos:R:3 relative_energy_eV=-0.5057816688458843 branch=right pbc="F F F"
O       -2.54752995      -0.87888831       1.98149167
C       -1.88939834      -0.39194411       1.08762645
O       -2.12245813       0.82773049       0.61146531
C       -0.72026682      -1.09795517       0.40546075
O       -0.68614227      -2.45933072       0.81445136
C        0.60869058      -0.37726288       0.67483466
O        1.37505176      -0.24837906      -0.51009392
P        1.02614608       1.08464056      -1.44941114
O        1.72291658       0.89064091      -2.75599971
O       -0.45678257       1.37993555      -1.31703945
O        1.80407315       2.27228957      -0.58012894
H       -1.47394374       1.06573472      -0.13765093
H       -0.89206281      -1.03089742      -0.67185321
H        0.07354106      -2.84582080       0.36344756
H        0.44755536       0.59180623       1.14653097
H        1.19163390      -0.97652919       1.37497859
H        2.65585480       2.39594983      -1.01647396
17
Properties=species:S:1:pos:R:3 relative_energy_eV=-0.5063631456869189 branch=right pbc="F F F"
O       -2.54753837      -0.87356050       1.98081772
C       -1.88858789      -0.38905436       1.08623038
O       -2.11622854       0.83191314       0.61127254
C       -0.72186404      -1.10053535       0.40457265
O       -0.69111257      -2.46206608       0.81595971
C        0.60853364      -0.38032521       0.67615856
O        1.37600472      -0.25114631      -0.50932946
P        1.02805640       1.08252684      -1.44970300
O        1.72706855       0.88862244      -2.75535264
O       -0.45580079       1.37659846      -1.31736848
O        1.80471201       2.27024762      -0.57542853
H       -1.46534249       1.06474339      -0.13796406
H       -0.89183732      -1.03179416      -0.67351579
H        0.06643573      -2.85149598       0.36358378
H        0.44651388       0.58946216       1.14878442
H        1.19175297      -0.98167079       1.37532315
H        2.64611275       2.41925483      -1.02240483
17
Properties=species:S:1:pos:R:3 relative_energy_eV=-0.5066888088731503 branch=right pbc="F F F"
O       -2.54702642      -0.86990049       1.98026074
C       -1.88676038      -0.38757115       1.08542186
O       -2.10945321       0.83345777       0.61060232
C       -0.72236544      -1.10109281       0.40414352
O       -0.69413423      -2.46176447       0.81512661
C        0.60821068      -0.38256773       0.67713237
O        1.37787463      -0.25127424      -0.50744442
P        1.02885335       1.08161100      -1.44827957
O        1.72725553       0.88793338      -2.75436257
O       -0.45585701       1.37339732      -1.31800029
O        1.80379075       2.26970115      -0.57341522
H       -1.45752354       1.06349887      -0.13946157
H       -0.89242456      -1.03299958      -0.67334191
H        0.06247410      -2.85321527       0.36327281
H        0.44464846       0.58709297       1.14960843
H        1.18971316      -0.98566041       1.37690048
H        2.63960279       2.43107378      -1.02652742
17
Properties=species:S:1:pos:R:3 relative_energy_eV=-0.5069282395597838 branch=right pbc="F F F"
O       -2.54603539      -0.86943209       1.98004441
C       -1.88495541      -0.38672392       1.08577858
O       -2.10538091       0.83418544       0.60976695
C       -0.72163074      -1.10071552       0.40390629
O       -0.69389716      -2.46178358       0.81384891
C        0.60807192      -0.38276222       0.67752440
O        1.37889947      -0.25045401      -0.50512474
P        1.02798849       1.08112758      -1.44666193
O        1.72402249       0.88875967      -2.75381291
O       -0.45682618       1.37137626      -1.31770734
O        1.80120888       2.27119818      -0.57457403
H       -1.45250937       1.06228646      -0.14208924
H       -0.89347865      -1.03261594      -0.67342512
H        0.06390650      -2.85047548       0.36186826
H        0.44335578       0.58580156       1.15032068
H        1.18598288      -0.98607079       1.37911764
H        2.63815605       2.42801845      -1.02714464
17
Properties=species:S:1:pos:R:3 relative_energy_eV=-0.5069823191115574 branch=right pbc="F F F"
O       -2.54612656      -0.86899001       1.98016994
C       -1.88508812      -0.38612788       1.08590676
O       -2.10488369       0.83511408       0.61011726
C       -0.72222264      -1.10110093       0.40361445
O       -0.69375719      -2.46244073       0.81385706
C        0.60757244      -0.38305670       0.67764519
O        1.37955086      -0.25049240      -0.50426701
P        1.02797280       1.08066252      -1.44619997
O        1.72466434       0.88918698      -2.75311661
O       -0.45710422       1.37019936      -1.31778629
O        1.80066645       2.27183224      -0.57474869
H       -1.45207966       1.06247769      -0.14237562
H       -0.89358549      -1.03262715      -0.67399554
H        0.06424186      -2.85047638       0.36138192
H        0.44408451       0.58547766       1.15092105
H        1.18555157      -0.98629412       1.37887721
H        2.63742139       2.42837581      -1.02836493
17
Properties=species:S:1:pos:R:3 relative_energy_eV=-0.5070418367540697 branch=right pbc="F F F"
O       -2.54627279      -0.86636221       1.98031788
C       -1.88512891      -0.38507095       1.08528954
O       -2.10196638       0.83715249       0.61141573
C       -0.72308078      -1.10150065       0.40270199
O       -0.69430786      -2.46274877       0.81285392
C        0.60709501      -0.38397820       0.67827526
O        1.38095275      -0.25026867      -0.50263329
P        1.02836388       1.07975257      -1.44530237
O        1.72685568       0.88884569      -2.75141511
O       -0.45751404       1.36646315      -1.31826537
O        1.79917979       2.27281394      -0.57478993
H       -1.45012608       1.06307509      -0.14234432
H       -0.89369306      -1.03349895      -0.67493467
H        0.06348330      -2.85143967       0.36046099
H        0.44454221       0.58440511       1.15258255
H        1.18492579      -0.98847938       1.37872361
H        2.63357013       2.43255937      -1.03130022
17
Properties=species:S:1:pos:R:3 relative_energy_eV=-0.5070728521532146 branch=right pbc="F F F"
O       -2.54643246      -0.86572342       1.98023657
C       -1.88497186      -0.38479290       1.08524656
O       -2.10135757       0.83781118       0.61211038
C       -0.72271205      -1.10108894       0.40248562
O       -0.69420492      -2.46250114       0.81208775
C        0.60753360      -0.38393503       0.67858053
O        1.38092601      -0.25029329      -0.50235211
P        1.02839848       1.07932711      -1.44532639
O        1.72787493       0.88859550      -2.75091602
O       -0.45767504       1.36460930      -1.31869928
O        1.79804706       2.27317179      -0.57520656
H       -1.45009599       1.06360319      -0.14202069
H       -0.89378281      -1.03348719      -0.67511082
H        0.06373917      -2.85100351       0.35980112
H        0.44472104       0.58410562       1.15361777
H        1.18449911      -0.98949978       1.37890332
H        2.63237191       2.43282146      -1.03180159
