17
Properties=species:S:1:pos:R:3 relative_energy_eV=0.0 branch=left pbc="F F F"
O       -2.85358359      -0.63522448       0.54297931
C       -2.04798202       0.30852403       0.37122501
O       -2.36525564       1.57422658       0.87060641
C       -0.97422309       0.29577324      -0.66232820
O       -0.94232414      -0.93148560      -1.38271545
C       -0.16800353       0.17510224       0.60464114
O        0.77085357      -0.89579904       0.42450415
P        2.38091683      -0.38283699      -0.46918663
O        2.74078624      -1.63728891      -1.18131155
O        2.10026512       0.98200765      -1.00561507
O        3.24041233      -0.26682678       0.93039132
H       -3.16673794       1.39068938       1.38203487
H       -0.80211103       1.16176664      -1.29381537
H       -1.75229124      -1.37856820      -1.05081123
H        0.33767198       1.05469096       0.94651184
H        0.29473717      -1.38946280      -0.31318863
H        3.12304972       0.63881484       1.23828840
17
Properties=species:S:1:pos:R:3 relative_energy_eV=0.0001492987030360382 branch=left pbc="F F F"
O       -2.85608542      -0.63423176       0.54312563
C       -2.05019103       0.30861346       0.36899569
O       -2.36554780       1.57524175       0.86743275
C       -0.97367626       0.29377022      -0.66169338
O       -0.94317379      -0.93416762      -1.38191726
C       -0.16879092       0.17173014       0.60556825
O        0.77164790      -0.89743699       0.42354675
P        2.38087398      -0.38031767      -0.46961861
O        2.73988679      -1.63322409      -1.18529016
O        2.10007993       0.98750885      -0.99898168
O        3.24051618      -0.26865982       0.93043709
H       -3.16746887       1.39563578       1.37980942
H       -0.79956272       1.16002968      -1.29261282
H       -1.75249173      -1.38032935      -1.04702910
H        0.33455421       1.05218540       0.94874886
H        0.29507787      -1.39056158      -0.31419024
H        3.13053247       0.63831624       1.23587900
17
Properties=species:S:1:pos:R:3 relative_energy_eV=0.0005652602194459178 branch=left pbc="F F F"
O       -2.85983655      -0.62970893       0.54664950
C       -2.05073199       0.30951059       0.36878096
O       -2.36233989       1.57972026       0.86006635
C       -0.97787706       0.28792526      -0.66408060
O       -0.94745776      -0.94279755      -1.37855300
C       -0.17074117       0.17207341       0.60243456
O        0.77210587      -0.89548627       0.42258989
P        2.38125801      -0.37322447      -0.46781920
O        2.73804539      -1.61756927      -1.19900310
O        2.10388232       1.00039959      -0.98355915
O        3.24424725      -0.27789121       0.93138498
H       -3.16022826       1.40006595       1.37814541
H       -0.80590070       1.15252452      -1.29739465
H       -1.75448781      -1.38960369      -1.03904470
H        0.33232274       1.05500113       0.93869032
H        0.29799054      -1.39294491      -0.31367638
H        3.13592959       0.62610830       1.24659904
17
Properties=species:S:1:pos:R:3 relative_energy_eV=0.0009466444862482604 branch=left pbc="F F F"
O       -2.85876317      -0.62936411       0.55272092
C       -2.05179462       0.31008651       0.36675474
O       -2.36089958       1.58176537       0.85657020
C       -0.97964305       0.28446586      -0.66745355
O       -0.94631706      -0.95187708      -1.37296746
C       -0.17020895       0.17810757       0.59981857
O        0.77318673      -0.88848616       0.42614464
P        2.38235933      -0.36594457      -0.47050443
O        2.72971497      -1.60524773      -1.21445644
O        2.10719660       1.01315689      -0.97252462
O        3.25085691      -0.29051236       0.92602394
H       -3.16126089       1.40727109       1.37286616
H       -0.81360033       1.14338571      -1.31042356
H       -1.75244184      -1.39834164      -1.03117734
H        0.33305990       1.06196537       0.93403446
H        0.29856325      -1.39111742      -0.30599889
H        3.13617177       0.60478968       1.26278288
17
Properties=species:S:1:pos:R:3 relative_energy_eV=0.0011690909122989979 branch=left pbc="F F F"
O       -2.85962459      -0.62810060       0.55289293
C       -2.05074527       0.31017184       0.36948053
O       -2.36096853       1.58300790       0.85683100
C       -0.97944460       0.28384066      -0.66709270
O       -0.94642021      -0.95316399      -1.37147122
C       -0.17044590       0.17635287       0.60120198
O        0.77399832      -0.89011899       0.42711149
P        2.38048356      -0.36410820      -0.47010583
O        2.72684358      -1.60118197      -1.21831917
O        2.10615360       1.01669921      -0.96817770
O        3.25081780      -0.29189490       0.92586853
H       -3.16663882       1.41073606       1.36558841
H       -0.81227796       1.14149621      -1.31193846
H       -1.75374665      -1.39943631      -1.03254209
H        0.33315139       1.05855827       0.93866901
H        0.30105912      -1.39363563      -0.30534848
H        3.14398515       0.60488045       1.25956187
17
Properties=species:S:1:pos:R:3 relative_energy_eV=0.0020087331176910084 branch=left pbc="F F F"
O       -2.85200001      -0.62998113       0.56166913
C       -2.04822939       0.31108220       0.36939644
O       -2.36735633       1.58590709       0.84544345
C       -0.97680227       0.28067856      -0.66600113
O       -0.93939919      -0.96293574      -1.35907811
C       -0.16698856       0.18832426       0.60102199
O        0.78133866      -0.87579916       0.43346430
P        2.38038443      -0.35832178      -0.47866657
O        2.70614936      -1.59173615      -1.24184042
O        2.11285808       1.02908923      -0.96139453
O        3.26143486      -0.31159043       0.91081401
H       -3.17575060       1.41261727       1.34993211
H       -0.81611005       1.13470894      -1.31718676
H       -1.74664970      -1.40602484      -1.01530778
H        0.33040712       1.07820308       0.92725352
H        0.30459546      -1.38815859      -0.29089230
H        3.12829751       0.56804064       1.28358244
17
Properties=species:S:1:pos:R:3 relative_energy_eV=0.003188678609149065 branch=left pbc="F F F"
O       -2.85011387      -0.63246730       0.56416626
C       -2.05031685       0.31162347       0.36896762
O       -2.37883593       1.58753146       0.83114005
C       -0.97342265       0.27835023      -0.65882935
O       -0.93760370      -0.96597308      -1.34851356
C       -0.16806989       0.19403209       0.61241173
O        0.78300829      -0.86793387       0.44993056
P        2.37676053      -0.35267416      -0.48398995
O        2.68369148      -1.57763845      -1.26784227
O        2.11190442       1.04252665      -0.94526748
O        3.28349649      -0.32845235       0.88958415
H       -3.20324979       1.41564258       1.30850566
H       -0.80186743       1.12946761      -1.31002922
H       -1.74743361      -1.40598231      -1.00693325
H        0.33082136       1.08543830       0.93437675
H        0.30613167      -1.39232752      -0.26447359
H        3.15127870       0.54294014       1.27900487
17
Properties=species:S:1:pos:R:3 relative_energy_eV=0.0036313139462436084 branch=left pbc="F F F"
O       -2.85093452      -0.63171312       0.55993714
C       -2.05147219       0.31291957       0.36618600
O       -2.38485791       1.58888565       0.82464078
C       -0.97131007       0.27975462      -0.65840224
O       -0.93198945      -0.96779250      -1.34350307
C       -0.16778682       0.19778330       0.61457107
O        0.78294281      -0.86412945       0.45847349
P        2.37700894      -0.35127521      -0.48905788
O        2.67907051      -1.57533206      -1.27627297
O        2.10908689       1.04488503      -0.94525030
O        3.29236728      -0.33534892       0.87796573
H       -3.20809655       1.41688906       1.30495708
H       -0.80350497       1.12997527      -1.31307281
H       -1.73833888      -1.41043902      -0.99608888
H        0.32862783       1.09082895       0.93495581
H        0.30331420      -1.38854078      -0.25458811
H        3.15205183       0.52675333       1.28675805
17
Properties=species:S:1:pos:R:3 relative_energy_eV=0.004005569378932705 branch=left pbc="F F F"
O       -2.84922095      -0.63266228       0.56273260
C       -2.05372243       0.31430638       0.36577803
O       -2.38998051       1.59122137       0.82248040
C       -0.97258478       0.27908995      -0.65800930
O       -0.92994494      -0.96926393      -1.34175408
C       -0.16930804       0.19876554       0.61449884
O        0.78336683      -0.86250815       0.45970143
P        2.37881747      -0.35254019      -0.48839574
O        2.67825588      -1.57548911      -1.27869197
O        2.11403298       1.04476726      -0.94284504
O        3.30003471      -0.33583831       0.87587643
H       -3.21130357       1.41885199       1.30621128
H       -0.80690511       1.12877434      -1.31346675
H       -1.74002441      -1.40936065      -1.00137281
H        0.32570233       1.09262102       0.93407015
H        0.30371422      -1.39094646      -0.25096916
H        3.15524909       0.52431504       1.28636458
17
Properties=species:S:1:pos:R:3 relative_energy_eV=0.005479945619299542 branch=left pbc="F F F"
O       -2.84863090      -0.63431779       0.58018451
C       -2.05618014       0.31121179       0.36691649
O       -2.39423335       1.59534449       0.80413648
C       -0.97706223       0.27712118      -0.65628687
O       -0.92317793      -0.96885924      -1.34266456
C       -0.16924323       0.20545303       0.61357737
O        0.78538844      -0.85339820       0.45712430
P        2.37916507      -0.34991360      -0.49282219
O        2.67526132      -1.57711981      -1.27765846
O        2.11178979       1.04437331      -0.95367922
O        3.30672407      -0.33927503       0.86722476
H       -3.20230591       1.42776551       1.31059878
H       -0.82143212       1.12793725      -1.31131661
H       -1.72505525      -1.42106362      -1.00181919
H        0.32674777       1.09964933       0.93175967
H        0.30667966      -1.38136978      -0.25463474
H        3.14174314       0.50056543       1.31156860
17
Properties=species:S:1:pos:R:3 relative_energy_eV=0.007186147049651481 branch=left pbc="F F F"
O       -2.83603961      -0.64111356       0.59206377
C       -2.05313487       0.30963988       0.36674184
O       -2.39232472       1.59519771       0.80221628
C       -0.98052437       0.27651174      -0.66477743
O       -0.92728537      -0.97468849      -1.34415462
C       -0.16802750       0.21630277       0.60318884
O        0.78581398      -0.84392295       0.45923445
P        2.38393723      -0.34676872      -0.49538151
O        2.67720201      -1.57865523      -1.27415683
O        2.11550304       1.04706870      -0.95733382
O        3.31291448      -0.34210288       0.86352683
H       -3.18780536       1.42792672       1.32818398
H       -0.82931789       1.12894414      -1.32161996
H       -1.73060532      -1.42690112      -1.00489768
H        0.32275556       1.11803605       0.90838437
H        0.30717496      -1.37702732      -0.24790386
H        3.11594125       0.47565731       1.33889480
17
Properties=species:S:1:pos:R:3 relative_energy_eV=0.01360423443838954 branch=left pbc="F F F"
O       -2.84329721      -0.63328825       0.56391265
C       -2.05958274       0.31883549       0.35064986
O       -2.38845821       1.59376033       0.81678273
C       -0.97765843       0.27973444      -0.67142360
O       -0.91765634      -0.97494663      -1.34259123
C       -0.17915370       0.22163969       0.60295603
O        0.78520830      -0.83043091       0.46998519
P        2.37743977      -0.35019827      -0.49231805
O        2.64221948      -1.59009664      -1.26755143
O        2.10428164       1.04018401      -0.95879029
O        3.33190727      -0.33782509       0.84731279
H       -3.17657566       1.41577298       1.35105085
H       -0.80463733       1.12170311      -1.33444132
H       -1.70940301      -1.43811342      -0.99148860
H        0.29413516       1.12997772       0.91299558
H        0.32025889      -1.36795889      -0.24237546
H        3.11714945       0.46535533       1.33754382
17
Properties=species:S:1:pos:R:3 relative_energy_eV=0.022860534176288638 branch=left pbc="F F F"
O       -2.84918374      -0.63740858       0.55012205
C       -2.05903675       0.31471521       0.34844997
O       -2.38672004       1.58539246       0.82938378
C       -0.97701899       0.27974050      -0.68635015
O       -0.91365095      -0.98718184      -1.33359260
C       -0.17673329       0.24265884       0.58600838
O        0.78892262      -0.80740443       0.46877708
P        2.38681808      -0.34412760      -0.50329583
O        2.64292144      -1.59446159      -1.26564374
O        2.13448464       1.05052135      -0.97011568
O        3.33647422      -0.33442906       0.84205962
H       -3.14943418       1.39844955       1.39666119
H       -0.80717511       1.10659384      -1.37202132
H       -1.71710398      -1.42273521      -0.97343384
H        0.29274440       1.15948249       0.87443378
H        0.30657036      -1.36903990      -0.21365539
H        3.06329747       0.42334001       1.37442305
17
Properties=species:S:1:pos:R:3 relative_energy_eV=0.041576743860787246 branch=left pbc="F F F"
O       -2.84774766      -0.62268427       0.51430712
C       -2.05598447       0.33051062       0.32951390
O       -2.38390760       1.58779406       0.83365235
C       -0.97370509       0.28065630      -0.68994262
O       -0.91281267      -1.00642072      -1.30274632
C       -0.16189259       0.26984211       0.57995321
O        0.79090054      -0.78785093       0.47830987
P        2.39403839      -0.33249738      -0.52325044
O        2.66233482      -1.57886366      -1.28826466
O        2.13608883       1.04982583      -1.02248526
O        3.32000689      -0.32999103       0.84081025
H       -3.11992768       1.37122835       1.42604776
H       -0.82551614       1.10128160      -1.38841479
H       -1.71035269      -1.44339900      -0.92393380
H        0.32274596       1.18613755       0.85188533
H        0.31062783      -1.35730340      -0.20035223
H        2.97127841       0.34584138       1.43712194
17
Properties=species:S:1:pos:R:3 relative_energy_eV=0.05583125579505577 branch=left pbc="F F F"
O       -2.81870172      -0.62855916       0.58526874
C       -2.04498846       0.32808981       0.35215890
O       -2.37048031       1.59656123       0.82759467
C       -0.98746006       0.27924465      -0.69013666
O       -0.92282148      -1.00531783      -1.30424379
C       -0.14440543       0.27903238       0.56470405
O        0.78859904      -0.79309601       0.46075099
P        2.41960870      -0.32584396      -0.53358345
O        2.72061909      -1.56479297      -1.29996904
O        2.15355529       1.05371338      -1.03488008
O        3.29915332      -0.31311561       0.86099431
H       -3.10817987       1.39397970       1.42194326
H       -0.87311050       1.09640972      -1.40092441
H       -1.69297636      -1.45887697      -0.89267435
H        0.35074410       1.19999536       0.79830128
H        0.32046977      -1.34239867      -0.24640717
H        2.82654869       0.26908372       1.48331573
17
Properties=species:S:1:pos:R:3 relative_energy_eV=0.06698905819939682 branch=left pbc="F F F"
O       -2.78381021      -0.63589173       0.67042333
C       -2.03113778       0.32078881       0.38235455
O       -2.36067525       1.60785713       0.81026017
C       -0.99867504       0.26632275      -0.68582989
O       -0.93320261      -1.01828418      -1.29795223
C       -0.12775607       0.28541625       0.54761370
O        0.80249575      -0.78535500       0.43633523
P        2.44965967      -0.29745199      -0.55000686
O        2.78538115      -1.54173033      -1.29519142
O        2.17129186       1.07298614      -1.06908359
O        3.28712097      -0.25541388       0.86998876
H       -3.10732353       1.44198041       1.40442995
H       -0.90240802       1.08362668      -1.39829776
H       -1.70771685      -1.46911832      -0.89447626
H        0.36974374       1.20917169       0.76421167
H        0.32765771      -1.34141645      -0.26257602
H        2.67552657       0.12062248       1.52001121
17
Properties=species:S:1:pos:R:3 relative_energy_eV=0.07487465399026405 branch=left pbc="F F F"
O       -2.77904693      -0.64119454       0.67500783
C       -2.03034244       0.31818407       0.38403995
O       -2.36209663       1.60460154       0.81427329
C       -1.00253751       0.26670580      -0.68999295
O       -0.93609713      -1.01866302      -1.30087445
C       -0.12678760       0.28878353       0.53838011
O        0.80193614      -0.78313978       0.42810958
P        2.45329167      -0.30194682      -0.54658795
O        2.78871977      -1.54603533      -1.29178047
O        2.18544366       1.07370397      -1.05947464
O        3.28723391      -0.27233598       0.87562181
H       -3.10497450       1.44086281       1.41445725
H       -0.91156541       1.08503194      -1.40181916
H       -1.71165549      -1.46764903      -0.89680054
H        0.37048506       1.21221168       0.75540452
H        0.32026964      -1.33987094      -0.26651243
H        2.67389566       0.14486047       1.52076285
17
Properties=species:S:1:pos:R:3 relative_energy_eV=0.07372796627169009 branch=left pbc="F F F"
O       -2.77431858      -0.63247772       0.69473675
C       -2.02583247       0.32141323       0.39080028
O       -2.35578347       1.61532691       0.79647984
C       -0.99679892       0.25867577      -0.67788855
O       -0.93399311      -1.02588584      -1.28781068
C       -0.12289255       0.28345734       0.55312030
O        0.81154954      -0.78183535       0.43589855
P        2.45506782      -0.27634531      -0.56107722
O        2.80186379      -1.52466596      -1.29549080
O        2.15836171       1.08164534      -1.10001538
O        3.28384617      -0.20300168       0.86376131
H       -3.11163972       1.46451870       1.38247832
H       -0.89396719       1.07558945      -1.38842756
H       -1.71775405      -1.47390285      -0.90067394
H        0.37515487       1.20790945       0.76743015
H        0.33728360      -1.34786363      -0.25432203
H        2.62602408       0.02155340       1.53321578
17
Properties=species:S:1:pos:R:3 relative_energy_eV=0.07727812470329809 branch=left pbc="F F F"
O       -2.77042594      -0.63235535       0.70246207
C       -2.02417205       0.32149401       0.39440543
O       -2.35323054       1.61896401       0.79270691
C       -0.99618014       0.25779565      -0.67439214
O       -0.93688817      -1.02633271      -1.28706063
C       -0.12309259       0.28322729       0.55921179
O        0.81121576      -0.78196419       0.43636346
P        2.45728211      -0.27212317      -0.56337023
O        2.80343831      -1.52078754      -1.29925256
O        2.15594028       1.08283455      -1.10901731
O        3.28431582      -0.19088595       0.86486254
H       -3.11073286       1.46716015       1.37581006
H       -0.89189700       1.07384135      -1.38699175
H       -1.72161854      -1.47637618      -0.90387681
H        0.37610163       1.20987670       0.76495304
H        0.34361173      -1.35195324      -0.25594927
H        2.61250371       0.00169599       1.54135070
17
Properties=species:S:1:pos:R:3 relative_energy_eV=0.07907721066294471 branch=left pbc="F F F"
O       -2.78596453      -0.61239155       0.69503864
C       -2.02430511       0.32909674       0.38948019
O       -2.35013334       1.62760924       0.77800317
C       -0.98100889       0.25120903      -0.66386257
O       -0.92136944      -1.03100646      -1.27661058
C       -0.12079343       0.27197769       0.57557379
O        0.81896291      -0.78737126       0.46246570
P        2.44417515      -0.25038464      -0.57943672
O        2.80622658      -1.50236416      -1.30254962
O        2.10520098       1.08673163      -1.14299538
O        3.27734111      -0.12232746       0.84097105
H       -3.12419050       1.48394756       1.34199511
H       -0.86458363       1.06631068      -1.37173493
H       -1.70598361      -1.47645473      -0.89016437
H        0.37826649       1.19411925       0.79596850
H        0.36098463      -1.35200560      -0.23486284
H        2.60334597      -0.11258418       1.53493630
17
Properties=species:S:1:pos:R:3 relative_energy_eV=0.08112890247866744 branch=left pbc="F F F"
O       -2.79282174      -0.60683776       0.68244637
C       -2.02635523       0.33301256       0.38508222
O       -2.34747063       1.63636015       0.77015219
C       -0.97375838       0.25074768      -0.65813084
O       -0.90847643      -1.03436209      -1.27015513
C       -0.12273377       0.26398394       0.59250815
O        0.82078970      -0.79186021       0.47283457
P        2.43620534      -0.23355799      -0.59024999
O        2.80117711      -1.49334173      -1.29847668
O        2.08129165       1.09477364      -1.16532880
O        3.26866152      -0.08272509       0.82754726
H       -3.13177337       1.49850927       1.32119903
H       -0.84878934       1.06742705      -1.36418992
H       -1.68621897      -1.48259869      -0.87354290
H        0.38179662       1.18130128       0.82235874
H        0.36187578      -1.35938667      -0.22240764
H        2.60277136      -0.17733330       1.52056875
17
Properties=species:S:1:pos:R:3 relative_energy_eV=0.08240160197237856 branch=left pbc="F F F"
O       -2.79847074      -0.60361532       0.67047950
C       -2.02704141       0.33432295       0.38115767
O       -2.34583586       1.63608385       0.76499905
C       -0.96760069       0.25194991      -0.65244102
O       -0.90454903      -1.03331121      -1.26210426
C       -0.12092900       0.26269328       0.59954282
O        0.82261698      -0.79314157       0.48102446
P        2.42960956      -0.22801381      -0.59557393
O        2.80220600      -1.48775196      -1.30027107
O        2.06742438       1.09576481      -1.17507825
O        3.26468174      -0.05705376       0.81886212
H       -3.13549202       1.50634769       1.30996800
H       -0.83710633       1.06407102      -1.36170131
H       -1.68070561      -1.48677238      -0.86807069
H        0.37813960       1.17965539       0.84207065
H        0.35873162      -1.36121603      -0.21138936
H        2.61049201      -0.21590077       1.51074101
17
Properties=species:S:1:pos:R:3 relative_energy_eV=0.08385762263060315 branch=left pbc="F F F"
O       -2.80162957      -0.60305819       0.65902846
C       -2.02655068       0.33447026       0.37703426
O       -2.34349256       1.63808488       0.76116532
C       -0.96173935       0.24863791      -0.65114838
O       -0.89885070      -1.03996255      -1.25728388
C       -0.12335036       0.26043016       0.60878980
O        0.82174322      -0.79294590       0.49522673
P        2.42614145      -0.21998600      -0.60279413
O        2.79934611      -1.48207302      -1.30363663
O        2.05933057       1.09946497      -1.18934995
O        3.25831387      -0.03407747       0.81059762
H       -3.13693493       1.50940415       1.30095000
H       -0.82388798       1.05963234      -1.35979989
H       -1.68551055      -1.48040641      -0.86809692
H        0.37132383       1.17818571       0.85809404
H        0.35412131      -1.36016816      -0.19470094
H        2.62779743      -0.25152046       1.50813977
17
Properties=species:S:1:pos:R:3 relative_energy_eV=0.08543121602269821 branch=left pbc="F F F"
O       -2.80855053      -0.59775942       0.65120088
C       -2.02835710       0.33643985       0.37304313
O       -2.34604646       1.63675773       0.75761331
C       -0.95590421       0.24840854      -0.64802805
O       -0.89554176      -1.04326357      -1.24667187
C       -0.12384910       0.26026041       0.61226273
O        0.82010100      -0.79343513       0.50822681
P        2.42321747      -0.21132003      -0.60463760
O        2.79496831      -1.47739016      -1.29886893
O        2.05093214       1.10421952      -1.19749051
O        3.26264426      -0.01954646       0.80527744
H       -3.13857616       1.50553971       1.29839844
H       -0.81258068       1.05549084      -1.36097678
H       -1.69692572      -1.47445515      -0.87770088
H        0.37136897       1.17641633       0.86183582
H        0.35673814      -1.36571072      -0.18051794
H        2.64253248      -0.27654003       1.49924927
17
Properties=species:S:1:pos:R:3 relative_energy_eV=0.08711469131958438 branch=left pbc="F F F"
O       -2.80956037      -0.59494283       0.64283640
C       -2.02723501       0.34020169       0.37168534
O       -2.35032499       1.64126801       0.75658106
C       -0.95418695       0.24521009      -0.64754367
O       -0.89777755      -1.04506229      -1.24908248
C       -0.12156523       0.26035750       0.61757562
O        0.82130411      -0.79632757       0.51466308
P        2.41927628      -0.20678138      -0.60456510
O        2.78865499      -1.47551069      -1.29471638
O        2.04322341       1.10856944      -1.19441115
O        3.26099441      -0.00692320       0.79982664
H       -3.14084114       1.50074150       1.29890612
H       -0.80509816       1.04983764      -1.36027111
H       -1.70376745      -1.47097341      -0.88470591
H        0.38109326       1.17756328       0.85806004
H        0.35782261      -1.37347719      -0.16770041
H        2.65415872      -0.28963833       1.49507723
17
Properties=species:S:1:pos:R:3 relative_energy_eV=0.0904409204449621 branch=left pbc="F F F"
O       -2.80689927      -0.59592631       0.63913810
C       -2.02735806       0.34091883       0.36833186
O       -2.34970116       1.63798924       0.75626462
C       -0.95097258       0.24842057      -0.64968741
O       -0.90154595      -1.03995394      -1.25161559
C       -0.12240623       0.25959051       0.61311147
O        0.82082615      -0.79384304       0.51901051
P        2.41223977      -0.20608390      -0.60541012
O        2.78180921      -1.47427632      -1.29925162
O        2.03455065       1.11140559      -1.19108391
O        3.25592670       0.00649213       0.80022186
H       -3.14081766       1.50004119       1.29796961
H       -0.80024127       1.05488196      -1.36123025
H       -1.70659268      -1.46734300      -0.88534199
H        0.39012183       1.16869532       0.84778847
H        0.36243954      -1.38786450      -0.14616867
H        2.66479190      -0.29903205       1.50016839
17
Properties=species:S:1:pos:R:3 relative_energy_eV=0.1002530375335482 branch=left pbc="F F F"
O       -2.80743567      -0.59938077       0.63493463
C       -2.02998463       0.33971423       0.36316073
O       -2.34716668       1.63829380       0.75964853
C       -0.95762897       0.24809027      -0.66041647
O       -0.90415049      -1.03493992      -1.26614869
C       -0.12268313       0.26352259       0.60773296
O        0.82285270      -0.79202136       0.52646517
P        2.41023789      -0.19945277      -0.60551113
O        2.78844642      -1.46325495      -1.29935352
O        2.02276711       1.10801263      -1.20339201
O        3.25550927       0.00269930       0.79813880
H       -3.14071191       1.50441596       1.29849895
H       -0.80460608       1.06358318      -1.36132828
H       -1.70604334      -1.45168070      -0.88441651
H        0.37693222       1.18265375       0.85062395
H        0.38384328      -1.42726555      -0.10621617
H        2.67599283      -0.31887735       1.49979441
17
Properties=species:S:1:pos:R:3 relative_energy_eV=0.12958074971902533 branch=left pbc="F F F"
O       -2.82755582      -0.59069705       0.62636685
C       -2.04340668       0.34266161       0.35747210
O       -2.35872035       1.64467019       0.75259485
C       -0.96337602       0.24378299      -0.65683417
O       -0.92371941      -1.02771121      -1.28409745
C       -0.14605392       0.25483391       0.62494670
O        0.83694651      -0.75716790       0.55792165
P        2.43930533      -0.18737970      -0.62489051
O        2.80353211      -1.47463438      -1.28918568
O        2.08479299       1.12345328      -1.23678129
O        3.26387394       0.00460936       0.78600115
H       -3.13918455       1.51398284       1.31318745
H       -0.83197823       1.06170483      -1.36284819
H       -1.72301767      -1.45931337      -0.91429916
H        0.32502404       1.17712705       0.88548221
H        0.45288321      -1.44148485      -0.03346497
H        2.66682530      -0.36432517       1.45064375
17
Properties=species:S:1:pos:R:3 relative_energy_eV=0.15053729168721475 branch=left pbc="F F F"
O       -2.84621822      -0.58918297       0.62968255
C       -2.05422576       0.33511834       0.35724607
O       -2.36379932       1.64298076       0.74360812
C       -0.98569669       0.23711783      -0.66873927
O       -0.92924995      -1.03331194      -1.28534104
C       -0.15132376       0.25981100       0.61502643
O        0.83359226      -0.76057828       0.58647113
P        2.46610950      -0.17672410      -0.63833814
O        2.77018167      -1.48281882      -1.29273067
O        2.14498058       1.13862553      -1.25313351
O        3.25976635       0.03608482       0.79293892
H       -3.13347708       1.51791459       1.31928492
H       -0.83004669       1.07097192      -1.35121871
H       -1.73280516      -1.46540368      -0.92943346
H        0.32393962       1.17511827       0.90841588
H        0.48313113      -1.45943301      -0.00869380
H        2.66131225      -0.38217773       1.42716987
17
Properties=species:S:1:pos:R:3 relative_energy_eV=0.2130958382767858 branch=left pbc="F F F"
O       -2.82180213      -0.60425044       0.64876641
C       -2.04996557       0.32894870       0.34753598
O       -2.35568990       1.63498301       0.72356068
C       -0.98183980       0.22843409      -0.66623297
O       -0.95096407      -1.02503141      -1.31447084
C       -0.14224859       0.23316196       0.60325220
O        0.79101788      -0.82117276       0.65225886
P        2.43925041      -0.10990644      -0.64763164
O        2.63365738      -1.45923447      -1.26797459
O        2.31332210       1.21351001      -1.33332797
O        3.20613148       0.08772014       0.79390888
H       -3.11162340       1.52110128       1.31910746
H       -0.82466892       1.06991745      -1.33958661
H       -1.73663581      -1.46662950      -0.93596081
H        0.34821188       1.13713895       0.90094263
H        0.49210806      -1.51204597       0.02680156
H        2.66790951      -0.39253200       1.44126626
17
Properties=species:S:1:pos:R:3 relative_energy_eV=0.25210988434628234 branch=ts pbc="F F F"
O       -2.80463855      -0.60850425       0.65992606
C       -2.05770198       0.32970391       0.33165164
O       -2.34666828       1.63108377       0.71530808
C       -0.97737514       0.22005558      -0.66561864
O       -0.96680973      -1.02008641      -1.33709515
C       -0.10661656       0.21327429       0.58532700
O        0.76173236      -0.88433999       0.73392009
P        2.40916713      -0.07648825      -0.65537446
O        2.59220435      -1.44139957      -1.24859328
O        2.38974617       1.23998462      -1.36959428
O        3.18484336       0.09534533       0.78724957
H       -3.07015360       1.52875867       1.35215398
H       -0.82212953       1.07571428      -1.32476998
H       -1.73528782      -1.47566512      -0.94478801
H        0.36244075       1.12316882       0.90163881
H        0.52868977      -1.54092001       0.05230945
H        2.65858448      -0.40972312       1.42635215
17
Properties=species:S:1:pos:R:3 relative_energy_eV=-0.03791150307733915 branch=right pbc="F F F"
O       -2.78804197      -0.61743642       0.67775633
C       -2.07447276       0.32879330       0.31507415
O       -2.33695451       1.62598865       0.70798962
C       -0.94820850       0.19701885      -0.65056625
O       -0.99746212      -1.00488186      -1.37126827
C        0.05412088       0.16144335       0.52027243
O        0.55921615      -0.99964379       0.88630222
P        2.39088697       0.00462229      -0.71725442
O        2.53762678      -1.41361646      -1.21110595
O        2.48858541       1.29439837      -1.42828983
O        3.15841146       0.09877381       0.77877268
H       -3.01601297       1.53588296       1.37697989
H       -0.81882982       1.07533957      -1.30374017
H       -1.73171662      -1.48950721      -0.95354844
H        0.36807740       1.10985298       0.91471458
H        0.59856997      -1.54290639       0.10324501
H        2.64008804      -0.42830946       1.40245698
17
Properties=species:S:1:pos:R:3 relative_energy_eV=-1.3802262490862631 branch=right pbc="F F F"
O       -2.78629480      -0.60840961       0.68973485
C       -2.12733982       0.33370292       0.28695565
O       -2.33413602       1.61126567       0.70560615
C       -0.89573864       0.19782775      -0.59998236
O       -1.02567170      -0.98194391      -1.38281906
C        0.39018382       0.14068119       0.32885022
O        0.26280225      -1.08304044       0.96192521
P        2.30016067       0.07359054      -0.70867318
O        2.47852769      -1.37305498      -1.18940537
O        2.56433883       1.30984041      -1.46983345
O        3.15172942       0.11667455       0.78188999
H       -3.01608329       1.53973352       1.37675026
H       -0.82099610       1.04947862      -1.29020617
H       -1.72081733      -1.49823738      -0.95321851
H        0.34055316       1.08483727       0.95552255
H        0.68313647      -1.54958283       0.16532645
H        2.63952912      -0.42755060       1.38936757
17
Properties=species:S:1:pos:R:3 relative_energy_eV=-2.1497906895638152 branch=right pbc="F F F"
O       -2.79551551      -0.56616872       0.62918580
C       -2.05192843       0.34591187       0.31582511
O       -2.31604114       1.61096234       0.72201530
C       -0.85560301       0.22421258      -0.65937932
O       -1.04112838      -0.95047847      -1.41066140
C        0.44434329       0.16900216       0.18153132
O        0.32685264      -1.03101265       0.89785481
P        2.19329779       0.07871485      -0.62440558
O        2.33579423      -1.33276550      -1.15033061
O        2.50263049       1.28170554      -1.42662466
O        3.09959548       0.17131344       0.79918984
H       -3.04083654       1.53467895       1.36244476
H       -0.83748948       1.08591405      -1.32772993
H       -1.67542932      -1.49721575      -0.92126822
H        0.39309041       0.95426305       0.93605520
H        0.70644750      -1.70171867       0.30172785
H        2.69580374      -0.44150620       1.42236078
17
Properties=species:S:1:pos:R:3 relative_energy_eV=-2.3673110516647284 branch=right pbc="F F F"
O       -2.74679998      -0.55655400       0.58598063
C       -2.03644450       0.37663245       0.25579517
O       -2.24317409       1.61746173       0.75773857
C       -0.85266449       0.23273140      -0.68482755
O       -1.08458600      -0.91151044      -1.46968091
C        0.43628897       0.11845218       0.20368189
O        0.33375236      -1.08952404       0.95182184
P        2.14020600       0.07559435      -0.61911899
O        2.22895382      -1.35225191      -1.10617412
O        2.43081688       1.32277575      -1.41275411
O        3.03110680       0.21917733       0.81268858
H       -3.03252451       1.52340383       1.32064315
H       -0.83212435       1.10137866      -1.34498388
H       -1.61674738      -1.48782041      -0.89949452
H        0.43420381       0.95515961       0.89150567
H        0.74862197      -1.74587222       0.36795306
H        2.74499859      -0.46342123       1.43701671
17
Properties=species:S:1:pos:R:3 relative_energy_eV=-2.436806783625798 branch=right pbc="F F F"
O       -2.75150678      -0.54808648       0.55596407
C       -2.02135386       0.37543732       0.25591580
O       -2.20772563       1.62038890       0.75456798
C       -0.84989087       0.23273798      -0.68177121
O       -1.10401283      -0.89124499      -1.49694776
C        0.39687914       0.12040747       0.21512263
O        0.31628319      -1.09950505       0.97553535
P        2.09142165       0.06417581      -0.59720952
O        2.21936127      -1.36622460      -1.08674360
O        2.34738958       1.29687637      -1.40172919
O        3.01260693       0.24362758       0.80733512
H       -3.00294691       1.52826271       1.30446340
H       -0.76137824       1.10649053      -1.32543397
H       -1.56746881      -1.51155948      -0.91424890
H        0.41485669       0.97315853       0.90339240
H        0.77836109      -1.73222835       0.37710749
H        2.77300833      -0.47690114       1.40247115
17
Properties=species:S:1:pos:R:3 relative_energy_eV=-2.490199710264278 branch=right pbc="F F F"
O       -2.78397663      -0.52661472       0.54253729
C       -2.03290815       0.37739945       0.23231090
O       -2.18281423       1.62382179       0.74313687
C       -0.83895671       0.23096902      -0.67797204
O       -1.07684199      -0.87534034      -1.51886388
C        0.39032922       0.10753895       0.24754503
O        0.32826954      -1.10786288       0.99980650
P        2.05537766       0.06757484      -0.59373223
O        2.19407368      -1.37936640      -1.02428107
O        2.23230166       1.29839852      -1.44131624
O        2.98409478       0.26314339       0.79457799
H       -2.96617300       1.56023937       1.31567549
H       -0.68712769       1.11774453      -1.29324817
H       -1.49277926      -1.54454810      -0.95627218
H        0.35953123       0.94817242       0.93533207
H        0.78278005      -1.72071406       0.38275906
H        2.81870386      -0.50474272       1.35979585
17
Properties=species:S:1:pos:R:3 relative_energy_eV=-2.530087074599578 branch=right pbc="F F F"
O       -2.81903033      -0.49630981       0.50947531
C       -2.05418062       0.39626186       0.20794496
O       -2.17225850       1.65128533       0.72713838
C       -0.83906363       0.22500540      -0.66392063
O       -1.01181455      -0.86016882      -1.54391886
C        0.36257473       0.08608998       0.29311935
O        0.30993516      -1.14470124       1.01557521
P        2.01241888       0.07705609      -0.57399134
O        2.17064834      -1.37779856      -0.98003783
O        2.13916093       1.26511574      -1.47327940
O        2.98896400       0.31223558       0.77998384
H       -2.92612282       1.60076180       1.33754693
H       -0.67565697       1.10991429      -1.26628197
H       -1.40187811      -1.56005284      -1.00622582
H        0.31707600       0.91458567       1.00074681
H        0.79275842      -1.75245957       0.40398089
H        2.89035317      -0.51100796       1.27993546
17
Properties=species:S:1:pos:R:3 relative_energy_eV=-2.5581000521051465 branch=right pbc="F F F"
O       -2.86371358      -0.46732113       0.47901457
C       -2.06549923       0.40166924       0.20003970
O       -2.17208257       1.66121781       0.70793564
C       -0.84004439       0.23759746      -0.65588999
O       -0.99747703      -0.84542491      -1.54355646
C        0.34521344       0.06726032       0.32068810
O        0.26913578      -1.19197216       1.01840375
P        1.99068621       0.07038290      -0.56952471
O        2.16606902      -1.38809699      -0.95300015
O        2.10383077       1.26072377      -1.48047974
O        2.98441233       0.34837193       0.75077102
H       -2.90598679       1.62348391       1.34321816
H       -0.68517788       1.13489349      -1.25977315
H       -1.34471857      -1.58490315      -1.02781289
H        0.31249781       0.86961418       1.05823944
H        0.80117330      -1.77338546       0.42784235
H        2.98556548      -0.48829837       1.23167566
17
Properties=species:S:1:pos:R:3 relative_energy_eV=-2.5874515136820264 branch=right pbc="F F F"
O       -2.92096800      -0.43590034       0.45025439
C       -2.10441492       0.41913758       0.18039508
O       -2.16872783       1.67581218       0.70736118
C       -0.86293067       0.23435872      -0.64209216
O       -1.01918632      -0.82615329      -1.55605352
C        0.32565016       0.04485190       0.33219416
O        0.24937778      -1.21700085       0.99863573
P        1.97326158       0.05942177      -0.56540903
O        2.17835520      -1.40571107      -0.92509291
O        2.05375857       1.24700774      -1.47699863
O        2.99236313       0.38491762       0.72898027
H       -2.90502767       1.64538437       1.33662441
H       -0.67227952       1.13724346      -1.21282875
H       -1.27390234      -1.59390974      -1.02800015
H        0.31004206       0.81575916       1.10605528
H        0.80803487      -1.79416184       0.42655390
H        3.12047802      -0.45524462       1.18721202
17
Properties=species:S:1:pos:R:3 relative_energy_eV=-2.621614203831996 branch=right pbc="F F F"
O       -3.00924590      -0.37146468       0.40976616
C       -2.13445007       0.43847245       0.19371079
O       -2.18557965       1.69249897       0.72749698
C       -0.87379072       0.23448848      -0.61897755
O       -1.06723017      -0.80245675      -1.55190023
C        0.31402880      -0.00942356       0.34921595
O        0.21292663      -1.29753069       0.95950768
P        1.97003849       0.05411142      -0.54039497
O        2.20222191      -1.40589350      -0.89365529
O        1.99320753       1.21504859      -1.48971858
O        3.01749609       0.43106153       0.72140292
H       -2.95013115       1.68563463       1.32652100
H       -0.66728285       1.14801451      -1.17412164
H       -1.18354030      -1.60047520      -1.01942047
H        0.30501744       0.75480997       1.12379970
H        0.83064506      -1.83124379       0.40708786
H        3.30955289      -0.39983984       1.11747078
17
Properties=species:S:1:pos:R:3 relative_energy_eV=-2.6396308949042577 branch=right pbc="F F F"
O       -3.03185954      -0.33912282       0.39234371
C       -2.14343284       0.46425242       0.20933860
O       -2.17923141       1.70585282       0.77875016
C       -0.88488741       0.24071908      -0.60131474
O       -1.07861585      -0.79639899      -1.53186433
C        0.30847650      -0.02723987       0.35239514
O        0.20026414      -1.33604052       0.90988215
P        1.96463437       0.04667215      -0.53801426
O        2.23704092      -1.41666186      -0.86292000
O        1.95545658       1.19993681      -1.49457292
O        3.00773865       0.45332168       0.72308815
H       -2.99694871       1.71252889       1.30231890
H       -0.66221714       1.14281070      -1.16710433
H       -1.14563358      -1.61082111      -1.01589482
H        0.29414548       0.72403355       1.14528148
H        0.85950150      -1.85603243       0.38661456
H        3.37945230      -0.37199813       1.05946355
17
Properties=species:S:1:pos:R:3 relative_energy_eV=-2.6479419431780116 branch=right pbc="F F F"
O       -3.03768975      -0.32283906       0.39188725
C       -2.13794419       0.46776955       0.21457449
O       -2.16734104       1.70287578       0.79826520
C       -0.88091404       0.23995391      -0.60224502
O       -1.07806779      -0.79781771      -1.53322237
C        0.30282885      -0.03724825       0.35591599
O        0.19094010      -1.35151905       0.89569634
P        1.95775141       0.04904383      -0.53815070
O        2.25263322      -1.41276486      -0.84851116
O        1.94534229       1.19322665      -1.50586057
O        2.98772589       0.46378690       0.72310507
H       -3.00618039       1.72436751       1.28813062
H       -0.66238001       1.14293901      -1.16834223
H       -1.13423463      -1.60457112      -1.00228388
H        0.29709006       0.68741963       1.17050177
H        0.87244742      -1.84730123       0.38179465
H        3.38187653      -0.36150930       1.02653552
17
Properties=species:S:1:pos:R:3 relative_energy_eV=-2.6510255810499075 branch=right pbc="F F F"
O       -3.05186529      -0.31294932       0.38416170
C       -2.14409949       0.47097519       0.21478658
O       -2.15869445       1.70410743       0.80048332
C       -0.88657706       0.24246191      -0.59570379
O       -1.08515983      -0.79332359      -1.52520040
C        0.29951487      -0.04780980       0.36036708
O        0.18558132      -1.36892202       0.87927003
P        1.95376030       0.05095570      -0.53510847
O        2.25741820      -1.41009588      -0.84235289
O        1.92720433       1.18336812      -1.51423167
O        2.98429614       0.47668397       0.72704458
H       -3.00141690       1.73241149       1.28131412
H       -0.65569874       1.14524506      -1.15917197
H       -1.11818633      -1.60204851      -0.99470974
H        0.29510168       0.66794805       1.18242926
H        0.88358127      -1.85580230       0.37725618
H        3.39912388      -0.34739344       1.00715697
17
Properties=species:S:1:pos:R:3 relative_energy_eV=-2.6530659739401017 branch=right pbc="F F F"
O       -3.06284348      -0.29864307       0.37517670
C       -2.14540552       0.47469843       0.21357614
O       -2.15192123       1.70933369       0.79793260
C       -0.88559003       0.23929117      -0.59090529
O       -1.08947680      -0.79536859      -1.52080454
C        0.29631703      -0.05973869       0.36588080
O        0.17774401      -1.39068511       0.85687554
P        1.94704255       0.05082640      -0.53687386
O        2.26621069      -1.40804124      -0.83756795
O        1.90958819       1.17901707      -1.52095319
O        2.97231982       0.48975355       0.72299533
H       -2.99024090       1.74610677       1.28559787
H       -0.65305012       1.14652347      -1.14559786
H       -1.10314629      -1.60165290      -0.98424715
H        0.29123654       0.64589472       1.19900414
H        0.89434524      -1.86677675       0.37153696
H        3.41075418      -0.32472699       0.99616459
17
Properties=species:S:1:pos:R:3 relative_energy_eV=-2.656013549782074 branch=right pbc="F F F"
O       -3.06629351      -0.28007229       0.37467059
C       -2.14345543       0.48671618       0.21325926
O       -2.13663204       1.72131318       0.80044378
C       -0.88751817       0.23601345      -0.59221997
O       -1.09091987      -0.80206142      -1.51660218
C        0.29055438      -0.08077625       0.36068888
O        0.17219637      -1.41532213       0.83779132
P        1.93961350       0.04780031      -0.53867641
O        2.27848287      -1.40631564      -0.84225627
O        1.88201978       1.17697014      -1.51929879
O        2.95516335       0.51193014       0.72162563
H       -2.96700047       1.76100143       1.30038702
H       -0.64064002       1.13995697      -1.14713451
H       -1.08959747      -1.60701549      -0.97628171
H        0.28429869       0.61451043       1.19833671
H        0.90456088      -1.87556599       0.36077144
H        3.39905103      -0.29327120       1.01228608
17
Properties=species:S:1:pos:R:3 relative_energy_eV=-2.6597846704426047 branch=right pbc="F F F"
O       -3.08496034      -0.24101170       0.38647343
C       -2.14544628       0.50294162       0.21449689
O       -2.10835133       1.73205559       0.81171761
C       -0.89361543       0.22909827      -0.59750759
O       -1.11552169      -0.81272023      -1.51413846
C        0.28336982      -0.10424876       0.35738919
O        0.16254660      -1.45526091       0.79579580
P        1.93577766       0.05039292      -0.53891843
O        2.31021649      -1.39503375      -0.83874943
O        1.85024934       1.17243672      -1.52684313
O        2.93956336       0.54643928       0.71846208
H       -2.93667828       1.78276871       1.31540850
H       -0.62785566       1.12181363      -1.16316781
H       -1.06493469      -1.61392710      -0.97021737
H        0.27691576       0.56599426       1.21800521
H        0.91348028      -1.90359845       0.33793990
H        3.38912826      -0.24232838       1.04164461
17
Properties=species:S:1:pos:R:3 relative_energy_eV=-2.6639273463879363 branch=right pbc="F F F"
O       -3.08274113      -0.21595280       0.39720820
C       -2.13272164       0.51365581       0.22123327
O       -2.07137245       1.74256422       0.81801761
C       -0.89830308       0.21569363      -0.60161575
O       -1.15188916      -0.82609102      -1.50841577
C        0.28000002      -0.12373012       0.34722665
O        0.15749906      -1.47946720       0.76559084
P        1.93813435       0.06121186      -0.53832071
O        2.33490563      -1.38133912      -0.82662187
O        1.84421097       1.17511247      -1.53371825
O        2.92429699       0.58179721       0.72158624
H       -2.89347297       1.80021176       1.33051723
H       -0.62745966       1.09947886      -1.17669057
H       -1.05247117      -1.63234509      -0.97494857
H        0.26093621       0.53579987       1.21648486
H        0.91231122      -1.92127942       0.30616313
H        3.34202077      -0.20950916       1.08409480
17
Properties=species:S:1:pos:R:3 relative_energy_eV=-2.6674887806038896 branch=right pbc="F F F"
O       -3.11201546      -0.17259714       0.40308887
C       -2.14018619       0.52648513       0.22969395
O       -2.04017428       1.74999002       0.83392866
C       -0.91381232       0.20543006      -0.60071918
O       -1.18122613      -0.84236430      -1.49728193
C        0.27139605      -0.15100917       0.33776140
O        0.15063165      -1.52151745       0.71034952
P        1.93991066       0.06560876      -0.53151821
O        2.37182381      -1.37083356      -0.79816932
O        1.83282546       1.16438951      -1.54345224
O        2.91144477       0.62401330       0.72452168
H       -2.86573787       1.83778695       1.33626942
H       -0.63857515       1.09126184      -1.17340227
H       -1.02231997      -1.64290810      -0.96952073
H        0.24729676       0.46910094       1.23133724
H        0.92557572      -1.93959664       0.26718635
H        3.34702651      -0.15742849       1.08771826
17
Properties=species:S:1:pos:R:3 relative_energy_eV=-2.6707435769312724 branch=right pbc="F F F"
O       -3.12213646      -0.15158759       0.41890761
C       -2.14003002       0.53038737       0.23251345
O       -2.00662298       1.75243475       0.83491767
C       -0.92487375       0.19272482      -0.60891345
O       -1.20377197      -0.85439497      -1.50162593
C        0.26226900      -0.16522531       0.32465939
O        0.15839763      -1.54058326       0.69207055
P        1.93833956       0.06899194      -0.52439528
O        2.38350631      -1.36802204      -0.77563598
O        1.83723799       1.16420572      -1.54013466
O        2.89318576       0.64159920       0.73377513
H       -2.82176274       1.86192232       1.35004287
H       -0.64880544       1.07741904      -1.18304963
H       -1.00964369      -1.65489833      -0.98417016
H        0.23082159       0.45768300       1.21870191
H        0.93958111      -1.94548545       0.23698553
H        3.31819219      -0.13135945       1.12314266
17
Properties=species:S:1:pos:R:3 relative_energy_eV=-2.672163102641207 branch=right pbc="F F F"
O       -3.13065352      -0.13992417       0.42639506
C       -2.14234543       0.53159199       0.23793612
O       -1.99896523       1.75416489       0.83591776
C       -0.93003251       0.18814242      -0.60733640
O       -1.21516512      -0.85803380      -1.49826564
C        0.26302086      -0.16893081       0.32002233
O        0.16441556      -1.54676157       0.67763526
P        1.94064651       0.06852318      -0.52546829
O        2.39295162      -1.36617737      -0.77672814
O        1.84717451       1.16162901      -1.54446844
O        2.87436643       0.64728762       0.74728371
H       -2.81128012       1.87136146       1.35348869
H       -0.65918024       1.06955799      -1.18814614
H       -1.00773457      -1.65759349      -0.98609486
H        0.23023640       0.44459492       1.21900585
H        0.95021965      -1.94412283       0.22497179
H        3.31620933      -0.11949772       1.13164298
17
Properties=species:S:1:pos:R:3 relative_energy_eV=-2.6727005548564193 branch=right pbc="F F F"
O       -3.12954163      -0.13719317       0.42960607
C       -2.14192177       0.53457946       0.23772482
O       -1.99605293       1.75747818       0.83572807
C       -0.93265641       0.18554764      -0.60955920
O       -1.22253985      -0.86236060      -1.49799141
C        0.26126678      -0.17043317       0.31686047
O        0.16635717      -1.54778390       0.67701588
P        1.94050815       0.07074475      -0.52465163
O        2.39433562      -1.36280476      -0.77897770
O        1.85045736       1.16215214      -1.54524224
O        2.86769642       0.64576161       0.75524458
H       -2.80639511       1.87331318       1.35692422
H       -0.66053221       1.06745284      -1.18990523
H       -1.00687628      -1.66415962      -0.99212661
H        0.23100838       0.44546155       1.21515801
H        0.95430044      -1.94286017       0.22515389
H        3.31446996      -0.11908428       1.13682966
17
Properties=species:S:1:pos:R:3 relative_energy_eV=-2.6732011855092424 branch=right pbc="F F F"
O       -3.13427730      -0.12792773       0.43511130
C       -2.14390309       0.53804040       0.23804307
O       -1.99127903       1.76211889       0.83139955
C       -0.93734542       0.18105524      -0.61065858
O       -1.23492014      -0.86735453      -1.49547416
C        0.25822270      -0.17557541       0.31358744
O        0.16516621      -1.55409277       0.67064721
P        1.93889936       0.07389034      -0.52255948
O        2.40178756      -1.35693905      -0.77575962
O        1.84765421       1.16987962      -1.53879792
O        2.86023047       0.64763862       0.76172669
H       -2.79609953       1.87922849       1.36083106
H       -0.66090996       1.05956786      -1.19373572
H       -0.99683266      -1.66752105      -0.99803831
H        0.22892374       0.43760787       1.21305692
H        0.95983472      -1.94621265       0.23022225
H        3.31873209      -0.11759240       1.12818989
17
Properties=species:S:1:pos:R:3 relative_energy_eV=-2.6733956060743367 branch=right pbc="F F F"
O       -3.13249821      -0.13207456       0.43690353
C       -2.14411539       0.53625572       0.23749814
O       -1.99377076       1.76256247       0.82802373
C       -0.93684341       0.18112631      -0.61182064
O       -1.23078517      -0.86823927      -1.49739891
C        0.25861360      -0.17262238       0.31461588
O        0.16545081      -1.54916281       0.67629086
P        1.93912196       0.07464406      -0.52133528
O        2.39838641      -1.35646237      -0.78065476
O        1.84693983       1.17331142      -1.53337506
O        2.86288985       0.64149864       0.76395520
H       -2.79718122       1.87850179       1.35969732
H       -0.66424247       1.06060224      -1.19565902
H       -0.99611180      -1.66870427      -0.99782107
H        0.22619346       0.44443988       1.21166008
H        0.95830226      -1.94409304       0.23453379
H        3.32353417      -0.12577206       1.12267771
17
Properties=species:S:1:pos:R:3 relative_energy_eV=-2.673647569368768 branch=right pbc="F F F"
O       -3.12974129      -0.13126974       0.44571208
C       -2.14218586       0.53551234       0.23776981
O       -1.98601321       1.76238315       0.82463727
C       -0.93987382       0.17794890      -0.61618290
O       -1.23767290      -0.87567694      -1.49450031
C        0.25714834      -0.17198301       0.31045109
O        0.16477280      -1.54910362       0.67157697
P        1.93881283       0.07822943      -0.51987481
O        2.39983301      -1.35088625      -0.78572629
O        1.84806758       1.18379702      -1.52535262
O        2.85930893       0.63802414       0.77194926
H       -2.78764620       1.88280291       1.35771092
H       -0.67030196       1.05623350      -1.20319923
H       -0.99374771      -1.67244765      -0.99430563
H        0.22168526       0.44481611       1.20733971
H        0.95913309      -1.94262064       0.23303515
H        3.32230501      -0.12994789       1.12675096
17
Properties=species:S:1:pos:R:3 relative_energy_eV=-2.673774720813526 branch=right pbc="F F F"
O       -3.12769895      -0.13491163       0.44789752
C       -2.14217772       0.53422974       0.23792533
O       -1.98783021       1.76301110       0.82189334
C       -0.93993654       0.17739943      -0.61656298
O       -1.23450845      -0.87766016      -1.49434558
C        0.25654405      -0.16968474       0.31033571
O        0.16481615      -1.54605701       0.67306105
P        1.93846056       0.08084369      -0.51944410
O        2.39489148      -1.34878462      -0.78971511
O        1.85079987       1.18922726      -1.52162439
O        2.86104479       0.63256424       0.77404757
H       -2.78875906       1.88350392       1.35589499
H       -0.67060150       1.05380573      -1.20596269
H       -0.99485145      -1.67404115      -0.99063962
H        0.22146819       0.44861922       1.20603744
H        0.95876185      -1.93928463       0.23283100
H        3.32346072      -0.13696861       1.12616192
17
Properties=species:S:1:pos:R:3 relative_energy_eV=-2.6739452181209344 branch=right pbc="F F F"
O       -3.12541748      -0.13742357       0.45268618
C       -2.14262701       0.53385441       0.23631540
O       -1.98993157       1.76484485       0.81566572
C       -0.94056574       0.17567512      -0.61897397
O       -1.23669007      -0.88343402      -1.49137149
C        0.25715759      -0.16727888       0.30999458
O        0.16711781      -1.54357748       0.67274096
P        1.93928848       0.08399624      -0.51812391
O        2.38976717      -1.34602592      -0.79678202
O        1.85702327       1.20005182      -1.51250441
O        2.86279157       0.62743264       0.77867011
H       -2.78838262       1.88523166       1.35353518
H       -0.67119827       1.05022379      -1.21152706
H       -0.99725495      -1.67795531      -0.98460726
H        0.22179600       0.45232730       1.20499738
H        0.96004722      -1.93575996       0.22995407
H        3.32096221      -0.14637101       1.12712187
17
Properties=species:S:1:pos:R:3 relative_energy_eV=-2.674480747162306 branch=right pbc="F F F"
O       -3.12048760      -0.13456467       0.46134243
C       -2.14152173       0.53805635       0.23223835
O       -1.99372816       1.77748062       0.79394627
C       -0.94232342       0.16977756      -0.62124017
O       -1.24319840      -0.89961834      -1.47910319
C        0.25701048      -0.16566050       0.31001058
O        0.18035777      -1.54344410       0.67185969
P        1.93992956       0.09561714      -0.51349749
O        2.38530733      -1.33105532      -0.81729235
O        1.85827323       1.22857515      -1.48840831
O        2.86673498       0.60985390       0.79252102
H       -2.78712870       1.89344567       1.34029939
H       -0.67377497       1.03682408      -1.22470340
H       -0.99879278      -1.68671270      -0.96330934
H        0.21265613       0.45054561       1.20724956
H        0.96978428      -1.92878712       0.21478072
H        3.31478501      -0.17452205       1.13109749
17
Properties=species:S:1:pos:R:3 relative_energy_eV=-2.674732938372472 branch=right pbc="F F F"
O       -3.12014657      -0.13625828       0.46380423
C       -2.14264606       0.53767421       0.23169129
O       -1.99564126       1.78020450       0.78734370
C       -0.94218391       0.16800019      -0.61995664
O       -1.24151149      -0.90297853      -1.47656679
C        0.25778986      -0.16558566       0.31135747
O        0.18332632      -1.54345753       0.67445837
P        1.93902647       0.09855656      -0.51307623
O        2.38530934      -1.32501367      -0.82744050
O        1.86025107       1.24034652      -1.47865715
O        2.86557969       0.60195646       0.79625811
H       -2.79011101       1.90059579       1.33131130
H       -0.67571610       1.03460069      -1.22560932
H       -1.00101409      -1.69041073      -0.95819617
H        0.21395371       0.45015228       1.20826639
H        0.97060417      -1.92931889       0.21595100
H        3.31701266      -0.18325269       1.12685210
17
Properties=species:S:1:pos:R:3 relative_energy_eV=-2.6750176225868927 branch=right pbc="F F F"
O       -3.11970780      -0.13286870       0.46927737
C       -2.14147292       0.53818390       0.23226372
O       -1.99326518       1.78483651       0.77775948
C       -0.94252687       0.16250993      -0.61889715
O       -1.24563187      -0.91134854      -1.47057779
C        0.25853736      -0.16849811       0.31121096
O        0.19050583      -1.54748793       0.67356594
P        1.93933286       0.10570297      -0.51117825
O        2.38676731      -1.31407442      -0.84128722
O        1.85672139       1.25713605      -1.46481408
O        2.86452192       0.59693063       0.80472618
H       -2.78999368       1.91490897       1.31599700
H       -0.67313492       1.02648418      -1.22658543
H       -1.00346154      -1.69589667      -0.94938879
H        0.21177665       0.44577682       1.20959188
H        0.97366123      -1.93238344       0.20670771
H        3.31125268      -0.19410105       1.12941954
17
Properties=species:S:1:pos:R:3 relative_energy_eV=-2.6751541163066577 branch=right pbc="F F F"
O       -3.12025171      -0.12702828       0.47433886
C       -2.14029880       0.53992999       0.23281267
O       -1.98897535       1.78949004       0.77095215
C       -0.94329735       0.15828974      -0.61761832
O       -1.24906697      -0.91615337      -1.46772379
C        0.25774291      -0.17260210       0.31298095
O        0.19269195      -1.55277016       0.67014549
P        1.93709435       0.10912429      -0.50850874
O        2.38551635      -1.30868693      -0.84578515
O        1.84935378       1.26536292      -1.45579082
O        2.86321580       0.59656887       0.80800432
H       -2.78609880       1.92310260       1.30761252
H       -0.67275547       1.02058859      -1.22710710
H       -1.00147293      -1.70106949      -0.94972985
H        0.21097415       0.43856301       1.21346847
H        0.97641263      -1.93313207       0.20045061
H        3.31309777      -0.19376660       1.12928884
