17
Properties=species:S:1:pos:R:3 relative_energy_eV=0.0 branch=left pbc="F F F"
O       -3.21301579       0.93950523      -0.28457393
C       -2.31943652       0.28206018       0.21269510
O       -2.42350927      -0.22932409       1.46563974
C       -0.98537032      -0.02317313      -0.43252813
O       -0.68281676      -1.37841707      -0.24215182
C        0.07170767       0.92423943       0.17696540
O        1.23583257       1.07981869      -0.60480558
P        2.37642225      -0.13524254      -0.70815296
O        1.69297384      -1.37856240      -1.26917109
O        3.57766934       0.49436959      -1.31851877
O        2.65833808      -0.47552053       0.90226582
H       -3.30788190       0.02715061       1.76880319
H       -1.09858444       0.23685557      -1.49052028
H        0.22188559      -1.49692334      -0.66352003
H        0.30259644       0.56561830       1.18319675
H       -0.36112669       1.92326474       0.26302655
H        2.18799927      -1.29905693       1.08309130
17
Properties=species:S:1:pos:R:3 relative_energy_eV=6.421281796065159e-05 branch=left pbc="F F F"
O       -3.21596378       0.93628675      -0.28290094
C       -2.31990726       0.28169633       0.21373240
O       -2.42217619      -0.22801976       1.46730087
C       -0.98572193      -0.02273670      -0.43280468
O       -0.68257302      -1.37826414      -0.24361639
C        0.07196259       0.92531249       0.17570603
O        1.23600664       1.07964109      -0.60680049
P        2.37672076      -0.13551610      -0.70786498
O        1.69521767      -1.37960749      -1.26974222
O        3.57956537       0.49462639      -1.31472731
O        2.65518798      -0.47665798       0.90300940
H       -3.30763909       0.02613944       1.76967816
H       -1.10007619       0.23752043      -1.49067080
H        0.22240041      -1.49654363      -0.66442814
H        0.30450868       0.56833295       1.18219483
H       -0.35939440       1.92523712       0.26140811
H        2.18556510      -1.30078490       1.08226743
17
Properties=species:S:1:pos:R:3 relative_energy_eV=0.00022269823966780677 branch=left pbc="F F F"
O       -3.21900178       0.92906032      -0.27962397
C       -2.31907505       0.27971188       0.21695808
O       -2.41681526      -0.22963348       1.47137753
C       -0.98572344      -0.01906705      -0.43353865
O       -0.68199880      -1.37438059      -0.24450592
C        0.07367755       0.92847876       0.17097391
O        1.23686681       1.07838095      -0.61360203
P        2.37800109      -0.13705705      -0.70664865
O        1.69831994      -1.38075876      -1.27156112
O        3.58578485       0.49130877      -1.30604828
O        2.64593454      -0.47773150       0.90669689
H       -3.30429242       0.01862512       1.77353105
H       -1.10430715       0.24243038      -1.49101959
H        0.22189603      -1.49414892      -0.66572901
H        0.30828005       0.57383445       1.17767252
H       -0.35694148       1.92873081       0.25476793
H        2.17307779      -1.30112184       1.08204074
17
Properties=species:S:1:pos:R:3 relative_energy_eV=0.00031000684248283505 branch=left pbc="F F F"
O       -3.22097840       0.92495732      -0.28383218
C       -2.31972108       0.28030550       0.21630794
O       -2.41800479      -0.22648164       1.47158937
C       -0.98504804      -0.01832090      -0.43150070
O       -0.68127521      -1.37359445      -0.24110152
C        0.07508249       0.92870351       0.17249280
O        1.23734892       1.07878905      -0.61389987
P        2.37819063      -0.13739904      -0.70778332
O        1.69597133      -1.37895842      -1.27367271
O        3.58580262       0.49003275      -1.30805894
O        2.64638905      -0.47798382       0.90513052
H       -3.30719376       0.01670481       1.77183647
H       -1.10308717       0.24217375      -1.48911215
H        0.22225511      -1.49311369      -0.66377747
H        0.31024972       0.57251937       1.17865587
H       -0.35522690       1.92892132       0.25667470
H        2.17292867      -1.30059315       1.08179265
17
Properties=species:S:1:pos:R:3 relative_energy_eV=0.0004172784829279408 branch=left pbc="F F F"
O       -3.22257287       0.92170551      -0.28972933
C       -2.32133292       0.28109633       0.21462079
O       -2.42150909      -0.22301574       1.47030163
C       -0.98429946      -0.01781457      -0.42873535
O       -0.68118468      -1.37317664      -0.23699538
C        0.07555497       0.92841387       0.17564745
O        1.23745710       1.07947884      -0.61140680
P        2.37757433      -0.13675271      -0.70999055
O        1.69617279      -1.37973659      -1.27423815
O        3.58422593       0.49101183      -1.31189501
O        2.65053653      -0.47798070       0.90185757
H       -3.31149755       0.01868094       1.76967067
H       -1.09981747       0.24115686      -1.48644761
H        0.22062818      -1.49392048      -0.66195701
H        0.31077285       0.56935770       1.18064726
H       -0.35431017       1.92868613       0.26124661
H        2.17728470      -1.30052830       1.07914467
17
Properties=species:S:1:pos:R:3 relative_energy_eV=0.0011123069489258341 branch=left pbc="F F F"
O       -3.22375785       0.91528791      -0.29471360
C       -2.31999903       0.27888370       0.21200519
O       -2.41747248      -0.22255168       1.46958508
C       -0.98175117      -0.01706671      -0.42574364
O       -0.67738860      -1.37141084      -0.22944929
C        0.07698116       0.93165350       0.17907153
O        1.23795948       1.08083875      -0.60991252
P        2.37499244      -0.13894872      -0.71215064
O        1.68736849      -1.37857784      -1.27583474
O        3.58128800       0.48301997      -1.31937515
O        2.65460482      -0.48039420       0.89748669
H       -3.31098634       0.01100348       1.76341464
H       -1.09220652       0.23696136      -1.48491781
H        0.22125478      -1.49035993      -0.66378936
H        0.31683102       0.57479236       1.18374846
H       -0.35322478       1.93190352       0.26892752
H        2.15918978      -1.28837235       1.08338914
17
Properties=species:S:1:pos:R:3 relative_energy_eV=0.002137225255864905 branch=left pbc="F F F"
O       -3.22075594       0.90564853      -0.30321866
C       -2.31842290       0.27721215       0.21235295
O       -2.42502144      -0.21392435       1.47207392
C       -0.97819681      -0.01733860      -0.42220354
O       -0.67377174      -1.37103857      -0.22296598
C        0.07899436       0.93005290       0.18593672
O        1.23969610       1.08003119      -0.60279865
P        2.37435181      -0.13978052      -0.71823164
O        1.68421867      -1.37796527      -1.28195827
O        3.57580649       0.48598016      -1.33109271
O        2.66599425      -0.48452305       0.88898549
H       -3.32384013       0.01388124       1.75486192
H       -1.08839099       0.23607060      -1.48303929
H        0.21860170      -1.49327225      -0.66708078
H        0.31798119       0.57302239       1.19110588
H       -0.34909240       1.93056931       0.27778636
H        2.15553103      -1.27796359       1.09122777
17
Properties=species:S:1:pos:R:3 relative_energy_eV=0.005120071411511162 branch=left pbc="F F F"
O       -3.21619893       0.91200811      -0.27337531
C       -2.30741646       0.27557452       0.22389190
O       -2.39826818      -0.23686441       1.47733299
C       -0.97516957      -0.01422098      -0.42841925
O       -0.67090114      -1.37113423      -0.24785747
C        0.08293899       0.93423971       0.17298457
O        1.24196762       1.07479679      -0.61744107
P        2.37598974      -0.14876346      -0.71260538
O        1.69673423      -1.38713600      -1.28836309
O        3.58273563       0.48214574      -1.31071860
O        2.63744458      -0.48598210       0.90213520
H       -3.29153689      -0.00287472       1.77090565
H       -1.09860893       0.24910011      -1.48409378
H        0.22502929      -1.49531028      -0.68695244
H        0.31416825       0.58555011       1.18433554
H       -0.34983791       1.93526135       0.24725981
H        2.08461284      -1.24972805       1.11272240
17
Properties=species:S:1:pos:R:3 relative_energy_eV=0.008582766906329198 branch=left pbc="F F F"
O       -3.21044475       0.92738356      -0.25161778
C       -2.30318230       0.27225295       0.22563595
O       -2.38143617      -0.24342223       1.47916036
C       -0.97733966      -0.02163961      -0.43923819
O       -0.66715191      -1.37750964      -0.26479799
C        0.07989824       0.92752008       0.16062603
O        1.23798389       1.07112734      -0.63102600
P        2.37762753      -0.15107448      -0.71002258
O        1.70167785      -1.38466353      -1.29822504
O        3.59385680       0.47615077      -1.28829520
O        2.61914458      -0.48404630       0.90937127
H       -3.26856834      -0.00981259       1.79541098
H       -1.10014812       0.25802648      -1.49003602
H        0.23526511      -1.49341881      -0.69512160
H        0.31527616       0.57814871       1.16883594
H       -0.34817772       1.92795289       0.24148843
H        2.02940185      -1.21631345       1.12959325
17
Properties=species:S:1:pos:R:3 relative_energy_eV=0.013353378362808144 branch=left pbc="F F F"
O       -3.20054561       0.93753170      -0.23650932
C       -2.30307928       0.26854266       0.23647993
O       -2.37731281      -0.25217198       1.48892182
C       -0.98322400      -0.02513603      -0.44698404
O       -0.66790273      -1.38113212      -0.28572458
C        0.07931655       0.91998962       0.14792033
O        1.23943322       1.06523792      -0.63792911
P        2.38188914      -0.15051209      -0.70886637
O        1.70998173      -1.38390681      -1.30652261
O        3.61544655       0.47469293      -1.25881784
O        2.61431959      -0.48252939       0.91118472
H       -3.25530543      -0.00458998       1.81999575
H       -1.11295245       0.25899720      -1.49774341
H        0.23606130      -1.49429243      -0.71492469
H        0.31391969       0.56680960       1.15421586
H       -0.34645777       1.92149215       0.23500452
H        1.99009531      -1.18236087       1.14204089
17
Properties=species:S:1:pos:R:3 relative_energy_eV=0.019313904143928085 branch=left pbc="F F F"
O       -3.19062649       0.96055361      -0.14115447
C       -2.28185078       0.26282385       0.26625565
O       -2.31821381      -0.31540132       1.49468526
C       -0.99275445      -0.01922582      -0.47658037
O       -0.67037547      -1.37503802      -0.35056319
C        0.07883319       0.93743915       0.09763128
O        1.24743111       1.05882639      -0.68373390
P        2.39343779      -0.16457834      -0.67613249
O        1.72998775      -1.38755541      -1.29784923
O        3.66253136       0.43478180      -1.16539885
O        2.53886668      -0.48080913       0.95465150
H       -3.17113362      -0.05399710       1.87543736
H       -1.17593298       0.26929450      -1.51817516
H        0.24445472      -1.46968198      -0.76461912
H        0.31233096       0.61859508       1.11883956
H       -0.35657702       1.93815563       0.14426819
H        1.88327381      -1.15752100       1.16418017
17
Properties=species:S:1:pos:R:3 relative_energy_eV=0.023647185626032297 branch=left pbc="F F F"
O       -3.18390119       0.97742347      -0.09131037
C       -2.27248803       0.25972634       0.27506262
O       -2.28567393      -0.34342755       1.49023850
C       -0.99955731      -0.01469055      -0.49545411
O       -0.67104758      -1.36922851      -0.37129641
C        0.07473470       0.94283282       0.06984983
O        1.24808955       1.05553177      -0.70457268
P        2.39781025      -0.16708937      -0.65983974
O        1.75687379      -1.39728547      -1.29136886
O        3.67893168       0.42794200      -1.12469014
O        2.49155208      -0.47071134       0.98233148
H       -3.11959805      -0.06583478       1.89965344
H       -1.20997365       0.27401205      -1.53140036
H        0.24097282      -1.46354854      -0.78566050
H        0.30247743       0.62321271       1.08972191
H       -0.35353890       1.94602132       0.12040060
H        1.83801898      -1.15822450       1.17007712
17
Properties=species:S:1:pos:R:3 relative_energy_eV=0.027771399254561402 branch=left pbc="F F F"
O       -3.18309424       0.97886718      -0.07935891
C       -2.27301173       0.25842725       0.28103799
O       -2.28149638      -0.35478560       1.49102584
C       -1.00464411      -0.01157356      -0.50014049
O       -0.66752677      -1.36298359      -0.37356677
C        0.07689816       0.94411833       0.06017010
O        1.25663817       1.05679255      -0.70074439
P        2.39979114      -0.17147946      -0.65422708
O        1.76200302      -1.40274307      -1.28861569
O        3.68170043       0.43043960      -1.11157552
O        2.48207386      -0.46630784       0.98519015
H       -3.10703426      -0.06384291       1.90570620
H       -1.22385710       0.27579792      -1.53534889
H        0.23798803      -1.47040920      -0.79840210
H        0.29904481       0.62296467       1.07857655
H       -0.34903266       1.94576674       0.11432344
H        1.82724224      -1.15238713       1.16769193
17
Properties=species:S:1:pos:R:3 relative_energy_eV=0.04307313437675475 branch=left pbc="F F F"
O       -3.16302188       0.98545339       0.01162598
C       -2.24416246       0.24569434       0.30374544
O       -2.21849920      -0.42465079       1.48509949
C       -1.00021499       0.00929828      -0.52863949
O       -0.66628437      -1.34496907      -0.41992322
C        0.06858667       0.99276407       0.01047587
O        1.25872597       1.05226920      -0.74496428
P        2.38793113      -0.18051363      -0.61670533
O        1.77171488      -1.42115217      -1.24664282
O        3.69394753       0.38236075      -1.03820450
O        2.39086888      -0.46734651       1.02714354
H       -3.01838510      -0.14769049       1.95815660
H       -1.25030707       0.30398397      -1.55599420
H        0.25137968      -1.46510455      -0.81978597
H        0.27097362       0.70346843       1.04424037
H       -0.34552418       2.00624698       0.01121284
H        1.74595337      -1.17345044       1.16090231
17
Properties=species:S:1:pos:R:3 relative_energy_eV=0.05976792828732869 branch=left pbc="F F F"
O       -3.13836716       1.00644718       0.09772915
C       -2.22046983       0.24447116       0.33261061
O       -2.14584789      -0.47779831       1.48228636
C       -1.01573959       0.02592241      -0.55047314
O       -0.67788999      -1.32684121      -0.48188000
C        0.05958381       1.01528300      -0.04186162
O        1.25485705       1.02568384      -0.79031507
P        2.37946147      -0.19659102      -0.58349308
O        1.78945147      -1.45360110      -1.21949566
O        3.70533806       0.37955309      -0.94409115
O        2.29847224      -0.46503473       1.06778940
H       -2.92438247      -0.22280369       1.99815863
H       -1.29364325       0.32487306      -1.56729060
H        0.25858248      -1.42546358      -0.83951290
H        0.25280525       0.77525231       1.00422513
H       -0.33670256       2.03799903      -0.09255405
H        1.68817336      -1.21068982       1.16991089
17
Properties=species:S:1:pos:R:3 relative_energy_eV=0.07303635833886801 branch=left pbc="F F F"
O       -3.13564360       1.01333998       0.15564170
C       -2.21305258       0.24564689       0.34640707
O       -2.10686930      -0.50556178       1.47377375
C       -1.02508082       0.03580635      -0.56318730
O       -0.67543560      -1.31284875      -0.51232878
C        0.05988461       1.02734933      -0.06706874
O        1.26197415       1.01336754      -0.80260748
P        2.37721227      -0.21588159      -0.56259186
O        1.79196428      -1.46982918      -1.20431522
O        3.70407999       0.36826832      -0.89257923
O        2.24597142      -0.46584605       1.08136726
H       -2.87311370      -0.27530170       2.01691205
H       -1.31975877       0.34702757      -1.57430842
H        0.27235823      -1.40236995      -0.85008482
H        0.25505645       0.84163518       0.99246492
H       -0.34124888       2.03678293      -0.16773241
H        1.65538424      -1.22492356       1.17198056
17
Properties=species:S:1:pos:R:3 relative_energy_eV=0.08878571894820197 branch=left pbc="F F F"
O       -3.12909774       1.00647224       0.22453345
C       -2.19759983       0.23846545       0.37399703
O       -2.07338561      -0.53011483       1.48467230
C       -1.02591695       0.04675027      -0.57165071
O       -0.66753029      -1.29923210      -0.55378148
C        0.06108003       1.05112226      -0.10625117
O        1.27283161       1.00264655      -0.82232150
P        2.37436563      -0.22129267      -0.53578597
O        1.80637589      -1.46470226      -1.20629000
O        3.72282191       0.32098752      -0.83796138
O        2.21254358      -0.48263894       1.10803845
H       -2.85060388      -0.33434761       2.02674703
H       -1.37383642       0.37426458      -1.56096899
H        0.28764030      -1.38760772      -0.88194213
H        0.24303506       0.92826794       0.96362522
H       -0.35067718       2.05013243      -0.26370684
H        1.62163619      -1.24251166       1.20078978
17
Properties=species:S:1:pos:R:3 relative_energy_eV=0.0991830943057721 branch=left pbc="F F F"
O       -3.11525583       1.00409654       0.25993956
C       -2.18402259       0.23421319       0.39893619
O       -2.05324269      -0.54694547       1.50171292
C       -1.03726870       0.05487282      -0.57602706
O       -0.66904393      -1.28845839      -0.58711139
C        0.05519227       1.06612531      -0.13346946
O        1.27952202       0.99404381      -0.82889943
P        2.38068445      -0.23357735      -0.52508144
O        1.82306837      -1.47644012      -1.21135746
O        3.73860354       0.31522254      -0.78663748
O        2.19387771      -0.48807582       1.11789443
H       -2.83936138      -0.35656732       2.03414556
H       -1.41774572       0.38611063      -1.55203765
H        0.28752172      -1.37898417      -0.90870035
H        0.23069408       0.95867142       0.93820765
H       -0.35119950       2.06601252      -0.32083682
H        1.61165849      -1.25365871       1.22106534
17
Properties=species:S:1:pos:R:3 relative_energy_eV=0.10751010942840367 branch=left pbc="F F F"
O       -3.10739902       0.99729422       0.27236384
C       -2.17818270       0.22371888       0.40586681
O       -2.05322983      -0.55428576       1.51182464
C       -1.03606533       0.05344898      -0.57806494
O       -0.67392539      -1.29209227      -0.60254587
C        0.06171407       1.07424946      -0.14351758
O        1.29048377       0.99579348      -0.82614035
P        2.38802600      -0.24582182      -0.51848860
O        1.82685449      -1.47750755      -1.21282589
O        3.74232225       0.31163378      -0.76750379
O        2.18441063      -0.48584266       1.11692460
H       -2.84178666      -0.36765351       2.04457141
H       -1.43989785       0.38743022      -1.54361336
H        0.27707580      -1.36782304      -0.92949021
H        0.21730228       0.98384184       0.93344443
H       -0.33389059       2.07321430      -0.34575643
H        1.60987035      -1.25293712       1.22469447
17
Properties=species:S:1:pos:R:3 relative_energy_eV=0.11900008861994138 branch=left pbc="F F F"
O       -3.10967981       0.99022154       0.27185685
C       -2.18119338       0.21762009       0.41480380
O       -2.06145101      -0.57063683       1.51464957
C       -1.03881297       0.05260549      -0.57029902
O       -0.68202067      -1.29450990      -0.61198497
C        0.06961974       1.07278725      -0.14319694
O        1.29928607       0.99284986      -0.82603264
P        2.38980090      -0.23964920      -0.51200166
O        1.83423356      -1.47751198      -1.20677357
O        3.74923716       0.31200221      -0.76691927
O        2.19134421      -0.48869643       1.13043585
H       -2.84229266      -0.36800860       2.05326520
H       -1.44647284       0.39146100      -1.53281861
H        0.26260269      -1.37195223      -0.95687878
H        0.20977794       1.01942075       0.94020505
H       -0.31306580       2.07048037      -0.36934545
H        1.60276908      -1.25182199       1.21277777
17
Properties=species:S:1:pos:R:3 relative_energy_eV=0.1467127445830556 branch=left pbc="F F F"
O       -3.11244327       0.99497037       0.28766103
C       -2.18101003       0.22584374       0.42396222
O       -2.06911601      -0.58494217       1.50667045
C       -1.04726288       0.05594711      -0.56705647
O       -0.69617633      -1.29365860      -0.63451103
C        0.06101819       1.06488046      -0.15644422
O        1.28679558       0.95768497      -0.83433632
P        2.41384689      -0.24144938      -0.49671298
O        1.86261830      -1.47514171      -1.18067487
O        3.75258279       0.35434756      -0.74227798
O        2.18334527      -0.50006511       1.13820337
H       -2.81811183      -0.35166073       2.07359226
H       -1.45677388       0.40249007      -1.52101764
H        0.24030717      -1.38498747      -0.99214307
H        0.22043249       1.03441249       0.91849655
H       -0.30698252       2.06197941      -0.38465707
H        1.60061230      -1.26398971       1.20298899
17
Properties=species:S:1:pos:R:3 relative_energy_eV=0.21030929815242416 branch=left pbc="F F F"
O       -3.08438761       1.05407982       0.35979717
C       -2.19881120       0.22165837       0.41857790
O       -2.05003154      -0.58768465       1.49590059
C       -1.09034410       0.05769666      -0.60120519
O       -0.74068103      -1.29526848      -0.69815653
C        0.05450360       1.04757072      -0.18055308
O        1.23737437       0.87304277      -0.89482549
P        2.42804838      -0.23761951      -0.45865456
O        2.02087820      -1.53452128      -1.14300920
O        3.72240745       0.48464324      -0.61721288
O        2.14758440      -0.50358551       1.16782308
H       -2.72231249      -0.29210199       2.12870397
H       -1.52088130       0.44748850      -1.53353524
H        0.18199443      -1.38925208      -1.03937508
H        0.25075966       0.97299682       0.89952278
H       -0.32160482       2.05091500      -0.43677761
H        1.61918609      -1.31339724       1.17472268
17
Properties=species:S:1:pos:R:3 relative_energy_eV=0.2597418696495879 branch=left pbc="F F F"
O       -3.05780715       1.09183469       0.39504786
C       -2.18680782       0.24417778       0.43724825
O       -2.03315793      -0.58999057       1.49954707
C       -1.12601945       0.06700209      -0.62351698
O       -0.77559011      -1.28252140      -0.74595932
C        0.02812979       1.01394677      -0.20306031
O        1.20568010       0.83701933      -0.94158596
P        2.43969705      -0.23858475      -0.45161067
O        2.15011835      -1.56825406      -1.12446911
O        3.70339737       0.54292788      -0.54096447
O        2.08850634      -0.49167276       1.16993490
H       -2.65685583      -0.25706763       2.16207479
H       -1.54375674       0.46298169      -1.56029392
H        0.15628263      -1.37801007      -1.05002800
H        0.23143598       0.93148636       0.86617998
H       -0.33016700       2.02158407      -0.42142247
H        1.64059701      -1.35019833       1.17462171
17
Properties=species:S:1:pos:R:3 relative_energy_eV=0.3012808202802262 branch=left pbc="F F F"
O       -3.03050361       1.12963063       0.43421181
C       -2.17843804       0.26269880       0.43749860
O       -2.00867666      -0.56823719       1.49791828
C       -1.14171447       0.06460594      -0.65000732
O       -0.80045953      -1.28817541      -0.78356632
C        0.02267696       0.98979819      -0.23809333
O        1.18230891       0.77644464      -0.98175987
P        2.45211342      -0.23350118      -0.43088992
O        2.23118272      -1.56204517      -1.11667086
O        3.69066238       0.59299047      -0.48603796
O        2.01347733      -0.48192241       1.16073027
H       -2.60512054      -0.23712693       2.18787216
H       -1.57593159       0.46037542      -1.57455838
H        0.14006994      -1.35247915      -1.05163604
H        0.20510239       0.87289220       0.82696746
H       -0.32871507       2.01206025      -0.38466061
H        1.66564819      -1.38134805       1.19442548
17
Properties=species:S:1:pos:R:3 relative_energy_eV=0.3495754486830265 branch=left pbc="F F F"
O       -3.00064580       1.16975967       0.45588489
C       -2.18131741       0.27071053       0.43298092
O       -1.96470569      -0.54226087       1.49725008
C       -1.17331935       0.05442968      -0.66871129
O       -0.80435149      -1.29511906      -0.79938790
C        0.01565929       0.97397667      -0.24860892
O        1.15718242       0.73448673      -1.01660653
P        2.43965531      -0.21542851      -0.41609420
O        2.25782523      -1.53839546      -1.12769540
O        3.66843953       0.63104185      -0.43709913
O        1.96791217      -0.47536916       1.18720738
H       -2.57075917      -0.22836636       2.18326733
H       -1.63466484       0.44272621      -1.58609479
H        0.14260807      -1.33652251      -1.05473232
H        0.20642760       0.78806799       0.81165335
H       -0.28107311       2.02346107      -0.38516618
H        1.68881014      -1.40053748       1.21369616
17
Properties=species:S:1:pos:R:3 relative_energy_eV=0.3985939653321111 branch=left pbc="F F F"
O       -2.99062135       1.17638916       0.46056872
C       -2.15896022       0.28861696       0.43775524
O       -1.95031574      -0.53430856       1.49360792
C       -1.18061585       0.06414403      -0.67987776
O       -0.80066090      -1.28126565      -0.79912570
C        0.00032409       0.95913752      -0.25871630
O        1.14650639       0.72139473      -1.00815035
P        2.42358285      -0.20852084      -0.41493158
O        2.25077635      -1.52769473      -1.12394218
O        3.63473391       0.65388378      -0.39596625
O        1.96980574      -0.47614798       1.17645237
H       -2.55895349      -0.22399243       2.18006803
H       -1.67403573       0.42479779      -1.59271105
H        0.14571984      -1.33223689      -1.05810585
H        0.21437257       0.74494518       0.79021941
H       -0.23916903       2.00759529      -0.38987176
H        1.70119356      -1.40007645       1.22447050
17
Properties=species:S:1:pos:R:3 relative_energy_eV=0.8359941838571103 branch=left pbc="F F F"
O       -2.99280898       1.18195797       0.47913023
C       -2.14395036       0.30509640       0.44758482
O       -1.95170398      -0.53276324       1.49497816
C       -1.17010737       0.07466832      -0.69875703
O       -0.79380747      -1.27268181      -0.77520090
C        0.05941395       0.97162654      -0.35211827
O        1.21368145       0.72212790      -1.12587310
P        2.41504422      -0.20252708      -0.43235007
O        2.12774787      -1.55390639      -1.10034067
O        3.53490932       0.76353853      -0.27466565
O        2.05338753      -0.53125347       1.21602263
H       -2.55385551      -0.21650907       2.18711532
H       -1.72727775       0.39752762      -1.59406909
H        0.14755825      -1.30721615      -1.07056700
H        0.29142273       0.66981743       0.67871087
H       -0.27847441       2.01439011      -0.32300570
H        1.70250355      -1.42723303       1.28514894
17
Properties=species:S:1:pos:R:3 relative_energy_eV=1.7495584262396733 branch=left pbc="F F F"
O       -2.96661664       1.19456061       0.49090709
C       -2.13253442       0.30568286       0.45087429
O       -1.94604469      -0.53537038       1.50440191
C       -1.17959305       0.07208187      -0.69645717
O       -0.77818476      -1.27352710      -0.75637491
C        0.05439833       1.00095080      -0.45086913
O        1.08009404       0.86198168      -1.35349478
P        2.41783037      -0.23828295      -0.33199932
O        2.04517520      -1.49341113      -1.06090062
O        3.45902064       0.80439020      -0.19351610
O        2.16468225      -0.64491754       1.30675505
H       -2.55513489      -0.21122896       2.18415630
H       -1.72975012       0.37908366      -1.59620993
H        0.14859916      -1.31058057      -1.08189597
H        0.47274927       0.61477857       0.49846402
H       -0.30903402       2.01563528      -0.24942298
H        1.68802637      -1.48516682       1.37732616
17
Properties=species:S:1:pos:R:3 relative_energy_eV=2.3784290609655727 branch=left pbc="F F F"
O       -2.94059343       1.20263640       0.49654963
C       -2.12572667       0.30206417       0.45227122
O       -1.93993964      -0.53647189       1.50963524
C       -1.17490747       0.07075503      -0.69362473
O       -0.77175641      -1.27175040      -0.74557340
C        0.03858530       0.99447181      -0.48783056
O        0.96685625       0.95845785      -1.49223499
P        2.37849761      -0.23514584      -0.22820263
O        2.01572387      -1.44255144      -1.04144835
O        3.42659921       0.80965764      -0.16585578
O        2.23255848      -0.73008427       1.36253629
H       -2.55746897      -0.20754766       2.18033137
H       -1.72433873       0.36908832      -1.60205929
H        0.14737925      -1.31914262      -1.08800499
H        0.60091363       0.59648689       0.35993336
H       -0.31638413       2.01589707      -0.21183101
H        1.67768497      -1.52016138       1.43715274
17
Properties=species:S:1:pos:R:3 relative_energy_eV=2.4472813443608175 branch=left pbc="F F F"
O       -2.91669512       1.21091599       0.49785074
C       -2.10469144       0.30238594       0.45495478
O       -1.93551738      -0.53883472       1.51419410
C       -1.17448426       0.05745305      -0.69111600
O       -0.76988005      -1.28491959      -0.73899358
C        0.02840519       1.03291235      -0.57979067
O        0.82101362       1.05735530      -1.62889582
P        2.38406021      -0.26287442      -0.13890231
O        2.03081825      -1.40604912      -1.03740002
O        3.42709033       0.79162470      -0.15800955
O        2.28704837      -0.79879313       1.43028697
H       -2.56032865      -0.20648947       2.17569143
H       -1.70442319       0.37106445      -1.59897123
H        0.14115939      -1.32964042      -1.09110108
H        0.63057166       0.60618967       0.33516037
H       -0.31914676       1.99756299      -0.17381854
H        1.66868310      -1.54320409       1.47060462
17
Properties=species:S:1:pos:R:3 relative_energy_eV=2.468156528262625 branch=ts pbc="F F F"
O       -2.90552469       1.21452184       0.49995092
C       -2.09679730       0.30312666       0.45564637
O       -1.93041105      -0.54120924       1.51429153
C       -1.17312145       0.05154357      -0.69104553
O       -0.76936738      -1.29382799      -0.73476180
C        0.02853931       1.04164042      -0.61805392
O        0.74339127       1.11893684      -1.70041635
P        2.40001254      -0.28311361      -0.10230845
O        2.03879728      -1.39806788      -1.03726792
O        3.43499133       0.77977363      -0.15108030
O        2.30074672      -0.81970759       1.45365310
H       -2.55542119      -0.20743114       2.17479740
H       -1.70351427       0.36006278      -1.60075124
H        0.13673185      -1.34224371      -1.09711580
H        0.68596741       0.58668865       0.27978421
H       -0.30785993       1.98457264      -0.13460302
H        1.67281379      -1.55530718       1.48928134
17
Properties=species:S:1:pos:R:3 relative_energy_eV=2.1745102112363384 branch=right pbc="F F F"
O       -2.87783524       1.21345180       0.50621770
C       -2.09744138       0.31163757       0.46266221
O       -1.91692812      -0.54498496       1.51216981
C       -1.17871436       0.03483273      -0.68615474
O       -0.76584875      -1.30004212      -0.73252699
C       -0.04159610       1.08095967      -0.75651030
O        0.57173829       1.25415483      -1.82316145
P        2.32339115      -0.25584640      -0.01581492
O        2.02211253      -1.36229189      -1.00194866
O        3.42850769       0.74981180      -0.10844884
O        2.31020427      -0.85664805       1.50721584
H       -2.54340759      -0.21142468       2.17394737
H       -1.71507837       0.33819956      -1.60428628
H        0.15182199      -1.34949959      -1.09844638
H        0.99867236       0.43079925       0.20363810
H       -0.27783089       1.99006809      -0.09420972
H        1.67449784      -1.57991891       1.51391445
17
Properties=species:S:1:pos:R:3 relative_energy_eV=1.778951493659406 branch=right pbc="F F F"
O       -2.86775924       1.22498373       0.50870230
C       -2.06814166       0.30728250       0.46669716
O       -1.91939083      -0.54777691       1.50139201
C       -1.16729390       0.03936817      -0.71793550
O       -0.72478351      -1.28121282      -0.76290414
C       -0.17736570       1.22660967      -0.91213085
O        0.42167446       1.35612672      -1.94636069
P        2.34171392      -0.28022434       0.05859886
O        1.97025625      -1.35156928      -0.96601168
O        3.43949890       0.72433958      -0.06575710
O        2.36669248      -0.96420163       1.60900947
H       -2.53037758      -0.22766277       2.18608465
H       -1.79457378       0.26550451      -1.58517449
H        0.22504698      -1.32892900      -1.04589368
H        1.09179918       0.42832442       0.18221495
H       -0.20734042       1.98340454      -0.10803617
H        1.66660993      -1.63110791       1.55576209
17
Properties=species:S:1:pos:R:3 relative_energy_eV=1.6320694670903322 branch=right pbc="F F F"
O       -2.84782607       1.24497572       0.52899235
C       -2.06121939       0.31673174       0.46338750
O       -1.89726531      -0.55246557       1.48345931
C       -1.20329988       0.03976744      -0.75664933
O       -0.67986580      -1.24466867      -0.81673181
C       -0.22176463       1.24710733      -0.97879123
O        0.30216424       1.45456935      -2.04724091
P        2.31210771      -0.28732696       0.09853257
O        1.93583429      -1.35351478      -0.92099866
O        3.47282927       0.64333177      -0.00129804
O        2.38564587      -1.02244460       1.58446426
H       -2.50946927      -0.24990762       2.17419487
H       -1.91697545       0.17737480      -1.58282771
H        0.32827964      -1.24940985      -0.94283575
H        1.10682346       0.50618821       0.17885474
H       -0.13343409       1.96740791      -0.12888490
H        1.69370100      -1.69445675       1.62263007
17
Properties=species:S:1:pos:R:3 relative_energy_eV=1.5030128915022942 branch=right pbc="F F F"
O       -2.78802608       1.27822215       0.57360302
C       -2.02096793       0.33109046       0.45702312
O       -1.84525200      -0.57927269       1.43595579
C       -1.24410102       0.05491938      -0.81137110
O       -0.65802867      -1.18512417      -0.87648895
C       -0.35697038       1.28354479      -1.09921262
O        0.09290704       1.56300409      -2.17871333
P        2.35156853      -0.29629752       0.17231651
O        1.87755343      -1.30908192      -0.86523773
O        3.60613660       0.49456653       0.05515942
O        2.34570967      -1.03294990       1.66200312
H       -2.44066406      -0.28602547       2.14154714
H       -2.00672696       0.11339666      -1.59149598
H        0.36380797      -1.17502798      -0.85117483
H        1.22268719       0.54534026       0.33107060
H       -0.17428849       1.92748912      -0.23540330
H        1.74092075      -1.78453405       1.63867662
17
Properties=species:S:1:pos:R:3 relative_energy_eV=1.378306196005724 branch=right pbc="F F F"
O       -2.70137355       1.31535860       0.63278862
C       -2.01194835       0.33558712       0.43384387
O       -1.80414961      -0.60151773       1.38039104
C       -1.29685658       0.04619003      -0.88046758
O       -0.68781715      -1.18669547      -0.94787169
C       -0.46579623       1.31689829      -1.21325297
O       -0.15405449       1.64162297      -2.33030281
P        2.40589860      -0.29054337       0.29136824
O        1.83728774      -1.25481844      -0.75743175
O        3.75149092       0.34029425       0.12119693
O        2.34000528      -1.08638866       1.77092415
H       -2.34433928      -0.32553392       2.13804726
H       -2.11065745       0.07186851      -1.62382240
H        0.34466822      -1.15499574      -0.86839228
H        1.38071016       0.68137991       0.53086887
H       -0.20796387       1.95895697      -0.33384037
H        1.79116124      -1.86440327       1.61421058
17
Properties=species:S:1:pos:R:3 relative_energy_eV=1.3358605265784718 branch=right pbc="F F F"
O       -2.61426596       1.33551149       0.68680451
C       -1.96763388       0.32982964       0.42977085
O       -1.78380403      -0.66220835       1.32078536
C       -1.35923177       0.05445495      -0.94116212
O       -0.72337666      -1.15990383      -1.08903513
C       -0.60012685       1.35497599      -1.34214662
O       -0.42279988       1.67542449      -2.49424695
P        2.47665074      -0.28622943       0.42310861
O        1.76425746      -1.15747296      -0.61775298
O        3.88234220       0.19875345       0.25398285
O        2.34620632      -1.15913682       1.84041505
H       -2.21044559      -0.34750089       2.13588142
H       -2.21036231       0.05210223      -1.63189588
H        0.28849650      -1.10451056      -0.87016074
H        1.60119955       0.79710927       0.73600995
H       -0.23846777       1.97150675      -0.49526622
H        1.83762753      -1.94944473       1.61316588
17
Properties=species:S:1:pos:R:3 relative_energy_eV=1.3036198510708346 branch=right pbc="F F F"
O       -2.54666857       1.33414230       0.73135906
C       -1.96131836       0.31301126       0.41896553
O       -1.75268183      -0.70059268       1.28239505
C       -1.42350322       0.06723734      -0.98097794
O       -0.74079650      -1.11155011      -1.18996957
C       -0.67205620       1.33958791      -1.43566186
O       -0.57921647       1.65738945      -2.59576584
P        2.51710574      -0.28678850       0.52107909
O        1.74011010      -1.03878065      -0.56331244
O        3.95214137       0.09123326       0.33844780
O        2.34522515      -1.20371908       1.90950545
H       -2.10345139      -0.37304118       2.12487703
H       -2.31830780       0.07535428      -1.61867630
H        0.23904509      -1.05887608      -0.87199943
H        1.75480425       0.86274130       0.88971948
H       -0.24759279       1.96447738      -0.62260226
H        1.86342709      -1.98856525       1.62087503
17
Properties=species:S:1:pos:R:3 relative_energy_eV=1.2895838430631557 branch=right pbc="F F F"
O       -2.52888004       1.33587834       0.75275778
C       -1.95041107       0.32016317       0.41665701
O       -1.72835039      -0.70181287       1.26410541
C       -1.44459988       0.07570861      -0.99693554
O       -0.75538990      -1.10079936      -1.20514573
C       -0.70116537       1.34167284      -1.46554750
O       -0.62192782       1.64435548      -2.62992166
P        2.52992182      -0.28242635       0.54433767
O        1.72277268      -0.99236662      -0.54356970
O        3.97522672       0.06132963       0.36353852
O        2.33673670      -1.21443976       1.91935003
H       -2.06467511      -0.39973359       2.12152922
H       -2.35679547       0.05253293      -1.61246247
H        0.22337711      -1.02560167      -0.90447654
H        1.80951230       0.86810371       0.96784515
H       -0.23441394       1.96128329      -0.67168803
H        1.85532734      -2.00058685       1.63788425
17
Properties=species:S:1:pos:R:3 relative_energy_eV=1.2804180686980544 branch=right pbc="F F F"
O       -2.53533274       1.33332583       0.76542413
C       -1.94033352       0.32511890       0.42738957
O       -1.70124321      -0.70025724       1.26555742
C       -1.44767712       0.07871203      -0.99099007
O       -0.75830298      -1.09566145      -1.21417060
C       -0.69182517       1.32717714      -1.47720072
O       -0.61804502       1.62123320      -2.64544666
P        2.51749801      -0.27387561       0.55309315
O        1.71433579      -0.94519884      -0.56103737
O        3.95842188       0.07688480       0.36935100
O        2.35554354      -1.24527168       1.91092679
H       -2.04089051      -0.41376001       2.12745374
H       -2.36334906       0.05093568      -1.59239101
H        0.22299681      -1.00194851      -0.93066771
H        1.78499292       0.86979610       0.99306113
H       -0.18644475       1.92454431      -0.69626480
H        1.79592074      -1.98849378       1.65416975
17
Properties=species:S:1:pos:R:3 relative_energy_eV=1.2618624478745915 branch=right pbc="F F F"
O       -2.51499274       1.31156989       0.79060882
C       -1.91142037       0.31309708       0.44662272
O       -1.60654167      -0.69405463       1.29279476
C       -1.45267455       0.06925654      -0.98240883
O       -0.79475859      -1.12776408      -1.21189460
C       -0.63882709       1.27242792      -1.49645871
O       -0.61059355       1.56580414      -2.66758458
P        2.48472758      -0.23190590       0.56097331
O        1.67907405      -0.82863143      -0.59553169
O        3.92116721       0.15152718       0.39685167
O        2.34689573      -1.29568778       1.84171188
H       -1.96243174      -0.41709883       2.15138601
H       -2.36792340       0.09578973      -1.59051063
H        0.20142652      -1.02446199      -0.97924294
H        1.73457688       0.84750092       1.11002364
H       -0.06853003       1.83945287      -0.72963964
H        1.62709118      -1.90356085       1.62055617
17
Properties=species:S:1:pos:R:3 relative_energy_eV=1.2273422224498063 branch=right pbc="F F F"
O       -2.44419747       1.28812726       0.82810216
C       -1.84013459       0.30827510       0.44401452
O       -1.47419194      -0.68132063       1.28798632
C       -1.45864481       0.04941693      -1.00852566
O       -0.82043046      -1.15888149      -1.24663395
C       -0.62601820       1.23176403      -1.54724390
O       -0.68026396       1.56830814      -2.70512713
P        2.44204577      -0.18232879       0.60911398
O        1.62416480      -0.62330463      -0.60642597
O        3.88635965       0.18889713       0.48717733
O        2.28844792      -1.38997814       1.75108454
H       -1.79750906      -0.40505919       2.16225629
H       -2.40426576       0.06814186      -1.56277143
H        0.13801246      -1.04443209      -0.93600631
H        1.70609190       0.84229591       1.28721588
H        0.07442481       1.71697253      -0.84176971
H        1.45237414      -1.83363335       1.55580997
17
Properties=species:S:1:pos:R:3 relative_energy_eV=1.1916204353583453 branch=right pbc="F F F"
O       -2.35099592       1.31004456       0.83646847
C       -1.78849589       0.31493085       0.43165892
O       -1.38800706      -0.68414176       1.24619363
C       -1.48229991       0.03966476      -1.03068256
O       -0.86666696      -1.18739159      -1.26982960
C       -0.68362218       1.21565988      -1.62678468
O       -0.85085187       1.60258384      -2.75832898
P        2.45098249      -0.15239869       0.70520520
O        1.57594512      -0.41357960      -0.52001888
O        3.91713189       0.11830691       0.59695302
O        2.21889530      -1.43658806       1.75221717
H       -1.62084952      -0.40509657       2.14398213
H       -2.44212375       0.04328457      -1.55370999
H        0.07936861      -1.08761718      -0.97343557
H        1.81975154       0.88292637       1.45778992
H        0.07257959       1.66273670      -0.95783917
H        1.40552362      -1.88006426       1.47841791
17
Properties=species:S:1:pos:R:3 relative_energy_eV=1.1781202338788717 branch=right pbc="F F F"
O       -2.31467195       1.32873606       0.80548354
C       -1.77264112       0.31076129       0.41952332
O       -1.37228040      -0.67573994       1.24284605
C       -1.48121764       0.01649756      -1.03833437
O       -0.84626881      -1.19934052      -1.28645390
C       -0.70269076       1.21676870      -1.62219403
O       -0.89972511       1.62483083      -2.74066017
P        2.44118682      -0.14304498       0.72103359
O        1.56062772      -0.37864198      -0.50611638
O        3.91592457       0.06713285       0.61519656
O        2.15793108      -1.40993485       1.77891721
H       -1.57851914      -0.36829846       2.13699617
H       -2.45176660       0.00944820      -1.54119568
H        0.09358265      -1.08710239      -0.97123613
H        1.83481820       0.89279457       1.48260154
H        0.05161009       1.66456685      -0.94896794
H        1.43036559      -1.92617299       1.41081773
17
Properties=species:S:1:pos:R:3 relative_energy_eV=1.1709085380498436 branch=right pbc="F F F"
O       -2.30982324       1.32190666       0.79713070
C       -1.75821569       0.30498433       0.42476978
O       -1.35844560      -0.66420317       1.27054611
C       -1.46857291       0.00542886      -1.03620003
O       -0.81893090      -1.20065498      -1.28392493
C       -0.69765887       1.20764043      -1.61733938
O       -0.89747099       1.63589320      -2.72815401
P        2.41290236      -0.14008942       0.72196374
O        1.54863815      -0.37211637      -0.51596706
O        3.88802012       0.07278885       0.61653716
O        2.10811349      -1.40783096       1.76781028
H       -1.56127033      -0.33682710       2.16043089
H       -2.44084436      -0.01062105      -1.53668260
H        0.12946817      -1.06644012      -0.98928093
H        1.81455135       0.90537882       1.47720164
H        0.06511901       1.63077601      -0.94170524
H        1.41068541      -1.94275320       1.37112097
17
Properties=species:S:1:pos:R:3 relative_energy_eV=1.1639594272237446 branch=right pbc="F F F"
O       -2.35432238       1.30179803       0.82414431
C       -1.77807399       0.30219392       0.44689022
O       -1.34841597      -0.63929459       1.30917182
C       -1.44107043      -0.01524451      -1.00499565
O       -0.74972893      -1.20557681      -1.20581655
C       -0.67065266       1.18749626      -1.58162344
O       -0.87727896       1.63848278      -2.68267221
P        2.36533751      -0.14110078       0.68692534
O        1.58551953      -0.39853443      -0.60606147
O        3.84352465       0.08019995       0.66631397
O        2.01175331      -1.39660975       1.71955872
H       -1.55307898      -0.27321926       2.18220905
H       -2.38963014      -0.04775041      -1.54677024
H        0.22417506      -0.99847214      -0.96699762
H        1.71279977       0.91256131       1.38346391
H        0.13166563       1.57180960      -0.93081142
H        1.35374209      -1.93547863       1.26532817
17
Properties=species:S:1:pos:R:3 relative_energy_eV=1.1348883818245667 branch=right pbc="F F F"
O       -2.38770078       1.30243055       0.80001764
C       -1.77807462       0.30734238       0.46468229
O       -1.31879204      -0.60860556       1.34299054
C       -1.42709688      -0.03067284      -0.98050450
O       -0.69525810      -1.20181197      -1.13405714
C       -0.66290187       1.16910574      -1.58087867
O       -0.93953438       1.65479983      -2.65352346
P        2.34865047      -0.13129568       0.68130237
O        1.66738932      -0.35623284      -0.67384635
O        3.82541118       0.06847863       0.78259971
O        1.89117331      -1.41504627       1.66010577
H       -1.48205417      -0.24766610       2.22770764
H       -2.37041188      -0.10143513      -1.53393673
H        0.27971452      -0.94783013      -0.94283485
H        1.65334885       0.92133768       1.33365911
H        0.19479910       1.50964685      -0.97763866
H        1.26760300      -1.94928481       1.14241204
17
Properties=species:S:1:pos:R:3 relative_energy_eV=1.112875389160763 branch=right pbc="F F F"
O       -2.42328398       1.30248376       0.78304207
C       -1.76343269       0.33279624       0.47532796
O       -1.27497257      -0.55228135       1.36635858
C       -1.39930711      -0.04391474      -0.96215072
O       -0.63777773      -1.19985015      -1.09757559
C       -0.69484639       1.16121181      -1.59977052
O       -1.06337983       1.70826345      -2.61559221
P        2.34869115      -0.14621289       0.69168698
O        1.77422803      -0.32300756      -0.72061007
O        3.81785007       0.02109063       0.91842267
O        1.78572546      -1.42585188       1.60050186
H       -1.45094578      -0.20751645       2.25546076
H       -2.35259525      -0.17817753      -1.48168091
H        0.34164219      -0.93913939      -0.95313025
H        1.63834099       0.91291278       1.32447383
H        0.21996940       1.46067124      -1.05991140
H        1.20035878      -1.94021801       1.03340345
17
Properties=species:S:1:pos:R:3 relative_energy_eV=1.0891539572585316 branch=right pbc="F F F"
O       -2.47016762       1.27057829       0.76858387
C       -1.76198324       0.32821496       0.47964692
O       -1.26229231      -0.52441743       1.39760059
C       -1.38750543      -0.03210241      -0.95617890
O       -0.59136125      -1.15827110      -1.09576297
C       -0.74612304       1.19125173      -1.62597593
O       -1.20992652       1.75588224      -2.58855550
P        2.40875519      -0.19207199       0.70918868
O        1.86522023      -0.39313559      -0.71417277
O        3.86545414      -0.01807389       0.99199247
O        1.81897299      -1.46161643       1.61136683
H       -1.54999513      -0.17738826       2.25756712
H       -2.34835293      -0.20342901      -1.45012092
H        0.38664622      -0.88150346      -0.97105334
H        1.65297444       0.86927474       1.26937735
H        0.21994147       1.48077486      -1.17532132
H        1.17600722      -1.91070759       1.05007395
17
Properties=species:S:1:pos:R:3 relative_energy_eV=1.0650506469828542 branch=right pbc="F F F"
O       -2.47699334       1.26853196       0.73036518
C       -1.73473235       0.34555818       0.46514453
O       -1.19156902      -0.45963764       1.40203187
C       -1.35966190      -0.05403264      -0.96564413
O       -0.54827594      -1.17056870      -1.09207421
C       -0.76550883       1.18560003      -1.64888149
O       -1.34663739       1.83064944      -2.49326001
P        2.38911896      -0.20157430       0.72424264
O        1.86197154      -0.34297658      -0.71364045
O        3.84252333      -0.02594963       1.02509404
O        1.83620188      -1.52870884       1.56997422
H       -1.53459572      -0.14734918       2.25459961
H       -2.31937625      -0.24929730      -1.45736681
H        0.42906655      -0.88018753      -0.95621913
H        1.64806962       0.84379115       1.33712583
H        0.25229653       1.43020638      -1.30654337
H        1.08436635      -1.90079547       1.08330714
17
Properties=species:S:1:pos:R:3 relative_energy_eV=1.0477904379695246 branch=right pbc="F F F"
O       -2.47395298       1.26770341       0.69766452
C       -1.73579809       0.34290450       0.43663921
O       -1.18408250      -0.44827261       1.37911416
C       -1.35805311      -0.06318502      -0.98590606
O       -0.52852704      -1.16312134      -1.09103426
C       -0.80830439       1.19336536      -1.66773139
O       -1.46168632       1.87591580      -2.42235636
P        2.40369827      -0.21779265       0.75203910
O        1.85462176      -0.29678488      -0.68044191
O        3.86852946      -0.08797277       1.01433273
O        1.83399025      -1.54278542       1.59662377
H       -1.49756710      -0.10600101       2.23028944
H       -2.30790690      -0.27650024      -1.47919017
H        0.43857859      -0.85527301      -0.94108838
H        1.69062255       0.82608474       1.40444630
H        0.23897817       1.42016168      -1.40144517
H        1.09312313      -1.92518737       1.11629947
17
Properties=species:S:1:pos:R:3 relative_energy_eV=1.026127441702556 branch=right pbc="F F F"
O       -2.45239032       1.25858857       0.70575461
C       -1.73211705       0.33123828       0.40921222
O       -1.14988096      -0.46821490       1.33003869
C       -1.38560831      -0.07213570      -1.02979662
O       -0.54498042      -1.16475404      -1.15004705
C       -0.84457471       1.18256092      -1.73463483
O       -1.53046637       1.94753713      -2.37412463
P        2.40686637      -0.20073062       0.82366725
O        1.75321437      -0.13603845      -0.55987764
O        3.89106649      -0.14425820       0.96851069
O        1.84217984      -1.56763499       1.60177942
H       -1.32147403      -0.05659831       2.19102357
H       -2.34178354      -0.31601172      -1.49394093
H        0.39792936      -0.85252928      -0.92689083
H        1.78008543       0.78297605       1.63813419
H        0.24229551       1.31983904      -1.58978119
H        1.05590166      -1.90057467       1.14922738
17
Properties=species:S:1:pos:R:3 relative_energy_eV=1.0132110004051356 branch=right pbc="F F F"
O       -2.44695522       1.23749739       0.69714444
C       -1.70415574       0.32925556       0.40046038
O       -1.06322152      -0.43595918       1.31191759
C       -1.39052310      -0.08974946      -1.03523777
O       -0.53866093      -1.17687735      -1.15612806
C       -0.85448544       1.15542197      -1.75709354
O       -1.55139655       1.96263805      -2.33230362
P        2.38473654      -0.19185800       0.86491572
O        1.71110525      -0.04538081      -0.50796795
O        3.87314474      -0.16123647       1.00529292
O        1.81198544      -1.59963349       1.55199754
H       -1.21626997      -0.02405863       2.17670255
H       -2.36145961      -0.32803585      -1.47896052
H        0.39442952      -0.83773504      -0.92403375
H        1.77732095       0.76210276       1.73735588
H        0.24653373       1.22384066      -1.69305575
H        0.99413485      -1.83697318       1.09724776
17
Properties=species:S:1:pos:R:3 relative_energy_eV=1.010177463918808 branch=right pbc="F F F"
O       -2.45292609       1.22493142       0.70347226
C       -1.69506070       0.33202668       0.39718919
O       -1.02695676      -0.41921517       1.30259329
C       -1.38967036      -0.09276843      -1.04103371
O       -0.53825097      -1.18003539      -1.16593416
C       -0.85431871       1.14633579      -1.77156845
O       -1.55627110       1.96629600      -2.31651813
P        2.37508811      -0.19015153       0.87393093
O        1.69154537      -0.01148406      -0.48744622
O        3.86284120      -0.15577020       1.00262853
O        1.80977971      -1.61663209       1.53221032
H       -1.17693359      -0.01054687       2.16699985
H       -2.35888213      -0.33448852      -1.48512792
H        0.38815222      -0.84355082      -0.91375597
H        1.77624673       0.74403105       1.77062773
H        0.24834893       1.20516308      -1.72575197
H        0.96353093      -1.82088208       1.11573805
17
Properties=species:S:1:pos:R:3 relative_energy_eV=1.0046371783610084 branch=right pbc="F F F"
O       -2.49157774       1.17834362       0.70809566
C       -1.69324799       0.32210050       0.40147630
O       -0.97975401      -0.38223525       1.30731034
C       -1.37749744      -0.09544124      -1.03587931
O       -0.51061518      -1.16777809      -1.16209255
C       -0.87204093       1.15675131      -1.77277108
O       -1.59170373       1.96393957      -2.31362716
P        2.37074515      -0.20830020       0.87302857
O        1.73172990      -0.01847755      -0.50906724
O        3.85399577      -0.19447675       1.05245845
O        1.78285624      -1.63090239       1.51907379
H       -1.12871258       0.03691745       2.16825982
H       -2.34277882      -0.35790172      -1.47403217
H        0.41808773      -0.82180774      -0.92274029
H        1.75012564       0.73810246       1.74626552
H        0.22741337       1.24026723      -1.75491780
H        0.91923726      -1.81584271       1.12741273
17
Properties=species:S:1:pos:R:3 relative_energy_eV=1.0002415551134618 branch=right pbc="F F F"
O       -2.49379349       1.16438469       0.70672063
C       -1.69232412       0.31299677       0.39618353
O       -0.96788936      -0.38941456       1.29484274
C       -1.38228264      -0.09837931      -1.04312420
O       -0.52106710      -1.17586787      -1.17554507
C       -0.87101154       1.16097229      -1.76488331
O       -1.58939810       1.93684533      -2.35296448
P        2.36540287      -0.20963370       0.87451292
O        1.71605169      -0.02598797      -0.50360942
O        3.85044714      -0.19621468       1.03931118
O        1.77964580      -1.62599228       1.52786226
H       -1.07060744       0.05083211       2.15062937
H       -2.35252771      -0.34368062      -1.48069214
H        0.40758198      -0.83306097      -0.93942531
H        1.75399589       0.73772110       1.75351380
H        0.22380611       1.28454738      -1.67317458
H        0.91023282      -1.80680923       1.14809598
17
Properties=species:S:1:pos:R:3 relative_energy_eV=0.9985973876900971 branch=right pbc="F F F"
O       -2.50471681       1.15756066       0.70672064
C       -1.69744890       0.31298960       0.39226961
O       -0.95910948      -0.38281859       1.28652503
C       -1.38942186      -0.09659193      -1.04848898
O       -0.51659484      -1.16311041      -1.18511759
C       -0.88878114       1.16782545      -1.76178361
O       -1.60712426       1.93368851      -2.36318434
P        2.37712947      -0.22186901       0.87775521
O        1.72963761      -0.04278386      -0.50200645
O        3.86207788      -0.21234062       1.04405916
O        1.78019797      -1.63174135       1.54160225
H       -1.05766106       0.05751052       2.14330951
H       -2.35451620      -0.35244667      -1.49168848
H        0.41099665      -0.82161247      -0.93505550
H        1.77100306       0.73534822       1.74932368
H        0.20157491       1.30517991      -1.65659014
H        0.90901981      -1.80152953       1.16060399
17
Properties=species:S:1:pos:R:3 relative_energy_eV=0.998281533626141 branch=right pbc="F F F"
O       -2.50658378       1.15679494       0.70427149
C       -1.69920062       0.31131168       0.39135038
O       -0.95651760      -0.37751543       1.28668763
C       -1.39035144      -0.10025792      -1.04878773
O       -0.51371397      -1.16365054      -1.18428632
C       -0.89048715       1.16639725      -1.75939996
O       -1.60735620       1.93332209      -2.36050042
P        2.37895868      -0.22260082       0.87667954
O        1.73514113      -0.03941732      -0.50407213
O        3.86328707      -0.22049463       1.04815061
O        1.77604136      -1.63024241       1.53829531
H       -1.06007259       0.06422519       2.14262887
H       -2.35427100      -0.35911668      -1.49241812
H        0.41331607      -0.81888264      -0.93590073
H        1.77374760       0.73793215       1.74556559
H        0.19881132       1.30725168      -1.64515334
H        0.90551395      -1.80179822       1.15514340
17
Properties=species:S:1:pos:R:3 relative_energy_eV=0.9977537702834525 branch=right pbc="F F F"
O       -2.53544831       1.13481395       0.69630669
C       -1.70972250       0.30512158       0.38990873
O       -0.95534316      -0.36183287       1.29199034
C       -1.38653467      -0.10637849      -1.04686228
O       -0.50458356      -1.16626422      -1.17196093
C       -0.88425852       1.16394504      -1.75128748
O       -1.59909611       1.93711016      -2.34651253
P        2.38137745      -0.22607915       0.86882038
O        1.74176456      -0.02946128      -0.51238807
O        3.86549912      -0.23010671       1.04336175
O        1.77015958      -1.63623737       1.51668445
H       -1.06422557       0.08765636       2.14253218
H       -2.34636547      -0.36917295      -1.49715099
H        0.42266074      -0.81327613      -0.93244009
H        1.78083389       0.73177912       1.74410446
H        0.20474176       1.30211640      -1.63423333
H        0.88480344      -1.78047532       1.15738102
17
Properties=species:S:1:pos:R:3 relative_energy_eV=0.9974584828560182 branch=right pbc="F F F"
O       -2.54698943       1.12529521       0.69361110
C       -1.71278560       0.30310314       0.38982530
O       -0.95284287      -0.35544089       1.29462180
C       -1.38581217      -0.10752902      -1.04608803
O       -0.50336857      -1.16733354      -1.17096287
C       -0.88217842       1.16375975      -1.74757829
O       -1.59527599       1.93383438      -2.34947191
P        2.38379958      -0.22576107       0.86626082
O        1.73814397      -0.01849347      -0.51065810
O        3.86861180      -0.23986224       1.03357949
O        1.77084758      -1.63630542       1.51030935
H       -1.07166090       0.09120248       2.14585756
H       -2.34340318      -0.36840961      -1.50216835
H        0.42303988      -0.81305222      -0.93234253
H        1.78954424       0.73019126       1.74773498
H        0.20640405       1.30214950      -1.62624541
H        0.88018865      -1.77409020       1.16196958
17
Properties=species:S:1:pos:R:3 relative_energy_eV=0.99733042335356 branch=right pbc="F F F"
O       -2.55620507       1.11857899       0.69172362
C       -1.71560939       0.30183691       0.38984614
O       -0.95121754      -0.34933896       1.29576908
C       -1.38371724      -0.10809059      -1.04546288
O       -0.49928697      -1.16635449      -1.16704795
C       -0.88214620       1.16388455      -1.74724706
O       -1.59748045       1.93112543      -2.35000745
P        2.38532024      -0.22821206       0.86553903
O        1.73881474      -0.01546815      -0.51012275
O        3.87035230      -0.24976823       1.02984467
O        1.76568785      -1.63552918       1.50996129
H       -1.07537234       0.09506727       2.14723470
H       -2.34014476      -0.37138099      -1.50228121
H        0.42712313      -0.80961954      -0.92896209
H        1.79727635       0.73043121       1.74793837
H        0.20571439       1.30688613      -1.62359762
H        0.87715363      -1.77079035       1.15512670
