31
Properties=species:S:1:pos:R:3 relative_energy_eV=0.0 branch=left pbc="F F F"
O       -1.34330802       2.48678584      -0.03035137
C       -1.13841511       1.59016466       0.76291427
C       -1.50137296       0.13357201       0.49620889
O       -2.36096075      -0.32282796       1.53703175
C       -0.28139763      -0.79373533       0.30440317
O        0.56838779       2.28122797       3.75034171
C        0.55702371      -0.57523813      -0.95780894
O        1.11336335       0.73991279      -1.04963774
C       -0.22237067      -0.77768356      -2.25321122
O       -1.06125814       0.33271630      -2.54914130
C        0.72669864      -0.99537018      -3.42409598
O        0.05164844      -0.99053341      -4.67222414
O        1.78752321      -2.08965213       1.60061685
P        0.80297702      -0.97385191       1.79111330
O       -0.07933554      -0.83830775       3.02356886
O       -0.60814313       1.53649890       4.12288795
O        1.69683508       0.48760688       1.69847953
H       -0.70512421       1.81347183       1.75352543
H       -2.08935498       0.10656125      -0.41690363
H       -1.79266510      -0.50387921       2.31142177
H       -0.69800685      -1.80048506       0.22558808
H        1.05474074       1.66645583       3.16864137
H        1.36801943      -1.31249929      -0.94405925
H        1.44744142       0.96265309      -0.16658112
H       -0.88060632      -1.64450152      -2.15393397
H       -0.60026661       1.11024609      -2.19527915
H        1.22081999      -1.96387837      -3.32582210
H        1.50037539      -0.22193128      -3.38942034
H       -0.59858047      -0.27642131      -4.59934035
H       -0.40559127       0.62141870       3.80783350
H        2.62295024       0.22643428       1.76005062
31
Properties=species:S:1:pos:R:3 relative_energy_eV=5.9814032283611596e-05 branch=left pbc="F F F"
O       -1.34521460       2.48669827      -0.03020420
C       -1.13817714       1.59022648       0.76264564
C       -1.50085723       0.13339615       0.49590699
O       -2.35979991      -0.32283281       1.53724248
C       -0.28064125      -0.79358124       0.30425535
O        0.56795808       2.28023517       3.75004897
C        0.55738446      -0.57476527      -0.95796940
O        1.11362413       0.74046225      -1.04950890
C       -0.22249260      -0.77717222      -2.25309882
O       -1.06065146       0.33385324      -2.54925860
C        0.72657037      -0.99563492      -3.42408352
O        0.05074376      -0.99124196      -4.67189685
O        1.78732453      -2.09036130       1.60068356
P        0.80320400      -0.97417083       1.79125713
O       -0.07967365      -0.83759132       3.02323649
O       -0.60983866       1.53660486       4.12118653
O        1.69688674       0.48722600       1.69893212
H       -0.70296515       1.81452625       1.75222050
H       -2.09017095       0.10632121      -0.41665554
H       -1.79144017      -0.50373099       2.31163958
H       -0.69670193      -1.80049449       0.22564227
H        1.05399641       1.66445439       3.16897630
H        1.36843512      -1.31190334      -0.94446745
H        1.44828787       0.96237471      -0.16646002
H       -0.88153548      -1.64354513      -2.15289486
H       -0.59955649       1.11123074      -2.19508325
H        1.22057398      -1.96433164      -3.32500838
H        1.50039563      -0.22198230      -3.39011745
H       -0.59982137      -0.27740064      -4.59851358
H       -0.40710606       0.62090330       3.80762526
H        2.62330570       0.22715747       1.76053802
31
Properties=species:S:1:pos:R:3 relative_energy_eV=0.00011971477215411142 branch=left pbc="F F F"
O       -1.34698432       2.48628885      -0.02987717
C       -1.13790578       1.58990939       0.76245864
C       -1.50052812       0.13356598       0.49588745
O       -2.35888435      -0.32302898       1.53704848
C       -0.28067424      -0.79315987       0.30399047
O        0.56776396       2.27890167       3.74925750
C        0.55756567      -0.57424257      -0.95785040
O        1.11390573       0.74092525      -1.04925911
C       -0.22248700      -0.77649474      -2.25290644
O       -1.06011966       0.33490888      -2.54947341
C        0.72636588      -0.99590968      -3.42409391
O        0.04988391      -0.99203977      -4.67175390
O        1.78733987      -2.09077158       1.60095966
P        0.80310699      -0.97447389       1.79077640
O       -0.07989390      -0.83710950       3.02248875
O       -0.61105815       1.53648669       4.11952804
O        1.69673214       0.48741374       1.69988741
H       -0.70138887       1.81481474       1.75095303
H       -2.09050026       0.10627177      -0.41611345
H       -1.79088344      -0.50296710       2.31194583
H       -0.69569025      -1.80048604       0.22582832
H        1.05334322       1.66259834       3.16830497
H        1.36885188      -1.31128993      -0.94458656
H        1.44923414       0.96209961      -0.16629618
H       -0.88196674      -1.64246966      -2.15220649
H       -0.59884648       1.11191923      -2.19475003
H        1.22032017      -1.96469004      -3.32440604
H        1.50035582      -0.22220307      -3.39043363
H       -0.60077563      -0.27831381      -4.59765958
H       -0.40748779       0.62037437       3.80771189
H        2.62335228       0.22810182       1.76145581
31
Properties=species:S:1:pos:R:3 relative_energy_eV=0.00023069143207976595 branch=left pbc="F F F"
O       -1.34977094       2.48617794      -0.02976670
C       -1.13771188       1.58975867       0.76177827
C       -1.50029405       0.13355254       0.49608591
O       -2.35890289      -0.32383616       1.53650834
C       -0.28047825      -0.79286539       0.30372503
O        0.56763364       2.27688898       3.74790830
C        0.55803327      -0.57328183      -0.95766723
O        1.11418494       0.74197167      -1.04839872
C       -0.22204105      -0.77532288      -2.25253544
O       -1.05912469       0.33620351      -2.54950700
C        0.72558426      -0.99641768      -3.42389306
O        0.04837813      -0.99325248      -4.67101034
O        1.78736811      -2.09087263       1.60159198
P        0.80320491      -0.97436745       1.79019418
O       -0.07985270      -0.83752774       3.02166020
O       -0.61226184       1.53591556       4.11665770
O        1.69652991       0.48791309       1.70156052
H       -0.69888162       1.81395971       1.74911611
H       -2.08967774       0.10643290      -0.41579043
H       -1.79103596      -0.50154278       2.31198577
H       -0.69507820      -1.80041963       0.22563139
H        1.05292507       1.66082228       3.16668499
H        1.36966470      -1.30990855      -0.94429825
H        1.45014816       0.96240327      -0.16551264
H       -0.88176014      -1.64062844      -2.15130135
H       -0.59775832       1.11269946      -2.19400249
H        1.21938922      -1.96500343      -3.32396657
H        1.49986879      -0.22336510      -3.39107222
H       -0.60214995      -0.27953583      -4.59631292
H       -0.40724324       0.61946351       3.80734078
H        2.62315702       0.22891500       1.76342217
31
Properties=species:S:1:pos:R:3 relative_energy_eV=0.0004673774528782815 branch=left pbc="F F F"
O       -1.35519834       2.48671819      -0.02935150
C       -1.13780349       1.58971828       0.76028033
C       -1.49985305       0.13269839       0.49563557
O       -2.35879902      -0.32538998       1.53618591
C       -0.27839339      -0.79261894       0.30422245
O        0.56681620       2.27413854       3.74643210
C        0.55988740      -0.57089250      -0.95715352
O        1.11517754       0.74499757      -1.04659340
C       -0.22099930      -0.77332900      -2.25144150
O       -1.05717655       0.33864846      -2.54864544
C        0.72401466      -0.99744728      -3.42356482
O        0.04426126      -0.99525985      -4.66892744
O        1.78768611      -2.09054226       1.60292571
P        0.80414581      -0.97369823       1.79143131
O       -0.08009237      -0.83832778       3.02221911
O       -0.61646945       1.53606593       4.10991397
O        1.69775240       0.48792931       1.70268904
H       -0.69096227       1.81129519       1.74483739
H       -2.08743739       0.10636905      -0.41758851
H       -1.79023395      -0.50040109       2.31178980
H       -0.69467185      -1.79943227       0.22398766
H        1.05251999       1.65653092       3.16708928
H        1.37169165      -1.30681490      -0.94383167
H        1.45144926       0.96508711      -0.16362308
H       -0.88106729      -1.63819375      -2.14901432
H       -0.59633835       1.11501014      -2.19218814
H        1.21631436      -1.96659360      -3.32348091
H        1.49939023      -0.22578590      -3.39365066
H       -0.60645841      -0.28176458      -4.59391824
H       -0.41115815       0.61827602       3.80437760
H        2.62405237       0.22793890       1.76577203
31
Properties=species:S:1:pos:R:3 relative_energy_eV=0.0006526407451019622 branch=left pbc="F F F"
O       -1.35814184       2.48663957      -0.02817509
C       -1.13759279       1.58898544       0.75973941
C       -1.49958438       0.13258887       0.49490633
O       -2.35794222      -0.32515133       1.53597745
C       -0.27773617      -0.79197609       0.30480979
O        0.56617397       2.27264975       3.74599604
C        0.56114230      -0.56945250      -0.95619829
O        1.11601494       0.74672982      -1.04566912
C       -0.22049555      -0.77237974      -2.25031378
O       -1.05623396       0.34010771      -2.54781437
C        0.72340832      -0.99793650      -3.42358299
O        0.04136030      -0.99631392      -4.66806792
O        1.78869681      -2.09014087       1.60365025
P        0.80438774      -0.97393218       1.79248466
O       -0.08044249      -0.83845473       3.02317109
O       -0.62014151       1.53696326       4.10587432
O        1.69925072       0.48746580       1.70169627
H       -0.68586083       1.80986952       1.74195514
H       -2.08638964       0.10563789      -0.41923149
H       -1.78952722      -0.50039274       2.31177602
H       -0.69408316      -1.79853770       0.22297206
H        1.05245505       1.65346069       3.16852901
H        1.37320771      -1.30526298      -0.94380332
H        1.45211424       0.96732408      -0.16262357
H       -0.88075280      -1.63756691      -2.14750524
H       -0.59577713       1.11669357      -2.19114930
H        1.21430263      -1.96811945      -3.32323350
H        1.49974021      -0.22664182      -3.39558643
H       -0.60949192      -0.28285054      -4.59286831
H       -0.41530215       0.61820858       3.80239112
H        2.62528748       0.22671557       1.76670976
31
Properties=species:S:1:pos:R:3 relative_energy_eV=0.000822611189505551 branch=left pbc="F F F"
O       -1.36062871       2.48663770      -0.02671375
C       -1.13669296       1.58816984       0.75914335
C       -1.49920124       0.13283829       0.49406265
O       -2.35788319      -0.32386599       1.53477717
C       -0.27779027      -0.79133195       0.30501691
O        0.56579933       2.27128550       3.74575023
C        0.56212394      -0.56848897      -0.95516014
O        1.11618358       0.74789520      -1.04478130
C       -0.21988535      -0.77155598      -2.24915370
O       -1.05549642       0.34109717      -2.54688264
C        0.72285014      -0.99826068      -3.42364679
O        0.03901436      -0.99715616      -4.66754699
O        1.79022379      -2.08967932       1.60405954
P        0.80431281      -0.97472482       1.79274904
O       -0.08020360      -0.83948773       3.02383714
O       -0.62240860       1.53730510       4.10326969
O        1.70008574       0.48662905       1.70127703
H       -0.68251574       1.80940112       1.73964401
H       -2.08599871       0.10402145      -0.41995062
H       -1.79065583      -0.50028685       2.31109132
H       -0.69280452      -1.79813467       0.22241247
H        1.05287214       1.65242273       3.16870776
H        1.37489252      -1.30388564      -0.94347775
H        1.45186999       0.96919007      -0.16171422
H       -0.88039030      -1.63663570      -2.14571878
H       -0.59510502       1.11776980      -2.19032695
H        1.21261899      -1.96915925      -3.32299983
H        1.50018004      -0.22753596      -3.39757113
H       -0.61160254      -0.28347619      -4.59201714
H       -0.41761102       0.61841259       3.80050253
H        2.62589329       0.22552036       1.76817681
31
Properties=species:S:1:pos:R:3 relative_energy_eV=0.0010816410940606147 branch=left pbc="F F F"
O       -1.36449242       2.48780258      -0.02536711
C       -1.13522909       1.58814706       0.75753925
C       -1.49831210       0.13261514       0.49272829
O       -2.35924707      -0.32245500       1.53212095
C       -0.27666459      -0.79124409       0.30508064
O        0.56535552       2.27009124       3.74575829
C        0.56370902      -0.56718848      -0.95440349
O        1.11558465       0.74986213      -1.04345068
C       -0.21869867      -0.77011606      -2.24790326
O       -1.05439240       0.34229442      -2.54537713
C        0.72164607      -0.99880594      -3.42368052
O        0.03600835      -0.99824450      -4.66645537
O        1.79206444      -2.08927308       1.60438316
P        0.80479988      -0.97561638       1.79323433
O       -0.07920787      -0.84227204       3.02469067
O       -0.62356813       1.53672787       4.10049376
O        1.70024721       0.48517028       1.70336698
H       -0.67775073       1.80942791       1.73647584
H       -2.08603280       0.10109435      -0.42024925
H       -1.79397909      -0.50007408       2.30906258
H       -0.69041396      -1.79825803       0.22152543
H        1.05355860       1.65297878       3.16812970
H        1.37757430      -1.30130628      -0.94236123
H        1.45046819       0.97162834      -0.16028513
H       -0.87979056      -1.63406976      -2.14219798
H       -0.59392857       1.11886089      -2.18896567
H        1.21003334      -1.97007046      -3.32251738
H        1.50051641      -0.22983232      -3.40096824
H       -0.61425979      -0.28438937      -4.59027246
H       -0.41925836       0.61839124       3.79621739
H        2.62570678       0.22305371       1.77046345
31
Properties=species:S:1:pos:R:3 relative_energy_eV=0.001309373605181463 branch=left pbc="F F F"
O       -1.36682655       2.48924161      -0.02534590
C       -1.13491132       1.58903358       0.75627624
C       -1.49765101       0.13206622       0.49205236
O       -2.36024014      -0.32222302       1.53081442
C       -0.27492414      -0.79183793       0.30531037
O        0.56494400       2.27035230       3.74638197
C        0.56487303      -0.56624103      -0.95444817
O        1.11518551       0.75152281      -1.04287736
C       -0.21805310      -0.76918641      -2.24748287
O       -1.05385682       0.34305447      -2.54450235
C        0.72076446      -0.99927233      -3.42377862
O        0.03418454      -0.99880933      -4.66568556
O        1.79271857      -2.08976772       1.60439522
P        0.80580816      -0.97600519       1.79398731
O       -0.07883230      -0.84380878       3.02490063
O       -0.62392604       1.53635824       4.09897858
O        1.70024040       0.48445778       1.70585477
H       -0.67416550       1.80948443       1.73438408
H       -2.08593501       0.09964854      -0.42052882
H       -1.79571060      -0.50053216       2.30774370
H       -0.68889872      -1.79886112       0.22091438
H        1.05356520       1.65342142       3.16878464
H        1.37925362      -1.29944664      -0.94157797
H        1.44933765       0.97302350      -0.15944875
H       -0.87949890      -1.63234069      -2.13970618
H       -0.59331942       1.11949910      -2.18804583
H        1.20847905      -1.97060147      -3.32217116
H        1.50053606      -0.23153025      -3.40310223
H       -0.61600852      -0.28497642      -4.58889404
H       -0.42046985       0.61837532       3.79260424
H        2.62538421       0.22083134       1.77102870
31
Properties=species:S:1:pos:R:3 relative_energy_eV=0.0015812121127964929 branch=left pbc="F F F"
O       -1.36909773       2.49053253      -0.02596678
C       -1.13538717       1.59018937       0.75509661
C       -1.49698053       0.13181128       0.49195597
O       -2.36076794      -0.32133941       1.53053173
C       -0.27327245      -0.79280465       0.30585970
O        0.56423613       2.27162923       3.74829567
C        0.56609430      -0.56502402      -0.95430983
O        1.11518616       0.75362689      -1.04236243
C       -0.21777948      -0.76856013      -2.24695113
O       -1.05350214       0.34394303      -2.54381490
C        0.71980690      -1.00007971      -3.42411439
O        0.03152573      -0.99952350      -4.66513703
O        1.79360936      -2.09199373       1.60376115
P        0.80738364      -0.97744915       1.79437174
O       -0.07978269      -0.84444176       3.02335690
O       -0.62582188       1.53696024       4.09697802
O        1.70105267       0.48372576       1.70809496
H       -0.67031500       1.80956326       1.73164120
H       -2.08405878       0.09940587      -0.42154673
H       -1.79672069      -0.50263482       2.30708089
H       -0.68697771      -1.80046257       0.22096216
H        1.05332565       1.65366026       3.17178312
H        1.38142978      -1.29711216      -0.94126528
H        1.44782016       0.97467830      -0.15824077
H       -0.87928453      -1.63159256      -2.13716708
H       -0.59272105       1.12028865      -2.18728150
H        1.20734292      -1.97164514      -3.32211185
H        1.50017601      -0.23279252      -3.40474056
H       -0.61794698      -0.28503825      -4.58736800
H       -0.42227421       0.61931635       3.78887867
H        2.62574808       0.21809325       1.77054560
31
Properties=species:S:1:pos:R:3 relative_energy_eV=0.0019820289380731992 branch=left pbc="F F F"
O       -1.37184732       2.49018993      -0.02650288
C       -1.13518968       1.59021886       0.75408214
C       -1.49620017       0.13208616       0.49212473
O       -2.36124830      -0.31931280       1.53021053
C       -0.27292426      -0.79320054       0.30613828
O        0.56340435       2.27257180       3.75061440
C        0.56702951      -0.56385004      -0.95340840
O        1.11492674       0.75553684      -1.04089644
C       -0.21752508      -0.76837185      -2.24582371
O       -1.05262385       0.34473294      -2.54340156
C        0.71872384      -1.00121104      -3.42430152
O        0.02796020      -1.00066138      -4.66440235
O        1.79483927      -2.09440407       1.60239520
P        0.80808142      -0.97990730       1.79358970
O       -0.08183344      -0.84553909       3.02058057
O       -0.62870610       1.53778928       4.09438352
O        1.70246328       0.48186185       1.70975921
H       -0.66741717       1.81033748       1.72859541
H       -2.08028037       0.10009365      -0.42315579
H       -1.79840103      -0.50541189       2.30680270
H       -0.68453605      -1.80197497       0.22173909
H        1.05391086       1.65509385       3.17501125
H        1.38423383      -1.29412294      -0.94168843
H        1.44584522       0.97691446      -0.15612087
H       -0.87908183      -1.63159234      -2.13497483
H       -0.59173788       1.12106894      -2.18674379
H        1.20641440      -1.97307986      -3.32260023
H        1.49920304      -0.23360265      -3.40578301
H       -0.61966386      -0.28447762      -4.58584069
H       -0.42294530       0.62099457       3.78585466
H        2.62717231       0.21616000       1.77057892
31
Properties=species:S:1:pos:R:3 relative_energy_eV=0.0024632366694277152 branch=left pbc="F F F"
O       -1.37497943       2.48782421      -0.02755706
C       -1.13352791       1.58919062       0.75308943
C       -1.49495064       0.13193807       0.49194516
O       -2.36156519      -0.31889310       1.52881741
C       -0.27258815      -0.79274700       0.30588176
O        0.56236703       2.27354171       3.75258709
C        0.56762572      -0.56299790      -0.95253159
O        1.11347398       0.75716435      -1.03833876
C       -0.21705343      -0.76851593      -2.24466135
O       -1.05087173       0.34506601      -2.54368665
C        0.71754687      -1.00248249      -3.42386835
O        0.02474686      -1.00191803      -4.66279696
O        1.79418181      -2.09509174       1.60071989
P        0.80712959      -0.98124284       1.79297018
O       -0.08420509      -0.84813264       3.01911545
O       -0.62978245       1.53743378       4.09214653
O        1.70366717       0.47867081       1.71314431
H       -0.66517886       1.81254854       1.72617952
H       -2.07654122       0.10149500      -0.42478068
H       -1.80036048      -0.50768120       2.30615127
H       -0.68248643      -1.80171756       0.22209403
H        1.05519438       1.65830643       3.17740814
H        1.38682049      -1.29092159      -0.94293359
H        1.44385254       0.97929053      -0.15349414
H       -0.87922939      -1.63126436      -2.13362664
H       -0.59070963       1.12147008      -2.18624823
H        1.20526673      -1.97436455      -3.32352031
H        1.49751610      -0.23447892      -3.40622360
H       -0.62091305      -0.28397787      -4.58408477
H       -0.42176252       0.62200864       3.78232315
H        2.62936293       0.21540914       1.77059517
31
Properties=species:S:1:pos:R:3 relative_energy_eV=0.0033209152898052707 branch=left pbc="F F F"
O       -1.37845537       2.48418583      -0.03067229
C       -1.13134714       1.58886963       0.75224086
C       -1.49207325       0.13081208       0.49112457
O       -2.36014325      -0.32293438       1.52556477
C       -0.26935018      -0.79236833       0.30592784
O        0.56000290       2.27667540       3.75574029
C        0.56884768      -0.56166300      -0.95273167
O        1.11072060       0.76049993      -1.03563174
C       -0.21679050      -0.76853281      -2.24417546
O       -1.04920185       0.34513513      -2.54481134
C        0.71606815      -1.00395414      -3.42316372
O        0.02154608      -1.00325542      -4.66028526
O        1.78949035      -2.09614792       1.59934079
P        0.80646756      -0.98029704       1.79512157
O       -0.08611108      -0.85107577       3.02069674
O       -0.62966980       1.53676417       4.08978097
O        1.70568354       0.47654241       1.71997304
H       -0.65999994       1.81657690       1.72412089
H       -2.07444136       0.10357321      -0.42560505
H       -1.79966171      -0.51056402       2.30331201
H       -0.68185895      -1.79970436       0.22054021
H        1.05641161       1.66161472       3.18289047
H        1.38910780      -1.28793396      -0.94482258
H        1.44165152       0.98135863      -0.15071562
H       -0.88017211      -1.63005497      -2.13251443
H       -0.59005495       1.12115916      -2.18540520
H        1.20340343      -1.97572022      -3.32467762
H        1.49524795      -0.23573961      -3.40646378
H       -0.62268116      -0.28403784      -4.58104668
H       -0.42272496       0.62207097       3.77570652
H        2.63213502       0.21307586       1.76745671
31
Properties=species:S:1:pos:R:3 relative_energy_eV=0.004461077871383168 branch=left pbc="F F F"
O       -1.38016019       2.48148261      -0.03279743
C       -1.13007041       1.58947717       0.75298557
C       -1.48855118       0.13142874       0.49075257
O       -2.35722436      -0.32538970       1.52230006
C       -0.26686218      -0.79273260       0.30629397
O        0.55681072       2.27797216       3.75957719
C        0.57007716      -0.56022014      -0.95292288
O        1.10938761       0.76370225      -1.03443766
C       -0.21743604      -0.76864602      -2.24389112
O       -1.05003155       0.34486030      -2.54504960
C        0.71483457      -1.00471273      -3.42351608
O        0.01758581      -1.00468013      -4.65931368
O        1.78631387      -2.10167622       1.60012938
P        0.80865884      -0.98082141       1.79658497
O       -0.08428168      -0.84951970       3.02189589
O       -0.63644298       1.53994257       4.08528952
O        1.70957405       0.47831694       1.71933405
H       -0.65515063       1.81983985       1.72316085
H       -2.07310643       0.10506634      -0.42425538
H       -1.79532680      -0.51469601       2.29792498
H       -0.68334721      -1.79881213       0.21887274
H        1.05976852       1.66225459       3.19200105
H        1.39064055      -1.28669162      -0.94572537
H        1.43915428       0.98194098      -0.14817870
H       -0.88074451      -1.63039784      -2.13164327
H       -0.58923743       1.11977850      -2.18540101
H        1.20260312      -1.97658742      -3.32587751
H        1.49364587      -0.23543148      -3.40633432
H       -0.62393601      -0.28302627      -4.57871161
H       -0.42977833       0.62376278       3.77429803
H        2.63467959       0.20914596       1.76347063
31
Properties=species:S:1:pos:R:3 relative_energy_eV=0.006080657098209485 branch=left pbc="F F F"
O       -1.38088503       2.48205656      -0.03309236
C       -1.12829534       1.59049550       0.75245578
C       -1.48627292       0.13340876       0.49051899
O       -2.35348521      -0.32741463       1.52046778
C       -0.26707060      -0.79240107       0.30539424
O        0.55289728       2.27794506       3.76373435
C        0.57032003      -0.55955382      -0.95259701
O        1.10926627       0.76414314      -1.03353841
C       -0.21802674      -0.76914707      -2.24301020
O       -1.05135707       0.34419894      -2.54402863
C        0.71328800      -1.00518168      -3.42406169
O        0.01317007      -1.00553385      -4.65885546
O        1.78478570      -2.10857977       1.60464813
P        0.81017059      -0.98318760       1.79537040
O       -0.07867774      -0.84332985       3.02282412
O       -0.64919643       1.54441893       4.07775753
O        1.71312204       0.47637356       1.71407668
H       -0.65204488       1.82275456       1.72029805
H       -2.06982939       0.10690413      -0.42401360
H       -1.78865931      -0.52264057       2.29254880
H       -0.68451065      -1.79790425       0.21723634
H        1.06648415       1.66256469       3.20566538
H        1.39237186      -1.28433056      -0.94639031
H        1.43552718       0.98262858      -0.14570700
H       -0.88068519      -1.63147963      -2.12973785
H       -0.58894620       1.11890759      -2.18613459
H        1.20231256      -1.97674711      -3.32643650
H        1.49199099      -0.23512329      -3.40700796
H       -0.62526300      -0.28125290      -4.57687666
H       -0.43833178       0.62662329       3.77610850
H        2.63787746       0.20531472       1.75919905
31
Properties=species:S:1:pos:R:3 relative_energy_eV=0.009527446352876723 branch=left pbc="F F F"
O       -1.38055812       2.48902799      -0.03360333
C       -1.12596313       1.59410740       0.74796032
C       -1.48548634       0.13476083       0.48967862
O       -2.34415817      -0.33681168       1.52210631
C       -0.26621137      -0.79046447       0.30337652
O        0.54511265       2.28133003       3.77062045
C        0.57079084      -0.55923157      -0.95353330
O        1.11054080       0.76278449      -1.03537073
C       -0.21831169      -0.76905181      -2.24231162
O       -1.05293765       0.34343628      -2.54264508
C        0.71104519      -1.00539835      -3.42429907
O        0.01039895      -1.00390134      -4.65839901
O        1.77836200      -2.11464282       1.61581170
P        0.80941210      -0.98324114       1.79604631
O       -0.07081012      -0.83044080       3.02803778
O       -0.66477224       1.55002473       4.06836355
O        1.71710113       0.46754353       1.71335717
H       -0.64386854       1.82564473       1.71171505
H       -2.06729400       0.10922902      -0.42628178
H       -1.77281226      -0.53912900       2.28859117
H       -0.68364514      -1.79497752       0.21310978
H        1.07061644       1.65777552       3.23492252
H        1.39444636      -1.28093325      -0.94838634
H        1.43196439       0.98421453      -0.14677052
H       -0.88079228      -1.63084166      -2.12543952
H       -0.59277755       1.12023700      -2.18649936
H        1.20036687      -1.97646161      -3.32503415
H        1.49060479      -0.23701664      -3.41016023
H       -0.62998284      -0.28172064      -4.57365790
H       -0.45065954       0.63123899       3.77014323
H        2.64232527       0.19783960       1.74536745
31
Properties=species:S:1:pos:R:3 relative_energy_eV=0.013115643319906667 branch=left pbc="F F F"
O       -1.38011241       2.49427511      -0.03541343
C       -1.12602487       1.59727094       0.74433908
C       -1.48569836       0.13423203       0.48849071
O       -2.33642991      -0.34597790       1.52456172
C       -0.26331288      -0.78883618       0.30318118
O        0.53858379       2.28587947       3.77479917
C        0.57240292      -0.55821680      -0.95498779
O        1.11210065       0.76364006      -1.03905308
C       -0.21837254      -0.76770092      -2.24244402
O       -1.05386977       0.34387645      -2.54292673
C        0.71028113      -1.00531571      -3.42407275
O        0.01150271      -1.00164791      -4.65850268
O        1.77055683      -2.11580343       1.62302519
P        0.80772618      -0.98018667       1.80075358
O       -0.07084292      -0.82382999       3.03353537
O       -0.66728098       1.55112492       4.06602072
O        1.71891791       0.46368739       1.72031474
H       -0.63550461       1.82635434       1.70530814
H       -2.06950575       0.10946527      -0.42814154
H       -1.76092207      -0.54987833       2.28805930
H       -0.68204098      -1.79282711       0.20949443
H        1.06846933       1.65236268       3.25465368
H        1.39521930      -1.28080793      -0.95017244
H        1.43174489       0.98564740      -0.15052449
H       -0.88141572      -1.62856083      -2.12265112
H       -0.59758471       1.12247978      -2.18572392
H        1.19775873      -1.97691924      -3.32282079
H        1.49134035      -0.23938186      -3.41253192
H       -0.63455774      -0.28475199      -4.57108774
H       -0.45458537       0.63363626       3.75869358
H        2.64350372       0.19164109       1.73263986
31
Properties=species:S:1:pos:R:3 relative_energy_eV=0.018142370048735756 branch=left pbc="F F F"
O       -1.38136105       2.49456362      -0.03748244
C       -1.12702521       1.59764545       0.74232235
C       -1.48598345       0.13375611       0.48755592
O       -2.32917422      -0.34762128       1.52899855
C       -0.26004814      -0.78592757       0.30414154
O        0.52864693       2.28819695       3.77632424
C        0.57626978      -0.55476324      -0.95588656
O        1.11829094       0.76704063      -1.04583320
C       -0.21812971      -0.76373695      -2.24217028
O       -1.05597661       0.34618349      -2.54408790
C        0.71096378      -1.00446734      -3.42369822
O        0.01455271      -0.99948433      -4.65988133
O        1.76002263      -2.11707961       1.63120358
P        0.80402256      -0.97599661       1.80762579
O       -0.08368644      -0.82161977       3.03458993
O       -0.66672747       1.54810716       4.06692609
O        1.72023298       0.46693119       1.72903603
H       -0.62609864       1.82442998       1.70025278
H       -2.07597217       0.10512333      -0.42669637
H       -1.74713215      -0.56228155       2.28570187
H       -0.67812616      -1.79146345       0.20833201
H        1.07079433       1.64857854       3.27430217
H        1.39473528      -1.28440356      -0.95197962
H        1.43438673       0.99133639      -0.15716499
H       -0.88096819      -1.62493156      -2.12063371
H       -0.60463136       1.12649190      -2.18451460
H        1.19280908      -1.97906598      -3.31941878
H        1.49591990      -0.24202452      -3.41307450
H       -0.64053628      -0.29101387      -4.56917470
H       -0.44996183       0.63853223       3.74290644
H        2.64193824       0.18389466       1.71829394
31
Properties=species:S:1:pos:R:3 relative_energy_eV=0.027248893959040288 branch=left pbc="F F F"
O       -1.38522342       2.49013967      -0.03639065
C       -1.12324947       1.59407551       0.74153277
C       -1.48511180       0.13445738       0.48976143
O       -2.32064028      -0.33474876       1.54008743
C       -0.25836400      -0.78112655       0.30290534
O        0.51627746       2.28777740       3.77793848
C        0.58050465      -0.55059455      -0.95663375
O        1.13158621       0.76745490      -1.05416382
C       -0.21704802      -0.75841636      -2.24128075
O       -1.06037506       0.34807595      -2.54310954
C        0.71133075      -1.00225364      -3.42386366
O        0.01575351      -0.99751777      -4.66153050
O        1.74858071      -2.12234706       1.64657316
P        0.79957817      -0.97269777       1.80764475
O       -0.10138507      -0.81633449       3.02523071
O       -0.68200407       1.55039389       4.06311533
O        1.72444246       0.46807007       1.72518963
H       -0.61545513       1.81984089       1.69581735
H       -2.08112795       0.09640674      -0.41945923
H       -1.72442508      -0.58323003       2.27616154
H       -0.67007720      -1.78968218       0.21261076
H        1.08067963       1.64327011       3.31032790
H        1.39308619      -1.28813530      -0.95408877
H        1.43871699       1.00390276      -0.16587312
H       -0.87681604      -1.62184954      -2.11847319
H       -0.61398435       1.13146935      -2.18488752
H        1.18536762      -1.98094037      -3.31684636
H        1.50199188      -0.24444138      -3.41219879
H       -0.64876001      -0.29838275      -4.56879971
H       -0.45499934       0.64944958       3.73057005
H        2.64319696       0.17284485       1.69894889
31
Properties=species:S:1:pos:R:3 relative_energy_eV=0.03891758232930442 branch=left pbc="F F F"
O       -1.38880353       2.48624599      -0.03294621
C       -1.11470766       1.59101374       0.74181101
C       -1.48168065       0.13462682       0.49518829
O       -2.31451938      -0.31762240       1.55453775
C       -0.25616211      -0.77878238       0.29961496
O        0.51299421       2.29530129       3.78451752
C        0.58096967      -0.55057537      -0.95927973
O        1.14241194       0.76212041      -1.05842139
C       -0.21551558      -0.75647678      -2.24219072
O       -1.06437664       0.34607801      -2.53942785
C        0.70966262      -0.99975391      -3.42465685
O        0.01371651      -0.99606015      -4.66084064
O        1.74233470      -2.12701262       1.66071950
P        0.80091859      -0.96933976       1.79733422
O       -0.10416340      -0.80730953       3.01101720
O       -0.70347390       1.56550207       4.05358135
O        1.73275214       0.45827103       1.70755956
H       -0.60612513       1.81503977       1.69555113
H       -2.07997980       0.09025042      -0.40981535
H       -1.70246035      -0.59958513       2.26501282
H       -0.66283662      -1.78799509       0.21971495
H        1.07840771       1.63060286       3.34978065
H        1.39116098      -1.28791438      -0.95554288
H        1.44278478       1.01409642      -0.17183075
H       -0.87075126      -1.62133495      -2.11749261
H       -0.62001941       1.13292495      -2.18715380
H        1.18028775      -1.97916546      -3.31876189
H        1.50262314      -0.24544079      -3.41175054
H       -0.65484157      -0.30139096      -4.57018961
H       -0.48776843       0.65440035       3.72933930
H        2.64920784       0.16421611       1.68183705
31
Properties=species:S:1:pos:R:3 relative_energy_eV=0.05379603227629559 branch=left pbc="F F F"
O       -1.38959571       2.48234770      -0.03511045
C       -1.11575235       1.58852687       0.74176429
C       -1.48439370       0.13184141       0.49969030
O       -2.31256086      -0.31981816       1.56333551
C       -0.25410082      -0.77515867       0.30025873
O        0.51460715       2.30567463       3.78010097
C        0.58031031      -0.54675408      -0.96155744
O        1.15093034       0.76275266      -1.06485143
C       -0.21581708      -0.75293653      -2.24443578
O       -1.06554497       0.34851734      -2.54193125
C        0.71051761      -0.99967867      -3.42423306
O        0.01921573      -0.99358058      -4.66230508
O        1.73834574      -2.12206809       1.65890246
P        0.79839038      -0.96508070       1.79904939
O       -0.11724648      -0.80647103       3.00577355
O       -0.69223167       1.55948600       4.06420267
O        1.72961714       0.45507207       1.72992690
H       -0.59655359       1.81085693       1.69228891
H       -2.08355632       0.08584247      -0.40468202
H       -1.69204849      -0.59759487       2.26850639
H       -0.65508928      -1.78770626       0.22292746
H        1.08864602       1.63226606       3.35764908
H        1.38703458      -1.28657968      -0.95835163
H        1.45296875       1.02035834      -0.18047825
H       -0.87041851      -1.61783257      -2.11998194
H       -0.62518478       1.13505571      -2.18409666
H        1.17819657      -1.98016721      -3.31786703
H        1.50700768      -0.25031684      -3.41007215
H       -0.66001522      -0.30924121      -4.56918658
H       -0.51922749       0.64662176       3.71483179
H        2.64559641       0.16069589       1.66674873
31
Properties=species:S:1:pos:R:3 relative_energy_eV=0.09958198572712718 branch=left pbc="F F F"
O       -1.37641806       2.47950901      -0.02392165
C       -1.09772950       1.58474344       0.74941042
C       -1.47653894       0.12833352       0.51503911
O       -2.27968954      -0.33645010       1.59190636
C       -0.24313175      -0.77195632       0.30122938
O        0.49551556       2.26392794       3.79024500
C        0.57991790      -0.54840767      -0.97010200
O        1.15340475       0.76111818      -1.08497877
C       -0.22201716      -0.75843178      -2.25148096
O       -1.07515462       0.34276087      -2.54538454
C        0.70813346      -0.99725778      -3.43409800
O        0.01872905      -0.98297263      -4.67448593
O        1.74645313      -2.11966832       1.63489769
P        0.81721106      -0.95514327       1.80144149
O       -0.09403073      -0.76897725       3.00954746
O       -0.76203651       1.63320935       4.09894786
O        1.77339482       0.44957773       1.74096269
H       -0.54545978       1.80772462       1.67917595
H       -2.08816549       0.08570536      -0.38298059
H       -1.63984682      -0.57940134       2.29778418
H       -0.63648865      -1.78867150       0.23190235
H        1.04193889       1.54036425       3.42852678
H        1.38400829      -1.29174858      -0.97267684
H        1.48608409       1.00745787      -0.21020386
H       -0.87506828      -1.62690401      -2.13194988
H       -0.63651909       1.12675220      -2.17973075
H        1.18223211      -1.97661488      -3.33315518
H        1.50215284      -0.24478436      -3.41440137
H       -0.67659078      -0.31717736      -4.56732592
H       -0.68565273       0.73472537       3.69710888
H        2.67341058       0.13358816       1.59556740
31
Properties=species:S:1:pos:R:3 relative_energy_eV=0.11886516393860802 branch=left pbc="F F F"
O       -1.37977110       2.47569525      -0.03050919
C       -1.10874313       1.58266812       0.74773434
C       -1.48585687       0.12715092       0.51388930
O       -2.28774371      -0.34003056       1.58890253
C       -0.24717601      -0.76817246       0.30342460
O        0.50089552       2.27382767       3.77447171
C        0.58024286      -0.54068502      -0.96696826
O        1.16248259       0.76675421      -1.08705464
C       -0.22207850      -0.75169296      -2.24983946
O       -1.07288045       0.35013104      -2.54980416
C        0.71135679      -0.99900379      -3.43093224
O        0.02652522      -0.98305809      -4.67470087
O        1.74300546      -2.11415758       1.63401060
P        0.80330607      -0.95867716       1.80879947
O       -0.12356212      -0.78059326       3.00733368
O       -0.72367815       1.59349804       4.10688768
O        1.75707927       0.45437274       1.77615777
H       -0.55303623       1.80531619       1.67575589
H       -2.09268262       0.08155788      -0.38836053
H       -1.64971112      -0.57864103       2.29916342
H       -0.63360255      -1.78910804       0.23105061
H        1.08305527       1.58299820       3.40249203
H        1.38021500      -1.28925104      -0.97211348
H        1.48761869       1.01672337      -0.21144813
H       -0.87624196      -1.62050765      -2.13196959
H       -0.63815688       1.13253031      -2.17571794
H        1.18043344      -1.98141015      -3.32519561
H        1.51141840      -0.25259892      -3.41063183
H       -0.67635324      -0.32525293      -4.56584432
H       -0.65727768       0.70329418       3.68422862
H        2.65296535       0.14125337       1.60360439
31
Properties=species:S:1:pos:R:3 relative_energy_eV=0.13679297464113915 branch=left pbc="F F F"
O       -1.36977464       2.48004421      -0.01629124
C       -1.08772333       1.58252406       0.75234681
C       -1.47201112       0.12768133       0.52122738
O       -2.26504313      -0.34117689       1.60428634
C       -0.23886633      -0.77134189       0.30122948
O        0.47955500       2.23668512       3.79887698
C        0.57896286      -0.55084116      -0.97317674
O        1.15282912       0.75882817      -1.09206424
C       -0.22491481      -0.76281522      -2.25396681
O       -1.07948385       0.33844695      -2.54527135
C        0.70634573      -0.99601479      -3.43934306
O        0.01589121      -0.97905142      -4.67952944
O        1.75298149      -2.12096998       1.62522493
P        0.82709376      -0.95404396       1.79953766
O       -0.07710856      -0.74843980       3.01157794
O       -0.80729959       1.67380117       4.10907255
O        1.79539845       0.44574180       1.73443186
H       -0.52521240       1.80826902       1.67403382
H       -2.08748711       0.08768099      -0.37527548
H       -1.61744915      -0.57354914       2.30996790
H       -0.62996593      -1.78922567       0.23605174
H        1.02622930       1.49312223       3.46028268
H        1.38388919      -1.29342306      -0.97856810
H        1.49797503       0.99998538      -0.22067570
H       -0.87692454      -1.63357429      -2.13654733
H       -0.63987638       1.12236984      -2.17917068
H        1.18520644      -1.97419488      -3.34110748
H        1.49788377      -0.24031325      -3.41715173
H       -0.68305439      -0.31721328      -4.56723472
H       -0.75540602       0.78407372       3.69729708
H        2.68940858       0.12186544       1.56674596
31
Properties=species:S:1:pos:R:3 relative_energy_eV=0.15350510577263776 branch=left pbc="F F F"
O       -1.35942409       2.48704671      -0.00024618
C       -1.06266991       1.58652739       0.75911111
C       -1.45097760       0.13079959       0.52751128
O       -2.23836445      -0.33559436       1.61882334
C       -0.22881928      -0.77937390       0.29877998
O        0.46399148       2.20235400       3.83517493
C        0.57921998      -0.56520160      -0.98023581
O        1.13713243       0.74927942      -1.09419470
C       -0.22719179      -0.77751653      -2.25753214
O       -1.08773551       0.32210826      -2.53696619
C        0.69872064      -0.99192047      -3.44852494
O       -0.00127994      -0.97628456      -4.68285519
O        1.76403185      -2.13345722       1.62055747
P        0.86051499      -0.94760814       1.78455778
O       -0.01227138      -0.70997067       3.01528467
O       -0.89253138       1.77187589       4.09243888
O        1.84238553       0.43451867       1.66247241
H       -0.49603252       1.81168966       1.67815761
H       -2.07856498       0.09629630      -0.35986906
H       -1.58317955      -0.57230326       2.31440719
H       -0.63186917      -1.79139048       0.24096049
H        0.92777067       1.39062526       3.53642369
H        1.39095532      -1.30055843      -0.98340472
H        1.50221244       0.97725596      -0.22556744
H       -0.87525438      -1.65029466      -2.14008669
H       -0.63855665       1.10756682      -2.18669466
H        1.19083028      -1.96346800      -3.36179089
H        1.47742412      -0.22300802      -3.42598205
H       -0.68766838      -0.30200386      -4.57011550
H       -0.86840468       0.86749784       3.72388831
H        2.73765598       0.09944296       1.53233484
31
Properties=species:S:1:pos:R:3 relative_energy_eV=0.15876473754178733 branch=left pbc="F F F"
O       -1.35393630       2.49208096       0.00893677
C       -1.04873974       1.59106459       0.76429169
C       -1.43645809       0.13460101       0.53037080
O       -2.22194783      -0.32721708       1.62638744
C       -0.22327153      -0.78659753       0.29820316
O        0.45743390       2.18480325       3.86207287
C        0.58051547      -0.57382201      -0.98335481
O        1.12727870       0.74463866      -1.09453178
C       -0.22841210      -0.78668328      -2.25814476
O       -1.09353195       0.31116407      -2.53053059
C        0.69304310      -0.98924773      -3.45376669
O       -0.01411409      -0.97576166      -4.68402590
O        1.77153322      -2.14423326       1.62028856
P        0.88310427      -0.94528480       1.77339543
O        0.03011772      -0.68475528       3.01468396
O       -0.93221504       1.83218875       4.06928489
O        1.87122915       0.42693555       1.60754587
H       -0.48014048       1.81329482       1.68373970
H       -2.07127975       0.10217497      -0.35148359
H       -1.56366655      -0.57512556       2.31331586
H       -0.63627156      -1.79526966       0.24404870
H        0.85729258       1.33528112       3.58702947
H        1.39640147      -1.30596940      -0.98498559
H        1.50047637       0.96243884      -0.22537061
H       -0.87279048      -1.66165915      -2.14157432
H       -0.63565857       1.09717789      -2.19298845
H        1.19469971      -1.95604281      -3.37523148
H        1.46305701      -0.21155048      -3.43174056
H       -0.68899116      -0.28974649      -4.57262185
H       -0.94185715       0.90980889       3.74750059
H        2.76915073       0.08624320       1.51607368
31
Properties=species:S:1:pos:R:3 relative_energy_eV=0.16087498929846333 branch=left pbc="F F F"
O       -1.35142245       2.49489520       0.01364196
C       -1.04239405       1.59387917       0.76713439
C       -1.42895991       0.13722097       0.53162639
O       -2.21373893      -0.32073271       1.63031091
C       -0.22109253      -0.79103181       0.29840310
O        0.45214563       2.17558035       3.87756391
C        0.58138874      -0.57781607      -0.98422481
O        1.12295359       0.74272236      -1.09453379
C       -0.22909228      -0.79133977      -2.25772485
O       -1.09674956       0.30542298      -2.52669855
C        0.68981362      -0.98791126      -3.45633360
O       -0.02150461      -0.97590112      -4.68434559
O        1.77608210      -2.15096080       1.62102981
P        0.89509429      -0.94549408       1.76684477
O        0.05199474      -0.67097524       3.01241025
O       -0.94780367       1.86241624       4.05232624
O        1.88574449       0.42205957       1.57608190
H       -0.47319023       1.81395977       1.68734190
H       -2.06655898       0.10546616      -0.34822576
H       -1.55428184      -0.57828485       2.31155633
H       -0.63948674      -1.79834808       0.24592920
H        0.82311341       1.31083080       3.61354104
H        1.39937406      -1.30862913      -0.98533584
H        1.49805578       0.95506916      -0.22405106
H       -0.87100682      -1.66809909      -2.14211148
H       -0.63337763       1.09161351      -2.19677876
H        1.19700408      -1.95204548      -3.38220083
H        1.45530862      -0.20565204      -3.43470602
H       -0.68917144      -0.28248744      -4.57425273
H       -0.98132303       0.92932417       3.76292966
H        2.78513306       0.08017887       1.50967073
31
Properties=species:S:1:pos:R:3 relative_energy_eV=0.1620821095057181 branch=left pbc="F F F"
O       -1.35008810       2.49728910       0.01699119
C       -1.03846594       1.59514361       0.76881743
C       -1.42478122       0.13890168       0.53245261
O       -2.20930286      -0.31481901       1.63370290
C       -0.22040958      -0.79409522       0.29863303
O        0.44504147       2.16740307       3.88788833
C        0.58152070      -0.58013122      -0.98444693
O        1.12134314       0.74111721      -1.09423035
C       -0.22954720      -0.79443328      -2.25718183
O       -1.09872172       0.30175299      -2.52367428
C        0.68761366      -0.98716313      -3.45788451
O       -0.02670358      -0.97620840      -4.68417952
O        1.77986552      -2.15584850       1.62216683
P        0.90269220      -0.94718218       1.76181651
O        0.06566001      -0.66115411       3.00910972
O       -0.95841905       1.88161787       4.03903414
O        1.89398194       0.41721159       1.55410060
H       -0.47032487       1.81457365       1.68958471
H       -2.06234146       0.10795507      -0.34750386
H       -1.54869383      -0.58187161       2.30977056
H       -0.64174858      -1.80062015       0.24762630
H        0.80942615       1.29779084       3.62978607
H        1.40103326      -1.30927243      -0.98528720
H        1.49569536       0.95126200      -0.22222249
H       -0.86953044      -1.67281911      -2.14219754
H       -0.63145685       1.08828610      -2.19955493
H        1.19879283      -1.94937927      -3.38650437
H        1.45030912      -0.20215008      -3.43653281
H       -0.68903930      -0.27725648      -4.57565064
H       -1.00636884       0.94189393       3.77537224
H        2.79501987       0.07713567       1.50701720
31
Properties=species:S:1:pos:R:3 relative_energy_eV=0.16240359975927277 branch=left pbc="F F F"
O       -1.34978429       2.49783968       0.01802115
C       -1.03750097       1.59540597       0.76894630
C       -1.42403146       0.13908297       0.53268383
O       -2.20858535      -0.31320825       1.63479945
C       -0.22033668      -0.79478449       0.29855359
O        0.44355414       2.16505231       3.89002370
C        0.58134523      -0.58068163      -0.98458195
O        1.12120598       0.74047527      -1.09403478
C       -0.22961485      -0.79522620      -2.25713297
O       -1.09906432       0.30094708      -2.52283542
C        0.68711647      -0.98702950      -3.45817563
O       -0.02796082      -0.97625676      -4.68402130
O        1.78093975      -2.15703791       1.62252906
P        0.90433481      -0.94770012       1.76056090
O        0.06867522      -0.65875519       3.00805473
O       -0.96294752       1.88580315       4.03599408
O        1.89552641       0.41560336       1.54890240
H       -0.47003992       1.81481558       1.69000694
H       -2.06111604       0.10862675      -0.34762723
H       -1.54747989      -0.58295232       2.30926311
H       -0.64219938      -1.80100823       0.24812901
H        0.80870489       1.29503057       3.63313810
H        1.40128956      -1.30904762      -0.98523246
H        1.49511262       0.95068036      -0.22161749
H       -0.86914282      -1.67397922      -2.14214201
H       -0.63100355       1.08761805      -2.20024289
H        1.19923491      -1.94873318      -3.38742676
H        1.44918801      -0.20144349      -3.43693365
H       -0.68896341      -0.27603183      -4.57604907
H       -1.01159557       0.94519950       3.77862777
H        2.79719073       0.07662552       1.50663866
31
Properties=species:S:1:pos:R:3 relative_energy_eV=0.16253025142214028 branch=left pbc="F F F"
O       -1.34973406       2.49796704       0.01823814
C       -1.03726816       1.59545804       0.76896406
C       -1.42391533       0.13903861       0.53274381
O       -2.20848651      -0.31287352       1.63506296
C       -0.22032832      -0.79491970       0.29849090
O        0.44395144       2.16473290       3.89034441
C        0.58127611      -0.58080148      -0.98464083
O        1.12119662       0.74029843      -1.09397452
C       -0.22960962      -0.79541469      -2.25715588
O       -1.09910726       0.30081338      -2.52264811
C        0.68702188      -0.98701573      -3.45819357
O       -0.02822487      -0.97624579      -4.68398023
O        1.78118364      -2.15729808       1.62260709
P        0.90467569      -0.94774250       1.76028632
O        0.06922641      -0.65828721       3.00785894
O       -0.96483191       1.88646691       4.03550173
O        1.89575608       0.41520417       1.54789363
H       -0.47003341       1.81487753       1.69007231
H       -2.06085336       0.10877212      -0.34768536
H       -1.54725401      -0.58317962       2.30914885
H       -0.64226920      -1.80103498       0.24824028
H        0.80889889       1.29442843       3.63371278
H        1.40131624      -1.30894739      -0.98521615
H        1.49500855       0.95060832      -0.22147666
H       -0.86905911      -1.67420160      -2.14211938
H       -0.63092835       1.08749192      -2.20038513
H        1.19931704      -1.94859556      -3.38759808
H        1.44897681      -0.20131618      -3.43701235
H       -0.68893420      -0.27580948      -4.57613714
H       -1.01252307       0.94591277       3.77929291
H        2.79760722       0.07654314       1.50658344
31
Properties=species:S:1:pos:R:3 relative_energy_eV=0.16455867211334407 branch=ts pbc="F F F"
O       -1.34931355       2.49866834       0.01873527
C       -1.03175575       1.59714245       0.76834647
C       -1.41969432       0.14033304       0.53699984
O       -2.19856265      -0.30492460       1.64698058
C       -0.21909767      -0.79590809       0.29909637
O        0.43080026       2.12953342       3.90117216
C        0.58042888      -0.58182278      -0.98541666
O        1.11974290       0.73942322      -1.09469948
C       -0.23132273      -0.79627639      -2.25714989
O       -1.10122105       0.29996921      -2.52149564
C        0.68495143      -0.98717091      -3.45848009
O       -0.03032591      -0.97603086      -4.68424687
O        1.78323898      -2.16159566       1.61919825
P        0.91193115      -0.94849643       1.75705518
O        0.08113706      -0.65462300       3.00777600
O       -0.99137341       1.92471007       4.03064115
O        1.90486747       0.41014082       1.53631768
H       -0.45905004       1.81664989       1.68631057
H       -2.06183388       0.10823653      -0.33979386
H       -1.53331501      -0.58484758       2.31325528
H       -0.64271073      -1.80122021       0.24991924
H        0.75364684       1.23444162       3.67205134
H        1.40069058      -1.30975006      -0.98667724
H        1.49767160       0.94708589      -0.22310602
H       -0.87067167      -1.67510729      -2.14205422
H       -0.63207958       1.08672237      -2.20022197
H        1.19744867      -1.94871725      -3.38845969
H        1.44686698      -0.20140182      -3.43701977
H       -0.69139829      -0.27574908      -4.57593165
H       -1.09057298       0.99483043       3.75418650
H        2.80501894       0.06757555       1.49428385
31
Properties=species:S:1:pos:R:3 relative_energy_eV=0.16284284373250557 branch=right pbc="F F F"
O       -1.34891395       2.49926211       0.01894502
C       -1.02624595       1.59879406       0.76767648
C       -1.41550909       0.14190559       0.54119814
O       -2.18819100      -0.29668959       1.65931874
C       -0.21768514      -0.79671135       0.29990640
O        0.41540291       2.09158684       3.91252360
C        0.57962437      -0.58271436      -0.98614664
O        1.11814053       0.73872923      -1.09562912
C       -0.23318067      -0.79687936      -2.25707245
O       -1.10334149       0.29942461      -2.52042853
C        0.68298036      -0.98737415      -3.45882743
O       -0.03236288      -0.97568761      -4.68455474
O        1.78526258      -2.16602373       1.61534467
P        0.91919462      -0.94920778       1.75413013
O        0.09386761      -0.65137277       3.00758366
O       -1.01625770       1.96192301       4.02482119
O        1.91412523       0.40540839       1.52509733
H       -0.44791562       1.81838906       1.68248181
H       -2.06303360       0.10748508      -0.33150737
H       -1.51931974      -0.58625262       2.31776897
H       -0.64307656      -1.80145788       0.25146672
H        0.69697226       1.17544941       3.71003417
H        1.40005791      -1.31073691      -0.98818127
H        1.50049927       0.94362381      -0.22494519
H       -0.87243739      -1.67576831      -2.14201720
H       -0.63345562       1.08593007      -2.19994774
H        1.19543846      -1.94900514      -3.38909585
H        1.44497755      -0.20168118      -3.43691811
H       -0.69382872      -0.27608787      -4.57563025
H       -1.16804071       1.04592490       3.72901652
H        2.81248530       0.05852597       1.48191452
31
Properties=species:S:1:pos:R:3 relative_energy_eV=0.16214211194892414 branch=right pbc="F F F"
O       -1.34830614       2.49865900       0.01606963
C       -1.02464931       1.59974657       0.76587629
C       -1.41380040       0.14257281       0.54392523
O       -2.18317347      -0.29006977       1.66736259
C       -0.21636761      -0.79543508       0.30058747
O        0.41278762       2.08012936       3.92581648
C        0.57908148      -0.58144236      -0.98670758
O        1.11707450       0.73996223      -1.09700519
C       -0.23423210      -0.79504437      -2.25734350
O       -1.10388970       0.30153780      -2.52139789
C        0.68313270      -0.98803113      -3.45781856
O       -0.03014883      -0.97550280      -4.68473651
O        1.78730278      -2.16816961       1.60712470
P        0.92382482      -0.95000665       1.75270225
O        0.10467250      -0.65470397       3.01060944
O       -1.02440163       1.96822806       4.01612998
O        1.91785023       0.40548757       1.52592371
H       -0.44555481       1.81950170       1.68053415
H       -2.06550105       0.10477767      -0.32563001
H       -1.51463400      -0.58288108       2.32439474
H       -0.64130237      -1.80005029       0.25095104
H        0.68190014       1.16474592       3.70174276
H        1.39877530      -1.31053403      -0.98909710
H        1.50293764       0.94513638      -0.22806795
H       -0.87472932      -1.67285609      -2.14191069
H       -0.63585013       1.08785970      -2.19800628
H        1.19287634      -1.95098873      -3.38598723
H        1.44759408      -0.20471560      -3.43563144
H       -0.69521352      -0.27966347      -4.57445758
H       -1.17760371       1.05238228       3.72211449
H        2.81578098       0.05807877       1.48025856
31
Properties=species:S:1:pos:R:3 relative_energy_eV=0.1609005473437719 branch=right pbc="F F F"
O       -1.34591155       2.49858167       0.01150308
C       -1.02051799       1.60214124       0.76347503
C       -1.41107801       0.14429959       0.55098295
O       -2.17307782      -0.28028347       1.68341867
C       -0.21497416      -0.79371347       0.30298786
O        0.40495429       2.05750776       3.94243116
C        0.57726795      -0.57814329      -0.98666249
O        1.11707769       0.74269556      -1.09870006
C       -0.23668605      -0.79218226      -2.25668969
O       -1.10469846       0.30508445      -2.52278532
C        0.68251267      -0.98979052      -3.45546079
O       -0.02733111      -0.97562639      -4.68433117
O        1.79363637      -2.17017292       1.59081039
P        0.93220791      -0.95255689       1.74956009
O        0.11997612      -0.65894826       3.01224150
O       -1.03250498       1.97791006       3.99925820
O        1.92554758       0.40219330       1.52251065
H       -0.43817089       1.82541745       1.67521959
H       -2.06833275       0.10046675      -0.31413394
H       -1.50062410      -0.57755469       2.33467573
H       -0.63943987      -1.79870380       0.25249666
H        0.65922005       1.14423248       3.69392716
H        1.39663151      -1.30694068      -0.99129812
H        1.50725267       0.94778640      -0.23169795
H       -0.87842278      -1.66935760      -2.14079120
H       -0.63904904       1.09133828      -2.19545840
H        1.18782031      -1.95512210      -3.38025855
H        1.45092250      -0.21034453      -3.43276228
H       -0.69749882      -0.28473762      -4.57325242
H       -1.21535334       1.06489461       3.71097327
H        2.82487687       0.05833846       1.47613611
31
Properties=species:S:1:pos:R:3 relative_energy_eV=0.15356823529145913 branch=right pbc="F F F"
O       -1.33416466       2.49757358      -0.01428620
C       -0.99573380       1.62006882       0.75393484
C       -1.39407138       0.15659246       0.58901275
O       -2.11126765      -0.23333378       1.76707092
C       -0.20512561      -0.78429662       0.31459078
O        0.33919651       1.91851181       3.99894136
C        0.57055717      -0.56099682      -0.98580338
O        1.11134382       0.76036541      -1.10297987
C       -0.25023546      -0.77690966      -2.25105393
O       -1.11217630       0.32253521      -2.52757915
C        0.67578281      -0.99970652      -3.44196357
O       -0.01833998      -0.97939047      -4.68050576
O        1.82815963      -2.18280305       1.51454356
P        0.98184384      -0.96180895       1.72421790
O        0.20118233      -0.68371356       3.00885031
O       -1.10091785       2.04181143       3.92469614
O        1.96989775       0.39480089       1.49577159
H       -0.38769478       1.85886767       1.64750871
H       -2.08300343       0.08337520      -0.25198133
H       -1.41550474      -0.55289194       2.38546802
H       -0.63252824      -1.78959937       0.26474206
H        0.53675563       1.01001301       3.66969027
H        1.39004931      -1.29006743      -0.99988540
H        1.52734853       0.95694450      -0.24584439
H       -0.89578017      -1.65061948      -2.13059184
H       -0.65119987       1.10531084      -2.18593243
H        1.15942221      -1.97616528      -3.35121602
H        1.46325296      -0.23912519      -3.41598858
H       -0.70571926      -0.30643290      -4.56772808
H       -1.39605151       1.15469673       3.65205655
H        2.87095353       0.05509671       1.45056856
31
Properties=species:S:1:pos:R:3 relative_energy_eV=0.10735725954145892 branch=right pbc="F F F"
O       -1.32540566       2.49820111      -0.03380525
C       -0.95975210       1.64033550       0.74367776
C       -1.36141664       0.17552738       0.63175655
O       -2.02931439      -0.20093983       1.84266229
C       -0.18914994      -0.76946937       0.31599453
O        0.24951074       1.77346274       3.99451866
C        0.56658368      -0.55077376      -0.99006415
O        1.08912183       0.77554824      -1.09281835
C       -0.26079747      -0.77066207      -2.24418222
O       -1.11664527       0.32972840      -2.52215486
C        0.66130959      -1.01026432      -3.42787394
O       -0.02334912      -0.99052928      -4.66788171
O        1.86517817      -2.18598186       1.46902769
P        1.03311515      -0.95871837       1.68796003
O        0.28795420      -0.70293593       2.99440834
O       -1.14274506       2.09435368       3.88671773
O        2.01758939       0.39427050       1.45293816
H       -0.32101103       1.89152068       1.61113226
H       -2.08648947       0.08899246      -0.17389371
H       -1.30840251      -0.52600815       2.42947121
H       -0.62507837      -1.76813272       0.28202720
H        0.30830062       0.83672387       3.67801087
H        1.39156938      -1.27332833      -1.00267735
H        1.54051459       0.95583962      -0.24965084
H       -0.91368043      -1.63475545      -2.10629117
H       -0.65525356       1.11579710      -2.18790066
H        1.12660636      -1.99183770      -3.32578467
H        1.45981934      -0.26310747      -3.40026867
H       -0.70571036      -0.31109974      -4.56629041
H       -1.55244899       1.26108985       3.56857209
H        2.91570722       0.04585008       1.41098575
31
Properties=species:S:1:pos:R:3 relative_energy_eV=0.08797697237605462 branch=right pbc="F F F"
O       -1.32817864       2.50514417      -0.02106627
C       -0.94250888       1.64992881       0.74981977
C       -1.34481483       0.18352881       0.64229564
O       -2.00810521      -0.18284207       1.86069958
C       -0.17837664      -0.77396911       0.33506017
O        0.22710878       1.74151041       3.97014489
C        0.56970893      -0.54765335      -0.98078544
O        1.09209294       0.77977833      -1.10005131
C       -0.26881739      -0.77513709      -2.23290157
O       -1.12221107       0.32832728      -2.51983782
C        0.65226054      -1.01676316      -3.42714946
O       -0.04234212      -0.99722360      -4.66687581
O        1.88943831      -2.18403623       1.47081812
P        1.04970513      -0.96492132       1.70349800
O        0.29229241      -0.72581002       3.00915613
O       -1.17208483       2.08738602       3.90314226
O        2.02835244       0.39112334       1.43802163
H       -0.29225524       1.90467283       1.60819344
H       -2.07523106       0.10732411      -0.16277950
H       -1.28570620      -0.51962038       2.44043434
H       -0.62102431      -1.77280504       0.28154184
H        0.23719746       0.79785267       3.68282386
H        1.39802985      -1.26756319      -1.01011279
H        1.53711058       0.95070921      -0.25173445
H       -0.92084981      -1.64306744      -2.09442422
H       -0.64998874       1.11260074      -2.19700454
H        1.12863880      -1.99741772      -3.32899008
H        1.44469347      -0.25947194      -3.40683012
H       -0.70042880      -0.29306437      -4.57020807
H       -1.58684980       1.30094345       3.49904927
H        2.92937350       0.04923115       1.38437531
31
Properties=species:S:1:pos:R:3 relative_energy_eV=0.06156548851868138 branch=right pbc="F F F"
O       -1.33130480       2.51985328       0.01016835
C       -0.91924467       1.66076010       0.76211762
C       -1.32136164       0.19492175       0.65462328
O       -1.99507499      -0.13564500       1.88491818
C       -0.16545872      -0.77576620       0.33834512
O        0.17943102       1.72791386       3.96223823
C        0.57222351      -0.55562384      -0.98461077
O        1.09418286       0.76990891      -1.10635215
C       -0.27061525      -0.78447053      -2.23081383
O       -1.12760450       0.31639975      -2.50699940
C        0.63649372      -1.01989561      -3.42877812
O       -0.06911945      -1.00767982      -4.65599937
O        1.92740737      -2.19149603       1.48698851
P        1.06705943      -0.98561301       1.71382279
O        0.31362535      -0.77908776       3.02754444
O       -1.22577617       2.05997710       3.92348543
O        2.02776084       0.38461593       1.45450445
H       -0.25785750       1.91822565       1.61045593
H       -2.04750756       0.12197530      -0.15327933
H       -1.28806399      -0.51262791       2.45985970
H       -0.60830705      -1.77230175       0.28863526
H        0.21235385       0.77534624       3.67506750
H        1.40400914      -1.26689270      -1.01512641
H        1.53783667       0.96013269      -0.26121611
H       -0.92506061      -1.64500735      -2.08109386
H       -0.64511284       1.10451987      -2.20946206
H        1.12698234      -1.99051476      -3.34251394
H        1.41884866      -0.25708261      -3.41852062
H       -0.69248954      -0.27084788      -4.57391350
H       -1.62181558       1.34761923       3.37632533
H        2.92978929       0.05707667       1.34790163
31
Properties=species:S:1:pos:R:3 relative_energy_eV=0.04689734846033389 branch=right pbc="F F F"
O       -1.32833901       2.53204572       0.02299110
C       -0.90099003       1.67045078       0.76282515
C       -1.30162833       0.20379009       0.65887929
O       -1.97748586      -0.11496838       1.88818673
C       -0.15373687      -0.77629846       0.34980754
O        0.14743322       1.71855277       3.95867030
C        0.57945549      -0.55810279      -0.97696692
O        1.09257373       0.77280862      -1.10840740
C       -0.27247849      -0.78659792      -2.22252984
O       -1.13376171       0.31374706      -2.49548878
C        0.63087822      -1.01929232      -3.43151139
O       -0.08629644      -1.01214324      -4.65752353
O        1.94329151      -2.19720242       1.47655397
P        1.08012538      -0.99427203       1.71448980
O        0.32350850      -0.79194005       3.02322728
O       -1.25608406       2.02776982       3.91843320
O        2.02653925       0.38769898       1.46785528
H       -0.23135688       1.92061273       1.60628008
H       -2.03900522       0.12417126      -0.13704668
H       -1.28875778      -0.50527252       2.47550666
H       -0.61266111      -1.76693709       0.29982104
H        0.19122153       0.77360250       3.68200318
H        1.40830254      -1.27850818      -1.01248666
H        1.53576434       0.96379992      -0.26465693
H       -0.92530598      -1.65092293      -2.07709544
H       -0.64299931       1.10177541      -2.21283647
H        1.12094284      -1.99245327      -3.34630812
H        1.41321913      -0.25089951      -3.42121525
H       -0.69651855      -0.26447437      -4.57673863
H       -1.63301655       1.36044003       3.30829737
H        2.92339548       0.05771237       1.33530611
31
Properties=species:S:1:pos:R:3 relative_energy_eV=0.028847822977695614 branch=right pbc="F F F"
O       -1.30804678       2.55378455       0.03471316
C       -0.86585121       1.68321873       0.75491754
C       -1.28112077       0.21782202       0.66819699
O       -1.95940187      -0.08935901       1.90119615
C       -0.14846004      -0.77318484       0.35431570
O        0.09470626       1.71906257       3.96506511
C        0.58079030      -0.56859506      -0.97326287
O        1.09708900       0.76171594      -1.10443242
C       -0.27171273      -0.78897742      -2.21541116
O       -1.13909698       0.30907283      -2.46903342
C        0.62071407      -1.01442933      -3.42704348
O       -0.09719784      -1.00752065      -4.64918637
O        1.95501103      -2.18871746       1.42657492
P        1.08811577      -0.99726097       1.71224217
O        0.33243656      -0.79787572       3.02402183
O       -1.32369290       1.97192967       3.88472373
O        2.03121336       0.38746781       1.48630495
H       -0.17343416       1.92572259       1.58228429
H       -2.02694424       0.12314696      -0.11363763
H       -1.27454479      -0.48532977       2.49078054
H       -0.62725026      -1.75375478       0.32739085
H        0.18050955       0.76840772       3.70157155
H        1.40906976      -1.28655946      -1.00029129
H        1.53303703       0.97368134      -0.26137147
H       -0.91642817      -1.65803113      -2.07400843
H       -0.64451426       1.10237886      -2.20679222
H        1.10298537      -1.99022542      -3.34903311
H        1.40584202      -0.25240199      -3.42597196
H       -0.72163395      -0.27101823      -4.58028211
H       -1.64193671       1.33250364       3.21024410
H        2.92597608       0.06201731       1.33353594
31
Properties=species:S:1:pos:R:3 relative_energy_eV=0.009449703356949612 branch=right pbc="F F F"
O       -1.28313119       2.56169064       0.02503837
C       -0.84268901       1.69384808       0.74858981
C       -1.28767318       0.23492302       0.67505024
O       -1.93765782      -0.06857005       1.91980961
C       -0.15850153      -0.76252483       0.36224394
O        0.04514039       1.70902326       3.96415755
C        0.57835753      -0.56561517      -0.96589843
O        1.10433031       0.76137501      -1.10110571
C       -0.27717622      -0.78874813      -2.20818967
O       -1.14807433       0.30918544      -2.45666572
C        0.61443368      -1.01381151      -3.42722834
O       -0.10568473      -1.00392260      -4.65200089
O        1.95061975      -2.17513335       1.40246083
P        1.09485697      -0.98153491       1.70411119
O        0.35754846      -0.81242755       3.02883071
O       -1.37049754       1.93541875       3.84095886
O        2.04872788       0.40109217       1.48070548
H       -0.10923109       1.93008196       1.54310741
H       -2.03352026       0.15222347      -0.11439786
H       -1.23789123      -0.47830708       2.48631609
H       -0.62800697      -1.75039454       0.33691525
H        0.15268479       0.75723815       3.72844240
H        1.40391112      -1.28932553      -0.98872530
H        1.53314074       0.96084078      -0.25123054
H       -0.91991805      -1.66066669      -2.06573819
H       -0.64789835       1.09730648      -2.19005194
H        1.09623536      -1.99077422      -3.34488576
H        1.40465822      -0.25437588      -3.42327905
H       -0.74591182      -0.28315659      -4.56360335
H       -1.65818394       1.27919761       3.16992979
H        2.94323004       0.06453411       1.34465459
31
Properties=species:S:1:pos:R:3 relative_energy_eV=0.0007408110395772383 branch=right pbc="F F F"
O       -1.27417489       2.57409284       0.02089285
C       -0.82226463       1.70327553       0.73418141
C       -1.27513593       0.24906028       0.67291703
O       -1.92328459      -0.05809493       1.91834453
C       -0.15263131      -0.75614584       0.35995068
O        0.01917111       1.70913638       3.96109645
C        0.57465440      -0.56598833      -0.96747736
O        1.10283618       0.75973471      -1.09605354
C       -0.27969848      -0.79216448      -2.20658876
O       -1.14912509       0.30557224      -2.45681157
C        0.60985149      -1.01593892      -3.42352460
O       -0.11616783      -1.00364334      -4.64169139
O        1.96347421      -2.17633956       1.40769285
P        1.10255242      -0.98510748       1.70782557
O        0.36622174      -0.81534907       3.03331660
O       -1.40052494       1.91555457       3.82176548
O        2.04863238       0.40105868       1.47696512
H       -0.07724296       1.92921168       1.51798673
H       -2.03615684       0.18422670      -0.10082596
H       -1.23273873      -0.49292088       2.47594862
H       -0.62138063      -1.74135843       0.33755846
H        0.14438056       0.75652677       3.73902223
H        1.39439710      -1.29258429      -0.98552777
H        1.54526516       0.95113881      -0.24980065
H       -0.92573700      -1.65995997      -2.05790951
H       -0.65470305       1.09380383      -2.18085209
H        1.09870406      -1.98928031      -3.34835976
H        1.39303870      -0.25146084      -3.42365687
H       -0.75759526      -0.28471387      -4.54575480
H       -1.67525448       1.24442212       3.15705787
H        2.94686487       0.07292550       1.35063330
31
Properties=species:S:1:pos:R:3 relative_energy_eV=-0.0036966269253753126 branch=right pbc="F F F"
O       -1.26521390       2.58085272       0.02182033
C       -0.80459363       1.71327885       0.73381437
C       -1.26258234       0.25651409       0.67615346
O       -1.91493159      -0.05436443       1.91542771
C       -0.14911801      -0.75845510       0.36539515
O       -0.00327874       1.70569774       3.95551652
C        0.57917367      -0.56794426      -0.96367453
O        1.10508455       0.75857438      -1.09885339
C       -0.28215109      -0.79222764      -2.19989436
O       -1.15212770       0.30560618      -2.45678251
C        0.60344923      -1.01643341      -3.42155066
O       -0.13180076      -1.00710521      -4.63576132
O        1.97475600      -2.17427568       1.41618538
P        1.10589567      -0.98770392       1.70804556
O        0.36986949      -0.81876354       3.03266437
O       -1.42615846       1.90413629       3.81895098
O        2.04931981       0.39837051       1.47630402
H       -0.04583845       1.94479799       1.50294012
H       -2.02310730       0.19089206      -0.09785731
H       -1.23346602      -0.50796980       2.46880332
H       -0.63186272      -1.73903311       0.34136611
H        0.12590353       0.75212453       3.73648142
H        1.40111780      -1.29532383      -0.99440412
H        1.55832924       0.94433453      -0.25817166
H       -0.92641782      -1.66187957      -2.05198507
H       -0.66190678       1.09568257      -2.17907819
H        1.09839067      -1.98743183      -3.34930864
H        1.38290943      -0.24709184      -3.42270098
H       -0.76598389      -0.28251145      -4.53304702
H       -1.68947770       1.23501798       3.14873579
H        2.95204535       0.08132401       1.35278613
31
Properties=species:S:1:pos:R:3 relative_energy_eV=-0.006322438654024154 branch=right pbc="F F F"
O       -1.25734739       2.58225425       0.02180443
C       -0.79217810       1.71556362       0.73234616
C       -1.25409973       0.25955015       0.67600417
O       -1.91468589      -0.05385261       1.91246499
C       -0.14328137      -0.75845782       0.36341979
O       -0.01808139       1.70513286       3.96024631
C        0.58008137      -0.57068441      -0.96756987
O        1.10876590       0.75482883      -1.10116863
C       -0.28271386      -0.79296817      -2.20049048
O       -1.15543882       0.30351583      -2.44946556
C        0.59969449      -1.01490714      -3.42105909
O       -0.13990928      -1.00652419      -4.63036566
O        1.97939983      -2.17647654       1.41923371
P        1.11109419      -0.98864464       1.71165292
O        0.36911739      -0.81982476       3.03387982
O       -1.43977496       1.89621825       3.81916112
O        2.05084551       0.40359940       1.47764236
H       -0.02607039       1.95228719       1.49286761
H       -2.00888044       0.19418299      -0.10370219
H       -1.23854256      -0.51534663       2.46595353
H       -0.63467120      -1.73416333       0.34298558
H        0.11775979       0.75726091       3.72658919
H        1.40185756      -1.29564908      -0.99829945
H        1.57079108       0.94184737      -0.26515748
H       -0.92752832      -1.66064524      -2.04836013
H       -0.66754614       1.09655533      -2.17588215
H        1.09512304      -1.98498411      -3.34753954
H        1.37783758      -0.24497918      -3.42453838
H       -0.77745487      -0.28511221      -4.52447405
H       -1.70161385       1.22454206       3.14901271
H        2.95367828       0.08457081       1.36112913
31
Properties=species:S:1:pos:R:3 relative_energy_eV=-0.009935326444974635 branch=right pbc="F F F"
O       -1.24369262       2.58369914       0.02747033
C       -0.77131579       1.71705873       0.73329837
C       -1.23626996       0.26328252       0.67226268
O       -1.91338857      -0.05368838       1.89634666
C       -0.12914611      -0.75581867       0.36701190
O       -0.04523492       1.70339546       3.95480945
C        0.58936121      -0.57108098      -0.96623292
O        1.12138452       0.75232904      -1.10957162
C       -0.28680258      -0.79395904      -2.19209237
O       -1.16725911       0.29928701      -2.42976022
C        0.58750127      -1.01072469      -3.42248311
O       -0.15859492      -1.00339030      -4.62969011
O        1.98789988      -2.17122292       1.42836687
P        1.11497763      -0.98614036       1.71416883
O        0.36437975      -0.82003759       3.03130342
O       -1.47193864       1.87738372       3.83274873
O        2.05561781       0.40418286       1.48263409
H        0.00488699       1.94805561       1.48555158
H       -1.97893486       0.20884084      -0.11870969
H       -1.24463233      -0.51105363       2.46215060
H       -0.62022989      -1.73133954       0.34568087
H        0.10062258       0.75719725       3.71370391
H        1.40551250      -1.30281656      -1.00143122
H        1.58495169       0.93661963      -0.27465615
H       -0.92723570      -1.66632331      -2.04112935
H       -0.67024270       1.09147176      -2.17127037
H        1.08498508      -1.98056336      -3.34969181
H        1.36624260      -0.24063925      -3.43474993
H       -0.80264244      -0.28891108      -4.51725042
H       -1.72519313       1.22580983       3.14093449
H        2.96065809       0.08778592       1.37859727
31
Properties=species:S:1:pos:R:3 relative_energy_eV=-0.013254624980618246 branch=right pbc="F F F"
O       -1.22268839       2.59569875       0.04297754
C       -0.75323328       1.71730443       0.73610523
C       -1.22666741       0.26645672       0.66083063
O       -1.91761550      -0.04831189       1.87788721
C       -0.11749493      -0.75708066       0.36288070
O       -0.06828181       1.70898454       3.94188947
C        0.60012011      -0.57823047      -0.97113284
O        1.13832769       0.74250328      -1.11651588
C       -0.28505712      -0.79799523      -2.19001935
O       -1.17029445       0.29407342      -2.41652623
C        0.57351769      -1.00782012      -3.42793452
O       -0.18382023      -1.00257575      -4.62640327
O        1.99838495      -2.16868068       1.44302811
P        1.12171411      -0.98343305       1.72122761
O        0.35795448      -0.81122720       3.03078424
O       -1.50098383       1.84809458       3.85302059
O        2.06346745       0.40743614       1.49504810
H        0.02589085       1.93551563       1.48841663
H       -1.96326623       0.22112106      -0.13637801
H       -1.25068084      -0.50132137       2.44859186
H       -0.60098170      -1.73670822       0.34984623
H        0.08789583       0.76326863       3.71154179
H        1.41428283      -1.31168204      -1.00695277
H        1.59836070       0.93704882      -0.28172888
H       -0.91878323      -1.67302822      -2.02943342
H       -0.67587177       1.08979920      -2.16394684
H        1.07359453      -1.97513978      -3.36406705
H        1.34803000      -0.23492364      -3.44239029
H       -0.83103177      -0.29171984      -4.51128876
H       -1.74739648       1.23176864       3.12858447
H        2.96883501       0.08949390       1.40037843
31
Properties=species:S:1:pos:R:3 relative_energy_eV=-0.015298255530069582 branch=right pbc="F F F"
O       -1.20627480       2.60114267       0.04379377
C       -0.74711884       1.71451387       0.73313054
C       -1.22561343       0.26534508       0.65258972
O       -1.91714385      -0.04909051       1.86897957
C       -0.11351306      -0.75566205       0.36183212
O       -0.07853061       1.70864451       3.94887629
C        0.60561186      -0.57845381      -0.97176048
O        1.14669648       0.74016285      -1.12021433
C       -0.28239198      -0.79693824      -2.18919608
O       -1.16898400       0.29431091      -2.41640149
C        0.57127013      -1.00879239      -3.43254759
O       -0.19408722      -1.00138395      -4.62788024
O        1.99425991      -2.16545084       1.44689125
P        1.12403759      -0.97521115       1.72030840
O        0.36137842      -0.80017181       3.02902423
O       -1.51233673       1.84599507       3.86121184
O        2.07181004       0.41175056       1.49948653
H        0.02731194       1.92458947       1.49229566
H       -1.96454546       0.21705118      -0.14339646
H       -1.25025563      -0.49814144       2.44261277
H       -0.59877381      -1.73481946       0.34901218
H        0.08156919       0.76369927       3.70990581
H        1.41587161      -1.31624525      -1.01354511
H        1.60777812       0.93379006      -0.28652864
H       -0.91711883      -1.67063036      -2.02695475
H       -0.68095390       1.09014752      -2.15296554
H        1.07115488      -1.97809846      -3.37209664
H        1.34470721      -0.23351087      -3.44840326
H       -0.84875815      -0.29872290      -4.50184606
H       -1.75792742       1.22908227       3.13401217
H        2.97709757       0.08978771       1.41809461
31
Properties=species:S:1:pos:R:3 relative_energy_eV=-0.017483253934187815 branch=right pbc="F F F"
O       -1.18034406       2.60559886       0.04506557
C       -0.73734638       1.71310655       0.73717948
C       -1.21892081       0.26832060       0.64811605
O       -1.91675704      -0.04759303       1.86039816
C       -0.10541103      -0.75153078       0.35819481
O       -0.10107011       1.71426903       3.95491796
C        0.61190501      -0.58101459      -0.97782378
O        1.15931169       0.73507877      -1.12553071
C       -0.28023892      -0.79987142      -2.19198962
O       -1.16648833       0.29337613      -2.41202145
C        0.56355839      -1.01010073      -3.44225865
O       -0.21767070      -1.00317231      -4.62577074
O        1.99738178      -2.16183666       1.45868784
P        1.12687843      -0.97003762       1.72486125
O        0.35754191      -0.78806089       3.02961764
O       -1.53596710       1.82668589       3.87264478
O        2.07892283       0.41458547       1.50028347
H        0.02964998       1.90918224       1.50748198
H       -1.95086322       0.21428962      -0.15288056
H       -1.25167188      -0.49528338       2.43738449
H       -0.59471922      -1.72779894       0.34875463
H        0.07166918       0.77207062       3.71986608
H        1.41883082      -1.32150797      -1.02056202
H        1.62361360       0.92701295      -0.29254926
H       -0.91619114      -1.67257085      -2.02469428
H       -0.67955734       1.08692961      -2.13994491
H        1.07015109      -1.97563144      -3.39037493
H        1.33431864      -0.23384341      -3.47217638
H       -0.87023516      -0.30128729      -4.48535331
H       -1.77057555       1.23435842       3.12331924
H        2.98652199       0.09496614       1.43547815
31
Properties=species:S:1:pos:R:3 relative_energy_eV=-0.019364694257092196 branch=right pbc="F F F"
O       -1.15327828       2.60156928       0.03823158
C       -0.72764357       1.70975168       0.74208063
C       -1.21349382       0.26597318       0.64819372
O       -1.91565257      -0.05268159       1.85665320
C       -0.09933283      -0.75261919       0.35774685
O       -0.12188670       1.71664076       3.97057117
C        0.61735971      -0.58270189      -0.97945436
O        1.16910521       0.72957201      -1.13249080
C       -0.27592804      -0.79873875      -2.19352752
O       -1.16013911       0.29688093      -2.41084510
C        0.55741600      -1.01083255      -3.45178969
O       -0.24155693      -1.00700315      -4.62518866
O        1.99919967      -2.16137743       1.46915711
P        1.13073853      -0.96561842       1.72301351
O        0.35953530      -0.77644251       3.02491177
O       -1.55951161       1.81947535       3.87971176
O        2.08175266       0.41865791       1.49215703
H        0.02211331       1.91136088       1.52737695
H       -1.94367494       0.22021755      -0.15534302
H       -1.24860903      -0.49241624       2.43810740
H       -0.58767000      -1.72910973       0.34678025
H        0.05679858       0.77480949       3.73493772
H        1.42122447      -1.32559484      -1.02144129
H        1.63765030       0.91734462      -0.30154753
H       -0.91042851      -1.67285241      -2.02989314
H       -0.67180537       1.08723606      -2.13223800
H        1.06522423      -1.97647525      -3.40108452
H        1.32755726      -0.23397112      -3.49367492
H       -0.88947258      -0.30227524      -4.47488009
H       -1.77964730       1.24043253       3.11710752
H        2.99028329       0.09947762       1.44498154
31
Properties=species:S:1:pos:R:3 relative_energy_eV=-0.02080545245553367 branch=right pbc="F F F"
O       -1.13029760       2.59781533       0.02694785
C       -0.72021835       1.70970690       0.74484801
C       -1.20881259       0.26703278       0.64606195
O       -1.91354236      -0.05638269       1.85233888
C       -0.09601592      -0.75403073       0.35233208
O       -0.14176063       1.71636096       3.99211088
C        0.62320115      -0.58615178      -0.98513135
O        1.17935374       0.72466426      -1.13835903
C       -0.27332876      -0.79766391      -2.19645860
O       -1.15537624       0.30094464      -2.40797210
C        0.55242571      -1.01020109      -3.45728885
O       -0.25588890      -1.00816543      -4.62318328
O        2.00025700      -2.15834064       1.47364105
P        1.13176276      -0.96190420       1.72392879
O        0.36325478      -0.76483048       3.02707858
O       -1.57624669       1.81670970       3.88210266
O        2.08483392       0.42018828       1.48669691
H        0.01644111       1.91309876       1.54313356
H       -1.93995891       0.22696073      -0.15660947
H       -1.24677473      -0.49066152       2.43794271
H       -0.58040474      -1.73373676       0.34539220
H        0.04565651       0.78087469       3.74174955
H        1.42352582      -1.33410552      -1.02256755
H        1.65177169       0.91238488      -0.30936814
H       -0.90845054      -1.67142488      -2.03174314
H       -0.66677584       1.09030967      -2.12618731
H        1.05782868      -1.97710309      -3.40911517
H        1.32215390      -0.23381504      -3.50807874
H       -0.90801949      -0.30824406      -4.46822838
H       -1.78954259       1.23404688       3.11866343
H        2.99517541       0.10435283       1.45364316
31
Properties=species:S:1:pos:R:3 relative_energy_eV=-0.02222410935064545 branch=right pbc="F F F"
O       -1.09942575       2.59769749       0.01767596
C       -0.71020944       1.71094045       0.74879301
C       -1.19919742       0.26963033       0.64547168
O       -1.90671485      -0.05432735       1.84940507
C       -0.08730028      -0.75365271       0.35387927
O       -0.17068917       1.71507791       4.01205668
C        0.63153496      -0.59361411      -0.98606405
O        1.19745481       0.71096445      -1.14602753
C       -0.27331138      -0.79835870      -2.19499337
O       -1.15169754       0.30455358      -2.39911824
C        0.54199295      -1.01027021      -3.46550861
O       -0.27284553      -1.01175057      -4.62814731
O        2.00530039      -2.15345279       1.48105206
P        1.13705269      -0.95640701       1.72715201
O        0.36658739      -0.75476412       3.02846054
O       -1.60299891       1.80983974       3.88212784
O        2.08898374       0.42463011       1.48332580
H        0.00457469       1.91701210       1.56516641
H       -1.92922981       0.23506031      -0.15797861
H       -1.24139119      -0.49010444       2.43550657
H       -0.57440136      -1.73168998       0.34526509
H        0.02775532       0.78437776       3.75206516
H        1.42691077      -1.34678201      -1.03059372
H        1.66461867       0.90794468      -0.31653888
H       -0.91292259      -1.66812422      -2.02598616
H       -0.65585671       1.09252970      -2.12614061
H        1.04962021      -1.97530410      -3.42314467
H        1.31011090      -0.23247244      -3.52126611
H       -0.92547856      -0.31406280      -4.46772519
H       -1.80229070       1.22401539       3.11754706
H        2.99969084       0.10955281       1.45260398
31
Properties=species:S:1:pos:R:3 relative_energy_eV=-0.02391972795157926 branch=right pbc="F F F"
O       -1.06785658       2.59970093       0.01067580
C       -0.70083253       1.71498254       0.75576332
C       -1.19013025       0.27476796       0.64417665
O       -1.90030791      -0.05622652       1.84507534
C       -0.07835615      -0.74911693       0.35054180
O       -0.19491389       1.71437347       4.02483160
C        0.63750133      -0.59830318      -0.99253443
O        1.21832720       0.69958450      -1.15779512
C       -0.27547183      -0.79960183      -2.19457534
O       -1.14851692       0.30850650      -2.39153147
C        0.53145746      -1.01228526      -3.46865087
O       -0.28871634      -1.01567450      -4.62726759
O        2.01400923      -2.14812627       1.49287925
P        1.14396718      -0.94984517       1.72768227
O        0.36878439      -0.74641421       3.02602879
O       -1.62830217       1.80300151       3.88171607
O        2.09580992       0.43211026       1.48538046
H       -0.00817207       1.92360203       1.59035186
H       -1.91691892       0.23915630      -0.16200347
H       -1.23289931      -0.49136659       2.43021609
H       -0.56922153      -1.72570979       0.35093189
H        0.00918043       0.78541048       3.76476311
H        1.42296854      -1.36165870      -1.03542790
H        1.67087641       0.89845997      -0.32050365
H       -0.91852215      -1.66545807      -2.01902351
H       -0.64114884       1.09298617      -2.12959550
H        1.04382115      -1.97593683      -3.43284438
H        1.29466157      -0.23030435      -3.52832596
H       -0.94058068      -0.31519634      -4.47611310
H       -1.81927326       1.20963043       3.12015120
H        3.00500357       0.11364047       1.44334796
31
Properties=species:S:1:pos:R:3 relative_energy_eV=-0.02470412486582063 branch=right pbc="F F F"
O       -1.04894541       2.60312929       0.00827956
C       -0.69668059       1.71838757       0.76035974
C       -1.18610628       0.27776653       0.64415609
O       -1.89754138      -0.05948746       1.84193164
C       -0.07262823      -0.74433818       0.35213180
O       -0.21210144       1.70983959       4.03708470
C        0.63787406      -0.60137409      -0.99377492
O        1.22843102       0.69051764      -1.16532069
C       -0.27834101      -0.79844428      -2.19505363
O       -1.14639469       0.31345737      -2.39317034
C        0.52532722      -1.01297324      -3.47072840
O       -0.29907814      -1.02226189      -4.62672959
O        2.01997310      -2.14255446       1.49363535
P        1.14965914      -0.94488555       1.72924823
O        0.37118197      -0.74267973       3.02594787
O       -1.64329678       1.79969332       3.87919778
O        2.10237368       0.43546951       1.48904390
H       -0.01342453       1.92590663       1.60328241
H       -1.91154251       0.24165000      -0.16353857
H       -1.22842133      -0.49111002       2.42798475
H       -0.56246744      -1.72087265       0.35427938
H       -0.00259767       0.78507335       3.76556282
H        1.41624365      -1.37147807      -1.03690448
H        1.67502147       0.89421324      -0.32660294
H       -0.92143928      -1.66461720      -2.02080352
H       -0.63505913       1.09456844      -2.12867985
H        1.03778368      -1.97547691      -3.43107170
H        1.28898953      -0.23117116      -3.53157376
H       -0.94421204      -0.31545650      -4.47618619
H       -1.82748959       1.20127122       3.11988300
H        3.01113604       0.11692635       1.43645074
31
Properties=species:S:1:pos:R:3 relative_energy_eV=-0.025159464130410925 branch=right pbc="F F F"
O       -1.03973323       2.60576887       0.01184445
C       -0.69290723       1.71869084       0.76368882
C       -1.18419227       0.27935799       0.64470228
O       -1.89839221      -0.06048414       1.84013528
C       -0.07032108      -0.74288664       0.35247582
O       -0.22195807       1.70718998       4.04135191
C        0.63868877      -0.60357292      -0.99482081
O        1.23428250       0.68628803      -1.16974318
C       -0.27965550      -0.79806884      -2.19447410
O       -1.14545337       0.31591085      -2.39203264
C        0.52322702      -1.01549074      -3.46961204
O       -0.30354299      -1.02597060      -4.62326896
O        2.02394154      -2.13816340       1.49289491
P        1.15338631      -0.94067554       1.72898882
O        0.37265194      -0.74023196       3.02464871
O       -1.65253810       1.79439091       3.87865452
O        2.10696970       0.43980838       1.49092318
H       -0.01540142       1.92476657       1.61056757
H       -1.90739835       0.24724612      -0.16446923
H       -1.22832972      -0.49198871       2.42506121
H       -0.55907730      -1.72040651       0.35926403
H       -0.00897532       0.78470523       3.76574692
H        1.41278277      -1.37851824      -1.03889731
H        1.67934085       0.89509266      -0.33153734
H       -0.92633898      -1.66221641      -2.02248410
H       -0.63384869       1.09669416      -2.12737297
H        1.03539787      -1.97875435      -3.42930578
H        1.28483331      -0.23280962      -3.53773653
H       -0.94382834      -0.31406019      -4.47590347
H       -1.83197423       1.19855007       3.11680666
H        3.01459110       0.11852650       1.43222449
31
Properties=species:S:1:pos:R:3 relative_energy_eV=-0.025449314576690085 branch=right pbc="F F F"
O       -1.03699981       2.60553555       0.01413157
C       -0.69233934       1.71908270       0.76770825
C       -1.18366113       0.28017219       0.64412309
O       -1.89838537      -0.06237342       1.83819604
C       -0.07031777      -0.74187319       0.35237716
O       -0.22421705       1.70633804       4.04248059
C        0.63804505      -0.60444436      -0.99478726
O        1.23637620       0.68361938      -1.17160606
C       -0.28062068      -0.79713377      -2.19429256
O       -1.14457827       0.31820712      -2.39132295
C        0.52225968      -1.01765028      -3.46953396
O       -0.30457117      -1.02976176      -4.62347541
O        2.02603278      -2.13403711       1.49065002
P        1.15440039      -0.93742648       1.72717249
O        0.37374084      -0.73696088       3.02269799
O       -1.65504429       1.79221895       3.87824513
O        2.10833418       0.44236881       1.48873548
H       -0.01538478       1.92423544       1.61584603
H       -1.90741837       0.25132259      -0.16548407
H       -1.22984586      -0.49517503       2.42383173
H       -0.55897243      -1.71945923       0.36286178
H       -0.01025341       0.78370071       3.76726621
H        1.41073406      -1.38018530      -1.03909992
H        1.68060750       0.89502567      -0.33374378
H       -0.93024009      -1.65864198      -2.02155686
H       -0.63231495       1.09855215      -2.12694488
H        1.03401109      -1.98087519      -3.42613866
H        1.28589051      -0.23664678      -3.53795938
H       -0.93992349      -0.31322812      -4.47753045
H       -1.83451989       1.19445274       3.11733609
H        3.01540323       0.11972894       1.42813768
31
Properties=species:S:1:pos:R:3 relative_energy_eV=-0.02593854047881905 branch=right pbc="F F F"
O       -1.03200242       2.60994711       0.02489601
C       -0.68898797       1.71897959       0.77397624
C       -1.18314188       0.28216551       0.64539144
O       -1.90322035      -0.06465217       1.83606269
C       -0.06939307      -0.73894493       0.35195328
O       -0.23185480       1.70202949       4.04746899
C        0.63793810      -0.60374528      -0.99695683
O        1.23848917       0.68304264      -1.17638134
C       -0.28356673      -0.79494998      -2.19414684
O       -1.14115584       0.32520539      -2.39443244
C        0.51928454      -1.02383552      -3.46736691
O       -0.30448026      -1.03561136      -4.62308839
O        2.03180577      -2.12687037       1.48513228
P        1.15806139      -0.93222709       1.72481270
O        0.38109242      -0.73136128       3.02231099
O       -1.66217330       1.78559932       3.87983975
O        2.10977438       0.44865137       1.48033865
H       -0.01388623       1.91943172       1.62420447
H       -1.90434630       0.25748786      -0.16591760
H       -1.23750466      -0.50004718       2.42159344
H       -0.55773892      -1.71645524       0.36356628
H       -0.01421607       0.78178224       3.76698068
H        1.40964211      -1.38158934      -1.03966059
H        1.68354527       0.89206639      -0.33827845
H       -0.93681495      -1.65269253      -2.01583392
H       -0.62682651       1.10215367      -2.12376138
H        1.02636043      -1.98920589      -3.42090089
H        1.28912637      -0.24904163      -3.53628137
H       -0.93504936      -0.31343259      -4.48519908
H       -1.83899655       1.18999976       3.11655001
H        3.01646393       0.12480758       1.42144917
31
Properties=species:S:1:pos:R:3 relative_energy_eV=-0.026265851411153562 branch=right pbc="F F F"
O       -1.02524614       2.61414051       0.03211802
C       -0.68726491       1.72077916       0.78027404
C       -1.18113093       0.28381979       0.64497234
O       -1.90353938      -0.06603231       1.83302000
C       -0.06798251      -0.73754285       0.35187708
O       -0.24022930       1.70024557       4.05182686
C        0.63803029      -0.60292223      -0.99687337
O        1.24031700       0.68231605      -1.17755298
C       -0.28445349      -0.79448929      -2.19333022
O       -1.13687901       0.32857327      -2.39515856
C        0.51630746      -1.02908993      -3.46715537
O       -0.30611439      -1.03889713      -4.62432352
O        2.03586391      -2.12285651       1.48404346
P        1.16067447      -0.92931768       1.72324890
O        0.38481052      -0.72864171       3.02125205
O       -1.67037567       1.77796456       3.88269131
O        2.11098822       0.45239636       1.47457386
H       -0.01184510       1.91754619       1.63098673
H       -1.90175829       0.26066562      -0.16726186
H       -1.24088661      -0.50164123       2.42140054
H       -0.55653004      -1.71506190       0.36183778
H       -0.01807703       0.78161677       3.76927323
H        1.40819016      -1.38097785      -1.04153854
H        1.68668161       0.89173353      -0.34014561
H       -0.94084385      -1.64947625      -2.01359877
H       -0.61950871       1.10321224      -2.12383710
H        1.01740276      -1.99773008      -3.41909174
H        1.28796856      -0.25615651      -3.53677348
H       -0.93402380      -0.31377308      -4.49020102
H       -1.84296514       1.18734904       3.11490432
H        3.01864730       0.13093458       1.41686245
31
Properties=species:S:1:pos:R:3 relative_energy_eV=-0.026554882548225578 branch=right pbc="F F F"
O       -1.02777331       2.61835192       0.04105419
C       -0.68568884       1.72135724       0.78309799
C       -1.18164253       0.28485828       0.64494661
O       -1.90472923      -0.06737726       1.83267245
C       -0.06856857      -0.73645572       0.35042574
O       -0.24157474       1.69766848       4.05372110
C        0.63689561      -0.60105884      -0.99835508
O        1.23714496       0.68623643      -1.17646908
C       -0.28701476      -0.79338828      -2.19435065
O       -1.13505380       0.33264677      -2.39755298
C        0.51487857      -1.03525805      -3.46569383
O       -0.30333525      -1.04256065      -4.62542311
O        2.03816809      -2.12104111       1.48175645
P        1.16235335      -0.92786928       1.72111868
O        0.38669451      -0.72757890       3.01938146
O       -1.67282406       1.77274788       3.88701576
O        2.11180267       0.45536954       1.47179491
H       -0.00952448       1.91549451       1.63432758
H       -1.90189140       0.26348278      -0.16782991
H       -1.24119536      -0.50287362       2.42020819
H       -0.55700666      -1.71393826       0.36104077
H       -0.01906847       0.77988760       3.76870280
H        1.40820340      -1.37884250      -1.04325295
H        1.68533909       0.89509669      -0.33929970
H       -0.94658436      -1.64562737      -2.01292617
H       -0.61184869       1.10425237      -2.12860992
H        1.00937013      -2.00693498      -3.41361456
H        1.29126666      -0.26699767      -3.53362321
H       -0.92643135      -0.31308008      -4.49373572
H       -1.84452095       1.18510790       3.11682460
H        3.02038813       0.13701024       1.41096814
31
Properties=species:S:1:pos:R:3 relative_energy_eV=-0.02703252162609715 branch=right pbc="F F F"
O       -1.02277704       2.62165061       0.04999356
C       -0.68502712       1.72176738       0.78988959
C       -1.17932564       0.28636452       0.64430764
O       -1.90259891      -0.06906411       1.83036502
C       -0.06651878      -0.73540491       0.34846464
O       -0.25061299       1.69534095       4.06492077
C        0.63686732      -0.59961032      -1.00089262
O        1.23579073       0.68788709      -1.17965108
C       -0.28907179      -0.79141724      -2.19560381
O       -1.12801895       0.34047134      -2.40310830
C        0.51130356      -1.04498128      -3.46579734
O       -0.30634062      -1.04737960      -4.62606367
O        2.03954621      -2.11852281       1.48136082
P        1.16493556      -0.92425443       1.71840093
O        0.38832248      -0.72125881       3.01539901
O       -1.68160030       1.76220906       3.89722465
O        2.11273406       0.46040503       1.46932707
H       -0.01177472       1.91252857       1.64307880
H       -1.89922291       0.26956809      -0.16865086
H       -1.23597632      -0.50188737       2.41638027
H       -0.55583929      -1.71271981       0.35956908
H       -0.02118252       0.78151556       3.77320431
H        1.41041830      -1.37478038      -1.04920919
H        1.68112886       0.89708942      -0.34123255
H       -0.95494329      -1.63857450      -2.01212484
H       -0.59664957       1.10860094      -2.13978918
H        0.99644218      -2.02107463      -3.40983822
H        1.29775756      -0.28699147      -3.53572992
H       -0.92384876      -0.31274212      -4.49597317
H       -1.85044672       1.17740747       3.12354416
H        3.02275849       0.14654295       1.40655464
31
Properties=species:S:1:pos:R:3 relative_energy_eV=-0.02738964430318447 branch=right pbc="F F F"
O       -1.02523174       2.62613701       0.05833409
C       -0.68197332       1.72385880       0.79295877
C       -1.17656960       0.28847680       0.64400090
O       -1.90027670      -0.06865467       1.82957849
C       -0.06435622      -0.73314238       0.34778221
O       -0.25720622       1.69274001       4.06683813
C        0.63694135      -0.59807387      -1.00274861
O        1.23572054       0.68919935      -1.18422409
C       -0.28962373      -0.79019642      -2.19624785
O       -1.12411834       0.34410399      -2.40848111
C        0.50986603      -1.05222184      -3.46514306
O       -0.30782187      -1.04952885      -4.62514855
O        2.04340994      -2.11536363       1.47973410
P        1.16643506      -0.92314183       1.71858083
O        0.39032939      -0.72235871       3.01643322
O       -1.68944612       1.75081002       3.90395777
O        2.11190992       0.46256906       1.46960991
H       -0.00645915       1.91125464       1.64630214
H       -1.89528463       0.27291204      -0.17032927
H       -1.23405450      -0.50069967       2.41705126
H       -0.55261904      -1.71071710       0.36048452
H       -0.02410663       0.78032574       3.77372350
H        1.41025727      -1.37329220      -1.05250869
H        1.67607021       0.90249398      -0.34440225
H       -0.96025345      -1.63212017      -2.00766208
H       -0.59091515       1.11239446      -2.14939278
H        0.98751065      -2.03228761      -3.40708835
H        1.30141957      -0.29936233      -3.53619997
H       -0.92119712      -0.31119965      -4.49553417
H       -1.85364624       1.17550258       3.12316312
H        3.02151934       0.14826697       1.40489786
31
Properties=species:S:1:pos:R:3 relative_energy_eV=-0.027521065167093184 branch=right pbc="F F F"
O       -1.02407326       2.62670617       0.05954561
C       -0.68364584       1.72419397       0.79499414
C       -1.17624626       0.28846981       0.64420998
O       -1.89979026      -0.07087308       1.82901232
C       -0.06345047      -0.73202624       0.34698600
O       -0.25805989       1.69277692       4.06879149
C        0.63756165      -0.59649614      -1.00368937
O        1.23748434       0.69006770      -1.18611797
C       -0.28985159      -0.78877380      -2.19714081
O       -1.12186359       0.34689458      -2.41228741
C        0.50898418      -1.05569011      -3.46576886
O       -0.30785385      -1.05038963      -4.62631790
O        2.04352092      -2.11357020       1.47952901
P        1.16639489      -0.92145820       1.71790945
O        0.39062126      -0.72149236       3.01606971
O       -1.69073199       1.74768742       3.90802746
O        2.11152674       0.46411010       1.46811604
H       -0.00906824       1.91235184       1.64806687
H       -1.89487488       0.27315891      -0.17000306
H       -1.23237072      -0.50064770       2.41679066
H       -0.55176781      -1.70971464       0.35917306
H       -0.02367872       0.78006517       3.77758189
H        1.40963772      -1.37299319      -1.05287318
H        1.67534035       0.90590963      -0.34559451
H       -0.96201167      -1.62902878      -2.00661858
H       -0.58673193       1.11409801      -2.15408309
H        0.98268328      -2.03746031      -3.40703733
H        1.30360927      -0.30627690      -3.53703986
H       -0.92019834      -0.31174112      -4.49386633
H       -1.85547674       1.17294631       3.12656570
H        3.02061120       0.14788012       1.40538884
