17
Properties=species:S:1:pos:R:3 relative_energy_eV=2.3377668571010872 branch=ts pbc="F F F"
O       -1.85083138      -1.56691093      -0.22822213
C       -1.31586804      -0.55288344       0.15404941
O       -2.08970142       0.43516374       0.74491447
C        0.11296735      -0.25945412       0.17122542
O        0.93928241      -1.05777963      -0.58515545
C        0.76805507      -0.83280824       1.96168241
O        1.85918907      -1.42967096       1.64954299
P       -0.31335204       1.45026979      -1.93309262
O       -1.33335839       0.97575552      -2.90498853
O       -0.39320758       2.64983359      -1.04641391
O        1.18756615       0.96288966      -2.24161798
H       -1.55998530       1.24476211       0.77761553
H        0.44301110       0.76328480       0.30279306
H        1.58337839      -1.39539239       0.14322332
H        0.82139865       0.14137448       2.47662922
H       -0.07500089      -1.42237269       2.34350567
H        1.33297047       0.09585460      -1.76387338
