17
Properties=species:S:1:pos:R:3 relative_energy_eV=2.5122995146339235 branch=ts pbc="F F F"
O       -0.41814259       2.82997195       0.57310782
C        0.22309732       1.83758282       0.84089217
O        1.07558708       1.77251520       1.88337537
C        0.17371516       0.56607554       0.02572252
O        0.14398733       0.81422704      -1.23502274
P        0.13825632      -0.37370053      -2.67544947
O        0.14164833       0.58996449      -3.80811527
O        1.12712142      -1.42687621      -2.34155978
O       -1.38007916      -0.95937091      -2.43048519
C        0.08744903      -0.71942748       0.63453622
O       -0.07275872      -1.50218471       3.19271116
H        0.96145379       2.60479733       2.36921027
H       -0.83222646      -0.81586421       1.24549441
H       -1.98495108      -0.35500732      -2.88009405
H        0.16390548      -1.54660967      -0.05933019
H        0.72350906      -0.87043657       1.54079195
H       -0.27157922      -2.44565734       3.12420827
