17
Properties=species:S:1:pos:R:3 relative_energy_eV=0.0 branch=left pbc="F F F"
C       -1.15741643       0.13975362      -1.82157350
C       -0.67859960       0.89224017      -0.80972336
O       -0.53770617       0.53189038       0.45859473
P       -0.08510579      -1.13893224       1.01842600
O        0.59859892      -2.58529344       1.90763555
O       -1.19947692      -1.96325052       0.43498830
O        1.35923331      -0.90908462       0.24541937
C       -0.27773341       2.30166924      -1.06941470
O        0.01653777       3.13990298      -0.24222664
O       -0.25374873       2.63709621      -2.40615191
O        1.74048824      -2.20851920       2.77017941
H       -1.45564441      -0.87460986      -1.61930947
H       -1.24051800       0.52700800      -2.82276338
H        1.95632542      -1.62511391       0.49650670
H        0.03257438       3.56183735      -2.40121996
H       -0.19846939      -0.47828981       2.25583031
H        1.25471635      -1.89130153       3.54535774
17
Properties=species:S:1:pos:R:3 relative_energy_eV=7.955504406709224e-05 branch=left pbc="F F F"
C       -1.15674942       0.13816466      -1.82014119
C       -0.67830435       0.89176723      -0.80896367
O       -0.53843954       0.53275754       0.45998176
P       -0.08522606      -1.13830440       1.01853964
O        0.59875227      -2.58446125       1.90731421
O       -1.19792389      -1.96382972       0.43371490
O        1.35804720      -0.90720652       0.24432319
C       -0.27782043       2.30138946      -1.06904750
O        0.01827190       3.13830041      -0.24131899
O       -0.25439340       2.63785616      -2.40557425
O        1.74031079      -2.20621708       2.76964180
H       -1.45709826      -0.87563117      -1.61768005
H       -1.23684566       0.52479851      -2.82167754
H        1.95404158      -1.62524800       0.49204502
H        0.03328963       3.56221305      -2.40199504
H       -0.19942061      -0.47884304       2.25648546
H        1.25356379      -1.89050304       3.54490732
17
Properties=species:S:1:pos:R:3 relative_energy_eV=0.00039776201083441265 branch=left pbc="F F F"
C       -1.16018792       0.13876876      -1.82046083
C       -0.67984532       0.89108258      -0.80916262
O       -0.54417429       0.52890439       0.45952667
P       -0.08474800      -1.14173883       1.01535829
O        0.60764847      -2.58473758       1.90378044
O       -1.19062808      -1.97223910       0.42422130
O        1.36133561      -0.89920928       0.24894507
C       -0.26695978       2.29739227      -1.06799296
O        0.06701721       3.12232829      -0.24225632
O       -0.27973628       2.64545068      -2.40188531
O        1.73648269      -2.19472326       2.77729699
H       -1.45919852      -0.87506579      -1.61595390
H       -1.24181415       0.52254368      -2.82304446
H        1.95732932      -1.61923819       0.48979986
H        0.02252939       3.56516288      -2.39846048
H       -0.20959906      -0.48659957       2.25453710
H        1.23860430      -1.88107886       3.54630589
17
Properties=species:S:1:pos:R:3 relative_energy_eV=0.0011316600575810298 branch=left pbc="F F F"
C       -1.15523332       0.13621456      -1.82594540
C       -0.68373283       0.88842723      -0.81094999
O       -0.56369980       0.52695684       0.45980503
P       -0.09312786      -1.13765747       1.01763165
O        0.60146092      -2.58013064       1.90521539
O       -1.19254890      -1.97583421       0.42580202
O        1.35228267      -0.88648495       0.25435501
C       -0.25862861       2.29009082      -1.06839538
O        0.10716760       3.10285596      -0.24445371
O       -0.30159717       2.65133094      -2.39850623
O        1.74112793      -2.19311705       2.76491394
H       -1.44866772      -0.87839803      -1.61780012
H       -1.23454051       0.52055281      -2.82872167
H        1.95535057      -1.60015494       0.49816890
H        0.01746081       3.56545466      -2.39122015
H       -0.22309603      -0.48396169       2.25656669
H        1.25407798      -1.88914179       3.54408844
17
Properties=species:S:1:pos:R:3 relative_energy_eV=0.0016811364293971565 branch=left pbc="F F F"
C       -1.16106424       0.13523725      -1.82994226
C       -0.68596719       0.88361703      -0.81372380
O       -0.57379293       0.52224207       0.45750064
P       -0.09388752      -1.14052658       1.01475033
O        0.60739529      -2.57793264       1.90205416
O       -1.18585743      -1.98248701       0.41374170
O        1.35437368      -0.87547949       0.25923174
C       -0.23936208       2.27871749      -1.07108911
O        0.19156586       3.06606644      -0.25397823
O       -0.34179184       2.66570148      -2.39032621
O        1.73684386      -2.18495953       2.77362653
H       -1.45659834      -0.88077239      -1.63170008
H       -1.24263003       0.52555576      -2.82980292
H        1.96731468      -1.57486833       0.51723986
H       -0.00986246       3.57505883      -2.38257964
H       -0.23439020      -0.49013902       2.25482888
H        1.24176663      -1.88802786       3.55072203
17
Properties=species:S:1:pos:R:3 relative_energy_eV=0.0018380053734290414 branch=left pbc="F F F"
C       -1.16636418       0.13652696      -1.83222606
C       -0.68624308       0.88249125      -0.81612330
O       -0.57230964       0.52051318       0.45485300
P       -0.09131255      -1.14004428       1.01401718
O        0.61174084      -2.57766086       1.90187777
O       -1.17805881      -1.98561201       0.40914271
O        1.35874913      -0.87174693       0.26423860
C       -0.23295045       2.27624461      -1.07253910
O        0.21910691       3.05474289      -0.25857829
O       -0.35863908       2.67185283      -2.38752681
O        1.73507242      -2.18203768       2.78050153
H       -1.46419114      -0.87975214      -1.63565516
H       -1.24636786       0.52888094      -2.83185307
H        1.97242260      -1.57090104       0.52240612
H       -0.01941545       3.57854026      -2.38282685
H       -0.24048176      -0.49160038       2.25419694
H        1.23329780      -1.89343387       3.55664818
17
Properties=species:S:1:pos:R:3 relative_energy_eV=0.002138249034032924 branch=left pbc="F F F"
C       -1.16987181       0.14029370      -1.83594643
C       -0.68501443       0.87943296      -0.81774471
O       -0.57422278       0.51374008       0.45197110
P       -0.09096970      -1.14687815       1.01191666
O        0.61681833      -2.57953503       1.90670773
O       -1.17234892      -1.99559831       0.40179459
O        1.36099614      -0.87210925       0.26826300
C       -0.22614665       2.27136272      -1.07268579
O        0.24962096       3.03906045      -0.26218028
O       -0.37576005       2.67899407      -2.38159366
O        1.73500203      -2.17466834       2.78731626
H       -1.47471998      -0.87422196      -1.64429407
H       -1.24802787       0.53861180      -2.83289592
H        1.97450759      -1.57058044       0.52898567
H       -0.02834204       3.58253033      -2.37752771
H       -0.24839399      -0.49926900       2.25138909
H        1.23092873      -1.87416137       3.55707759
17
Properties=species:S:1:pos:R:3 relative_energy_eV=0.002298224328114884 branch=left pbc="F F F"
C       -1.17335249       0.14202142      -1.83772311
C       -0.68571870       0.87896035      -0.81890345
O       -0.57417248       0.51190428       0.45047913
P       -0.08747078      -1.14850447       1.01075941
O        0.61997196      -2.57840415       1.90908047
O       -1.16427302      -2.00102836       0.39800872
O        1.36456850      -0.87328133       0.26760602
C       -0.22241846       2.26966722      -1.07340776
O        0.26549757       3.03281370      -0.26572410
O       -0.38528514       2.68258219      -2.37906106
O        1.73231700      -2.16909936       2.79521189
H       -1.48265247      -0.87151172      -1.64573840
H       -1.24993710       0.54111696      -2.83501955
H        1.97803470      -1.57204310       0.52702726
H       -0.03400579       3.58456569      -2.37411723
H       -0.24832858      -0.49970370       2.24928830
H        1.22128077      -1.87305115       3.56278641
17
Properties=species:S:1:pos:R:3 relative_energy_eV=0.002455126646964345 branch=left pbc="F F F"
C       -1.17588396       0.14261877      -1.83753368
C       -0.68564259       0.87876351      -0.81936622
O       -0.57386914       0.51082051       0.44964596
P       -0.08648190      -1.14888806       1.01016281
O        0.61532186      -2.57852890       1.91015689
O       -1.16008863      -2.00223061       0.39273265
O        1.36851901      -0.87050881       0.27357245
C       -0.22044578       2.26938494      -1.07307424
O        0.27235543       3.03074816      -0.26665419
O       -0.38740565       2.68340445      -2.37764401
O        1.73031905      -2.17524048       2.79492934
H       -1.48412221      -0.87133399      -1.64688379
H       -1.25416364       0.54076006      -2.83473534
H        1.98070174      -1.57126023       0.53136982
H       -0.03783181       3.58603451      -2.37422660
H       -0.25068167      -0.49990794       2.24818046
H        1.22345540      -1.86763126       3.55992051
17
Properties=species:S:1:pos:R:3 relative_energy_eV=0.0028540473722387105 branch=left pbc="F F F"
C       -1.18348118       0.14303169      -1.83613034
C       -0.68191727       0.87855172      -0.82318648
O       -0.56311629       0.51069781       0.44549167
P       -0.07943427      -1.14870349       1.00474225
O        0.61924206      -2.58080313       1.90604268
O       -1.14925244      -2.00213695       0.38076521
O        1.37957118      -0.86975595       0.27628869
C       -0.21371618       2.26737772      -1.07809845
O        0.29216780       3.02102996      -0.27274915
O       -0.39722014       2.69067584      -2.37785682
O        1.72191324      -2.17497221       2.80534732
H       -1.49501952      -0.86835772      -1.63648294
H       -1.27058375       0.53805169      -2.83431924
H        1.99214942      -1.56632892       0.54418796
H       -0.05049698       3.59457180      -2.37231615
H       -0.24981703      -0.50170453       2.24279625
H        1.20306682      -1.87422041       3.56603015
17
Properties=species:S:1:pos:R:3 relative_energy_eV=0.003125121413177112 branch=left pbc="F F F"
C       -1.18592499       0.14235522      -1.83490990
C       -0.68055705       0.87788701      -0.82389246
O       -0.55801048       0.51201718       0.44506794
P       -0.07602081      -1.14783933       1.00454318
O        0.61990569      -2.58252491       1.90310599
O       -1.14339156      -2.00046934       0.37549138
O        1.38475160      -0.86424905       0.28114970
C       -0.21285079       2.26641557      -1.08108002
O        0.30144587       3.01861625      -0.27948777
O       -0.40451246       2.69265182      -2.37847913
O        1.71786822      -2.18308122       2.81196743
H       -1.49539003      -0.86968154      -1.63560077
H       -1.27980896       0.54116856      -2.83083384
H        1.99633305      -1.56394913       0.54390741
H       -0.05256923       3.59456979      -2.37014578
H       -0.25256099      -0.50483007       2.24433134
H        1.19534843      -1.87205177       3.56541768
17
Properties=species:S:1:pos:R:3 relative_energy_eV=0.003664280582597712 branch=left pbc="F F F"
C       -1.18940886       0.14462939      -1.82902542
C       -0.67660047       0.88090519      -0.82231705
O       -0.54724353       0.51505457       0.44588774
P       -0.06986131      -1.14832957       1.00313223
O        0.62257728      -2.58554417       1.89602319
O       -1.13571770      -1.99949459       0.36884680
O        1.39438346      -0.85953201       0.28938058
C       -0.21085171       2.26913742      -1.08714261
O        0.31397809       3.02307070      -0.29404713
O       -0.42093885       2.69503606      -2.38193975
O        1.70985927      -2.18569808       2.81681698
H       -1.49737913      -0.86790387      -1.63077338
H       -1.29280590       0.54369492      -2.82336746
H        2.00711089      -1.55593610       0.55623453
H       -0.05820891       3.59270739      -2.38166375
H       -0.24992202      -0.50690257       2.24276809
H        1.17508497      -1.89788951       3.57173865
17
Properties=species:S:1:pos:R:3 relative_energy_eV=0.004232024242810439 branch=left pbc="F F F"
C       -1.19129243       0.14742139      -1.82499806
C       -0.67859114       0.88382066      -0.81816486
O       -0.54467716       0.51764561       0.45004552
P       -0.06572729      -1.14745180       1.00142116
O        0.62648321      -2.58847757       1.89192091
O       -1.12603268      -1.99883953       0.35907003
O        1.40033587      -0.85704549       0.29140595
C       -0.21085203       2.27084947      -1.08764883
O        0.32729409       3.02329711      -0.30207588
O       -0.43086157       2.69300898      -2.38268466
O        1.70337612      -2.19000199       2.82532152
H       -1.48914266      -0.86857988      -1.62783157
H       -1.30452853       0.55286723      -2.81628409
H        2.01138075      -1.55639686       0.55648140
H       -0.06265089       3.58823676      -2.39340476
H       -0.25424496      -0.51185747       2.24288069
H        1.16378687      -1.90149141       3.57509763
17
Properties=species:S:1:pos:R:3 relative_energy_eV=0.004594617272232426 branch=left pbc="F F F"
C       -1.19481837       0.15027353      -1.82352508
C       -0.67855056       0.88542177      -0.81819510
O       -0.54274080       0.51889039       0.44945418
P       -0.06261703      -1.14667634       1.00068266
O        0.63022168      -2.58710907       1.89129571
O       -1.12323057      -1.99688202       0.35703667
O        1.40209026      -0.85444182       0.29004736
C       -0.20901582       2.27026939      -1.08929521
O        0.33180840       3.02161935      -0.30469971
O       -0.43476905       2.69145171      -2.38341188
O        1.70070480      -2.18867224       2.83261420
H       -1.48837620      -0.86619953      -1.62690844
H       -1.30604786       0.55298183      -2.81528492
H        2.01203772      -1.55536791       0.55312810
H       -0.06786959       3.58687555      -2.39732789
H       -0.24716587      -0.51280590       2.24282556
H        1.15239443      -1.91262351       3.58211587
17
Properties=species:S:1:pos:R:3 relative_energy_eV=0.006354330929752905 branch=left pbc="F F F"
C       -1.19376595       0.14982349      -1.82216731
C       -0.66683932       0.88229279      -0.81926760
O       -0.53612471       0.51983575       0.45037881
P       -0.05899071      -1.14488346       0.99860070
O        0.64596268      -2.58286383       1.88911877
O       -1.11590483      -1.99965642       0.35447391
O        1.40589831      -0.85379882       0.28435846
C       -0.19759482       2.26745247      -1.09156579
O        0.34146951       3.02404296      -0.31061041
O       -0.43012415       2.68540235      -2.38489867
O        1.69305615      -2.16501599       2.84623759
H       -1.49936846      -0.86372990      -1.62332344
H       -1.31478349       0.55687443      -2.81247914
H        2.01060000      -1.56258543       0.53697294
H       -0.08946090       3.59099593      -2.39553591
H       -0.25107408      -0.51322680       2.24109441
H        1.13110031      -1.93395454       3.59916472
17
Properties=species:S:1:pos:R:3 relative_energy_eV=0.007990331665496342 branch=left pbc="F F F"
C       -1.19617708       0.15016373      -1.82379502
C       -0.67231794       0.88493968      -0.82243530
O       -0.53469985       0.52061451       0.44550854
P       -0.05213061      -1.14292747       1.00385814
O        0.65426000      -2.57964834       1.88576521
O       -1.11050969      -1.99730882       0.36286934
O        1.41056057      -0.84760972       0.29142863
C       -0.20007613       2.26830799      -1.09922929
O        0.34384816       3.01968462      -0.31683427
O       -0.42972497       2.68939701      -2.39365224
O        1.68962946      -2.16116651       2.85622552
H       -1.50790409      -0.85970701      -1.62204387
H       -1.31025430       0.55319811      -2.81466326
H        2.01031193      -1.56518220       0.52958050
H       -0.09638447       3.59823326      -2.39673858
H       -0.24111386      -0.50729227       2.24305987
H        1.11673842      -1.96669166       3.61164813
17
Properties=species:S:1:pos:R:3 relative_energy_eV=0.011231485194002744 branch=left pbc="F F F"
C       -1.21109220       0.14990235      -1.82179007
C       -0.67653816       0.88493551      -0.82554597
O       -0.53002227       0.52218753       0.44184694
P       -0.04863429      -1.14385919       0.99565231
O        0.66976441      -2.57518800       1.89027992
O       -1.11180779      -2.00287726       0.36639214
O        1.41286353      -0.85943538       0.27071263
C       -0.20422718       2.26973776      -1.10240969
O        0.34615467       3.01788982      -0.32137940
O       -0.44047278       2.70377734      -2.39055561
O        1.68119207      -2.14163824       2.87537667
H       -1.52009128      -0.86100470      -1.61329245
H       -1.29787836       0.54143283      -2.82151327
H        2.01783723      -1.56671979       0.52305357
H       -0.08548768       3.60508263      -2.38961368
H       -0.22467207      -0.49974400       2.23207847
H        1.09716758      -1.98747437       3.63125958
17
Properties=species:S:1:pos:R:3 relative_energy_eV=0.015952013145579258 branch=left pbc="F F F"
C       -1.20390229       0.14772300      -1.82947253
C       -0.67466059       0.88756139      -0.83271996
O       -0.52387827       0.52343645       0.43384581
P       -0.04060696      -1.13998071       0.99653680
O        0.67371072      -2.57197821       1.88992678
O       -1.10846994      -1.99148685       0.37006223
O        1.41357649      -0.86499420       0.25763289
C       -0.21231981       2.27652633      -1.09992127
O        0.34463922       3.01829720      -0.31705415
O       -0.46173109       2.71415780      -2.38352800
O        1.67430226      -2.13632760       2.88781087
H       -1.53951348      -0.85119797      -1.60851901
H       -1.29748032       0.52155088      -2.83573299
H        2.02278731      -1.56301360       0.52646911
H       -0.07078509       3.59965791      -2.39447333
H       -0.21064702      -0.49592523       2.23195895
H        1.08903421      -2.01700181       3.64772989
17
Properties=species:S:1:pos:R:3 relative_energy_eV=0.03376381042471621 branch=left pbc="F F F"
C       -1.19489900       0.13758890      -1.83894145
C       -0.67944273       0.87394093      -0.83484034
O       -0.54547978       0.50901331       0.43024081
P       -0.03390357      -1.13669251       0.99776896
O        0.71076747      -2.55958962       1.87116379
O       -1.12207566      -2.00113494       0.41756945
O        1.40735136      -0.86153493       0.21824330
C       -0.21075906       2.26228636      -1.08251878
O        0.35310566       2.98741239      -0.28984862
O       -0.47535255       2.71058505      -2.35955008
O        1.65908416      -2.14064088       2.92661750
H       -1.54945279      -0.85451932      -1.61286644
H       -1.27390272       0.53420629      -2.83596555
H        2.03035522      -1.55674508       0.47191097
H       -0.06731954       3.58756656      -2.39065825
H       -0.14722344      -0.43930632       2.21528266
H        1.01320232      -1.99543154       3.63694402
17
Properties=species:S:1:pos:R:3 relative_energy_eV=0.09849102153020795 branch=left pbc="F F F"
C       -1.21585028       0.14372765      -1.83971842
C       -0.68853011       0.84914314      -0.82136062
O       -0.58905734       0.47759174       0.44472570
P       -0.00961007      -1.12915473       0.99362437
O        0.80200559      -2.55811650       1.82548292
O       -1.13924064      -2.00424283       0.53096185
O        1.37882452      -0.88034876       0.12794193
C       -0.19761730       2.22840285      -1.06114941
O        0.38285030       2.93361033      -0.26362962
O       -0.45906223       2.70310299      -2.32907530
O        1.60394829      -2.12821465       2.98706595
H       -1.53509699      -0.86784102      -1.65471753
H       -1.24833241       0.54727893      -2.83760155
H        2.02562914      -1.53818324       0.39572353
H       -0.07233924       3.59093699      -2.34241686
H       -0.02135909      -0.43696886       2.21801235
H        0.85689323      -1.87371953       3.56668237
17
Properties=species:S:1:pos:R:3 relative_energy_eV=0.17322664142557187 branch=left pbc="F F F"
C       -1.20616856       0.12855990      -1.84705389
C       -0.73393077       0.84992391      -0.80851515
O       -0.62416800       0.47149066       0.45310125
P       -0.00439386      -1.15678224       0.97409857
O        0.96793266      -2.51328724       1.84145577
O       -1.13684269      -2.05559773       0.58146374
O        1.30717315      -0.89020128       0.01451169
C       -0.18255420       2.21106147      -1.02844842
O        0.44605014       2.88125434      -0.23483765
O       -0.43348123       2.70087365      -2.28639424
O        1.54210879      -2.10020124       3.13018039
H       -1.51847046      -0.89731976      -1.71434025
H       -1.24364304       0.55707446      -2.83519857
H        1.94133358      -1.58149120       0.24235577
H       -0.06059768       3.59153006      -2.24548633
H        0.05050225      -0.45406563       2.17513976
H        0.76320534      -1.68581789       3.52851878
17
Properties=species:S:1:pos:R:3 relative_energy_eV=0.2758124032225169 branch=left pbc="F F F"
C       -1.19867214       0.13847042      -1.87760699
C       -0.73058689       0.83015369      -0.82183791
O       -0.69888054       0.43854876       0.44835136
P       -0.00436748      -1.13299421       0.99815134
O        1.12453404      -2.38759537       1.86212004
O       -1.06182717      -2.10071889       0.55639064
O        1.27693144      -0.88818901      -0.00016256
C       -0.18180569       2.19496634      -1.02612196
O        0.46351853       2.82407181      -0.21611312
O       -0.46159063       2.75284478      -2.25761535
O        1.53144853      -2.15731265       3.27111825
H       -1.49249572      -0.88658092      -1.75746095
H       -1.24841073       0.55061241      -2.87119107
H        1.79541451      -1.69256363       0.04735109
H       -0.00804411       3.60918305      -2.21876017
H       -0.01660093      -0.41982372       2.22246384
H        0.78549028      -1.61606888       3.58147448
17
Properties=species:S:1:pos:R:3 relative_energy_eV=0.34472896780062 branch=left pbc="F F F"
C       -1.19705072       0.13434950      -1.88839208
C       -0.73024696       0.83434621      -0.83686529
O       -0.67244774       0.42388063       0.42468738
P       -0.00347303      -1.15229950       0.96689074
O        1.21888208      -2.28871103       1.85234187
O       -1.02692590      -2.17496520       0.58008006
O        1.26187230      -0.92449385      -0.06431135
C       -0.16851315       2.20177231      -1.00039853
O        0.49821657       2.80404381      -0.18735715
O       -0.45563165       2.77837262      -2.21462793
O        1.52162800      -2.09547700       3.28340040
H       -1.48175154      -0.89804737      -1.73923339
H       -1.27677629       0.57013914      -2.87562041
H        1.71898935      -1.77290806       0.03825018
H        0.01828543       3.62326130      -2.18285278
H       -0.15698672      -0.49451703       2.20355730
H        0.80598527      -1.51174266       3.58100183
17
Properties=species:S:1:pos:R:3 relative_energy_eV=0.44999857581206015 branch=left pbc="F F F"
C       -1.23375319       0.16030864      -1.85386254
C       -0.70119744       0.82727890      -0.81483055
O       -0.57636002       0.38989471       0.43648879
P       -0.01763732      -1.22047998       0.94500667
O        1.28994430      -2.17413749       1.82864732
O       -1.01262431      -2.26708829       0.54696910
O        1.19914244      -1.09529749      -0.19052382
C       -0.13594015       2.18522029      -0.96920000
O        0.53758818       2.76271419      -0.14397389
O       -0.42176922       2.79334163      -2.16942782
O        1.49981686      -1.90678043       3.26890816
H       -1.45765833      -0.88312436      -1.71339812
H       -1.33185817       0.57666160      -2.84444502
H        1.77048652      -1.84412071       0.03507252
H        0.03625275       3.64418503      -2.08859082
H       -0.35026746      -0.61639923       2.19564441
H        0.77988998      -1.27517329       3.47206630
17
Properties=species:S:1:pos:R:3 relative_energy_eV=0.4949037494516233 branch=left pbc="F F F"
C       -1.22242320       0.14998539      -1.81791561
C       -0.64378943       0.80550542      -0.79803375
O       -0.49274332       0.33447882       0.44178164
P       -0.04458385      -1.31500662       0.88544332
O        1.35782532      -2.03770640       1.83566200
O       -1.08446082      -2.31372330       0.48531352
O        1.12621225      -1.32031118      -0.31657322
C       -0.08990049       2.17738682      -0.92981627
O        0.58215446       2.75310518      -0.09919105
O       -0.38130761       2.80462469      -2.11777889
O        1.44087590      -1.71514441       3.26697646
H       -1.46763722      -0.89031336      -1.66660510
H       -1.40929503       0.61154634      -2.77313758
H        1.84881845      -1.83063991       0.07467566
H        0.04202734       3.67112034      -2.01123610
H       -0.45424069      -0.82078302       2.15864083
H        0.76652350      -1.00712116       3.32234461
17
Properties=species:S:1:pos:R:3 relative_energy_eV=0.5505180302207009 branch=left pbc="F F F"
C       -1.20929107       0.14455499      -1.78179389
C       -0.57742227       0.77676344      -0.77732742
O       -0.37408678       0.30115467       0.45605659
P       -0.05699550      -1.38752153       0.85083194
O        1.40081335      -1.92591274       1.80460963
O       -1.15436034      -2.31740132       0.43062023
O        1.09865864      -1.50209408      -0.36764739
C       -0.05435301       2.15982374      -0.89683098
O        0.59691006       2.74421153      -0.05417046
O       -0.36980380       2.79468303      -2.07648111
O        1.33671814      -1.60368901       3.24396643
H       -1.48704847      -0.89002790      -1.63377141
H       -1.46203307       0.64187221      -2.70768787
H        1.91200388      -1.78284383       0.07444432
H        0.03580001       3.66981449      -1.97695690
H       -0.54852810      -0.98265062       2.11694806
H        0.78707398      -0.78373343       3.23574057
17
Properties=species:S:1:pos:R:3 relative_energy_eV=0.6061257311012014 branch=left pbc="F F F"
C       -1.21629143       0.15412350      -1.71946322
C       -0.51404189       0.76052857      -0.75112051
O       -0.21954789       0.24249804       0.44844710
P       -0.09202519      -1.45380748       0.80319397
O        1.37932998      -1.78892706       1.80213246
O       -1.17966936      -2.37295883       0.32371600
O        1.08135975      -1.70385700      -0.40771070
C       -0.02703259       2.15259691      -0.85961368
O        0.60973126       2.74755692      -0.01692842
O       -0.36132098       2.77359418      -2.04028911
O        1.26505500      -1.48818350       3.22784551
H       -1.48633383      -0.87915000      -1.58860164
H       -1.49416220       0.65824847      -2.62731487
H        1.91181913      -1.71109421       0.07657109
H        0.02539399       3.65705863      -1.94541358
H       -0.66483481      -1.07898727       2.05904462
H        0.85662678      -0.61223624       3.15605523
17
Properties=species:S:1:pos:R:3 relative_energy_eV=0.624310646813683 branch=left pbc="F F F"
C       -1.21832874       0.15003997      -1.70085372
C       -0.50365791       0.75042751      -0.73777594
O       -0.17900103       0.22533384       0.44949838
P       -0.09190444      -1.47660699       0.79705367
O        1.36627725      -1.77127598       1.79471917
O       -1.17416872      -2.37922224       0.27234213
O        1.07331191      -1.75705778      -0.41354253
C       -0.02232175       2.14504541      -0.84663223
O        0.61401051       2.75254314      -0.00696655
O       -0.35918786       2.76252300      -2.02829549
O        1.22301070      -1.45083410       3.22230057
H       -1.48935993      -0.88626048      -1.57290680
H       -1.49590458       0.67235297      -2.60185504
H        1.91921764      -1.70066632       0.03284824
H        0.02212386       3.64776085      -1.93385066
H       -0.68197931      -1.08426029       2.04805873
H        0.87191814      -0.54283895       3.16640828
17
Properties=species:S:1:pos:R:3 relative_energy_eV=0.6469654931352125 branch=left pbc="F F F"
C       -1.21494762       0.14521988      -1.68987240
C       -0.49305697       0.73982064      -0.72793721
O       -0.15624988       0.22193448       0.45969202
P       -0.08348842      -1.47187250       0.80244323
O        1.35779169      -1.74888680       1.81668414
O       -1.17885470      -2.35169087       0.26101778
O        1.07639160      -1.78114095      -0.41258833
C       -0.02057668       2.13519800      -0.83882653
O        0.60900117       2.73945240       0.00081466
O       -0.36188522       2.75116723      -2.02024662
O        1.19020589      -1.42855373       3.24193523
H       -1.50101407      -0.88645601      -1.57756669
H       -1.49638579       0.68013618      -2.58031619
H        1.95799699      -1.70763189      -0.04280160
H        0.02035553       3.63609998      -1.92459435
H       -0.71953660      -1.10306720       2.02267301
H        0.88830887      -0.51272530       3.15004000
17
Properties=species:S:1:pos:R:3 relative_energy_eV=0.7321814870483649 branch=left pbc="F F F"
C       -1.22064081       0.14582511      -1.69167616
C       -0.48859789       0.73307003      -0.73312606
O       -0.13589202       0.22021400       0.45595478
P       -0.08735017      -1.46334853       0.83392456
O        1.37324629      -1.73474620       1.83626872
O       -1.17797081      -2.33293112       0.25472803
O        1.08196696      -1.78149915      -0.40453999
C       -0.01935334       2.13242882      -0.83482570
O        0.60617136       2.73093700       0.00605562
O       -0.36422112       2.74562361      -2.01578394
O        1.13697835      -1.44110573       3.19784557
H       -1.50662892      -0.88687227      -1.58379233
H       -1.49831790       0.68623301      -2.58106971
H        1.98469756      -1.71451838      -0.07531386
H        0.01967191       3.63074160      -1.92265184
H       -0.72231623      -1.12363445       2.06825871
H        0.89261263      -0.48941384       3.13029369
17
Properties=species:S:1:pos:R:3 relative_energy_eV=1.5891142547952768 branch=ts pbc="F F F"
C       -1.22236968       0.14614027      -1.68594172
C       -0.49364181       0.72822345      -0.72352600
O       -0.13612711       0.18802037       0.45547952
P       -0.01615364      -1.49473278       0.75488734
O        1.33616699      -1.75643423       1.64050953
O       -1.17964486      -2.30063195       0.28018216
O        1.11940052      -1.78591551      -0.52221921
C       -0.02242949       2.12673505      -0.83025356
O        0.60967933       2.73152654       0.01082540
O       -0.36343444       2.74172785      -2.01260036
O        0.87454047      -1.38085707       3.32891474
H       -1.50642206      -0.88676549      -1.58546110
H       -1.49753907       0.68806082      -2.57475055
H        1.96785140      -1.72888308      -0.07175891
H        0.01886326       3.62713796      -1.92227541
H       -0.41394195      -1.21069351       2.29549255
H        0.92521387      -0.43265757       3.16249589
17
Properties=species:S:1:pos:R:3 relative_energy_eV=0.022068336911615916 branch=right pbc="F F F"
C       -1.22266919       0.14365616      -1.67922294
C       -0.50173090       0.72237951      -0.70654843
O       -0.14963377       0.16171423       0.48021586
P        0.16863317      -1.57328924       0.55578086
O        1.38450316      -1.80132249       1.48281113
O       -1.19142846      -2.22306292       0.38866505
O        1.13090911      -1.76844452      -0.70825247
C       -0.02357865       2.12408049      -0.82316212
O        0.60976479       2.72458485       0.01577220
O       -0.36395237       2.73622737      -2.00732266
O        0.66990316      -1.25909650       3.62561881
H       -1.50869211      -0.88843471      -1.58593753
H       -1.49527335       0.68718052      -2.56861045
H        1.94824228      -1.74869716      -0.12069717
H        0.01927134       3.62270905      -1.92119948
H       -0.32409556      -1.26861710       2.45735679
H        0.97579488      -0.44856896       3.17418356
17
Properties=species:S:1:pos:R:3 relative_energy_eV=-3.326534405030543 branch=right pbc="F F F"
C       -1.22566413       0.14512831      -1.66310244
C       -0.50631977       0.70520161      -0.67850834
O       -0.07168505       0.09317642       0.43895636
P        0.30543171      -1.61271113       0.34202810
O        1.54001014      -1.90513581       1.20104767
O       -1.06138388      -2.14289636       0.59082687
O        1.17841547      -1.71791857      -1.06307145
C       -0.02850111       2.11183423      -0.79809152
O        0.61307828       2.71592108       0.02602421
O       -0.36587740       2.71987564      -1.99098588
O        0.17678222      -0.92090371       3.76952150
H       -1.51827740      -0.88923141      -1.59169322
H       -1.49290067       0.68791281      -2.55480424
H        1.93678680      -1.78634328      -0.36891283
H        0.01831861       3.60743750      -1.91547247
H       -0.33830654      -1.22398640       3.03936903
H        0.96606004      -0.64436242       3.27632034
17
Properties=species:S:1:pos:R:3 relative_energy_eV=-4.222433719110995 branch=right pbc="F F F"
C       -1.24572271       0.14769875      -1.65509650
C       -0.44464842       0.69766230      -0.72676007
O        0.11201339       0.11548590       0.34596965
P        0.35563076      -1.59140634       0.43596000
O        1.46454439      -1.80652116       1.43305353
O       -0.97104285      -2.27831313       0.50449411
O        1.07615912      -1.69793701      -1.04399539
C       -0.02098178       2.11374496      -0.79817989
O        0.60435882       2.70550546       0.04642280
O       -0.38036059       2.71707687      -1.97445039
O        0.10781356      -0.74054831       3.81731341
H       -1.52925376      -0.88903839      -1.58778119
H       -1.52059147       0.70853757      -2.53329431
H        2.00610431      -1.83173758      -0.83482720
H        0.01766388       3.59450134      -1.90467131
H       -0.46307267      -1.24396874       3.21022048
H        0.95735321      -0.77774399       3.32507418
17
Properties=species:S:1:pos:R:3 relative_energy_eV=-4.324070418108022 branch=right pbc="F F F"
C       -1.21678235       0.13976363      -1.64865042
C       -0.42013326       0.69167685      -0.72801448
O        0.09698343       0.09569632       0.35690302
P        0.38304328      -1.58166588       0.43089356
O        1.45146537      -1.73044705       1.47675933
O       -0.94482531      -2.25715659       0.44812909
O        1.08293212      -1.84110228      -1.05617751
C       -0.01260523       2.11528795      -0.81279338
O        0.60025312       2.72697352       0.03511898
O       -0.37697530       2.73481918      -1.98367897
O        0.11063351      -0.74336052       3.84709167
H       -1.52483966      -0.88561217      -1.56021934
H       -1.55953310       0.71908369      -2.48483201
H        2.03829747      -1.82967972      -0.93542019
H        0.00736108       3.62040604      -1.89835350
H       -0.50718285      -1.21759956       3.26888874
H        0.91787488      -0.81408487       3.30380741
17
Properties=species:S:1:pos:R:3 relative_energy_eV=-4.374008961429354 branch=right pbc="F F F"
C       -1.25098464       0.16576813      -1.63000967
C       -0.39947037       0.70268462      -0.74806824
O        0.21779530       0.08041492       0.26548293
P        0.40511276      -1.60841804       0.42258283
O        1.45938760      -1.67423353       1.48966755
O       -0.93641466      -2.26162732       0.44084462
O        1.10688680      -1.98283812      -1.03516589
C       -0.00070547       2.13351102      -0.82180679
O        0.60953337       2.74796973       0.02484102
O       -0.36812356       2.74765290      -1.99382678
O        0.12080726      -0.77935601       3.88415576
H       -1.49450595      -0.87741249      -1.53495311
H       -1.63577416       0.72869676      -2.46557763
H        2.04871235      -1.78558309      -0.94177074
H       -0.03062519       3.65102862      -1.89603686
H       -0.57933300      -1.18572419       3.35590764
H        0.85366874      -0.85953526       3.24318531
17
Properties=species:S:1:pos:R:3 relative_energy_eV=-4.406291319097363 branch=right pbc="F F F"
C       -1.24326090       0.16239102      -1.63720606
C       -0.33486592       0.69782900      -0.80460462
O        0.33813437       0.08339748       0.18045460
P        0.45783902      -1.61921082       0.42074587
O        1.49015860      -1.69924394       1.50849020
O       -0.90700637      -2.21621633       0.48080593
O        1.14520721      -2.06826376      -1.02487173
C        0.01216847       2.14745791      -0.85154197
O        0.60165514       2.75825591       0.01149143
O       -0.39277810       2.77829858      -2.00210584
O        0.10629395      -0.77670535       3.90037094
H       -1.51472619      -0.87528041      -1.52529493
H       -1.72462030       0.75235595      -2.40393718
H        2.06160369      -1.76042557      -1.00155321
H       -0.06396085       3.68406361      -1.89706304
H       -0.68007142      -1.16089066       3.49730954
H        0.77419676      -0.94481388       3.20796199
17
Properties=species:S:1:pos:R:3 relative_energy_eV=-4.419438155335229 branch=right pbc="F F F"
C       -1.24039814       0.15651536      -1.61764957
C       -0.32219362       0.69850926      -0.80798572
O        0.38036752       0.09330649       0.15799217
P        0.47135830      -1.59962075       0.42256049
O        1.51396539      -1.70013736       1.50019026
O       -0.91214592      -2.15457575       0.48048090
O        1.14968786      -2.06573707      -1.01284854
C        0.00858610       2.14554848      -0.87084109
O        0.60828367       2.76210970      -0.01860358
O       -0.41250042       2.77381075      -2.01583770
O        0.10671033      -0.80213575       3.89998769
H       -1.50287164      -0.88197569      -1.52228200
H       -1.72732103       0.76518310      -2.35691535
H        2.07568253      -1.78809700      -0.98886504
H       -0.09663750       3.68095950      -1.88900217
H       -0.71411537      -1.14203389       3.52105110
H        0.73950905      -0.99863057       3.17802000
17
Properties=species:S:1:pos:R:3 relative_energy_eV=-4.437076904021524 branch=right pbc="F F F"
C       -1.22020729       0.16027727      -1.59354071
C       -0.29991112       0.71737068      -0.79189078
O        0.43082058       0.12627171       0.16238243
P        0.48281868      -1.56053950       0.41968839
O        1.51526064      -1.67791078       1.50271261
O       -0.90612181      -2.09834717       0.49365110
O        1.14885897      -2.04611190      -1.01758521
C        0.02260620       2.16453943      -0.87594678
O        0.64983561       2.80580929      -0.06193028
O       -0.46180877       2.76202425      -2.01057430
O        0.10213312      -0.87685367       3.89380112
H       -1.47059991      -0.88121891      -1.50197612
H       -1.74686529       0.75217585      -2.32168221
H        2.10147582      -1.89463783      -0.96122017
H       -0.17295619       3.68232827      -1.93043586
H       -0.75291707      -1.09038395       3.49971378
H        0.70354482      -1.10179402       3.15428481
17
Properties=species:S:1:pos:R:3 relative_energy_eV=-4.449339722657896 branch=right pbc="F F F"
C       -1.21632041       0.17502494      -1.57770327
C       -0.28263175       0.73817354      -0.79788994
O        0.45978109       0.14142981       0.14846445
P        0.49663490      -1.55088484       0.43292142
O        1.53955231      -1.68055145       1.50832926
O       -0.90070899      -2.06697784       0.51171021
O        1.15807480      -2.06226696      -1.00020253
C        0.02210529       2.19200925      -0.90047505
O        0.67828174       2.84260352      -0.11830956
O       -0.51993384       2.78660891      -2.01490193
O        0.08447372      -0.96382771       3.88521822
H       -1.43376855      -0.87112674      -1.46428652
H       -1.76122076       0.75890816      -2.30169259
H        2.11442718      -1.97434015      -0.90259548
H       -0.22839843       3.70917642      -1.96434992
H       -0.77607377      -1.04372938       3.46488609
H        0.69169234      -1.18723024       3.15032895
17
Properties=species:S:1:pos:R:3 relative_energy_eV=-4.457723565705237 branch=right pbc="F F F"
C       -1.21531728       0.18170801      -1.57242723
C       -0.27876757       0.75060530      -0.80031826
O        0.48037814       0.16131317       0.13967058
P        0.50803094      -1.53445955       0.44418319
O        1.55113491      -1.66834834       1.51864113
O       -0.89113893      -2.04396259       0.53901394
O        1.16517941      -2.06502239      -0.98692664
C        0.01354624       2.20500374      -0.92386620
O        0.70415200       2.85950100      -0.17407816
O       -0.56892575       2.80266675      -2.01735202
O        0.06072311      -1.01518220       3.89551663
H       -1.45158111      -0.86125558      -1.46363453
H       -1.74820268       0.76660470      -2.30208325
H        2.12271624      -2.03528685      -0.86954209
H       -0.25445218       3.71745835      -1.95696752
H       -0.76703185      -1.02953244       3.40124878
H        0.69552308      -1.24881163       3.18837352
17
Properties=species:S:1:pos:R:3 relative_energy_eV=-4.467805649401271 branch=right pbc="F F F"
C       -1.22520159       0.18952924      -1.58255865
C       -0.27464007       0.75063958      -0.82110474
O        0.49695485       0.16440053       0.10794500
P        0.51968121      -1.51279621       0.45801591
O        1.57181921      -1.61913110       1.52645372
O       -0.88597486      -2.00351615       0.56241557
O        1.16719629      -2.08818594      -0.95691603
C        0.02617121       2.20292453      -0.93715008
O        0.74553049       2.84430864      -0.20338458
O       -0.59983907       2.80914034      -2.00008615
O        0.02275324      -1.06171623       3.90146296
H       -1.48334622      -0.84716347      -1.45873401
H       -1.74713002       0.77728009      -2.31905135
H        2.12472106      -2.06261568      -0.84666435
H       -0.29365437       3.72635975      -1.94963600
H       -0.75535092      -1.04294550       3.32922386
H        0.71627602      -1.28351281       3.24922068
17
Properties=species:S:1:pos:R:3 relative_energy_eV=-4.476993580879935 branch=right pbc="F F F"
C       -1.21702803       0.18768786      -1.58752773
C       -0.25680841       0.75919694      -0.84830432
O        0.53411097       0.18728500       0.07323734
P        0.53610293      -1.47564554       0.48164289
O        1.60827698      -1.55964648       1.53017209
O       -0.87782619      -1.92396353       0.65426828
O        1.15436351      -2.12079206      -0.91396290
C        0.04406028       2.20893049      -0.97791361
O        0.82034590       2.82748779      -0.28520531
O       -0.65499261       2.83737827      -1.97984713
O       -0.05552562      -1.15238997       3.87242048
H       -1.48768270      -0.83904689      -1.41978495
H       -1.75459527       0.77477086      -2.31133352
H        2.11357724      -2.11207858      -0.79508340
H       -0.36462800       3.76012226      -1.93217573
H       -0.74033341      -1.10014509       3.19462085
H        0.72454845      -1.31615150       3.30422819
17
Properties=species:S:1:pos:R:3 relative_energy_eV=-4.504582407858834 branch=right pbc="F F F"
C       -1.20441199       0.17910089      -1.54392321
C       -0.20327694       0.77271682      -0.87959377
O        0.64374777       0.21652319       0.00082477
P        0.58098791      -1.39863231       0.53946849
O        1.67145861      -1.46328791       1.56989422
O       -0.84583498      -1.78362037       0.77600425
O        1.09940608      -2.15646221      -0.84622201
C        0.08066482       2.22457021      -1.03626332
O        0.93234229       2.84481008      -0.43688555
O       -0.72502683       2.85926544      -1.95164063
O       -0.16725908      -1.25428700       3.80113939
H       -1.44087462      -0.85568517      -1.36297097
H       -1.79173953       0.73643676      -2.25538293
H        2.06121278      -2.17949263      -0.79904461
H       -0.46400439       3.78968577      -1.87868963
H       -0.77555486      -1.23565457       3.04714193
H        0.67412835      -1.35298706       3.31559462
17
Properties=species:S:1:pos:R:3 relative_energy_eV=-4.521206873563642 branch=right pbc="F F F"
C       -1.18982742       0.18544410      -1.54842948
C       -0.20074436       0.78158838      -0.86953441
O        0.65741735       0.22178183      -0.00164748
P        0.59498272      -1.39664557       0.53877702
O        1.70985290      -1.46036983       1.54237437
O       -0.83083857      -1.76454417       0.80044364
O        1.07841986      -2.17930035      -0.84049218
C        0.07975531       2.22896683      -1.03892331
O        0.95062033       2.85141359      -0.47100812
O       -0.75758486       2.86302113      -1.92269681
O       -0.19532666      -1.23506010       3.79904368
H       -1.42382022      -0.84441368      -1.35428895
H       -1.79721891       0.73436993      -2.24781196
H        2.04450891      -2.17881832      -0.81536158
H       -0.44865213       3.78112090      -1.89306815
H       -0.80302252      -1.33818756       3.04783361
H        0.65744362      -1.30736713       3.33424108
17
Properties=species:S:1:pos:R:3 relative_energy_eV=-4.52560119714326 branch=right pbc="F F F"
C       -1.18902231       0.18322861      -1.53720398
C       -0.19919189       0.78411163      -0.86344048
O        0.65029604       0.22773315       0.01539951
P        0.59671461      -1.39816275       0.53708375
O        1.71763411      -1.46570134       1.53292470
O       -0.82585993      -1.77340779       0.80867319
O        1.06993951      -2.17059759      -0.85245836
C        0.08325808       2.23413921      -1.03384975
O        0.96194217       2.85456995      -0.47702997
O       -0.76313098       2.86559638      -1.91178589
O       -0.20789042      -1.22046712       3.80228078
H       -1.41343774      -0.85253157      -1.35493088
H       -1.78358736       0.73497482      -2.24405613
H        2.03403835      -2.18542512      -0.83796165
H       -0.44711138       3.78136736      -1.91443270
H       -0.80426553      -1.38518450       3.05507546
H        0.64563999      -1.27124332       3.33516339
17
Properties=species:S:1:pos:R:3 relative_energy_eV=-4.526911572334939 branch=right pbc="F F F"
C       -1.18884951       0.18838133      -1.53428498
C       -0.19776628       0.78666752      -0.85908529
O        0.65219023       0.22934776       0.01950821
P        0.59998369      -1.39863081       0.54088361
O        1.72310453      -1.46349365       1.53462325
O       -0.82286622      -1.77691054       0.81034596
O        1.06893759      -2.17367111      -0.84885181
C        0.08685848       2.23592159      -1.03819253
O        0.97454279       2.85665984      -0.49700531
O       -0.76439717       2.86408074      -1.91515926
O       -0.21734450      -1.23851260       3.80360844
H       -1.41873668      -0.84646828      -1.35507134
H       -1.78301089       0.74175269      -2.24089672
H        2.03326458      -2.18963985      -0.84121233
H       -0.45774660       3.78296519      -1.91444014
H       -0.80312097      -1.40768544       3.05005796
H        0.64092210      -1.24776426       3.34462324
17
Properties=species:S:1:pos:R:3 relative_energy_eV=-4.5277040044238674 branch=right pbc="F F F"
C       -1.19206204       0.19473489      -1.53057425
C       -0.18923158       0.78776020      -0.86842951
O        0.66439460       0.22926130       0.00543061
P        0.60551684      -1.39428405       0.54051754
O        1.72584634      -1.45771473       1.53737699
O       -0.81805152      -1.76684193       0.81417171
O        1.07525137      -2.17582724      -0.84644606
C        0.09465219       2.23629735      -1.05249899
O        0.98744246       2.86126446      -0.52437522
O       -0.77344791       2.86197409      -1.91380607
O       -0.22856728      -1.26116076       3.81194194
H       -1.42467620      -0.83866422      -1.34559011
H       -1.79032406       0.75453611      -2.22927339
H        2.04018167      -2.19549190      -0.83432939
H       -0.47250236       3.78240369      -1.91314347
H       -0.80981237      -1.42098758       3.05157300
H        0.63135499      -1.25425943       3.35690561
17
Properties=species:S:1:pos:R:3 relative_energy_eV=-4.52867042235448 branch=right pbc="F F F"
C       -1.19500048       0.19951366      -1.51975617
C       -0.18331858       0.79396433      -0.87333471
O        0.68088529       0.23552519      -0.01008985
P        0.60979162      -1.38333418       0.53836239
O        1.72249343      -1.44170668       1.54391543
O       -0.81589096      -1.75581782       0.80206609
O        1.08487283      -2.17323643      -0.84130313
C        0.10298682       2.23974337      -1.07260708
O        1.01265159       2.86220968      -0.57030951
O       -0.78736956       2.86703015      -1.91043645
O       -0.24328672      -1.28918521       3.82065665
H       -1.43206545      -0.83093109      -1.32678679
H       -1.80354217       0.75827095      -2.20910667
H        2.04868723      -2.20108364      -0.81797793
H       -0.48330920       3.78634115      -1.92094250
H       -0.81423401      -1.44834466       3.05288449
H        0.62161342      -1.27595841       3.37421663
17
Properties=species:S:1:pos:R:3 relative_energy_eV=-4.529785740684019 branch=right pbc="F F F"
C       -1.20790980       0.20767720      -1.51056234
C       -0.18526998       0.80079610      -0.87991415
O        0.68426204       0.24646593      -0.01772117
P        0.61479924      -1.36881889       0.54123127
O        1.72009588      -1.42662774       1.55472343
O       -0.81290694      -1.73406316       0.80205890
O        1.10080586      -2.16717450      -0.82946483
C        0.11035500       2.24272132      -1.09586457
O        1.04801849       2.85493562      -0.63401565
O       -0.80153978       2.87702334      -1.90425664
O       -0.26018425      -1.33233948       3.82366627
H       -1.44530050      -0.82058383      -1.30790988
H       -1.82108658       0.76312171      -2.19894696
H        2.06402246      -2.20590679      -0.79233940
H       -0.48790535       3.79299614      -1.93078973
H       -0.80874793      -1.49133258       3.03927819
H        0.61445702      -1.29588980       3.40027808
17
Properties=species:S:1:pos:R:3 relative_energy_eV=-4.531539585368591 branch=right pbc="F F F"
C       -1.23422654       0.22084997      -1.49955936
C       -0.19829277       0.81199378      -0.88906786
O        0.67350914       0.26074841      -0.02826939
P        0.61828785      -1.34548303       0.55354949
O        1.71719451      -1.36704934       1.57563830
O       -0.80504438      -1.73486644       0.80783584
O        1.12517011      -2.15785815      -0.80169955
C        0.12390232       2.24349801      -1.13456035
O        1.10268405       2.83120557      -0.73003070
O       -0.81236066       2.89816164      -1.89631439
O       -0.26925604      -1.41604142       3.83290079
H       -1.47264123      -0.80548774      -1.28550723
H       -1.85389011       0.77602876      -2.18320648
H        2.08912745      -2.18448179      -0.75727413
H       -0.46555696       3.80012245      -1.95750205
H       -0.81355176      -1.56373439       3.04374183
H        0.60090957      -1.32460530       3.40877597
17
Properties=species:S:1:pos:R:3 relative_energy_eV=-4.532176643155253 branch=right pbc="F F F"
C       -1.23765534       0.22414510      -1.49317974
C       -0.20014536       0.81672386      -0.88697288
O        0.67179795       0.27118984      -0.02255115
P        0.62048036      -1.33557898       0.55571953
O        1.71841309      -1.36049644       1.57920348
O       -0.80273676      -1.72542873       0.80756865
O        1.13361081      -2.14029945      -0.80174202
C        0.12464843       2.24494759      -1.14545463
O        1.11159257       2.82988600      -0.75738689
O       -0.81678131       2.89959057      -1.90048912
O       -0.26697598      -1.44191874       3.83703820
H       -1.47569811      -0.80218637      -1.27984043
H       -1.86011696       0.77784833      -2.17548099
H        2.09521570      -2.18876894      -0.73857804
H       -0.46494687       3.79927042      -1.97302530
H       -0.82447595      -1.56704568       3.05283588
H        0.59973821      -1.35887730       3.40178623
17
Properties=species:S:1:pos:R:3 relative_energy_eV=-4.533140733907203 branch=right pbc="F F F"
C       -1.24957465       0.23343145      -1.48453075
C       -0.20810780       0.82452307      -0.88417401
O        0.64371200       0.28973121       0.00704766
P        0.61019634      -1.32474533       0.56579793
O        1.70389751      -1.34534333       1.59415606
O       -0.80836142      -1.73816572       0.80607160
O        1.14288434      -2.10527342      -0.79786850
C        0.13850306       2.24161244      -1.17388142
O        1.13841720       2.81767128      -0.80589750
O       -0.80265408       2.89811528      -1.92783151
O       -0.25543021      -1.48701241       3.84829877
H       -1.49607980      -0.78757031      -1.25796080
H       -1.86584329       0.78176971      -2.17623618
H        2.10414916      -2.14425717      -0.72467787
H       -0.45010881       3.79736250      -2.00279154
H       -0.82154672      -1.62787291       3.07338838
H        0.60191125      -1.38097484       3.40054040
17
Properties=species:S:1:pos:R:3 relative_energy_eV=-4.534203132319817 branch=right pbc="F F F"
C       -1.25042205       0.23553226      -1.48485336
C       -0.21261887       0.82823186      -0.87966389
O        0.63151196       0.29534229       0.01969810
P        0.60493813      -1.32272276       0.57173189
O        1.69938284      -1.34292570       1.59887053
O       -0.81169067      -1.74074520       0.81308541
O        1.13589615      -2.10045058      -0.79290010
C        0.13952509       2.24390305      -1.17510517
O        1.13331690       2.82376120      -0.79450188
O       -0.79029348       2.89072357      -1.95225350
O       -0.24228056      -1.50665963       3.85951785
H       -1.50816988      -0.78026069      -1.24669591
H       -1.84839354       0.77889369      -2.19536781
H        2.09967256      -2.10875175      -0.74240893
H       -0.44323387       3.79153138      -2.03159864
H       -0.82279239      -1.62730110       3.09113099
H        0.61161555      -1.41510020       3.40076508
17
Properties=species:S:1:pos:R:3 relative_energy_eV=-4.535892162166419 branch=right pbc="F F F"
C       -1.26688994       0.25039700      -1.46058152
C       -0.21823606       0.84850838      -0.87847377
O        0.62332428       0.33402932       0.03562208
P        0.60135093      -1.28113313       0.59551345
O        1.69026633      -1.29598476       1.62864482
O       -0.81510406      -1.70491532       0.83099188
O        1.14067374      -2.05654201      -0.76825255
C        0.15256145       2.24723811      -1.22527045
O        1.17672879       2.81090434      -0.90722997
O       -0.79162684       2.89836444      -1.98046686
O       -0.24692813      -1.64359993       3.87899832
H       -1.54072827      -0.75252719      -1.18680417
H       -1.85619995       0.77618635      -2.19283658
H        2.10533166      -2.03935093      -0.72629229
H       -0.41046293       3.77890515      -2.11295935
H       -0.82139935      -1.73340015       3.10242638
H        0.60330123      -1.49407726       3.42642096
17
Properties=species:S:1:pos:R:3 relative_energy_eV=-4.536820792862272 branch=right pbc="F F F"
C       -1.26530917       0.25396369      -1.45851681
C       -0.21980988       0.85574753      -0.87507919
O        0.60651651       0.35443029       0.05987991
P        0.59386546      -1.26363075       0.61191720
O        1.69237332      -1.27850610       1.63465063
O       -0.82023455      -1.69240089       0.85520799
O        1.12012464      -2.03209163      -0.76068225
C        0.15781105       2.24742609      -1.23872256
O        1.17447598       2.81968964      -0.91083254
O       -0.77492258       2.88332089      -2.02019797
O       -0.23960216      -1.70431980       3.88438796
H       -1.54753681      -0.74230052      -1.17068592
H       -1.84327301       0.77033283      -2.20601085
H        2.08388395      -1.99691337      -0.73881287
H       -0.39506596       3.76480707      -2.15461793
H       -0.80943592      -1.76322296       3.10201646
H        0.61210148      -1.53332932       3.44554900
17
Properties=species:S:1:pos:R:3 relative_energy_eV=-4.538210758484638 branch=right pbc="F F F"
C       -1.26923162       0.26007976      -1.45799872
C       -0.22423634       0.86516190      -0.87761579
O        0.60037908       0.36609854       0.05956450
P        0.59399764      -1.25104919       0.61682476
O        1.69894295      -1.26140908       1.63211436
O       -0.81709859      -1.68152422       0.87254548
O        1.11055294      -2.02445721      -0.75612016
C        0.15802597       2.25395248      -1.24878265
O        1.17060263       2.82659411      -0.91131788
O       -0.76223364       2.88382709      -2.04931643
O       -0.24433871      -1.73932607       3.89921559
H       -1.53994900      -0.74045527      -1.17409954
H       -1.85639643       0.77480130      -2.19857920
H        2.07471021      -1.99390490      -0.73997733
H       -0.38347635       3.76392527      -2.18863743
H       -0.79893861      -1.79468083       3.10360637
H        0.61465012      -1.56463107       3.47802454
17
Properties=species:S:1:pos:R:3 relative_energy_eV=-4.539285782306251 branch=right pbc="F F F"
C       -1.27187150       0.26110941      -1.46000549
C       -0.23000549       0.86893833      -0.87582560
O        0.59197951       0.37213580       0.06549794
P        0.58377865      -1.24542486       0.62062624
O        1.68814675      -1.26082852       1.63650831
O       -0.82821392      -1.67259645       0.87592230
O        1.10047568      -2.01499451      -0.75513565
C        0.15199440       2.25867636      -1.24368237
O        1.13956371       2.84736263      -0.86208478
O       -0.73368908       2.86990655      -2.09652842
O       -0.21955356      -1.76835796       3.90980642
H       -1.53277498      -0.74537498      -1.18660750
H       -1.86697922       0.77847701      -2.19297258
H        2.06487044      -1.97267015      -0.74655719
H       -0.35084351       3.74915491      -2.23159322
H       -0.79126676      -1.80343884       3.12653869
H        0.63035101      -1.57907228       3.47554363
17
Properties=species:S:1:pos:R:3 relative_energy_eV=-4.541724617643922 branch=right pbc="F F F"
C       -1.30156729       0.30596723      -1.43332940
C       -0.24111504       0.91189405      -0.88208652
O        0.57799863       0.43518139       0.07282270
P        0.56634547      -1.16729974       0.66798104
O        1.66186481      -1.15488258       1.69375335
O       -0.84719902      -1.59367767       0.91818451
O        1.10147217      -1.97205872      -0.67991921
C        0.15956565       2.27980166      -1.30911239
O        1.13904991       2.88523741      -0.93268718
O       -0.69869714       2.84651162      -2.22079774
O       -0.17732153      -2.00195772       3.90160810
H       -1.58633003      -0.68180892      -1.11954620
H       -1.88757174       0.81298537      -2.18062258
H        2.06511174      -1.95677825      -0.63726989
H       -0.30465901       3.71343919      -2.39821697
H       -0.75782310      -1.98718020       3.12370297
H        0.65683634      -1.73237089       3.47498781
17
Properties=species:S:1:pos:R:3 relative_energy_eV=-4.542188722130959 branch=right pbc="F F F"
C       -1.30604406       0.31338981      -1.43325854
C       -0.24709674       0.92104794      -0.88122367
O        0.56467647       0.44966994       0.08189898
P        0.55588289      -1.15279466       0.67740999
O        1.65380421      -1.13866866       1.70072550
O       -0.85656818      -1.58012876       0.93072129
O        1.08971853      -1.95785785      -0.67092587
C        0.15665435       2.28601470      -1.31234290
O        1.11166050       2.90911706      -0.90392088
O       -0.66779550       2.82734441      -2.26782465
O       -0.15051141      -2.05118848       3.90116663
H       -1.59500574      -0.67039957      -1.11186386
H       -1.88586281       0.81340324      -2.18971316
H        2.05364559      -1.94654859      -0.62652828
H       -0.27694160       3.69580165      -2.44239535
H       -0.74447572      -2.02438771       3.13460261
H        0.67021973      -1.75081110       3.47292509
17
Properties=species:S:1:pos:R:3 relative_energy_eV=-4.542509942595643 branch=right pbc="F F F"
C       -1.30262549       0.30551376      -1.43937703
C       -0.24606729       0.91416618      -0.88364338
O        0.56897409       0.43847207       0.07461737
P        0.56059032      -1.16478885       0.66646185
O        1.66071181      -1.15392886       1.68757270
O       -0.85186475      -1.59084068       0.92237073
O        1.09149454      -1.96807579      -0.68447549
C        0.15314394       2.28479899      -1.30083730
O        1.10676857       2.90528919      -0.88444074
O       -0.67318139       2.83650759      -2.24914383
O       -0.15688206      -2.00798717       3.90460058
H       -1.59152311      -0.67831977      -1.11711677
H       -1.88058138       0.80285584      -2.19921174
H        2.05537146      -1.97013368      -0.63528026
H       -0.28575062       3.70953569      -2.40886986
H       -0.74857628      -1.99924332       3.13556651
H        0.66595844      -1.72081796       3.47065952
