17
Properties=species:S:1:pos:R:3 relative_energy_eV=0.0 branch=left pbc="F F F"
C        0.62435274      -1.38761410       0.75208359
C       -0.69718378      -1.18252073       0.83523511
O       -1.38502008      -0.08472214       0.47099556
P        1.40531110       2.22046046      -1.30798302
O        1.87905762       3.65008128      -1.31676390
O        2.14102341       1.03995624      -0.76084440
O        0.91158662       1.85101904      -2.86185732
C       -1.60584343      -2.22282656       1.37727563
O       -2.80731083      -2.11309755       1.49081032
O       -0.96747334      -3.37233929       1.75869526
O       -0.09264558       2.21228152      -0.52341950
H        1.29762104      -0.65404293       0.33068866
H        1.04758433      -2.31619409       1.10303753
H        0.99756769       2.67116646      -3.36104894
H       -1.68254130      -3.94284446       2.07821099
H       -0.78536256       0.60281317       0.10909757
H       -0.38074786       3.13003368      -0.46131866
17
Properties=species:S:1:pos:R:3 relative_energy_eV=6.29712812951766e-05 branch=left pbc="F F F"
C        0.62510761      -1.38747951       0.75319611
C       -0.69633456      -1.18136982       0.83574715
O       -1.38238944      -0.08282704       0.47138354
P        1.40609482       2.21970784      -1.30821981
O        1.87930941       3.64923899      -1.31564393
O        2.14414672       1.04006687      -0.76296312
O        0.90792163       1.85223227      -2.86117793
C       -1.60613324      -2.22151419       1.37562254
O       -2.80764215      -2.11109351       1.48771703
O       -0.96877567      -3.37129243       1.75806725
O       -0.08946922       2.20777167      -0.51956523
H        1.29921297      -0.65551768       0.32973044
H        1.04763356      -2.31562048       1.10664064
H        0.99346937       2.67272356      -3.35995405
H       -1.68522986      -3.94109714       2.07569560
H       -0.78100016       0.60466268       0.11142944
H       -0.38594593       3.12301786      -0.46481119
17
Properties=species:S:1:pos:R:3 relative_energy_eV=0.000178337017132435 branch=left pbc="F F F"
C        0.62795594      -1.38794243       0.75628073
C       -0.69356410      -1.18060614       0.83497104
O       -1.37876680      -0.08179146       0.47015457
P        1.40379914       2.21946537      -1.30811065
O        1.88034705       3.64791555      -1.31903204
O        2.13977926       1.04042977      -0.75806192
O        0.90634577       1.84650617      -2.86002183
C       -1.60500565      -2.22047245       1.37253485
O       -2.80674653      -2.10981277       1.48259098
O       -0.96937027      -3.37121836       1.75462441
O       -0.09470217       2.21128603      -0.52404151
H        1.30318844      -0.65689489       0.33399061
H        1.04902997      -2.31554156       1.11236358
H        0.98561631       2.66550657      -3.36241566
H       -1.68716123      -3.93977342       2.07146177
H       -0.77742372       0.60581711       0.11065026
H       -0.38334553       3.12873669      -0.45504470
17
Properties=species:S:1:pos:R:3 relative_energy_eV=0.0004719510870927479 branch=left pbc="F F F"
C        0.63484522      -1.38922932       0.76026598
C       -0.68659548      -1.17934877       0.83670521
O       -1.36922000      -0.07993956       0.47067708
P        1.40079911       2.21970403      -1.30845736
O        1.87401049       3.64920698      -1.32174585
O        2.14018812       1.04059427      -0.76357575
O        0.89940885       1.84476413      -2.85767022
C       -1.60432819      -2.21699608       1.36969199
O       -2.80622180      -2.10056926       1.47191823
O       -0.97677518      -3.37179007       1.75348838
O       -0.09423617       2.20834054      -0.51722604
H        1.31373510      -0.66179011       0.33652410
H        1.05202741      -2.31738003       1.11956787
H        0.98071905       2.66291095      -3.36058740
H       -1.69891779      -3.93751943       2.06609596
H       -0.76733496       0.60775891       0.11161251
H       -0.39212779       3.12289249      -0.45439022
17
Properties=species:S:1:pos:R:3 relative_energy_eV=0.0007825480206520297 branch=left pbc="F F F"
C        0.64049458      -1.39198402       0.76505247
C       -0.68086087      -1.17968072       0.83655967
O       -1.36132989      -0.07980110       0.46873573
P        1.39477586       2.21820360      -1.30909468
O        1.86354139       3.64913048      -1.32533185
O        2.13629837       1.04278504      -0.75873268
O        0.89479327       1.83773267      -2.85820217
C       -1.60253819      -2.21586706       1.36427440
O       -2.80406117      -2.09469534       1.46440411
O       -0.98049781      -3.37202348       1.75252475
O       -0.09927031       2.21260335      -0.51773692
H        1.32046059      -0.66471982       0.34296932
H        1.05575360      -2.32022218       1.12711020
H        0.97353953       2.65554344      -3.36234472
H       -1.70757273      -3.93491926       2.05900456
H       -0.75926383       0.60871041       0.11106877
H       -0.38428635       3.13081351      -0.44736649
17
Properties=species:S:1:pos:R:3 relative_energy_eV=0.0010627973861119244 branch=left pbc="F F F"
C        0.64300987      -1.39495882       0.76932942
C       -0.67851338      -1.18226093       0.83589420
O       -1.35620928      -0.08122753       0.46699640
P        1.39158177       2.22003550      -1.31052415
O        1.85941621       3.65130960      -1.33249273
O        2.13184814       1.04684952      -0.75346347
O        0.89581364       1.83386814      -2.85856053
C       -1.60303592      -2.21493319       1.36476569
O       -2.80500819      -2.09279195       1.45951253
O       -0.98348323      -3.37265683       1.75189040
O       -0.10382111       2.21724558      -0.52058285
H        1.32208194      -0.66656847       0.34873785
H        1.06089554      -2.32220280       1.13079586
H        0.96726483       2.65119038      -3.36533469
H       -1.71226276      -3.93539620       2.05428804
H       -0.75223824       0.60604358       0.11122105
H       -0.37736382       3.13806384      -0.43957859
17
Properties=species:S:1:pos:R:3 relative_energy_eV=0.0018227942746307235 branch=left pbc="F F F"
C        0.64663199      -1.40018572       0.77427914
C       -0.67488013      -1.18514449       0.83838761
O       -1.34959752      -0.08522950       0.46146749
P        1.38455990       2.22578219      -1.31313942
O        1.85723686       3.65587906      -1.34472411
O        2.12096250       1.05265982      -0.74992743
O        0.88249737       1.83165263      -2.85741572
C       -1.60450955      -2.21633627       1.36084855
O       -2.80625622      -2.09264795       1.45664193
O       -0.98556660      -3.37276930       1.75092251
O       -0.10961681       2.22825656      -0.52454060
H        1.32605775      -0.66566734       0.36407275
H        1.06098330      -2.33078556       1.13211458
H        0.97812240       2.63987934      -3.37293150
H       -1.71469547      -3.93622862       2.05045748
H       -0.74193263       0.60129281       0.11079831
H       -0.37002120       3.15120166      -0.42441710
17
Properties=species:S:1:pos:R:3 relative_energy_eV=0.0030420583971135784 branch=left pbc="F F F"
C        0.64865985      -1.40248410       0.78461319
C       -0.67312906      -1.18707937       0.83448633
O       -1.34463854      -0.08577160       0.45551465
P        1.37552265       2.22865721      -1.31692865
O        1.85655542       3.65519925      -1.36027255
O        2.10924648       1.06246697      -0.73519131
O        0.88029836       1.81786743      -2.85778992
C       -1.60323069      -2.21769792       1.35756343
O       -2.80478041      -2.09197905       1.45050094
O       -0.98500150      -3.37683005       1.74326929
O       -0.12602775       2.25078498      -0.54078186
H        1.33380144      -0.67006950       0.38240080
H        1.05672399      -2.33787069       1.13579958
H        0.97379585       2.62306629      -3.37794125
H       -1.71027385      -3.94116101       2.05014775
H       -0.73524415       0.59818757       0.10440309
H       -0.35230233       3.17632259      -0.39689905
17
Properties=species:S:1:pos:R:3 relative_energy_eV=0.003477682770608226 branch=left pbc="F F F"
C        0.64940702      -1.40281145       0.78546974
C       -0.67225620      -1.18774465       0.83524795
O       -1.34269307      -0.08594038       0.45588174
P        1.37560875       2.23043773      -1.31774292
O        1.85534299       3.65717988      -1.36545753
O        2.10822407       1.06795036      -0.72732651
O        0.89217572       1.81010833      -2.85875840
C       -1.60279057      -2.21970187       1.35563637
O       -2.80428325      -2.09399151       1.44941635
O       -0.98602067      -3.37939884       1.74212089
O       -0.13135435       2.25674490      -0.54932213
H        1.33645231      -0.67142627       0.38371336
H        1.05487044      -2.33740991       1.14120531
H        0.95559587       2.62087144      -3.37671355
H       -1.71355073      -3.94157986       2.04833437
H       -0.73212882       0.59569236       0.10195916
H       -0.34262381       3.18262862      -0.39076976
17
Properties=species:S:1:pos:R:3 relative_energy_eV=0.004100289901543874 branch=left pbc="F F F"
C        0.65120006      -1.40700334       0.78695752
C       -0.67051544      -1.18819138       0.83463792
O       -1.34342036      -0.08632207       0.45796797
P        1.37503883       2.23474605      -1.31781277
O        1.85578274       3.66147424      -1.36728014
O        2.10127226       1.06934822      -0.72447341
O        0.89436221       1.80851266      -2.85863508
C       -1.60171522      -2.22088051       1.35336563
O       -2.80329984      -2.09649396       1.44907648
O       -0.98504800      -3.38049180       1.73932897
O       -0.13215070       2.26419157      -0.55255649
H        1.34252837      -0.67651022       0.39182265
H        1.05428550      -2.34257491       1.14394553
H        0.95229372       2.61401896      -3.38493295
H       -1.71423453      -3.93863416       2.04834905
H       -0.73841017       0.59655328       0.09765655
H       -0.33799374       3.18986617      -0.38452296
17
Properties=species:S:1:pos:R:3 relative_energy_eV=0.0052446492154558655 branch=left pbc="F F F"
C        0.65223943      -1.40581256       0.79027792
C       -0.66948096      -1.19287638       0.84108771
O       -1.34162762      -0.09095102       0.46208580
P        1.37397875       2.24199610      -1.31960040
O        1.86133610       3.66578788      -1.36377136
O        2.10022877       1.07707166      -0.72606438
O        0.89030587       1.81140847      -2.85858784
C       -1.60069733      -2.22570973       1.35921500
O       -2.80285690      -2.09934925       1.44796793
O       -0.98963346      -3.38773536       1.74818038
O       -0.13371803       2.27376815      -0.55479679
H        1.33763125      -0.67109282       0.39328608
H        1.06117924      -2.34113927       1.13918841
H        0.95562418       2.60666596      -3.39881927
H       -1.72628960      -3.94465393       2.04335278
H       -0.73537197       0.58516736       0.09159143
H       -0.33287200       3.19906355      -0.38169892
17
Properties=species:S:1:pos:R:3 relative_energy_eV=0.008495427147863666 branch=left pbc="F F F"
C        0.65456849      -1.41728905       0.79903076
C       -0.66692159      -1.19832060       0.84558670
O       -1.33454682      -0.09672001       0.45673632
P        1.38382108       2.25517144      -1.32326169
O        1.85265658       3.68626330      -1.36205519
O        2.12316145       1.09749615      -0.72797420
O        0.91110871       1.80844843      -2.86248273
C       -1.60681420      -2.22765727       1.35990660
O       -2.80783520      -2.09255286       1.44128801
O       -1.00300340      -3.39229742       1.75407518
O       -0.12984459       2.27661921      -0.56863123
H        1.33806475      -0.68518856       0.39374601
H        1.06218134      -2.35229206       1.15427998
H        0.90959157       2.60803152      -3.40154949
H       -1.73711054      -3.95774992       2.04039327
H       -0.72299065       0.58497143       0.10669415
H       -0.32611125       3.20467506      -0.39288796
17
Properties=species:S:1:pos:R:3 relative_energy_eV=0.013306940985785332 branch=left pbc="F F F"
C        0.65561515      -1.40996973       0.79287187
C       -0.66690058      -1.20119710       0.84210473
O       -1.33433653      -0.09947885       0.45530326
P        1.39585802       2.24895568      -1.32194043
O        1.84732812       3.68575193      -1.35346605
O        2.13192780       1.09965794      -0.70995100
O        0.96205349       1.79252425      -2.86565877
C       -1.60902564      -2.22452161       1.36117812
O       -2.81073894      -2.08891346       1.44021091
O       -1.00291829      -3.38629288       1.75470238
O       -0.13379896       2.26720802      -0.59488931
H        1.32896547      -0.67785511       0.36714065
H        1.06855850      -2.33393519       1.16856298
H        0.83534914       2.60418718      -3.36913079
H       -1.73855387      -3.95429767       2.02899856
H       -0.72142498       0.58645092       0.11377110
H       -0.30798220       3.19333455      -0.39691377
17
Properties=species:S:1:pos:R:3 relative_energy_eV=0.019423906232987065 branch=left pbc="F F F"
C        0.65426596      -1.44211620       0.80384179
C       -0.66457873      -1.20436395       0.85037642
O       -1.31201805      -0.09038236       0.46220972
P        1.40652398       2.27001787      -1.33241784
O        1.82442556       3.71641434      -1.38330439
O        2.16850463       1.13602934      -0.72290613
O        0.96796843       1.80746833      -2.87313933
C       -1.61909161      -2.22727131       1.35746871
O       -2.82035085      -2.09064064       1.43069200
O       -1.02471495      -3.39602667       1.75220257
O       -0.11526864       2.26301387      -0.59173806
H        1.34590951      -0.72407716       0.39182500
H        1.06789609      -2.36056408       1.19260367
H        0.80022622       2.62461085      -3.35472360
H       -1.76655952      -3.95396836       2.03404874
H       -0.68820760       0.58492647       0.11841222
H       -0.32495466       3.18853843      -0.42255696
17
Properties=species:S:1:pos:R:3 relative_energy_eV=0.02802167064510286 branch=left pbc="F F F"
C        0.66408950      -1.47038742       0.82807200
C       -0.65210442      -1.22222722       0.86047329
O       -1.27732995      -0.09354220       0.49111893
P        1.41017109       2.29795457      -1.34895234
O        1.80330999       3.75155930      -1.41499014
O        2.20669096       1.18305181      -0.74883223
O        0.94071073       1.82851809      -2.88182909
C       -1.62507594      -2.23364051       1.35402935
O       -2.82638024      -2.08651222       1.41656338
O       -1.04890505      -3.40806505       1.75327516
O       -0.09365502       2.26288984      -0.56624819
H        1.37274876      -0.76180842       0.42313589
H        1.03809372      -2.40665475       1.21155573
H        0.80044811       2.65636312      -3.35746934
H       -1.80903161      -3.93907248       2.03598803
H       -0.64910393       0.56068184       0.11518298
H       -0.35470079       3.18250032      -0.45817872
17
Properties=species:S:1:pos:R:3 relative_energy_eV=0.03991754650633084 branch=left pbc="F F F"
C        0.67291390      -1.51320610       0.86109208
C       -0.63903142      -1.23328307       0.87239364
O       -1.25005036      -0.09582672       0.50167745
P        1.41617167       2.33158677      -1.36059086
O        1.78944131       3.78803093      -1.45742544
O        2.22968619       1.22328141      -0.76904486
O        0.92860154       1.86345577      -2.89072486
C       -1.63476315      -2.23226975       1.34470954
O       -2.83126744      -2.05428471       1.39178639
O       -1.07810443      -3.41644669       1.74910916
O       -0.06025844       2.26125286      -0.53843874
H        1.39155516      -0.81277270       0.46112317
H        1.02266314      -2.46722010       1.23137770
H        0.79431933       2.68531355      -3.37979941
H       -1.82777097      -3.95152810       2.05150694
H       -0.62371984       0.55968300       0.12276995
H       -0.40041013       3.16584211      -0.47862703
17
Properties=species:S:1:pos:R:3 relative_energy_eV=0.061435613213689066 branch=left pbc="F F F"
C        0.67149113      -1.54334661       0.86689622
C       -0.63261766      -1.23749391       0.87833696
O       -1.22725526      -0.10501352       0.47563818
P        1.41646136       2.35328014      -1.37269050
O        1.76244108       3.81802004      -1.46830742
O        2.24838565       1.25462163      -0.79234371
O        0.89595506       1.88375879      -2.89522256
C       -1.63808059      -2.22642339       1.34850253
O       -2.83221131      -2.03455695       1.37161603
O       -1.09477500      -3.42210693       1.74010704
O       -0.03290702       2.25377415      -0.50595947
H        1.42724381      -0.86159769       0.50565912
H        0.98464211      -2.50346877       1.24618566
H        0.80209624       2.70221245      -3.40817119
H       -1.83815847      -3.95274749       2.06280482
H       -0.59173260       0.57911977       0.16386580
H       -0.42100237       3.14357666      -0.50402265
17
Properties=species:S:1:pos:R:3 relative_energy_eV=0.09296322502268595 branch=left pbc="F F F"
C        0.69466220      -1.60893061       0.90994774
C       -0.60383843      -1.26489632       0.88147390
O       -1.15765960      -0.11181345       0.48163400
P        1.41194044       2.41235312      -1.38617499
O        1.72213845       3.88150945      -1.49315675
O        2.32212157       1.33253376      -0.89086701
O        0.78465483       1.94964428      -2.87499792
C       -1.65911431      -2.21675953       1.33743583
O       -2.85020867      -2.00016587       1.34476400
O       -1.15512756      -3.41415700       1.76320499
O        0.02891119       2.26700888      -0.43253101
H        1.48062626      -0.93946168       0.59119029
H        0.98422017      -2.59178632       1.25857436
H        0.85339566       2.72858663      -3.44022953
H       -1.92720357      -3.92507331       2.04695409
H       -0.50060722       0.56161146       0.19372456
H       -0.52893464       3.04140447      -0.57805154
17
Properties=species:S:1:pos:R:3 relative_energy_eV=0.10688536986344843 branch=left pbc="F F F"
C        0.69778465      -1.62219896       0.92460494
C       -0.59501907      -1.27513005       0.88176833
O       -1.12734342      -0.11522121       0.48675890
P        1.41059054       2.43421316      -1.39258328
O        1.71528410       3.90547485      -1.50071308
O        2.33787087       1.36168401      -0.92278639
O        0.76143345       1.96456984      -2.86754019
C       -1.65787359      -2.21423074       1.32706252
O       -2.84395508      -1.97352776       1.33240126
O       -1.17333863      -3.41029656       1.77832068
O        0.04479699       2.26031157      -0.39842921
H        1.49103601      -0.96385422       0.61118979
H        0.98319792      -2.60564738       1.25979995
H        0.84956550       2.73930334      -3.43467181
H       -1.96851918      -3.90203689       2.03064163
H       -0.45967582       0.54624146       0.20454901
H       -0.56585824       2.97195336      -0.60747799
17
Properties=species:S:1:pos:R:3 relative_energy_eV=0.12081393710468546 branch=left pbc="F F F"
C        0.71184978      -1.64248684       0.92781101
C       -0.57589459      -1.27626215       0.89161695
O       -1.08929374      -0.10504194       0.49784843
P        1.41378362       2.45301869      -1.38973142
O        1.69764023       3.92613853      -1.51314213
O        2.36159096       1.38685764      -0.94086216
O        0.71982777       1.98970270      -2.84827141
C       -1.64885031      -2.20622749       1.33521275
O       -2.83238147      -1.95458008       1.31019759
O       -1.20667099      -3.41892094       1.78956068
O        0.08030409       2.25518111      -0.37751201
H        1.48835236      -0.96034430       0.62141787
H        0.97938056      -2.63254616       1.27086884
H        0.84228632       2.75356906      -3.42486852
H       -2.02766559      -3.88314365       2.01761100
H       -0.40609100       0.53531430       0.18736945
H       -0.60819081       2.88137911      -0.64223185
17
Properties=species:S:1:pos:R:3 relative_energy_eV=0.14038057411380578 branch=left pbc="F F F"
C        0.73036283      -1.64885912       0.93796511
C       -0.55649511      -1.27415133       0.92349828
O       -1.04671707      -0.09954045       0.51765784
P        1.42239793       2.46468377      -1.38582011
O        1.68964401       3.93915308      -1.51679132
O        2.39198002       1.41829310      -0.93737387
O        0.70203306       2.00317014      -2.83819226
C       -1.66565772      -2.18179042       1.33367788
O       -2.84111985      -1.90035920       1.27231156
O       -1.24998606      -3.40221178       1.78786106
O        0.10369910       2.24366433      -0.34604078
H        1.51991373      -0.98435673       0.61728897
H        1.01027220      -2.63564879       1.27235778
H        0.77920213       2.78050348      -3.40496748
H       -2.07671408      -3.86155199       2.00212440
H       -0.35667398       0.50715991       0.16070307
H       -0.65616364       2.73344929      -0.68336503
17
Properties=species:S:1:pos:R:3 relative_energy_eV=0.1550466830813093 branch=left pbc="F F F"
C        0.74063479      -1.65143667       0.94990558
C       -0.54459341      -1.26896124       0.90943599
O       -1.01798931      -0.08491127       0.50638378
P        1.42181747       2.47360205      -1.37954526
O        1.68589205       3.94640724      -1.51008174
O        2.40238076       1.43669620      -0.94053746
O        0.71361738       1.99568220      -2.83111527
C       -1.67146405      -2.16354302       1.32129120
O       -2.84569502      -1.87420255       1.26135641
O       -1.27416166      -3.38377445       1.78792112
O        0.12067120       2.22742558      -0.32998137
H        1.53181132      -1.00224273       0.60946515
H        1.02258484      -2.63763206       1.28130949
H        0.71823654       2.78998194      -3.37989216
H       -2.10070594      -3.84944407       1.99315648
H       -0.32118989       0.52938115       0.16481744
H       -0.68186959       2.61857872      -0.70099438
17
Properties=species:S:1:pos:R:3 relative_energy_eV=0.18020847387379035 branch=left pbc="F F F"
C        0.74877939      -1.66721807       0.94861603
C       -0.52791158      -1.25202732       0.88838419
O       -0.99282600      -0.06589176       0.48778218
P        1.44574493       2.47693443      -1.36645047
O        1.65332070       3.96232198      -1.47633135
O        2.44502166       1.44434255      -0.95039332
O        0.73543304       1.97962694      -2.80887516
C       -1.66148479      -2.12356152       1.29686807
O       -2.82640540      -1.80313200       1.22888409
O       -1.28218016      -3.34968105       1.77417981
O        0.12427973       2.20176257      -0.32488996
H        1.55513255      -1.03885074       0.60104100
H        1.01742756      -2.65174295       1.31623759
H        0.58981401       2.79109954      -3.31077810
H       -2.12378946      -3.78921488       1.97002214
H       -0.28662737       0.55861232       0.19117029
H       -0.71375123       2.42822665      -0.75257217
17
Properties=species:S:1:pos:R:3 relative_energy_eV=0.19739576159918215 branch=left pbc="F F F"
C        0.75291968      -1.67155358       0.93139799
C       -0.51750727      -1.24967533       0.88402657
O       -0.97630238      -0.06983538       0.46531929
P        1.44359664       2.47122572      -1.36398406
O        1.63893421       3.95592564      -1.46098531
O        2.45758287       1.45549100      -0.95007179
O        0.75807801       1.97806072      -2.81678244
C       -1.65403731      -2.10818626       1.29254079
O       -2.81650076      -1.78206483       1.21800018
O       -1.28644474      -3.33179504       1.76754398
O        0.12764142       2.19595368      -0.31563161
H        1.56415973      -1.04618185       0.59923449
H        0.99380910      -2.64319456       1.33164021
H        0.53171523       2.79113790      -3.28510691
H       -2.13407492      -3.76000236       1.95673583
H       -0.26467024       0.57756434       0.22084476
H       -0.71892168       2.33873675      -0.76182718
17
Properties=species:S:1:pos:R:3 relative_energy_eV=0.22556082197843352 branch=left pbc="F F F"
C        0.76689824      -1.66010137       0.93316474
C       -0.49977419      -1.22010478       0.86621381
O       -0.95851295      -0.04556309       0.44934593
P        1.43808766       2.46419280      -1.34827921
O        1.60564248       3.95189002      -1.42193236
O        2.47548643       1.46790663      -0.94537778
O        0.73959595       1.96466308      -2.80372620
C       -1.64724032      -2.08223326       1.27531068
O       -2.81265147      -1.76067400       1.20622231
O       -1.29194927      -3.31759470       1.74816760
O        0.13025878       2.15883674      -0.30933196
H        1.60552294      -1.07089450       0.58652415
H        0.95599358      -2.64218285       1.34803884
H        0.46636830       2.78057206      -3.24219182
H       -2.14423183      -3.73228809       1.95762125
H       -0.24501880       0.60034074       0.23045798
H       -0.68449801       2.24484103      -0.81733321
17
Properties=species:S:1:pos:R:3 relative_energy_eV=0.2651916334179987 branch=left pbc="F F F"
C        0.77000288      -1.64895347       0.94675283
C       -0.49677569      -1.21414485       0.86718702
O       -0.95524166      -0.03383895       0.46310168
P        1.45026129       2.45832472      -1.33258422
O        1.57375455       3.95487918      -1.39801473
O        2.49593203       1.46272391      -0.94665087
O        0.70846262       1.96465825      -2.75736307
C       -1.64308995      -2.07330199       1.25760844
O       -2.80237168      -1.73323972       1.19381383
O       -1.29157295      -3.30263458       1.72912311
O        0.13414317       2.12969923      -0.32777624
H        1.63039601      -1.10908821       0.58368865
H        0.94274579      -2.63160771       1.34729167
H        0.43360172       2.76772160      -3.21503956
H       -2.13875295      -3.71040084       1.96162309
H       -0.24476019       0.60604008       0.21150657
H       -0.66675748       2.21476974      -0.87137346
17
Properties=species:S:1:pos:R:3 relative_energy_eV=0.3564547019195743 branch=left pbc="F F F"
C        0.76832897      -1.68341528       0.94479709
C       -0.49028509      -1.19810698       0.88724866
O       -0.96435517      -0.02478780       0.50583863
P        1.43842059       2.45356412      -1.30806892
O        1.58579552       3.94813179      -1.37048968
O        2.52646483       1.49816876      -0.97926754
O        0.67013681       1.93783727      -2.73368317
C       -1.63750966      -2.05015962       1.25880308
O       -2.79349470      -1.70183347       1.16568291
O       -1.28029580      -3.29543849       1.69662467
O        0.09345030       2.11381326      -0.32491135
H        1.62655146      -1.13525684       0.59232967
H        0.96383567      -2.66194150       1.36773578
H        0.42690907       2.75770062      -3.17536459
H       -2.12123542      -3.68485307       1.96951722
H       -0.27343156       0.61588525       0.14917550
H       -0.63930827       2.21229853      -0.93307314
17
Properties=species:S:1:pos:R:3 relative_energy_eV=0.7837926185165998 branch=left pbc="F F F"
C        0.76822516      -1.73261679       0.92670174
C       -0.46237027      -1.19703134       0.84009748
O       -0.81331658       0.02435508       0.44621078
P        1.48200858       2.45275932      -1.33913450
O        1.56707977       3.94317833      -1.35573796
O        2.58624274       1.51074942      -0.98257647
O        0.63119402       1.93713518      -2.67020312
C       -1.66270910      -2.05345900       1.22580759
O       -2.84224659      -1.75769515       1.20689826
O       -1.30489270      -3.29499119       1.69062173
O        0.09943465       2.10299041      -0.30108116
H        1.56340750      -1.09385174       0.58351801
H        0.95479157      -2.68400311       1.41654694
H        0.40432168       2.73856842      -3.15118001
H       -2.13080344      -3.70774065       1.99587721
H       -0.26727831       0.82302740       0.09733230
H       -0.67311200       2.09023118      -0.91680455
17
Properties=species:S:1:pos:R:3 relative_energy_eV=1.0780677022630698 branch=left pbc="F F F"
C        0.73954452      -1.70038044       0.92412485
C       -0.51652940      -1.21056469       0.77156130
O       -0.76625024      -0.01698443       0.33274327
P        1.49876181       2.46982738      -1.33457987
O        1.53939246       3.95350058      -1.37864797
O        2.57664310       1.49823973      -0.96670787
O        0.63765750       1.93844351      -2.66774873
C       -1.68422879      -2.07495437       1.22334453
O       -2.87607524      -1.78488050       1.23940429
O       -1.30715245      -3.31223725       1.71027120
O        0.09863517       2.09650781      -0.27615467
H        1.54747863      -1.08366027       0.57319247
H        0.92724699      -2.63045318       1.41431924
H        0.37129739       2.72461052      -3.16046633
H       -2.13867392      -3.72119046       1.99519814
H       -0.08302408       1.04966972       0.14913067
H       -0.66474836       1.90611116      -0.83609108
17
Properties=species:S:1:pos:R:3 relative_energy_eV=1.2466906700537947 branch=left pbc="F F F"
C        0.71313680      -1.66407479       0.92286433
C       -0.55729304      -1.20956041       0.73411846
O       -0.88357760      -0.07836266       0.19809327
P        1.49796633       2.48118350      -1.36827698
O        1.53248085       3.97206046      -1.39434454
O        2.53230037       1.50404388      -0.94739375
O        0.66311011       1.93150225      -2.69455843
C       -1.69691879      -2.08174380       1.23589730
O       -2.87458934      -1.79022899       1.25084882
O       -1.30135151      -3.31154227       1.71867412
O        0.07504864       2.10577513      -0.22393775
H        1.55974000      -1.09028244       0.56608176
H        0.91451365      -2.60029490       1.41049386
H        0.35006852       2.71355602      -3.16535059
H       -2.13849912      -3.72221492       1.98421976
H        0.15334485       1.20948225       0.24341666
H       -0.63950654       1.73230624      -0.75795327
17
Properties=species:S:1:pos:R:3 relative_energy_eV=1.2844430952245602 branch=ts pbc="F F F"
C        0.70937851      -1.65435931       0.92159426
C       -0.56492266      -1.19839946       0.72378830
O       -0.93530221      -0.10352256       0.15827996
P        1.49689410       2.48616188      -1.38968161
O        1.53180508       3.97270015      -1.39591584
O        2.51560528       1.50912234      -0.94027711
O        0.67358332       1.93042735      -2.70109304
C       -1.69567072      -2.07985882       1.23844620
O       -2.87488856      -1.79084391       1.25312030
O       -1.30076764      -3.30915159       1.71976453
O        0.06959653       2.11678920      -0.20522970
H        1.56514745      -1.09795094       0.56387535
H        0.91076645      -2.59451833       1.41225167
H        0.34515467       2.70889928      -3.16589014
H       -2.13763498      -3.72220060       1.98086849
H        0.30005368       1.29781506       0.31019343
H       -0.62052632       1.59731255      -0.67746776
17
Properties=species:S:1:pos:R:3 relative_energy_eV=1.261081950233347 branch=right pbc="F F F"
C        0.70876602      -1.64726716       0.91990868
C       -0.56682686      -1.18605838       0.71505165
O       -0.95463415      -0.10532791       0.13301315
P        1.48494914       2.48382713      -1.39395891
O        1.52869178       3.97101635      -1.39650810
O        2.50832370       1.51433237      -0.93632026
O        0.67901222       1.92857676      -2.70831745
C       -1.69620980      -2.07500077       1.23644235
O       -2.87651832      -1.79055145       1.25373377
O       -1.29978128      -3.30636536       1.71797871
O        0.07500419       2.10352897      -0.20534298
H        1.57031454      -1.10104915       0.56127636
H        0.90597779      -2.58926917       1.41295817
H        0.34539482       2.70766619      -3.16686524
H       -2.13622767      -3.72060875       1.98198019
H        0.39540858       1.36749569       0.35803213
H       -0.59507477       1.48029461      -0.58270064
17
Properties=species:S:1:pos:R:3 relative_energy_eV=1.1625317143880238 branch=right pbc="F F F"
C        0.69507470      -1.60621765       0.90750723
C       -0.58146742      -1.14789176       0.67552732
O       -1.02045281      -0.11303964       0.02402346
P        1.44801403       2.47189970      -1.40175142
O        1.50103357       3.96319453      -1.40276116
O        2.48181994       1.53287047      -0.91962655
O        0.69547022       1.91973955      -2.74745262
C       -1.69946646      -2.05437658       1.22650627
O       -2.88331373      -1.78527828       1.25577844
O       -1.29454800      -3.28735256       1.70744786
O        0.09458458       2.05389190      -0.20292454
H        1.58097164      -1.09435330       0.55346817
H        0.88482259      -2.55752351       1.40353428
H        0.34738858       2.70796927      -3.17331155
H       -2.12519333      -3.70862984       1.98635931
H        0.50673334       1.44672672       0.42967031
H       -0.55490115       1.29361076      -0.42163326
17
Properties=species:S:1:pos:R:3 relative_energy_eV=0.8270581133256201 branch=right pbc="F F F"
C        0.66432150      -1.52979266       0.87891390
C       -0.61593308      -1.13873647       0.61742270
O       -1.08303089      -0.14859281      -0.10799295
P        1.42566769       2.46702471      -1.39187336
O        1.43284269       3.95499667      -1.42048333
O        2.47869161       1.52442886      -0.89506329
O        0.70893874       1.91386845      -2.78402509
C       -1.71320163      -2.02901859       1.20820730
O       -2.89218904      -1.76708677       1.25913573
O       -1.28084781      -3.24370074       1.68890937
O        0.12863742       2.00142073      -0.15310812
H        1.58592098      -1.07418082       0.53829357
H        0.83004766      -2.47181757       1.37866725
H        0.34212667       2.70874858      -3.19853239
H       -2.09774164      -3.67703096       1.98512306
H        0.70380247       1.57184816       0.52447820
H       -0.54148178       0.97286103      -0.22771129
17
Properties=species:S:1:pos:R:3 relative_energy_eV=0.6134715901680465 branch=right pbc="F F F"
C        0.64161558      -1.48380988       0.85026938
C       -0.63755315      -1.15522371       0.57948213
O       -1.11250130      -0.17651804      -0.17961042
P        1.40693694       2.44649245      -1.35523726
O        1.37271000       3.94715411      -1.43414940
O        2.49822567       1.51615998      -0.89612501
O        0.71411978       1.91945019      -2.77670665
C       -1.72274111      -2.01001936       1.18417695
O       -2.90196067      -1.74286656       1.26098810
O       -1.26302133      -3.20533435       1.67516260
O        0.16772324       1.95295474      -0.09960159
H        1.56475713      -1.03698062       0.51893837
H        0.77751282      -2.39974041       1.36688032
H        0.33846366       2.70185328      -3.21712425
H       -2.07158913      -3.64464308       1.97893013
H        0.84484797       1.67791905       0.56797398
H       -0.54097358       0.72839212      -0.12388638
17
Properties=species:S:1:pos:R:3 relative_energy_eV=0.3518790263442497 branch=right pbc="F F F"
C        0.62253007      -1.51124022       0.81554393
C       -0.65739224      -1.18573962       0.54985593
O       -1.14047192      -0.18604364      -0.18524072
P        1.37716512       2.42350018      -1.30928165
O        1.32652014       3.92176808      -1.37085013
O        2.55636149       1.56485197      -0.97363127
O        0.65931642       1.87068681      -2.68588278
C       -1.72803637      -2.00941658       1.16430166
O       -2.89857406      -1.71783741       1.25082883
O       -1.25511259      -3.18616248       1.66870867
O        0.26269229       1.89956077      -0.11446249
H        1.45801239      -0.91340953       0.46055894
H        0.77296316      -2.38863098       1.42739252
H        0.36411205       2.65806178      -3.16387264
H       -2.05687288      -3.62371887       1.98098677
H        0.92639714       1.77726035       0.59448954
H       -0.51303754       0.64174967      -0.20908426
17
Properties=species:S:1:pos:R:3 relative_energy_eV=0.2669413540061214 branch=right pbc="F F F"
C        0.60468181      -1.49772157       0.80305057
C       -0.66941965      -1.16850874       0.53989558
O       -1.15163357      -0.18214145      -0.19704758
P        1.39963327       2.42020809      -1.31844575
O        1.31488038       3.92463758      -1.33596615
O        2.61757387       1.59860115      -1.01487592
O        0.60832399       1.82759281      -2.65451036
C       -1.73517878      -2.00624569       1.15686517
O       -2.90629289      -1.71936493       1.24145497
O       -1.26941250      -3.19605818       1.66706455
O        0.30162989       1.88916638      -0.10852714
H        1.41341178      -0.89198460       0.44179487
H        0.81840240      -2.35533380       1.42756838
H        0.37019012       2.63133935      -3.13011523
H       -2.06724566      -3.63437921       1.99917938
H        0.92165562       1.81758539       0.62236582
H       -0.49462739       0.57784788      -0.23939036
17
Properties=species:S:1:pos:R:3 relative_energy_eV=0.18076517815643456 branch=right pbc="F F F"
C        0.60638668      -1.46088792       0.80956988
C       -0.68759457      -1.18200699       0.56988514
O       -1.16562074      -0.19823999      -0.18915404
P        1.43374304       2.41854843      -1.30696898
O        1.34085997       3.91440033      -1.35340100
O        2.69465679       1.64231801      -1.08267738
O        0.58696875       1.82050599      -2.59571934
C       -1.76390205      -2.02508699       1.16205678
O       -2.93484051      -1.72801090       1.22302955
O       -1.29889248      -3.20970595       1.66151464
O        0.32587851       1.89960921      -0.11844902
H        1.42187766      -0.87739782       0.40733380
H        0.88610221      -2.31491074       1.39832738
H        0.34526665       2.59629715      -3.11622580
H       -2.08668749      -3.64486952       2.01835704
H        0.85462503       1.84386450       0.68825295
H       -0.48225494       0.54081380      -0.27537080
17
Properties=species:S:1:pos:R:3 relative_energy_eV=0.15285461046732962 branch=right pbc="F F F"
C        0.61968323      -1.45179515       0.80621327
C       -0.67877492      -1.19030527       0.56685846
O       -1.17690704      -0.21460173      -0.18686861
P        1.45412136       2.43404586      -1.30900611
O        1.36119242       3.93321511      -1.37092298
O        2.71371409       1.64712345      -1.10708196
O        0.58795360       1.80683800      -2.58276489
C       -1.76759577      -2.02819784       1.15995126
O       -2.94287604      -1.74082864       1.21476342
O       -1.30983715      -3.21314839       1.66655562
O        0.35912885       1.88973259      -0.10119410
H        1.40539785      -0.84253919       0.37651174
H        0.90076880      -2.30850151       1.40223960
H        0.32102087       2.57111212      -3.10523310
H       -2.10027590      -3.64653970       2.02308846
H        0.83296949       1.87120054       0.73523388
H       -0.50311126       0.51843046      -0.28798314
17
Properties=species:S:1:pos:R:3 relative_energy_eV=0.1389132334770693 branch=right pbc="F F F"
C        0.61265655      -1.45250606       0.79331039
C       -0.68471922      -1.19743885       0.56482882
O       -1.19114706      -0.22299838      -0.19134984
P        1.46543975       2.43346385      -1.30621525
O        1.38295262       3.92983407      -1.38611795
O        2.71978953       1.64126834      -1.10347878
O        0.60628254       1.80246880      -2.58017507
C       -1.75255556      -2.04326156       1.16100710
O       -2.92489968      -1.74663272       1.20036938
O       -1.30335994      -3.22372054       1.68597368
O        0.37521287       1.90615016      -0.09415969
H        1.38767499      -0.83280261       0.36939255
H        0.91060033      -2.29303487       1.39952501
H        0.28666159       2.55298623      -3.09445572
H       -2.11118283      -3.64491942       2.01866841
H        0.83308017       1.90456681       0.75324049
H       -0.53591419       0.52181755      -0.29000265
17
Properties=species:S:1:pos:R:3 relative_energy_eV=0.12802029640442925 branch=right pbc="F F F"
C        0.61626451      -1.44308774       0.78457838
C       -0.68574385      -1.20268012       0.55123069
O       -1.21579765      -0.22492253      -0.18936064
P        1.47893581       2.42733006      -1.30778404
O        1.40637914       3.92412662      -1.39667493
O        2.72624176       1.62438441      -1.08381140
O        0.62170960       1.78490981      -2.58209351
C       -1.75121558      -2.05048610       1.15852404
O       -2.92774201      -1.76820526       1.19116673
O       -1.29732027      -3.22086609       1.70135968
O        0.36344245       1.94117892      -0.08909825
H        1.39401094      -0.82380259       0.35974940
H        0.91716923      -2.28346032       1.39428991
H        0.25534611       2.53660874      -3.06388773
H       -2.10812195      -3.65079901       2.01714870
H        0.84963546       1.94001502       0.74488462
H       -0.56662123       0.52499704      -0.28986078
17
Properties=species:S:1:pos:R:3 relative_energy_eV=0.12079426413765759 branch=right pbc="F F F"
C        0.61221863      -1.42914565       0.77033205
C       -0.69295383      -1.19804474       0.55421745
O       -1.22590478      -0.22321593      -0.18799079
P        1.48677496       2.42312855      -1.30260311
O        1.43718156       3.91827714      -1.41959716
O        2.72248595       1.60967172      -1.06809189
O        0.63627804       1.76291663      -2.56777360
C       -1.75773269      -2.05938911       1.15256015
O       -2.93894090      -1.79492778       1.17359056
O       -1.28873784      -3.21624372       1.70884045
O        0.37390853       1.96911363      -0.08659785
H        1.38755894      -0.80905745       0.34296238
H        0.92438146      -2.26179526       1.38076437
H        0.22264756       2.50794463      -3.01895071
H       -2.09150780      -3.66047494       2.02470161
H        0.85768259       1.96842631       0.74496201
H       -0.58876795       0.52805684      -0.30096508
17
Properties=species:S:1:pos:R:3 relative_energy_eV=0.11164855209790403 branch=right pbc="F F F"
C        0.59688198      -1.41215467       0.76329593
C       -0.70911560      -1.17404968       0.55892493
O       -1.24957292      -0.19613832      -0.17955066
P        1.50062361       2.41702877      -1.29677165
O        1.47885790       3.90867250      -1.46982625
O        2.71127215       1.57474626      -1.02354989
O        0.65120645       1.73957749      -2.55255299
C       -1.75771045      -2.05889673       1.14614805
O       -2.94608780      -1.83054090       1.13592102
O       -1.25985936      -3.20518125       1.70609079
O        0.36613937       2.00940405      -0.07527457
H        1.36643023      -0.79494586       0.32188517
H        0.91948198      -2.25139963       1.36325908
H        0.17822489       2.47112512      -2.96779021
H       -2.04217777      -3.67202968       2.03917910
H        0.86750825       1.97245197       0.74730932
H       -0.59553045       0.53757150      -0.31633635
17
Properties=species:S:1:pos:R:3 relative_energy_eV=0.10595318371269968 branch=right pbc="F F F"
C        0.58805461      -1.39756822       0.75583812
C       -0.71736672      -1.16916329       0.54895531
O       -1.25978960      -0.17739530      -0.16626398
P        1.50670277       2.40457785      -1.29305156
O        1.50518145       3.89141171      -1.48954343
O        2.71516978       1.56653464      -1.00331074
O        0.64802849       1.71619676      -2.53995020
C       -1.75727174      -2.06432074       1.12852003
O       -2.94948915      -1.85627380       1.11854039
O       -1.23807098      -3.18712015       1.71107341
O        0.37026952       2.03480438      -0.06369031
H        1.34570703      -0.77642756       0.30626289
H        0.91013485      -2.23735381       1.35099893
H        0.15082617       2.43935743      -2.94297619
H       -2.01258895      -3.66777515       2.03979419
H        0.86794126       1.97223540       0.75875766
H       -0.59686633       0.54352089      -0.31959368
17
Properties=species:S:1:pos:R:3 relative_energy_eV=0.0998620974496589 branch=right pbc="F F F"
C        0.57873612      -1.37898127       0.73184433
C       -0.72888223      -1.14448628       0.53616417
O       -1.27573000      -0.13616659      -0.15489435
P        1.51096075       2.39464062      -1.28511403
O        1.54333929       3.87381654      -1.52521563
O        2.69437560       1.52952897      -0.96596730
O        0.65139443       1.68215834      -2.52117444
C       -1.75085570      -2.06450489       1.11563595
O       -2.95049170      -1.90591697       1.08460507
O       -1.20307156      -3.16438330       1.72021620
O        0.36215246       2.08155211      -0.05138940
H        1.35104412      -0.75881233       0.29814510
H        0.89611794      -2.22317149       1.32655479
H        0.12157047       2.38329679      -2.91674079
H       -1.97146451      -3.66183531       2.03761394
H        0.85968018       1.94029644       0.76223341
H       -0.61230332       0.58820973      -0.29215616
17
Properties=species:S:1:pos:R:3 relative_energy_eV=0.09425677812396316 branch=right pbc="F F F"
C        0.57589161      -1.35966507       0.70162113
C       -0.73329093      -1.12518313       0.52552477
O       -1.29614738      -0.10824112      -0.13949834
P        1.51705263       2.37869113      -1.27270027
O        1.56179656       3.85307995      -1.54098510
O        2.69302032       1.50202277      -0.95582023
O        0.63962735       1.63749317      -2.47317144
C       -1.74287409      -2.06293242       1.09679861
O       -2.94566643      -1.93856434       1.04433449
O       -1.17969627      -3.13878320       1.72770247
O        0.36354874       2.11146048      -0.03142596
H        1.33839657      -0.72299925       0.28162286
H        0.89283323      -2.19697639       1.30255852
H        0.10545060       2.31989044      -2.89687629
H       -1.94051385      -3.65329394       2.03608330
H        0.85973590       1.92398613       0.77081910
H       -0.63259241       0.61525606      -0.27622675
17
Properties=species:S:1:pos:R:3 relative_energy_eV=0.06742808770286501 branch=right pbc="F F F"
C        0.57208600      -1.22301967       0.60877439
C       -0.75232695      -1.05301253       0.50192500
O       -1.39719892      -0.03196360      -0.07198920
P        1.51031356       2.28625282      -1.21785067
O        1.62198814       3.72975180      -1.60327792
O        2.67419329       1.40091897      -0.89102516
O        0.57527466       1.42413357      -2.28959916
C       -1.70956297      -2.06075138       1.01091557
O       -2.90319964      -2.01764250       0.82924081
O       -1.11199259      -3.03748717       1.75606227
O        0.40115848       2.19309912       0.08377992
H        1.28181018      -0.54566124       0.16190205
H        0.94017601      -2.07108193       1.16388928
H        0.05332399       2.04626136      -2.80817631
H       -1.82536699      -3.62409406       2.03940559
H        0.90957553       1.91233927       0.84534373
H       -0.76368021       0.70719916      -0.21895929
17
Properties=species:S:1:pos:R:3 relative_energy_eV=0.02754292056488339 branch=right pbc="F F F"
C        0.57957157      -1.17756400       0.60329552
C       -0.74825423      -1.00926423       0.49770362
O       -1.41109412       0.02238106      -0.05095492
P        1.48987792       2.24190736      -1.19125453
O        1.59919407       3.66147152      -1.64486834
O        2.63245365       1.34882447      -0.80054882
O        0.55458042       1.38674769      -2.28215688
C       -1.69456063      -2.04189727       1.00068867
O       -2.88294248      -2.05700158       0.78075494
O       -1.09047208      -3.01552818       1.75340646
O        0.40590482       2.19787167       0.11462107
H        1.29872967      -0.51652150       0.13791764
H        0.96806165      -2.05299283       1.10533497
H        0.05684113       2.00858370      -2.82404757
H       -1.80747693      -3.60697013       2.02814322
H        0.92386309       1.86513406       0.85811637
H       -0.79770617       0.78006025      -0.18579047
17
Properties=species:S:1:pos:R:3 relative_energy_eV=0.013902137139666593 branch=right pbc="F F F"
C        0.58179120      -1.16195256       0.58496631
C       -0.74711904      -0.98727191       0.50666640
O       -1.40693866       0.04891046      -0.02719704
P        1.47421876       2.21328571      -1.18369435
O        1.55486022       3.63425566      -1.65387413
O        2.63223988       1.33825486      -0.79321527
O        0.51325959       1.36617046      -2.25042153
C       -1.68577701      -2.03185219       0.98932379
O       -2.87768010      -2.06282037       0.77317955
O       -1.08127385      -2.99783316       1.74333890
O        0.40544792       2.16684936       0.14348410
H        1.29275099      -0.48539691       0.13096183
H        0.97853397      -2.03278425       1.08368087
H        0.10989206       2.00431614      -2.85038766
H       -1.80931125      -3.57815681       2.00959405
H        0.91873926       1.80918470       0.87667611
H       -0.77706265       0.79208291      -0.18272095
17
Properties=species:S:1:pos:R:3 relative_energy_eV=0.010734010214946466 branch=right pbc="F F F"
C        0.58496109      -1.15757005       0.58481508
C       -0.74516942      -0.99191040       0.50425387
O       -1.41114903       0.04346666      -0.02753243
P        1.46944441       2.21305303      -1.18112755
O        1.54705358       3.63164155      -1.65774916
O        2.62953072       1.33920608      -0.79672443
O        0.51763755       1.36598511      -2.25818779
C       -1.68447521      -2.03260939       0.99722936
O       -2.87590876      -2.05545416       0.78158653
O       -1.08695080      -3.00835111       1.74872001
O        0.40208960       2.15348570       0.14511718
H        1.29150826      -0.47893820       0.12780048
H        0.98999826      -2.02442290       1.08338633
H        0.12724868       2.02139945      -2.84790550
H       -1.82487098      -3.58296243       2.00450700
H        0.92783158       1.81383329       0.87924665
H       -0.78220814       0.78538986      -0.18707465
17
Properties=species:S:1:pos:R:3 relative_energy_eV=0.008999284389574314 branch=right pbc="F F F"
C        0.57853221      -1.14713184       0.57863960
C       -0.75250999      -0.99200752       0.50197021
O       -1.41792975       0.04495477      -0.02787486
P        1.47774134       2.20834623      -1.18198641
O        1.55917953       3.62502804      -1.66362548
O        2.63656157       1.33572279      -0.79193398
O        0.52577033       1.36569244      -2.25612700
C       -1.68579225      -2.03813088       0.99864287
O       -2.87920716      -2.06284592       0.79124935
O       -1.08500400      -3.00932972       1.75257674
O        0.40471411       2.15405784       0.14250379
H        1.27416668      -0.45974848       0.11676821
H        0.99217366      -2.00665716       1.08229707
H        0.12615803       2.02109483      -2.83976183
H       -1.81500257      -3.59728855       2.00302520
H        0.92264919       1.80854222       0.87970629
H       -0.78562950       0.78494293      -0.18570878
17
Properties=species:S:1:pos:R:3 relative_energy_eV=0.006405412786989473 branch=right pbc="F F F"
C        0.57299084      -1.13615274       0.57898687
C       -0.75893682      -0.98820155       0.50748531
O       -1.42496767       0.04362840      -0.03261552
P        1.47962404       2.20358577      -1.18309015
O        1.56129648       3.62463271      -1.65018210
O        2.63202139       1.32608760      -0.78188547
O        0.53196121       1.36945359      -2.27410219
C       -1.68905683      -2.03249683       1.01143207
O       -2.88265920      -2.05720763       0.81208541
O       -1.07596661      -3.01235174       1.74515300
O        0.39926581       2.13381125       0.13405550
H        1.26392242      -0.44630131       0.11371515
H        0.99280529      -1.99104402       1.08236997
H        0.15223598       2.03619909      -2.85839322
H       -1.80035400      -3.60769076       1.99196063
H        0.91637582       1.77422772       0.86474638
H       -0.79398664       0.79506217      -0.16136052
17
Properties=species:S:1:pos:R:3 relative_energy_eV=0.003116203468380263 branch=right pbc="F F F"
C        0.56793735      -1.12969229       0.59236256
C       -0.76435734      -0.98215376       0.51325566
O       -1.43143472       0.04458815      -0.03288919
P        1.48008636       2.19927281      -1.18488060
O        1.56599472       3.63184325      -1.61912040
O        2.63738298       1.32467386      -0.79439064
O        0.54639641       1.38569377      -2.29772882
C       -1.69141078      -2.02773093       1.02039463
O       -2.89141377      -2.04534121       0.85023120
O       -1.06597672      -3.01816479       1.72957731
O        0.38617320       2.09988114       0.12479246
H        1.24852114      -0.44104751       0.11260712
H        0.99825641      -1.98185266       1.09421341
H        0.18395463       2.05583059      -2.88842474
H       -1.78730939      -3.61556825       1.98046085
H        0.90199938       1.73094631       0.85296929
H       -0.80822824       0.80406287      -0.15306889
17
Properties=species:S:1:pos:R:3 relative_energy_eV=0.0011372122535249218 branch=right pbc="F F F"
C        0.55990714      -1.11711692       0.58585423
C       -0.77359795      -0.97223211       0.51355895
O       -1.44771062       0.05683886      -0.02261476
P        1.48492836       2.19429797      -1.18109866
O        1.57368572       3.62778090      -1.60511497
O        2.63476503       1.30964206      -0.79171000
O        0.56446991       1.38209477      -2.30771891
C       -1.69046353      -2.02702196       1.02050241
O       -2.89096184      -2.05131798       0.86615197
O       -1.05258875      -3.01850656       1.71664363
O        0.38439827       2.08978693       0.12037830
H        1.24743397      -0.43367803       0.10723360
H        0.99193311      -1.96320408       1.09628506
H        0.18595230       2.05029972      -2.88899257
H       -1.76812461      -3.61797548       1.97783649
H        0.89203537       1.71411396       0.84830106
H       -0.81949023       0.81143918      -0.15513457
17
Properties=species:S:1:pos:R:3 relative_energy_eV=0.000347722783772042 branch=right pbc="F F F"
C        0.55788920      -1.11276080       0.58668595
C       -0.77563334      -0.97304376       0.51426008
O       -1.45357259       0.05393452      -0.01864928
P        1.49060620       2.19139385      -1.18362630
O        1.57707641       3.62962931      -1.59573235
O        2.64051186       1.30769976      -0.79224669
O        0.57556244       1.38443465      -2.31766413
C       -1.69001227      -2.02761897       1.02567497
O       -2.89247585      -2.04680515       0.87856095
O       -1.04905604      -3.02528737       1.71039375
O        0.38341181       2.08386502       0.11241678
H        1.24268594      -0.43149912       0.10214778
H        0.98851087      -1.95550854       1.10198681
H        0.18522538       2.05753041      -2.88702748
H       -1.76451519      -3.62259913       1.97724987
H        0.88647192       1.71566404       0.84911386
H       -0.82611506       0.80621244      -0.16318334
17
Properties=species:S:1:pos:R:3 relative_energy_eV=0.00011892237307620235 branch=right pbc="F F F"
C        0.55807671      -1.11140537       0.58552826
C       -0.77557904      -0.97043988       0.51671781
O       -1.45594875       0.05335142      -0.02036621
P        1.49197859       2.18979473      -1.18258337
O        1.57907500       3.62713073      -1.59520208
O        2.64008344       1.30413276      -0.78990019
O        0.58053624       1.38362896      -2.32102436
C       -1.68858898      -2.02656222       1.02729922
O       -2.89125284      -2.04443983       0.88561540
O       -1.04607829      -3.02745106       1.70585691
O        0.38085321       2.08435471       0.10978157
H        1.24357431      -0.43178543       0.09885051
H        0.98715420      -1.95386278       1.10317518
H        0.18632687       2.05972335      -2.88370289
H       -1.76193501      -3.62304555       1.97530482
H        0.87971193       1.71400777       0.84811442
H       -0.83141582       0.80810878      -0.16310367
17
Properties=species:S:1:pos:R:3 relative_energy_eV=-0.00010668872346286662 branch=right pbc="F F F"
C        0.55779107      -1.11108967       0.58573708
C       -0.77553344      -0.96953325       0.51478394
O       -1.45510764       0.05453014      -0.02186286
P        1.49222371       2.18786699      -1.18204868
O        1.58272384       3.62422207      -1.59845054
O        2.63896941       1.30245693      -0.78573511
O        0.58155494       1.38157075      -2.32002320
C       -1.68754200      -2.02453676       1.02862745
O       -2.89098873      -2.04174305       0.89219089
O       -1.04240044      -3.02733424       1.70142982
O        0.37755787       2.08864735       0.10873018
H        1.24416802      -0.43473785       0.09629942
H        0.98513254      -1.95448992       1.10311157
H        0.18675940       2.06091538      -2.87897184
H       -1.75753612      -3.62255801       1.97313981
H        0.87006608       1.71092638       0.84704808
H       -0.83126675       0.81012780      -0.16364463
17
Properties=species:S:1:pos:R:3 relative_energy_eV=-0.0004476767899177503 branch=right pbc="F F F"
C        0.56092759      -1.11316382       0.58326565
C       -0.77237990      -0.97091525       0.51078852
O       -1.45393673       0.05301477      -0.02320195
P        1.49122551       2.18718004      -1.18011827
O        1.58446495       3.62325309      -1.59811590
O        2.63463859       1.29939462      -0.77848868
O        0.58007784       1.38290616      -2.31815003
C       -1.68578899      -2.02105942       1.03080161
O       -2.89085994      -2.02699778       0.90688510
O       -1.04129332      -3.02977325       1.69583031
O        0.37159014       2.08960964       0.10544754
H        1.24944253      -0.43908209       0.09409438
H        0.98814542      -1.95479429       1.10376297
H        0.19170258       2.06193103      -2.88110431
H       -1.75684739      -3.62411572       1.96849202
H        0.85726686       1.70828263       0.84659904
H       -0.83180391       0.80957068      -0.16642657
17
Properties=species:S:1:pos:R:3 relative_energy_eV=-0.0008712344024388585 branch=right pbc="F F F"
C        0.56341656      -1.11648134       0.57840777
C       -0.77019956      -0.97103097       0.51140427
O       -1.45181109       0.05023940      -0.02862947
P        1.48904864       2.18713208      -1.17656292
O        1.59428608       3.62191036      -1.59423369
O        2.62594643       1.29543703      -0.76530917
O        0.58507537       1.38487664      -2.32404230
C       -1.68530806      -2.01692342       1.03800318
O       -2.89206081      -2.01012406       0.93478086
O       -1.03883854      -3.03672561       1.68332462
O        0.36042139       2.09307346       0.10127725
H        1.25388297      -0.44332024       0.08911678
H        0.98989552      -1.95434341       1.10624321
H        0.19509180       2.06572733      -2.88474224
H       -1.75334665      -3.62887478       1.96284398
H        0.84193610       1.70744716       0.84290091
H       -0.83086427       0.80722135      -0.17442146
17
Properties=species:S:1:pos:R:3 relative_energy_eV=-0.001189166050608037 branch=right pbc="F F F"
C        0.56516133      -1.11603648       0.57644512
C       -0.76821741      -0.97225926       0.50936628
O       -1.44893436       0.04756585      -0.03320300
P        1.48741493       2.18675628      -1.17400785
O        1.59826702       3.62145839      -1.59111632
O        2.62145738       1.29270762      -0.76017707
O        0.58429390       1.38501041      -2.32087127
C       -1.68298500      -2.01422372       1.04359466
O       -2.89086802      -2.00078688       0.95140218
O       -1.03771581      -3.04289846       1.67639139
O        0.35512371       2.09772828       0.10159460
H        1.25234227      -0.44248669       0.08385564
H        0.99279747      -1.95373756       1.10295039
H        0.19949774       2.06136210      -2.88965181
H       -1.75635808      -3.62924709       1.95866111
H        0.83272567       1.71029358       0.84496154
H       -0.82743086       0.80403466      -0.17983389
17
Properties=species:S:1:pos:R:3 relative_energy_eV=-0.0012986520523554645 branch=right pbc="F F F"
C        0.56509236      -1.11552716       0.57700619
C       -0.76849623      -0.97248669       0.50982006
O       -1.44915629       0.04584704      -0.03661057
P        1.48767213       2.18715973      -1.17286491
O        1.60036587       3.62228937      -1.58769247
O        2.61818643       1.28965662      -0.75641192
O        0.58831581       1.38613781      -2.32410039
C       -1.68278919      -2.01382255       1.04629703
O       -2.89138026      -1.99469491       0.96649552
O       -1.03624222      -3.04689098       1.67036645
O        0.35128278       2.09803284       0.09821580
H        1.25245150      -0.44360488       0.08178437
H        0.99282075      -1.95376549       1.10278432
H        0.20376881       2.06410769      -2.89143149
H       -1.75492018      -3.63120490       1.95643862
H        0.82719061       1.71138829       0.84301372
H       -0.82759073       0.80261920      -0.18274858
