17
Properties=species:S:1:pos:R:3 relative_energy_eV=0.0 branch=left pbc="F F F"
C       -1.38735363      -0.67675335      -1.32309726
C       -0.75744975      -0.44350292      -0.16189814
O        0.51663481      -0.07674519       0.02358044
P        1.51186773       0.65249005      -1.16614242
O        2.78785356       0.86443288      -0.42141794
O        1.35356076      -0.08969458      -2.46118565
O        0.73415746       2.11113116      -1.31842266
C       -1.44971150      -0.62500172       1.14080387
O       -0.93692632      -0.52067918       2.23486066
O       -2.77901740      -0.93148195       1.02649139
O        2.40176591       0.04571391       2.42103941
H       -0.85373724      -0.60210852      -2.25483278
H       -2.42486505      -0.96505636      -1.32823273
H        0.23657816       2.05893468      -2.14279046
H       -3.08511236      -1.00336143       1.94283017
H        1.46616033      -0.13773874       2.27625232
H        2.67738820       0.32742852       1.53010513
17
Properties=species:S:1:pos:R:3 relative_energy_eV=0.00015015859389677644 branch=left pbc="F F F"
C       -1.39055047      -0.66458984      -1.32416984
C       -0.75873418      -0.44306636      -0.16234893
O        0.51642875      -0.08129670       0.02446952
P        1.51338235       0.64593754      -1.16471621
O        2.78835460       0.86107679      -0.41885450
O        1.35779409      -0.09874692      -2.45874934
O        0.73241894       2.10268671      -1.31962582
C       -1.44931258      -0.62956939       1.14023863
O       -0.93429622      -0.53109861       2.23372217
O       -2.77914671      -0.93338117       1.02718985
O        2.40219608       0.05790107       2.42147652
H       -0.85658372      -0.58897043      -2.25531903
H       -2.42913610      -0.94784527      -1.33138321
H        0.23677944       2.04764033      -2.14485910
H       -3.08255032      -1.01198299       1.94372400
H        1.46798467      -0.13235125       2.27806736
H        2.67676508       0.33566373       1.52908129
17
Properties=species:S:1:pos:R:3 relative_energy_eV=0.00030664947917102836 branch=left pbc="F F F"
C       -1.38850276      -0.66839439      -1.32613082
C       -0.75929342      -0.44116257      -0.16376568
O        0.51685474      -0.08341087       0.02381143
P        1.51233702       0.64887686      -1.16324578
O        2.78608269       0.86598456      -0.41633352
O        1.36113341      -0.09455175      -2.45834862
O        0.72710240       2.10288025      -1.31610178
C       -1.45159937      -0.62447244       1.13814163
O       -0.93601768      -0.52602177       2.23124626
O       -2.78167709      -0.92802926       1.02645711
O        2.40779943       0.04986577       2.42001638
H       -0.85114334      -0.59927670      -2.25590142
H       -2.42719607      -0.95123184      -1.33331597
H        0.22693884       2.04434711      -2.13845415
H       -3.08321312      -1.00551710       1.94394183
H        1.47246698      -0.13633142       2.27726844
H        2.67972107       0.33445273       1.52865807
17
Properties=species:S:1:pos:R:3 relative_energy_eV=0.0004473307999433018 branch=left pbc="F F F"
C       -1.38454367      -0.67795598      -1.32749581
C       -0.75794590      -0.44175131      -0.16504254
O        0.51818938      -0.08336449       0.02258596
P        1.51133452       0.65445672      -1.16257243
O        2.78480467       0.87375640      -0.41548854
O        1.36016627      -0.08570462      -2.45989680
O        0.72194734       2.10766037      -1.31251116
C       -1.45227218      -0.61734225       1.13681131
O       -0.93780547      -0.51263252       2.23018537
O       -2.78269710      -0.92042350       1.02498456
O        2.41132212       0.03555121       2.41803790
H       -0.84516876      -0.61478465      -2.25731919
H       -2.42332592      -0.96288447      -1.33422622
H        0.21615073       2.04575824      -2.13144253
H       -3.08296712      -0.99546832       1.94304464
H        1.47470293      -0.14574520       2.27951093
H        2.67990190       0.32888147       1.52877799
17
Properties=species:S:1:pos:R:3 relative_energy_eV=0.0007407493540085852 branch=left pbc="F F F"
C       -1.38075686      -0.68629802      -1.32794843
C       -0.75531681      -0.44632251      -0.16563455
O        0.52002642      -0.08558879       0.02215765
P        1.51215955       0.65837723      -1.16122266
O        2.78331568       0.88377558      -0.41186578
O        1.36528605      -0.08101131      -2.45913992
O        0.71790270       2.10756032      -1.30894729
C       -1.45195472      -0.61226955       1.13700789
O       -0.94037160      -0.50305487       2.23117135
O       -2.78292323      -0.91068743       1.02394275
O        2.41550550       0.02400838       2.41136250
H       -0.84098609      -0.62374969      -2.25711977
H       -2.42026447      -0.96718319      -1.33717062
H        0.20277908       2.04265173      -2.12163792
H       -3.08531893      -0.98875645       1.94114560
H        1.47552975      -0.14636447       2.28044728
H        2.67718171       0.32292011       1.52139542
17
Properties=species:S:1:pos:R:3 relative_energy_eV=0.0011900240860995837 branch=left pbc="F F F"
C       -1.37972693      -0.68871041      -1.32695302
C       -0.75526567      -0.44728687      -0.16441869
O        0.52058412      -0.08797078       0.02244480
P        1.50993016       0.65957760      -1.16041545
O        2.78030645       0.88732867      -0.41129197
O        1.36755830      -0.08368720      -2.45681173
O        0.71752443       2.11208725      -1.30862580
C       -1.45441830      -0.61059718       1.13630668
O       -0.94291645      -0.50140780       2.23056166
O       -2.78581917      -0.90780874       1.01904980
O        2.42620175       0.02029073       2.40929562
H       -0.84154400      -0.62545809      -2.25696868
H       -2.41886620      -0.97088258      -1.33908614
H        0.19497944       2.04124558      -2.11626021
H       -3.09240831      -0.98395447       1.93491188
H        1.48478080      -0.14699899       2.28760378
H        2.68089332       0.32224034       1.51860107
17
Properties=species:S:1:pos:R:3 relative_energy_eV=0.0020694353079306893 branch=left pbc="F F F"
C       -1.37894985      -0.68934246      -1.32669660
C       -0.75531039      -0.44718282      -0.16422875
O        0.52084979      -0.08970869       0.02463718
P        1.51059996       0.65936224      -1.15847876
O        2.77868944       0.89414497      -0.40688158
O        1.37008066      -0.08816365      -2.45235195
O        0.71554652       2.10953377      -1.30942091
C       -1.45678414      -0.61252564       1.13470108
O       -0.94926011      -0.50246118       2.23045457
O       -2.78825325      -0.90679390       1.01111039
O        2.44159980       0.01781801       2.40399372
H       -0.83731160      -0.62325358      -2.25447933
H       -2.41733193      -0.97508793      -1.33540038
H        0.17918116       2.04058111      -2.10808109
H       -3.10574556      -0.97373604       1.92343445
H        1.49726189      -0.13962832       2.29666399
H        2.68693133       0.31445123       1.50896775
17
Properties=species:S:1:pos:R:3 relative_energy_eV=0.002765267807262717 branch=left pbc="F F F"
C       -1.37287206      -0.69909218      -1.32653914
C       -0.75291638      -0.44937185      -0.16357088
O        0.52096627      -0.08471583       0.02587110
P        1.50902663       0.66616726      -1.15731695
O        2.77715252       0.90469139      -0.40716765
O        1.37097803      -0.07924971      -2.45209474
O        0.70893016       2.11108184      -1.30313572
C       -1.46132672      -0.60569703       1.13399724
O       -0.96047265      -0.49389647       2.23244226
O       -2.79205562      -0.90212426       1.00614085
O        2.45241683       0.00340135       2.39896795
H       -0.82860849      -0.63953586      -2.25280490
H       -2.40852511      -0.99298174      -1.33416513
H        0.16549052       2.04432557      -2.09691664
H       -3.11562718      -0.95460685       1.91772941
H        1.50427061      -0.14045560       2.29457163
H        2.69496630       0.30006706       1.50193529
17
Properties=species:S:1:pos:R:3 relative_energy_eV=0.0041424803421250544 branch=left pbc="F F F"
C       -1.35896010      -0.71925777      -1.32560068
C       -0.74845390      -0.45065371      -0.16114833
O        0.52103758      -0.07347973       0.03362025
P        1.50357371       0.67854934      -1.15455473
O        2.77473887       0.91619794      -0.40947741
O        1.36368607      -0.06327249      -2.45234843
O        0.69460651       2.12221620      -1.29034400
C       -1.46754504      -0.59842161       1.13143649
O       -0.97853271      -0.47251218       2.23453930
O       -2.79811789      -0.89255505       0.99483257
O        2.46825931      -0.01843064       2.38976051
H       -0.81839945      -0.66587143      -2.25530304
H       -2.39164040      -1.02408855      -1.33187989
H        0.14838701       2.04572569      -2.08161934
H       -3.12484310      -0.92210006       1.90607669
H        1.51846162      -0.15326635       2.29721835
H        2.70553548       0.27922747       1.49273591
17
Properties=species:S:1:pos:R:3 relative_energy_eV=0.006067213882488431 branch=left pbc="F F F"
C       -1.34913889      -0.74300805      -1.32393765
C       -0.75187752      -0.45244045      -0.15837870
O        0.51426454      -0.06451304       0.04483974
P        1.49607663       0.68824292      -1.14225311
O        2.77573295       0.91595219      -0.40867555
O        1.34623770      -0.04880957      -2.44030126
O        0.68617302       2.12838586      -1.28134010
C       -1.48131213      -0.59154437       1.12858997
O       -0.99841471      -0.46912040       2.23380279
O       -2.81252716      -0.87657535       0.98425389
O        2.49544062      -0.03001641       2.38082906
H       -0.80427838      -0.67969666      -2.24901649
H       -2.38122902      -1.04835971      -1.33772672
H        0.14307201       2.04564888      -2.07439898
H       -3.14830637      -0.90509744       1.89229553
H        1.54539651      -0.15556500       2.28247215
H        2.73648371       0.27452366       1.48688982
17
Properties=species:S:1:pos:R:3 relative_energy_eV=0.0077918871720612515 branch=left pbc="F F F"
C       -1.33389266      -0.77040426      -1.32033743
C       -0.74885775      -0.45845726      -0.15477072
O        0.51564717      -0.06047562       0.04547974
P        1.48908480       0.70497784      -1.13989131
O        2.77195294       0.93369915      -0.41154866
O        1.33343855      -0.01972026      -2.44547313
O        0.67116030       2.14467226      -1.26630869
C       -1.48806523      -0.57119068       1.12904745
O       -1.00635102      -0.43641222       2.23343954
O       -2.82072635      -0.85579774       0.98022362
O        2.50229640      -0.06825237       2.36901202
H       -0.77410246      -0.71896063      -2.23846741
H       -2.36108031      -1.09405673      -1.34000993
H        0.12682055       2.05436522      -2.05833194
H       -3.16434012      -0.87549546       1.88559431
H        1.54863039      -0.17081106       2.26810533
H        2.75017831       0.25032682       1.48218177
17
Properties=species:S:1:pos:R:3 relative_energy_eV=0.00935264640065725 branch=left pbc="F F F"
C       -1.32273753      -0.78747106      -1.31797036
C       -0.74880003      -0.45865319      -0.15137595
O        0.51496889      -0.05951613       0.05059200
P        1.48137921       0.71226239      -1.13792788
O        2.76212481       0.94264888      -0.40700525
O        1.32376578      -0.00688506      -2.44719242
O        0.66300726       2.15119694      -1.25333344
C       -1.49177095      -0.56303741       1.13062777
O       -1.01606298      -0.41613772       2.23645789
O       -2.82519429      -0.83656098       0.97576792
O        2.50815826      -0.08833673       2.35583691
H       -0.75284312      -0.74348733      -2.23037687
H       -2.34554576      -1.12376182      -1.34222774
H        0.12160642       2.06562017      -2.04727502
H       -3.17443934      -0.85908754       1.87900923
H        1.55383733      -0.18127225       2.25091698
H        2.76033956       0.24048579       1.47342088
17
Properties=species:S:1:pos:R:3 relative_energy_eV=0.011442562336014817 branch=left pbc="F F F"
C       -1.31405755      -0.81463015      -1.31654278
C       -0.75261992      -0.45890736      -0.15185591
O        0.50800686      -0.05227423       0.05013917
P        1.47166862       0.72094536      -1.13244005
O        2.75109252       0.94852135      -0.39910273
O        1.31719835       0.00523723      -2.44273688
O        0.65791623       2.16105762      -1.24323221
C       -1.50115067      -0.54544451       1.12824588
O       -1.03248430      -0.39951739       2.23689267
O       -2.83321027      -0.81739416       0.96906528
O        2.52422315      -0.11371375       2.34762204
H       -0.73910350      -0.78384001      -2.22579489
H       -2.33315131      -1.15932982      -1.34677739
H        0.11278893       2.09703540      -2.03627012
H       -3.18070164      -0.83831856       1.87280192
H        1.57161720      -0.19853598       2.23113369
H        2.78376082       0.23711584       1.47679707
17
Properties=species:S:1:pos:R:3 relative_energy_eV=0.013223184305388713 branch=left pbc="F F F"
C       -1.30088470      -0.84534313      -1.31209253
C       -0.74766670      -0.46333796      -0.15151562
O        0.51225663      -0.05065759       0.04942389
P        1.47201871       0.73696386      -1.13227413
O        2.75325452       0.96653233      -0.40091938
O        1.32399697       0.02442519      -2.44551240
O        0.64294948       2.17406952      -1.22673815
C       -1.50336048      -0.52921878       1.12624195
O       -1.03596633      -0.36436307       2.23312903
O       -2.83632428      -0.80437174       0.97102163
O        2.51560790      -0.14599272       2.33142248
H       -0.71991752      -0.82430918      -2.21868213
H       -2.31963757      -1.19487457      -1.34286632
H        0.09844441       2.12060621      -2.02143606
H       -3.18066142      -0.80958041       1.87664916
H        1.56069904      -0.21975374       2.21633886
H        2.77698478       0.21721258       1.46575449
17
Properties=species:S:1:pos:R:3 relative_energy_eV=0.014427409507334232 branch=left pbc="F F F"
C       -1.29775319      -0.86077152      -1.31156296
C       -0.74876884      -0.46714090      -0.15384946
O        0.50743832      -0.04590750       0.04997879
P        1.46966317       0.74310365      -1.12783929
O        2.75073593       0.97463541      -0.39774587
O        1.32563543       0.03321736      -2.44204788
O        0.64499575       2.17862668      -1.21874962
C       -1.50556819      -0.52849262       1.12272520
O       -1.03794739      -0.35090759       2.22702049
O       -2.83939802      -0.79946288       0.97126464
O        2.51832739      -0.15343742       2.32340765
H       -0.71533164      -0.84428994      -2.21619289
H       -2.31671093      -1.20819335      -1.33654802
H        0.10141426       2.12996417      -2.01339235
H       -3.18497050      -0.79605716       1.87656926
H        1.56405080      -0.23420494       2.20608683
H        2.77598107       0.21732527       1.45882024
17
Properties=species:S:1:pos:R:3 relative_energy_eV=0.015592733365338063 branch=left pbc="F F F"
C       -1.29989755      -0.87001486      -1.31309649
C       -0.75199051      -0.47074907      -0.15674129
O        0.50029451      -0.03907719       0.04705985
P        1.46768315       0.74713757      -1.12518387
O        2.74719664       0.97754198      -0.39167110
O        1.32129748       0.04083816      -2.44161263
O        0.65143340       2.18834768      -1.21733490
C       -1.50909280      -0.52498285       1.11929429
O       -1.03875637      -0.34461286       2.22180908
O       -2.84225924      -0.80019784       0.96877401
O        2.52788456      -0.15793939       2.32375376
H       -0.71719476      -0.86233847      -2.21853100
H       -2.31894586      -1.21911546      -1.33247568
H        0.10460543       2.13543174      -2.00972223
H       -3.18842443      -0.78534254       1.87353096
H        1.57591212      -0.24975989       2.20606026
H        2.78204756       0.22283994       1.46403173
17
Properties=species:S:1:pos:R:3 relative_energy_eV=0.01721736388572026 branch=left pbc="F F F"
C       -1.29307336      -0.88480811      -1.30942188
C       -0.74640984      -0.46849284      -0.15752455
O        0.50808965      -0.04198329       0.04290366
P        1.46957655       0.75964016      -1.12584650
O        2.74549365       0.98592025      -0.38401927
O        1.31817821       0.06130587      -2.44629653
O        0.64829492       2.19832083      -1.21196775
C       -1.50359684      -0.51433111       1.12070191
O       -1.03702262      -0.32145661       2.22288712
O       -2.83431225      -0.80246001       0.97151211
O        2.51830519      -0.17339674       2.31368803
H       -0.71181969      -0.88640387      -2.21578217
H       -2.31085019      -1.23886205      -1.32966263
H        0.09870706       2.13551472      -2.00198874
H       -3.18739621      -0.76318203       1.87296288
H        1.56561671      -0.26920115       2.20316355
H        2.76401226       0.21188259       1.45263546
17
Properties=species:S:1:pos:R:3 relative_energy_eV=0.019828575026622275 branch=left pbc="F F F"
C       -1.28722803      -0.89235598      -1.30463097
C       -0.74235478      -0.47319642      -0.15426683
O        0.51202871      -0.04457118       0.03784851
P        1.46548455       0.76579033      -1.12523787
O        2.74554632       0.98376808      -0.38868047
O        1.32233718       0.08526179      -2.45490519
O        0.64135065       2.20441483      -1.21137398
C       -1.49755112      -0.50877694       1.12362165
O       -1.03739871      -0.29433396       2.22500005
O       -2.82604606      -0.80054677       0.97029452
O        2.51234627      -0.18835055       2.30793440
H       -0.70170543      -0.89781508      -2.20787257
H       -2.29989933      -1.25760118      -1.32543190
H        0.08816155       2.13968950      -1.99967556
H       -3.18175198      -0.74593504       1.86929907
H        1.55846171      -0.29466036       2.21010739
H        2.74001165       0.20722555       1.44591439
17
Properties=species:S:1:pos:R:3 relative_energy_eV=0.02331637466340908 branch=left pbc="F F F"
C       -1.27927567      -0.90491617      -1.30072272
C       -0.73344621      -0.48039462      -0.15190986
O        0.51729879      -0.04129439       0.03828571
P        1.46386842       0.77225326      -1.13469181
O        2.74177993       0.97918006      -0.39122138
O        1.31884985       0.09718526      -2.46821272
O        0.62969603       2.20776136      -1.20651044
C       -1.49333004      -0.49631871       1.12223376
O       -1.03770089      -0.26824071       2.22258138
O       -2.81952191      -0.79745156       0.96802455
O        2.50875627      -0.20092658       2.30356639
H       -0.68908880      -0.89848976      -2.20210253
H       -2.29223816      -1.27469524      -1.31833986
H        0.08044865       2.14734374      -1.99752787
H       -3.17686873      -0.73350263       1.86542198
H        1.55740596      -0.32628609       2.22616539
H        2.71515964       0.20679939       1.44290467
17
Properties=species:S:1:pos:R:3 relative_energy_eV=0.02770439062442165 branch=left pbc="F F F"
C       -1.26278472      -0.92228440      -1.29438160
C       -0.72215970      -0.47685440      -0.15244049
O        0.52998703      -0.04080024       0.03037531
P        1.46280566       0.77764490      -1.14624463
O        2.74035823       0.99121870      -0.40501984
O        1.30996608       0.10842800      -2.48170008
O        0.61752855       2.20178254      -1.19772453
C       -1.48800686      -0.48284325       1.11970070
O       -1.03645515      -0.23574471       2.21714205
O       -2.81457916      -0.79268024       0.97226988
O        2.50203946      -0.22003483       2.30321377
H       -0.68047543      -0.90035929      -2.19819181
H       -2.27355628      -1.29288581      -1.31436954
H        0.07149602       2.15627728      -1.99112519
H       -3.17715387      -0.72157593       1.86821189
H        1.55043326      -0.35991511       2.24673158
H        2.68235003       0.19863339       1.44149707
17
Properties=species:S:1:pos:R:3 relative_energy_eV=0.03369072119312477 branch=left pbc="F F F"
C       -1.24992954      -0.92541400      -1.29708307
C       -0.71791855      -0.47489106      -0.15244857
O        0.54102434      -0.05267930       0.02928596
P        1.45956901       0.78037047      -1.14891607
O        2.74954846       1.01483640      -0.43438206
O        1.29612530       0.11276832      -2.48452334
O        0.60508683       2.20487376      -1.18921236
C       -1.48482961      -0.46482079       1.12137661
O       -1.03198564      -0.20243648       2.21564846
O       -2.80914654      -0.78630865       0.97452473
O        2.49426033      -0.23754149       2.30464372
H       -0.67287792      -0.90924726      -2.20756837
H       -2.25215969      -1.31694089      -1.31078711
H        0.06355766       2.16598887      -1.98651931
H       -3.17340726      -0.71290119       1.86922686
H        1.54384397      -0.39430500       2.27241152
H        2.65103198       0.18665487       1.44226688
17
Properties=species:S:1:pos:R:3 relative_energy_eV=0.04103813773326692 branch=left pbc="F F F"
C       -1.24695046      -0.92737799      -1.30012128
C       -0.70048233      -0.47742108      -0.15996789
O        0.55652717      -0.05174826       0.03079140
P        1.45449628       0.79752016      -1.15310704
O        2.74743359       1.03339421      -0.44725760
O        1.27706275       0.11113124      -2.47545210
O        0.59069947       2.21093928      -1.18563828
C       -1.46866745      -0.45175809       1.11018758
O       -1.02407372      -0.17110718       2.20266348
O       -2.79159366      -0.77508190       0.97092647
O        2.47622502      -0.26086776       2.31363718
H       -0.66673287      -0.92508138      -2.20659795
H       -2.24528639      -1.33612915      -1.30628388
H        0.04479679       2.16832524      -1.97896716
H       -3.14796635      -0.70416023       1.86939781
H        1.52437072      -0.40418110       2.28821982
H        2.63193455       0.15161054       1.44551388
17
Properties=species:S:1:pos:R:3 relative_energy_eV=0.05342329650738975 branch=left pbc="F F F"
C       -1.24010140      -0.93994182      -1.29482219
C       -0.69037508      -0.47583434      -0.16551721
O        0.56254969      -0.04043285       0.00938049
P        1.45286577       0.80897346      -1.16256970
O        2.74531130       1.05833074      -0.45591475
O        1.26235667       0.12428050      -2.48564369
O        0.57626614       2.22410781      -1.19158593
C       -1.45329405      -0.44149913       1.09839953
O       -1.00385319      -0.13589737       2.18318640
O       -2.77665941      -0.76834193       0.96490534
O        2.45335559      -0.30328783       2.33839005
H       -0.66589266      -0.94997838      -2.20147198
H       -2.23615178      -1.34867506      -1.30349708
H        0.00792320       2.16729148      -1.96950206
H       -3.11116257      -0.68976032       1.86985453
H        1.49786821      -0.40017597       2.31330271
H        2.63078672       0.09884756       1.47105003
17
Properties=species:S:1:pos:R:3 relative_energy_eV=0.06924379035262973 branch=left pbc="F F F"
C       -1.21155542      -0.97803770      -1.29280049
C       -0.67454976      -0.47425990      -0.17345218
O        0.57525136      -0.03776949       0.00361859
P        1.44739742       0.83236950      -1.17637865
O        2.73091696       1.09503096      -0.46021146
O        1.26733328       0.15452888      -2.50481612
O        0.55295870       2.23091293      -1.19409137
C       -1.42458885      -0.40912195       1.09276191
O       -0.96637214      -0.08852562       2.16970794
O       -2.73800410      -0.76220701       0.97252644
O        2.39223783      -0.36729950       2.34814005
H       -0.64145661      -0.98174318      -2.20566819
H       -2.22078611      -1.35167860      -1.28273796
H       -0.04721318       2.15464578      -1.94587005
H       -3.06493665      -0.66422123       1.87688599
H        1.42643824      -0.36574323       2.31568323
H        2.60872224       0.00112587       1.47464678
17
Properties=species:S:1:pos:R:3 relative_energy_eV=0.08897110923498985 branch=left pbc="F F F"
C       -1.19259293      -0.98980657      -1.29799890
C       -0.64738648      -0.47753780      -0.18338625
O        0.60169537      -0.03425528      -0.01983419
P        1.45001732       0.86112694      -1.19639169
O        2.72784562       1.12289597      -0.47668523
O        1.29766082       0.20081136      -2.53587000
O        0.52989225       2.24328285      -1.20463055
C       -1.39878868      -0.39656586       1.09629412
O       -0.94036157      -0.04554232       2.16335065
O       -2.71626891      -0.75653738       1.00510614
O        2.32847680      -0.44251742       2.36115944
H       -0.61929517      -1.02742819      -2.21176962
H       -2.20504063      -1.36185997      -1.27248738
H       -0.10541958       2.13979518      -1.92416531
H       -3.06032001      -0.64118873       1.90469866
H        1.37060475      -0.31957219       2.31448164
H        2.59107432      -0.08709412       1.49607293
17
Properties=species:S:1:pos:R:3 relative_energy_eV=0.102012431332696 branch=left pbc="F F F"
C       -1.19140961      -0.98978243      -1.28997010
C       -0.64807412      -0.48047189      -0.17452597
O        0.60581657      -0.04338327      -0.03816759
P        1.46563319       0.87771707      -1.21304891
O        2.74282427       1.15078705      -0.48972289
O        1.31766886       0.22411916      -2.55627339
O        0.51990313       2.24394389      -1.20196812
C       -1.39555259      -0.39555781       1.10529174
O       -0.93057201      -0.02922506       2.16544373
O       -2.71202657      -0.76043206       1.01643614
O        2.29059056      -0.47655978       2.35750736
H       -0.60982678      -1.04513854      -2.19432542
H       -2.19489751      -1.37045686      -1.28196674
H       -0.12423341       2.12782039      -1.91256080
H       -3.04975770      -0.62601368       1.91474425
H        1.34411194      -0.29263761       2.30907904
H        2.58159511      -0.12672211       1.50197209
17
Properties=species:S:1:pos:R:3 relative_energy_eV=0.11515546662121778 branch=left pbc="F F F"
C       -1.19295484      -0.99538153      -1.27737700
C       -0.64072417      -0.47672268      -0.16961320
O        0.62093475      -0.05115231      -0.03084240
P        1.47113675       0.87936866      -1.21206484
O        2.74500301       1.17722284      -0.50124607
O        1.33585645       0.24069692      -2.56494323
O        0.51851157       2.23162984      -1.19261870
C       -1.38933998      -0.38936887       1.10746950
O       -0.93051908      -0.02540416       2.16903330
O       -2.70238323      -0.76492417       1.02329272
O        2.25802345      -0.49135180       2.34105733
H       -0.59776179      -1.04678075      -2.17102489
H       -2.19975139      -1.37926368      -1.29391671
H       -0.12578959       2.11610085      -1.90119153
H       -3.03732302      -0.61408883       1.92075521
H        1.31879888      -0.26955977       2.28734123
H        2.56007561      -0.15301412       1.48383369
17
Properties=species:S:1:pos:R:3 relative_energy_eV=0.1402052102057496 branch=left pbc="F F F"
C       -1.18518982      -1.00855984      -1.27177787
C       -0.63447653      -0.47974619      -0.16941658
O        0.62924293      -0.05751689      -0.05568249
P        1.47424784       0.87955277      -1.20301605
O        2.75064329       1.19436803      -0.49994117
O        1.34830258       0.23243231      -2.55386753
O        0.50213063       2.23336080      -1.16504783
C       -1.37552156      -0.38614154       1.11749700
O       -0.93844083      -0.01756795       2.19207007
O       -2.68822979      -0.76335554       1.02729575
O        2.22151987      -0.49132606       2.31038910
H       -0.56689665      -1.03682905      -2.15902159
H       -2.20391965      -1.37684515      -1.28610424
H       -0.11834784       2.09897699      -1.89214575
H       -3.02233601      -0.60517053       1.92417978
H        1.28738559      -0.24830770       2.25581587
H        2.53167931      -0.17931803       1.44671792
17
Properties=species:S:1:pos:R:3 relative_energy_eV=0.2219267449581821 branch=left pbc="F F F"
C       -1.13645402      -1.00284617      -1.25787670
C       -0.60059593      -0.50292152      -0.13648504
O        0.66431337      -0.09095583      -0.01444006
P        1.48259418       0.89008980      -1.16874654
O        2.75106751       1.20212404      -0.44819076
O        1.35504275       0.21739006      -2.50022512
O        0.47068234       2.19098357      -1.12253982
C       -1.35276995      -0.38211924       1.13662888
O       -0.90641356       0.00474581       2.19521631
O       -2.66319551      -0.74630737       1.03604537
O        2.13100689      -0.46555707       2.20810983
H       -0.53726732      -1.03237511      -2.15071116
H       -2.14961306      -1.34702119      -1.25736426
H       -0.11917291       2.08265292      -1.87776183
H       -3.00518454      -0.60012423       1.93009536
H        1.20662001      -0.19176034       2.13446990
H        2.42113310      -0.23799175       1.31171997
17
Properties=species:S:1:pos:R:3 relative_energy_eV=0.4399652857755427 branch=left pbc="F F F"
C       -1.12218766      -0.99430001      -1.24909849
C       -0.57712795      -0.50265176      -0.12472949
O        0.68553723      -0.09651897       0.02283872
P        1.48397312       0.87395668      -1.14866633
O        2.74630822       1.20371208      -0.42952625
O        1.35621313       0.21849162      -2.49817287
O        0.46214929       2.18222547      -1.11614682
C       -1.34490462      -0.38055321       1.13235322
O       -0.88692320       0.00878878       2.18524976
O       -2.66314514      -0.74235215       1.04032895
O        2.12611941      -0.47271182       2.21235414
H       -0.53564543      -1.03582858      -2.15341829
H       -2.13957781      -1.34326093      -1.25508792
H       -0.12421394       2.08207502      -1.87521131
H       -3.00727768      -0.60050551       1.93523259
H        1.24492172      -0.17251380       2.03595761
H        2.30757468      -0.24004654       1.30368707
17
Properties=species:S:1:pos:R:3 relative_energy_eV=1.5420023906044662 branch=ts pbc="F F F"
C       -1.11943765      -0.99392575      -1.24997693
C       -0.58705011      -0.50398521      -0.12687293
O        0.69072820      -0.09994348       0.03655156
P        1.49050061       0.88675740      -1.16558347
O        2.74231905       1.20052546      -0.42445476
O        1.35556532       0.21631530      -2.49810283
O        0.46122334       2.17859753      -1.11280512
C       -1.34789348      -0.37984563       1.13365549
O       -0.87817257       0.00864178       2.18184124
O       -2.66282785      -0.74229640       1.04019050
O        2.17305861      -0.50763499       2.28005257
H       -0.53593136      -1.03637166      -2.15338138
H       -2.13854530      -1.34295332      -1.25481257
H       -0.12419457       2.08154487      -1.87478778
H       -3.00676215      -0.60047964       1.93518504
H        1.39580389      -0.15873474       1.86639256
H        2.09161537      -0.20621203       1.38691500
17
Properties=species:S:1:pos:R:3 relative_energy_eV=0.04355690391093958 branch=right pbc="F F F"
C       -1.12186122      -0.99462453      -1.25124203
C       -0.58860921      -0.50511262      -0.12964427
O        0.68053151      -0.09819563       0.01175995
P        1.49024647       0.88332598      -1.16394396
O        2.74196797       1.20170316      -0.42453712
O        1.35513225       0.21727668      -2.49926604
O        0.46149378       2.18175633      -1.11478262
C       -1.34757338      -0.38001568       1.13614922
O       -0.88363417       0.01027542       2.18622812
O       -2.66426092      -0.74312376       1.03896572
O        2.20240246      -0.53234239       2.32574616
H       -0.53645436      -1.03647319      -2.15392750
H       -2.13952381      -1.34335370      -1.25492597
H       -0.12438850       2.08144742      -1.87559828
H       -3.00687958      -0.60057015       1.93478856
H        1.54596479      -0.15434502       1.73728036
H        1.92365121      -0.17563574       1.47901776
17
Properties=species:S:1:pos:R:3 relative_energy_eV=0.014754355881450465 branch=right pbc="F F F"
C       -1.13649600      -1.00022483      -1.26080912
C       -0.60124128      -0.50396596      -0.13971264
O        0.67282330      -0.10454488      -0.01977045
P        1.48795211       0.88623407      -1.17140351
O        2.73206667       1.20078521      -0.42084637
O        1.35637432       0.22160914      -2.51122649
O        0.46786301       2.19131240      -1.12523326
C       -1.35105393      -0.37850893       1.14077817
O       -0.90340655       0.01413025       2.19408661
O       -2.66581271      -0.74648175       1.03703636
O        2.22302286      -0.55981933       2.35234973
H       -0.54137592      -1.03806337      -2.15844087
H       -2.15274354      -1.34957110      -1.25987462
H       -0.12511928       2.08299448      -1.87864663
H       -3.00955786      -0.60172985       1.93192645
H        1.58680224      -0.15043563       1.75425531
H        1.94810782      -0.15172734       1.51759942
17
Properties=species:S:1:pos:R:3 relative_energy_eV=-0.01383343081761268 branch=right pbc="F F F"
C       -1.15691191      -1.00096900      -1.26532370
C       -0.61275707      -0.50256350      -0.14804986
O        0.66790439      -0.11773854      -0.01784264
P        1.48091536       0.88261358      -1.18029060
O        2.71818444       1.19578177      -0.41342379
O        1.36376713       0.23632367      -2.52915120
O        0.47740707       2.20191772      -1.14430611
C       -1.36195297      -0.37504825       1.13177033
O       -0.91408343       0.01957136       2.18761279
O       -2.67415319      -0.75474141       1.03347571
O        2.24453346      -0.59210140       2.36728238
H       -0.56274364      -1.04460419      -2.16487766
H       -2.17352853      -1.36058126      -1.27433667
H       -0.13001085       2.09025960      -1.88639238
H       -3.01953168      -0.60588721       1.92706262
H        1.61929494      -0.14168883       1.79824067
H        2.02187173      -0.11855148       1.56061826
17
Properties=species:S:1:pos:R:3 relative_energy_eV=-0.02043556180797168 branch=right pbc="F F F"
C       -1.16017645      -0.99894589      -1.26645291
C       -0.61519950      -0.50902006      -0.14686311
O        0.66158884      -0.11454899      -0.00880477
P        1.47734826       0.87782406      -1.17135055
O        2.71638642       1.18692575      -0.40332542
O        1.36764398       0.23705649      -2.52228442
O        0.47382886       2.19736885      -1.14493230
C       -1.36729729      -0.37885496       1.12594499
O       -0.91023892       0.02582809       2.17129195
O       -2.68144193      -0.75726055       1.03100873
O        2.25639351      -0.60179032       2.36478337
H       -0.57752583      -1.04672462      -2.17017770
H       -2.17503416      -1.35696678      -1.27408609
H       -0.12932744       2.09573283      -1.89252807
H       -3.02921036      -0.61086705       1.92397314
H        1.64594485      -0.13230491       1.79439554
H        2.03452236      -0.10145935       1.57147576
17
Properties=species:S:1:pos:R:3 relative_energy_eV=-0.025882676512992475 branch=right pbc="F F F"
C       -1.16399984      -1.00301208      -1.27420869
C       -0.61953318      -0.51662281      -0.15201015
O        0.65178173      -0.11153010      -0.00160713
P        1.47296152       0.87334386      -1.15638326
O        2.70991071       1.17328744      -0.37930964
O        1.37158280       0.22469831      -2.50415208
O        0.46343572       2.19119231      -1.13349302
C       -1.37338988      -0.38279741       1.12164059
O       -0.91889520       0.03722478       2.16207410
O       -2.68776327      -0.76263837       1.02817731
O        2.27454859      -0.60645417       2.34664823
H       -0.58744264      -1.04373736      -2.18469886
H       -2.18457954      -1.34853647      -1.26614140
H       -0.11667574       2.09939798      -1.90039912
H       -3.04214722      -0.61766772       1.91885822
H        1.67010956      -0.11571932       1.78881941
H        2.06830110      -0.07843626       1.56825359
17
Properties=species:S:1:pos:R:3 relative_energy_eV=-0.04347861768110306 branch=right pbc="F F F"
C       -1.18112652      -1.00155977      -1.27896923
C       -0.64316053      -0.52115666      -0.14828439
O        0.63324673      -0.14680807       0.03059102
P        1.45578742       0.83624605      -1.09676373
O        2.67079953       1.15943904      -0.29402473
O        1.38589749       0.19490020      -2.45211148
O        0.45500160       2.16128055      -1.09913197
C       -1.41449669      -0.37090169       1.11122024
O       -0.99473715       0.06284598       2.16316216
O       -2.70956218      -0.80688725       1.01112249
O        2.33981479      -0.59723889       2.27653380
H       -0.62027305      -1.02702603      -2.20063586
H       -2.20816480      -1.32883646      -1.26813523
H       -0.05177414       2.10451179      -1.91938436
H       -3.06208338      -0.63151458       1.89599418
H        1.76267052      -0.05507432       1.72944940
H        2.17036564      -0.02022738       1.52143559
17
Properties=species:S:1:pos:R:3 relative_energy_eV=-0.06853794849303085 branch=right pbc="F F F"
C       -1.20743958      -0.98358684      -1.27489649
C       -0.66334291      -0.52950948      -0.13903679
O        0.62060777      -0.17393171       0.03196700
P        1.45362056       0.82926240      -1.08572605
O        2.65088415       1.14657672      -0.24465438
O        1.40378471       0.19467162      -2.44202050
O        0.45655772       2.15046480      -1.09964245
C       -1.44344266      -0.38626289       1.11343903
O       -1.04551550       0.08672294       2.15428126
O       -2.73738404      -0.82665187       1.00296415
O        2.37849610      -0.59120415       2.26426268
H       -0.63760572      -1.01997640      -2.18745284
H       -2.22682755      -1.32867540      -1.28628529
H       -0.02758008       2.11140733      -1.93361393
H       -3.09353277      -0.64771034       1.88552444
H        1.85375780      -0.02750924       1.69936149
H        2.25316730       0.00790500       1.52359651
17
Properties=species:S:1:pos:R:3 relative_energy_eV=-0.08466229119585478 branch=right pbc="F F F"
C       -1.21900902      -0.97568182      -1.27260334
C       -0.67029940      -0.54141242      -0.13081233
O        0.61292346      -0.17521553       0.03008004
P        1.45301728       0.82474267      -1.07894002
O        2.64608559       1.13504596      -0.23035304
O        1.42727508       0.20104709      -2.44275205
O        0.45514082       2.15107962      -1.10113915
C       -1.45897690      -0.39025922       1.12153501
O       -1.06823596       0.09700898       2.15848807
O       -2.75515052      -0.83644895       1.00778514
O        2.37986969      -0.57061362       2.27259654
H       -0.62154524      -1.00816902      -2.16784789
H       -2.23889271      -1.32556503      -1.29497345
H       -0.02064882       2.11031589      -1.93917285
H       -3.12973498      -0.66244514       1.88467759
H        1.87862615      -0.02171651       1.66542758
H        2.31776074       0.00027953       1.50007201
17
Properties=species:S:1:pos:R:3 relative_energy_eV=-0.09390047084889375 branch=right pbc="F F F"
C       -1.21204596      -0.98454330      -1.26794273
C       -0.68301741      -0.53111061      -0.12492964
O        0.60123945      -0.16685695       0.03721569
P        1.45011849       0.82543550      -1.08083642
O        2.64903132       1.12901081      -0.23695515
O        1.43880901       0.20816030      -2.44618116
O        0.45815389       2.15158573      -1.10513069
C       -1.46787119      -0.38501325       1.13015187
O       -1.07049565       0.09348687       2.16773553
O       -2.75848707      -0.84356130       1.01365885
O        2.36865680      -0.54468493       2.29521199
H       -0.60819535      -1.00246087      -2.16068951
H       -2.23556549      -1.31716243      -1.30342828
H       -0.02449061       2.10625692      -1.93896853
H       -3.14749682      -0.67044151       1.88381681
H        1.90021679      -0.03352556       1.63555267
H        2.32964510      -0.02258302       1.48378659
17
Properties=species:S:1:pos:R:3 relative_energy_eV=-0.09856385331659112 branch=right pbc="F F F"
C       -1.21095708      -0.98246974      -1.27107351
C       -0.68726004      -0.51777685      -0.12887566
O        0.59126840      -0.14007079       0.04027846
P        1.44758255       0.82772434      -1.08344483
O        2.64987422       1.11798692      -0.24002880
O        1.42828453       0.20456403      -2.44687032
O        0.46205350       2.15919632      -1.11422647
C       -1.47442655      -0.38340941       1.12929341
O       -1.07965428       0.08682183       2.17232746
O       -2.76246752      -0.84968446       1.01357535
O        2.36822769      -0.52861815       2.32439030
H       -0.61129900      -1.01167441      -2.16635085
H       -2.23499459      -1.31368890      -1.31484392
H       -0.03354315       2.10434641      -1.94090970
H       -3.15316692      -0.67809677       1.88382675
H        1.91970423      -0.04204355       1.63085310
H        2.36897941      -0.04111440       1.49414720
17
Properties=species:S:1:pos:R:3 relative_energy_eV=-0.10061077062346158 branch=right pbc="F F F"
C       -1.21064162      -0.97275016      -1.27343649
C       -0.68782627      -0.51443570      -0.12847596
O        0.58800521      -0.13163390       0.04689242
P        1.44602569       0.82946478      -1.08189483
O        2.65360068       1.11891439      -0.24491788
O        1.41438371       0.19513175      -2.43953415
O        0.46724985       2.16402896      -1.11604076
C       -1.47622696      -0.38592400       1.12614891
O       -1.08425335       0.08107298       2.17143315
O       -2.76368833      -0.85064226       1.00811793
O        2.36600305      -0.51876661       2.33234083
H       -0.60912135      -1.01627210      -2.16590815
H       -2.23117018      -1.31244955      -1.31244380
H       -0.03321164       2.10236440      -1.93898132
H       -3.14314138      -0.68041703       1.88327418
H        1.92386503      -0.04609890       1.62650692
H        2.36835332      -0.04959463       1.48898697
17
Properties=species:S:1:pos:R:3 relative_energy_eV=-0.10183472908829572 branch=right pbc="F F F"
C       -1.21277075      -0.97197089      -1.27427049
C       -0.69334033      -0.51088642      -0.12894691
O        0.58199331      -0.12616467       0.05241213
P        1.44289557       0.82801040      -1.08059614
O        2.65463136       1.11468573      -0.24952563
O        1.40884461       0.18881521      -2.43612778
O        0.47668413       2.17311018      -1.12235008
C       -1.48360942      -0.38830331       1.12448543
O       -1.09190683       0.07755419       2.17037723
O       -2.77097466      -0.85414539       1.00502500
O        2.37059102      -0.50767409       2.34114378
H       -0.60340551      -1.01291616      -2.16250877
H       -2.23575310      -1.30866367      -1.31126111
H       -0.03293289       2.10302211      -1.93925098
H       -3.15059134      -0.69120084       1.88152893
H        1.93877171      -0.04626490       1.62113820
H        2.38907865      -0.05501509       1.49079518
17
Properties=species:S:1:pos:R:3 relative_energy_eV=-0.10301761682421784 branch=right pbc="F F F"
C       -1.21109799      -0.97173590      -1.27069293
C       -0.69468259      -0.50924472      -0.12572361
O        0.57841601      -0.11794739       0.05667545
P        1.44393789       0.82429600      -1.08219480
O        2.65946274       1.11030117      -0.25557896
O        1.39266376       0.17237168      -2.43091909
O        0.49496203       2.17974468      -1.12883822
C       -1.49081443      -0.38946192       1.12297738
O       -1.10024441       0.06877509       2.17222119
O       -2.77802946      -0.85637443       0.99852608
O        2.37878916      -0.50035017       2.34176439
H       -0.60494501      -1.00562270      -2.15967265
H       -2.23441820      -1.30279122      -1.30883084
H       -0.02908860       2.10881874      -1.93613941
H       -3.15741167      -0.70798507       1.87777007
H        1.94603011      -0.04060217       1.62197157
H        2.39467631      -0.05019926       1.48875249
17
Properties=species:S:1:pos:R:3 relative_energy_eV=-0.10433579078744515 branch=right pbc="F F F"
C       -1.20923531      -0.96753521      -1.26728761
C       -0.69463501      -0.50540349      -0.11972791
O        0.57649083      -0.10729267       0.06678580
P        1.44705047       0.81830120      -1.08639125
O        2.66707418       1.10002301      -0.26542133
O        1.38214959       0.15644288      -2.43059487
O        0.51285889       2.18539745      -1.13338227
C       -1.49378697      -0.39485615       1.12932860
O       -1.10973073       0.06007406       2.18284085
O       -2.78164099      -0.85721850       0.99233146
O        2.38606656      -0.49302461       2.33631776
H       -0.60602211      -0.99799759      -2.15930723
H       -2.23281374      -1.30053520      -1.30816434
H       -0.02382295       2.11590044      -1.93237523
H       -3.16555192      -0.72580438       1.87198050
H        1.94403985      -0.03205311       1.62211317
H        2.38971514      -0.04242566       1.48302216
17
Properties=species:S:1:pos:R:3 relative_energy_eV=-0.10594259455319843 branch=right pbc="F F F"
C       -1.21347946      -0.95324719      -1.26474048
C       -0.70422805      -0.49505257      -0.11311432
O        0.56266116      -0.08539061       0.07714019
P        1.44610136       0.80992101      -1.08753983
O        2.67792517       1.07266907      -0.27872339
O        1.37486659       0.14100347      -2.42675951
O        0.53766908       2.19312950      -1.14468007
C       -1.50785416      -0.39981235       1.13567389
O       -1.13428065       0.04314279       2.19816214
O       -2.79024711      -0.87097734       0.98562487
O        2.40065589      -0.47385259       2.33766742
H       -0.60563068      -0.98874833      -2.15336678
H       -2.23279864      -1.29735823      -1.30879135
H       -0.01510304       2.12355417      -1.93266248
H       -3.18443974      -0.75256781       1.86236241
H        1.96457195      -0.02002919       1.61644698
H        2.41181633      -0.03439129       1.47936873
17
Properties=species:S:1:pos:R:3 relative_energy_eV=-0.10680456028785557 branch=right pbc="F F F"
C       -1.21553595      -0.94759012      -1.26196110
C       -0.70806208      -0.48507463      -0.11183085
O        0.55822789      -0.07422433       0.08062021
P        1.45025609       0.80632123      -1.09009600
O        2.68607288       1.05901059      -0.28371746
O        1.36821433       0.13376402      -2.42731095
O        0.54861863       2.19458076      -1.14719445
C       -1.51325346      -0.40517198       1.13529301
O       -1.14064230       0.03025249       2.20110781
O       -2.79411217      -0.88175800       0.98288290
O        2.40631931      -0.47110823       2.33291864
H       -0.60675220      -0.98081586      -2.14932913
H       -2.23300135      -1.29733591      -1.30170103
H       -0.00530681       2.12546801      -1.93443918
H       -3.18769293      -0.76059792       1.85945389
H        1.96458016      -0.01045868       1.61932811
H        2.41027609      -0.02326889       1.47804412
17
Properties=species:S:1:pos:R:3 relative_energy_eV=-0.10702062701238901 branch=right pbc="F F F"
C       -1.21669886      -0.94767865      -1.26287092
C       -0.70814542      -0.48554338      -0.11274583
O        0.55682761      -0.07155736       0.08106492
P        1.44995733       0.80578133      -1.09025401
O        2.68533726       1.05794270      -0.28362358
O        1.36856823       0.13613488      -2.42923718
O        0.55097910       2.19504662      -1.14827204
C       -1.51229058      -0.40762397       1.13570479
O       -1.13983870       0.02875571       2.20130281
O       -2.79332213      -0.88352713       0.98467395
O        2.40582411      -0.47227396       2.33316718
H       -0.60914480      -0.97893781      -2.15158406
H       -2.23454806      -1.29834621      -1.30054679
H       -0.00056298       2.12414976      -1.93709655
H       -3.18778846      -0.76056422       1.86079184
H        1.96304641      -0.00911261       1.62105327
H        2.41000608      -0.02065313       1.48054072
17
Properties=species:S:1:pos:R:3 relative_energy_eV=-0.10747630293553811 branch=right pbc="F F F"
C       -1.21997271      -0.94382355      -1.26218940
C       -0.71216953      -0.48547988      -0.11059807
O        0.54968836      -0.06189589       0.08237860
P        1.45158293       0.80511739      -1.09087700
O        2.68888649       1.05038748      -0.28455121
O        1.36256106       0.13364109      -2.42840273
O        0.56519222       2.20120241      -1.15676712
C       -1.51602122      -0.41466599       1.13871435
O       -1.14272548       0.01848555       2.20508088
O       -2.79610368      -0.89334617       0.98712828
O        2.40501266      -0.46365809       2.33635435
H       -0.61613319      -0.96874046      -2.15325394
H       -2.23564638      -1.29836988      -1.29859075
H        0.01637336       2.12461010      -1.94668913
H       -3.19025118      -0.76992034       1.86322453
H        1.96565513      -0.00528774       1.62011052
H        2.41227747      -0.01626337       1.48099633
17
Properties=species:S:1:pos:R:3 relative_energy_eV=-0.10815406857727794 branch=right pbc="F F F"
C       -1.22323303      -0.94203730      -1.26201849
C       -0.71127860      -0.48410123      -0.11161707
O        0.55115263      -0.05973466       0.07881718
P        1.45471884       0.80827830      -1.09292254
O        2.69221374       1.04684339      -0.28507407
O        1.36516446       0.13561692      -2.42979033
O        0.56971461       2.20711369      -1.16692888
C       -1.50842851      -0.42129461       1.14335552
O       -1.13003725       0.00797921       2.20963883
O       -2.78959698      -0.89918169       0.99725745
O        2.38925312      -0.45769022       2.34220023
H       -0.62443694      -0.95678011      -2.15682766
H       -2.23699187      -1.30467613      -1.29772010
H        0.03227971       2.13118567      -1.96518856
H       -3.18242367      -0.77258387       1.87381478
H        1.94647134      -0.00854936       1.62189043
H        2.39366496      -0.01839522       1.48318169
17
Properties=species:S:1:pos:R:3 relative_energy_eV=-0.10901005360938143 branch=right pbc="F F F"
C       -1.23195393      -0.93383759      -1.26432970
C       -0.71613625      -0.48006645      -0.11403584
O        0.54320322      -0.04936371       0.07743462
P        1.45362934       0.80307613      -1.09581028
O        2.68961830       1.03669933      -0.28466846
O        1.36451226       0.12338930      -2.42885267
O        0.58493489       2.21124316      -1.18160247
C       -1.50601804      -0.42959152       1.14548077
O       -1.12301393      -0.00840674       2.21319094
O       -2.78587056      -0.91012209       1.00329238
O        2.38137566      -0.45171003       2.35110716
H       -0.63834954      -0.93866477      -2.16286720
H       -2.24202163      -1.30848072      -1.29168307
H        0.05841331       2.15013362      -1.98835978
H       -3.17532819      -0.79101157       1.88231007
H        1.94086825      -0.00316827       1.62789120
H        2.39034373      -0.00812522       1.49357074
17
Properties=species:S:1:pos:R:3 relative_energy_eV=-0.10953227911886643 branch=right pbc="F F F"
C       -1.23546397      -0.92718030      -1.26341894
C       -0.72062711      -0.47575917      -0.11243914
O        0.53703634      -0.04004475       0.07588848
P        1.45590994       0.80048877      -1.10044241
O        2.69075370       1.03270684      -0.28664777
O        1.36581182       0.11585828      -2.43126827
O        0.59304408       2.21177566      -1.18872233
C       -1.50629351      -0.43482189       1.14926841
O       -1.11811894      -0.01901359       2.21701148
O       -2.78598686      -0.91711300       1.00779383
O        2.37154973      -0.43994380       2.35824879
H       -0.64303971      -0.92716870      -2.16239729
H       -2.24219016      -1.30795376      -1.29023522
H        0.07516324       2.15851719      -2.00076026
H       -3.17052614      -0.80495300       1.88958498
H        1.93520802      -0.00352203       1.62631093
H        2.38597663      -0.00987976       1.49429312
17
Properties=species:S:1:pos:R:3 relative_energy_eV=-0.10984963560986216 branch=right pbc="F F F"
C       -1.24061070      -0.92251784      -1.26483734
C       -0.72292583      -0.47280986      -0.11402406
O        0.53539677      -0.03823453       0.07578996
P        1.45738131       0.79834212      -1.10049813
O        2.69192974       1.03164567      -0.28676621
O        1.37125933       0.11202861      -2.43065239
O        0.59469180       2.20924247      -1.19150166
C       -1.50765042      -0.43574308       1.14940100
O       -1.11939980      -0.02218746       2.21796839
O       -2.78691797      -0.92036746       1.01201434
O        2.36663434      -0.43492115       2.36193652
H       -0.64892526      -0.92132189      -2.16430535
H       -2.24821691      -1.30306851      -1.29272445
H        0.08779751       2.15998222      -2.01064621
H       -3.16542645      -0.82033327       1.89837167
H        1.93574704      -0.00117428       1.62518979
H        2.38744276      -0.00656875       1.49735255
17
Properties=species:S:1:pos:R:3 relative_energy_eV=-0.11005943087366177 branch=right pbc="F F F"
C       -1.24314952      -0.91915454      -1.26603465
C       -0.72469438      -0.47191615      -0.11472269
O        0.53442641      -0.03937440       0.07478450
P        1.45899016       0.79701167      -1.10060986
O        2.69427378       1.03031716      -0.28759581
O        1.37221301       0.10945345      -2.42989963
O        0.59657597       2.20811792      -1.19385202
C       -1.50833901      -0.43559665       1.14929188
O       -1.11826335      -0.02329067       2.21769896
O       -2.78694354      -0.92236362       1.01282084
O        2.36567985      -0.43638908       2.36217361
H       -0.65324286      -0.91849897      -2.16677506
H       -2.25122926      -1.29745576      -1.29214767
H        0.09376088       2.15915423      -2.01553704
H       -3.15992956      -0.83053985       1.90221302
H        1.93288198       0.00236226       1.62906168
H        2.38519676       0.00015608       1.50119839
17
Properties=species:S:1:pos:R:3 relative_energy_eV=-0.11055346878492855 branch=right pbc="F F F"
C       -1.24735152      -0.90546848      -1.26769685
C       -0.72756584      -0.46426710      -0.11500579
O        0.53347042      -0.03854281       0.07331346
P        1.46131891       0.79239138      -1.10270907
O        2.69481785       1.02177376      -0.28618074
O        1.37490819       0.10452695      -2.43235385
O        0.60269395       2.20622733      -1.20363336
C       -1.50620224      -0.43655146       1.15216018
O       -1.11478389      -0.02323088       2.21979180
O       -2.78125462      -0.93254387       1.01751556
O        2.35916357      -0.42756828       2.36772729
H       -0.65611746      -0.91137207      -2.16766055
H       -2.25795340      -1.27518711      -1.29465526
H        0.10103603       2.14988354      -2.02584934
H       -3.15047061      -0.85771092       1.90999658
H        1.92402142       0.00467474       1.63199348
H        2.37847665       0.00495840       1.50531504
17
Properties=species:S:1:pos:R:3 relative_energy_eV=-0.11095507400023052 branch=right pbc="F F F"
C       -1.25585636      -0.89122497      -1.26915370
C       -0.73066060      -0.45931098      -0.11505837
O        0.52872031      -0.02924257       0.07479757
P        1.46399897       0.78702304      -1.10470431
O        2.69646457       1.01135430      -0.28514021
O        1.37287947       0.09120073      -2.42950478
O        0.61820109       2.20614972      -1.21755938
C       -1.50720200      -0.44147584       1.15370496
O       -1.11680091      -0.03035444       2.22220318
O       -2.77739621      -0.95132171       1.02251152
O        2.35550806      -0.41362206       2.37550363
H       -0.66405519      -0.89558048      -2.16862810
H       -2.26869289      -1.25691664      -1.29629797
H        0.11741947       2.14845951      -2.03997701
H       -3.14395536      -0.88564942       1.91687874
H        1.92382567       0.00967987       1.63340761
H        2.37580959       0.01282514       1.50908529
17
Properties=species:S:1:pos:R:3 relative_energy_eV=-0.11161527266085614 branch=right pbc="F F F"
C       -1.27005846      -0.87017554      -1.27261830
C       -0.73656528      -0.45467095      -0.11602756
O        0.52279223      -0.02415154       0.07362622
P        1.47040708       0.77783786      -1.10687979
O        2.70030092       1.00401231      -0.28360394
O        1.38237132       0.07073428      -2.42581716
O        0.63195673       2.20016341      -1.23516921
C       -1.50499772      -0.44993327       1.15691413
O       -1.11692625      -0.02767229       2.22203805
O       -2.76446258      -0.98626696       1.03233173
O        2.34992472      -0.39748306       2.38682343
H       -0.67875064      -0.87127343      -2.17236856
H       -2.28913468      -1.21888812      -1.30484147
H        0.13196618       2.14032309      -2.05808782
H       -3.12776344      -0.92091547       1.92758167
H        1.91632037       0.01559952       1.63973853
H        2.37082763       0.02475344       1.51842895
17
Properties=species:S:1:pos:R:3 relative_energy_eV=-0.11207731020840583 branch=right pbc="F F F"
C       -1.27538773      -0.85687834      -1.27603689
C       -0.73803705      -0.45146111      -0.11804680
O        0.52385670      -0.02988170       0.07181918
P        1.47205457       0.77225304      -1.10715466
O        2.69884821       1.00401640      -0.28169819
O        1.39376746       0.06030973      -2.42415581
O        0.63306486       2.19478011      -1.23985399
C       -1.50315055      -0.45408082       1.15741469
O       -1.11839510      -0.01947352       2.21873066
O       -2.75650392      -1.00515665       1.04025173
O        2.34809898      -0.39239115       2.39036816
H       -0.68805699      -0.85931469      -2.17786102
H       -2.29630500      -1.19755337      -1.30864971
H        0.13556779       2.13170033      -2.06394195
H       -3.12124853      -0.93480060       1.93497945
H        1.91198491       0.01859435       1.64319431
H        2.36804969       0.03133126       1.52270984
17
Properties=species:S:1:pos:R:3 relative_energy_eV=-0.11230132964192308 branch=right pbc="F F F"
C       -1.27703312      -0.84998199      -1.27883495
C       -0.73756322      -0.45219582      -0.11884064
O        0.52581334      -0.03416000       0.07176545
P        1.47471612       0.77002072      -1.10783770
O        2.69990833       1.00621273      -0.28082360
O        1.39642908       0.05562587      -2.42351211
O        0.63311100       2.19047194      -1.24198693
C       -1.50387067      -0.45344273       1.15715529
O       -1.12000185      -0.01393052       2.21680473
O       -2.75413747      -1.01383235       1.04345082
O        2.34813066      -0.38960714       2.39304173
H       -0.69041371      -0.85114927      -2.18195841
H       -2.29831206      -1.19083633      -1.30863070
H        0.13216444       2.12709227      -2.06394529
H       -3.12014978      -0.93884709       1.93741776
H        1.91202414       0.01876973       1.64458007
H        2.36739320       0.03178322       1.52422352
17
Properties=species:S:1:pos:R:3 relative_energy_eV=-0.11246136863701395 branch=right pbc="F F F"
C       -1.27868023      -0.84467974      -1.27999439
C       -0.73803497      -0.45009716      -0.11945192
O        0.52669401      -0.03648615       0.07175640
P        1.47614634       0.76671671      -1.10769557
O        2.70087869       1.00480134      -0.28041090
O        1.39871433       0.05327969      -2.42408719
O        0.63286199       2.18606012      -1.24413292
C       -1.50299451      -0.45352167       1.15743802
O       -1.12189214      -0.00930056       2.21620308
O       -2.75094240      -1.01825268       1.04475789
O        2.34648364      -0.38583282       2.39604777
H       -0.69389450      -0.84038564      -2.18429583
H       -2.29932324      -1.18712106      -1.30903073
H        0.13070082       2.12163705      -2.06544400
H       -3.11668522      -0.94592221       1.93908917
H        1.91082295       0.01940599       1.64555090
H        2.36735295       0.03169203       1.52576933
17
Properties=species:S:1:pos:R:3 relative_energy_eV=-0.11271700470388168 branch=right pbc="F F F"
C       -1.28634938      -0.82939103      -1.28105755
C       -0.74049100      -0.44604411      -0.11932978
O        0.52395994      -0.03250765       0.07225658
P        1.47865810       0.75984295      -1.10939474
O        2.70350353       0.99391819      -0.28149235
O        1.40061548       0.03948595      -2.42173360
O        0.64222795       2.18218594      -1.25387914
C       -1.50324978      -0.45723597       1.15818446
O       -1.12505374      -0.00872373       2.21605729
O       -2.74492558      -1.03627036       1.04784166
O        2.34193442      -0.37290813       2.40473051
H       -0.70894225      -0.80808590      -2.18944382
H       -2.30452950      -1.17901323      -1.30807213
H        0.14284392       2.11390625      -2.07648096
H       -3.10721046      -0.97044862       1.94399010
H        1.90929149       0.02532150       1.64892273
H        2.36592575       0.03796121       1.53097001
