17
Properties=species:S:1:pos:R:3 relative_energy_eV=0.93405342614642 branch=ts pbc="F F F"
O       -2.46439594      -0.99102857       1.91272482
C       -1.82869648      -0.42300465       1.05339828
O       -2.15891265       0.78880469       0.60555347
C       -0.57722639      -1.00151658       0.39029143
O       -0.46513830      -2.37516269       0.73499414
C        0.67821420      -0.19580664       0.75860257
O        1.54350057      -0.07518034      -0.36492269
P        0.89940988       1.28923383      -1.69081121
O        1.28610954       0.78511276      -3.03459228
O       -0.54788880       1.52784574      -1.31900077
O        1.95420628       2.12128120      -0.85010180
H       -1.54035409       1.09102350      -0.13326294
H       -0.70150266      -0.89272546      -0.69097472
H        0.31145932      -2.70792808       0.27001442
H        0.41674967       0.80557482       1.09830839
H        1.20851243      -0.69193891       1.57397894
H        2.09066311       1.01061882      -0.26573878
