17
Properties=species:S:1:pos:R:3 relative_energy_eV=0.0 branch=left pbc="F F F"
C       -2.49237731      -0.19766478      -3.63077611
C       -1.98905568       1.21549396      -3.85506025
O       -2.01802695       1.73264059      -4.96456457
P        2.38685321      -0.95944221       3.71839254
O        1.07841557      -0.62428234       2.84536317
O        3.61912494      -1.30501042       2.96950546
O        1.81998308      -2.08576963       4.72696898
C       -1.45782150       1.90125631      -2.59757172
O       -2.32350031       2.52738223      -1.94396549
O       -0.24041077       1.70650847      -2.37714281
O        2.51438534       0.30255570       4.72216652
H       -2.87784719      -0.61684249      -4.55786480
H       -1.67794493      -0.81663977      -3.25121052
H        2.34273293      -2.89120728       4.64076436
H        1.29626385      -0.51290386       1.91144108
H        3.32925716       0.78313821       4.53546006
H       -3.27138736      -0.19410926      -2.86725671
17
Properties=species:S:1:pos:R:3 relative_energy_eV=3.923814801964909e-07 branch=left pbc="F F F"
C       -2.49237836      -0.19770821      -3.63075908
C       -1.98904640       1.21553584      -3.85505678
O       -2.01795864       1.73273420      -4.96460973
P        2.38682931      -0.95943034       3.71837051
O        1.07833397      -0.62427355       2.84535134
O        3.61909521      -1.30494340       2.96942311
O        1.81997031      -2.08579808       4.72691615
C       -1.45775412       1.90129889      -2.59736048
O       -2.32350231       2.52734156      -1.94401389
O       -0.24042254       1.70648011      -2.37724145
O        2.51438153       0.30260336       4.72212825
H       -2.87791092      -0.61686927      -4.55791836
H       -1.67788827      -0.81668945      -3.25118969
H        2.34273099      -2.89122912       4.64081042
H        1.29632512      -0.51292800       1.91153202
H        3.32927745       0.78312284       4.53545989
H       -3.27143825      -0.19414393      -2.86719305
17
Properties=species:S:1:pos:R:3 relative_energy_eV=1.4563502190867439e-05 branch=left pbc="F F F"
C       -2.49238798      -0.19772856      -3.63074651
C       -1.98904362       1.21564294      -3.85522640
O       -2.01791418       1.73272716      -4.96450386
P        2.38682877      -0.95941716       3.71836960
O        1.07826720      -0.62426329       2.84532563
O        3.61908425      -1.30490634       2.96936954
O        1.81996208      -2.08582111       4.72688465
C       -1.45754673       1.90125602      -2.59721956
O       -2.32359935       2.52738167      -1.94399613
O       -0.24049833       1.70646845      -2.37733671
O        2.51438598       0.30263536       4.72210149
H       -2.87795459      -0.61688780      -4.55796843
H       -1.67782880      -0.81674011      -3.25116319
H        2.34272777      -2.89124134       4.64083917
H        1.29636325      -0.51294449       1.91159838
H        3.32928185       0.78310910       4.53546140
H       -3.27148348      -0.19416705      -2.86713990
17
Properties=species:S:1:pos:R:3 relative_energy_eV=3.694574479595758e-05 branch=left pbc="F F F"
C       -2.49250050      -0.19771298      -3.63081122
C       -1.98899720       1.21565488      -3.85501576
O       -2.01788338       1.73287985      -4.96476642
P        2.38685390      -0.95935973       3.71837003
O        1.07812468      -0.62427814       2.84552009
O        3.61908030      -1.30487135       2.96930394
O        1.81992224      -2.08582557       4.72685555
C       -1.45795309       1.90114934      -2.59736391
O       -2.32390324       2.52757590      -1.94383346
O       -0.23975236       1.70633978      -2.37729129
O        2.51433870       0.30262633       4.72206565
H       -2.87800400      -0.61691838      -4.55802350
H       -1.67766937      -0.81685799      -3.25108888
H        2.34274141      -2.89128313       4.64086860
H        1.29646582      -0.51294097       1.91146798
H        3.32932595       0.78311372       4.53545101
H       -3.27154580      -0.19418811      -2.86705922
17
Properties=species:S:1:pos:R:3 relative_energy_eV=0.0001872191933216527 branch=ts pbc="F F F"
C       -2.49713517      -0.19742770      -3.62721354
C       -1.97124916       1.21009261      -3.83436471
O       -1.97426207       1.73353301      -4.94126519
P        2.37780478      -0.94801506       3.69465583
O        1.07351594      -0.60304108       2.81952123
O        3.61289817      -1.29325810       2.95022672
O        1.80103366      -2.07884642       4.69236778
C       -1.45302709       1.88094769      -2.56347311
O       -2.31614164       2.53129785      -1.93092636
O       -0.24740078       1.65165363      -2.31322793
O        2.50773669       0.30675610       4.70756577
H       -2.87085931      -0.60679285      -4.56343155
H       -1.69767699      -0.82870837      -3.23578409
H        2.32220309      -2.88517059       4.60464180
H        1.29480060      -0.46633610       1.88962716
H        3.32777644       0.78150470       4.52901080
H       -3.29011462      -0.18775869      -2.87823882
17
Properties=species:S:1:pos:R:3 relative_energy_eV=-0.0012915361767227296 branch=right pbc="F F F"
C       -2.50162120      -0.19691116      -3.62355245
C       -1.95319440       1.20394401      -3.81309986
O       -1.92990242       1.73365855      -4.91698820
P        2.36856392      -0.93645039       3.67023781
O        1.06929764      -0.58120193       2.79267616
O        3.60673295      -1.28174369       2.93110986
O        1.78183150      -2.07154260       4.65715068
C       -1.44798405       1.86036605      -2.52947772
O       -2.30749167       2.53481066      -1.91781109
O       -0.25622385       1.59582251      -2.24681452
O        2.50102555       0.31075009       4.69286163
H       -2.86326783      -0.59644619      -4.56848015
H       -1.71828848      -0.84014763      -3.22066414
H        2.30153496      -2.87863655       4.56799112
H        1.29249599      -0.41940151       1.86689716
H        3.32601206       0.77996564       4.52255904
H       -3.30835967      -0.18107809      -2.88986092
17
Properties=species:S:1:pos:R:3 relative_energy_eV=-0.0035488189532770775 branch=right pbc="F F F"
C       -2.49912834      -0.19210902      -3.61724838
C       -1.92143688       1.19142895      -3.78229039
O       -1.87032641       1.71716657      -4.88664099
P        2.36305055      -0.92048735       3.62735957
O        1.07731117      -0.53687715       2.73845534
O        3.61323865      -1.28785506       2.91888525
O        1.75249397      -2.05316682       4.60344453
C       -1.43975396       1.82381907      -2.46915619
O       -2.29660717       2.54770908      -1.91062014
O       -0.28631477       1.48948717      -2.10040006
O        2.49008460       0.30677764       4.67487691
H       -2.84321774      -0.58374999      -4.57053557
H       -1.72767484      -0.84199201      -3.21051086
H        2.29166064      -2.84953565       4.53670842
H        1.25932250      -0.39471583       1.79810484
H        3.31214839       0.78547656       4.52036763
H       -3.31369019      -0.16562032      -2.89606629
17
Properties=species:S:1:pos:R:3 relative_energy_eV=-0.020767150879692053 branch=right pbc="F F F"
C       -2.48978789      -0.20258384      -3.60231889
C       -1.87045559       1.18587791      -3.74291224
O       -1.76807860       1.74367543      -4.82942331
P        2.34710978      -0.90010089       3.57639351
O        1.07661705      -0.48780421       2.68590915
O        3.60353575      -1.27604406       2.88432599
O        1.70638240      -2.04350185       4.52177995
C       -1.43268489       1.78053609      -2.39787623
O       -2.28110543       2.56405254      -1.91247069
O       -0.33954202       1.35522998      -1.94732391
O        2.46988544       0.32160845       4.63247775
H       -2.83298658      -0.56443834      -4.57320737
H       -1.73731375      -0.87544217      -3.17527052
H        2.27404813      -2.82263481       4.49845308
H        1.26319962      -0.36896973       1.74441996
H        3.30215054       0.79255607       4.51044009
H       -3.32981496      -0.16626281      -2.89866342
17
Properties=species:S:1:pos:R:3 relative_energy_eV=-0.0418606375787931 branch=right pbc="F F F"
C       -2.47271678      -0.19458815      -3.59129642
C       -1.79248055       1.15232967      -3.64657877
O       -1.59724275       1.72756936      -4.70948404
P        2.31353397      -0.86045763       3.49333401
O        1.06932811      -0.40933158       2.58874509
O        3.57775570      -1.23938588       2.81849082
O        1.63491270      -2.02590668       4.38762600
C       -1.43090839       1.69845442      -2.26195110
O       -2.22626928       2.59634646      -1.88926334
O       -0.44732075       1.15041365      -1.69511925
O        2.43213676       0.35127557       4.56499098
H       -2.79138898      -0.53886644      -4.57127960
H       -1.78554720      -0.91274576      -3.14925833
H        2.23803630      -2.77845994       4.42890513
H        1.28041662      -0.31882075       1.64965332
H        3.28735615       0.78898448       4.47960320
H       -3.32844403      -0.15106126      -2.92238605
17
Properties=species:S:1:pos:R:3 relative_energy_eV=-0.07012787842541002 branch=right pbc="F F F"
C       -2.47024769      -0.21019813      -3.57923483
C       -1.73983528       1.11781550      -3.57467411
O       -1.45365333       1.69459611      -4.61449098
P        2.27944888      -0.82907787       3.43429121
O        1.05575229      -0.36630293       2.51506302
O        3.55230943      -1.18876033       2.76410185
O        1.59252058      -2.00692648       4.30389300
C       -1.43448814       1.65739624      -2.16987332
O       -2.15870615       2.61507216      -1.82363817
O       -0.54184069       1.03676913      -1.53588299
O        2.40301290       0.37285192       4.51519043
H       -2.74974685      -0.51116857      -4.58926243
H       -1.81160882      -0.95795532      -3.13644388
H        2.20324290      -2.75062749       4.37218889
H        1.30397036      -0.27313391       1.58586311
H        3.27895096       0.76834694       4.44271210
H       -3.34792453      -0.13295033      -2.93507207
17
Properties=species:S:1:pos:R:3 relative_energy_eV=-0.08826993490583845 branch=right pbc="F F F"
C       -2.45659892      -0.21116177      -3.55207808
C       -1.67751996       1.09071599      -3.48335796
O       -1.27109223       1.63187240      -4.50550433
P        2.25487780      -0.79617272       3.35809511
O        1.04165553      -0.33577813       2.42584890
O        3.54468902      -1.14035243       2.71159810
O        1.55377634      -1.96503038       4.22853645
C       -1.44078220       1.61605739      -2.05824121
O       -2.09402915       2.63197643      -1.73753766
O       -0.62575553       0.91351514      -1.40124196
O        2.37343098       0.38381481       4.46256554
H       -2.70182743      -0.45013348      -4.58384372
H       -1.85783101      -1.01200885      -3.11249827
H        2.15587600      -2.71426547       4.29306789
H        1.27757858      -0.20159177       1.49675942
H        3.26449141       0.74661058       4.40757421
H       -3.37978353      -0.15232412      -2.97501261
17
Properties=species:S:1:pos:R:3 relative_energy_eV=-0.1269781222254096 branch=right pbc="F F F"
C       -2.45590929      -0.20301391      -3.52486037
C       -1.56742757       1.00748132      -3.27591839
O       -0.90911291       1.47004969      -4.20225157
P        2.20510719      -0.72173180       3.20117073
O        0.99656837      -0.28029885       2.25870144
O        3.51532367      -1.06163116       2.59310675
O        1.47474884      -1.89820928       4.04137210
C       -1.43006599       1.51505825      -1.84064405
O       -1.95978539       2.61414036      -1.57256783
O       -0.76476000       0.70431855      -1.12576594
O        2.31674371       0.45001671       4.32432744
H       -2.56785087      -0.35463177      -4.60372310
H       -1.97470916      -1.07379421      -3.08359019
H        2.05505705      -2.66387662       4.11954349
H        1.20601601      -0.04966699       1.33819875
H        3.23959259       0.73134350       4.34728543
H       -3.41838269      -0.14981602      -3.01965674
17
Properties=species:S:1:pos:R:3 relative_energy_eV=-0.19070097911753692 branch=right pbc="F F F"
C       -2.44080240      -0.18684245      -3.49268187
C       -1.47163892       0.93766282      -3.17399176
O       -0.74728977       1.40046368      -4.04898515
P        2.18440357      -0.69186698       3.10245514
O        0.97179367      -0.21121901       2.20178633
O        3.50125437      -1.06537279       2.52691242
O        1.42190154      -1.87458170       3.90848348
C       -1.39856800       1.40517959      -1.71297689
O       -1.91547918       2.52083025      -1.50996815
O       -0.79990834       0.62443691      -0.92664746
O        2.28297881       0.50230777       4.19968297
H       -2.52517024      -0.31575621      -4.56896595
H       -1.99846698      -1.09237544      -3.07366298
H        2.01714376      -2.62458966       4.00436447
H        1.11019230       0.01805836       1.27160917
H        3.20430191       0.75691873       4.32347481
H       -3.43549364      -0.06751978      -3.05616173
17
Properties=species:S:1:pos:R:3 relative_energy_eV=-0.24671092149583274 branch=right pbc="F F F"
C       -2.38712804      -0.17805730      -3.44921858
C       -1.33203791       0.83410531      -3.00781088
O       -0.50631265       1.23348552      -3.81767503
P        2.11450365      -0.62050056       2.96783457
O        0.89198878      -0.11573283       2.10013368
O        3.42617499      -1.01589325       2.39378725
O        1.38364152      -1.82515181       3.77216913
C       -1.33743869       1.31118160      -1.54097316
O       -1.87039583       2.42095400      -1.33754108
O       -0.84741244       0.48380365      -0.73116468
O        2.22412887       0.57759233       4.06384554
H       -2.42653081      -0.22387908      -4.53974352
H       -2.11513882      -1.15977341      -3.04520908
H        1.96839350      -2.58777435       3.82632114
H        0.99892582       0.11343135       1.16667012
H        3.16141516       0.73495296       4.22833199
H       -3.38562591       0.05298542      -3.07503181
17
Properties=species:S:1:pos:R:3 relative_energy_eV=-0.43555535556879477 branch=right pbc="F F F"
C       -2.29985464      -0.13554759      -3.36100603
C       -1.15359305       0.68096715      -2.81981278
O       -0.22500193       0.96353804      -3.55688343
P        1.98550633      -0.53167916       2.79059066
O        0.77297724       0.06471534       1.97333039
O        3.27005208      -0.96252618       2.17814838
O        1.35203214      -1.76390332       3.66489255
C       -1.25217716       1.12081173      -1.32424253
O       -1.85667417       2.18827439      -1.12841277
O       -0.77913988       0.31213550      -0.49050684
O        2.15797411       0.64156594       3.90157458
H       -2.24257617      -0.10291386      -4.44362869
H       -2.30368173      -1.18273193      -3.02000084
H        1.95556209      -2.51055068       3.54426391
H        0.69112778       0.18982284       0.99237057
H        3.10163747       0.72600986       4.08639115
H       -3.21302139       0.33773614      -3.01234475
17
Properties=species:S:1:pos:R:3 relative_energy_eV=-0.7303193007246591 branch=right pbc="F F F"
C       -2.22007801      -0.04759487      -3.23955654
C       -0.95080765       0.48329072      -2.60388234
O        0.05874768       0.73933919      -3.25791075
P        1.83524201      -0.43918438       2.61272923
O        0.64924041       0.23876754       1.89099580
O        3.04794361      -0.90548260       1.88206415
O        1.32483098      -1.71649686       3.53014814
C       -1.12478836       0.87765735      -1.15708288
O       -1.89254797       1.84226285      -1.02471452
O       -0.52973317       0.15661710      -0.30093681
O        2.10613251       0.72138419       3.73508992
H       -2.07165409      -0.00543672      -4.31722803
H       -2.51292544      -1.06831220      -2.96243099
H        1.94123122      -2.41000669       3.24830468
H        0.23809056       0.17022000       0.91537476
H        3.04315339       0.75557756       3.93457536
H       -2.98093055       0.64311790      -2.91081744
17
Properties=species:S:1:pos:R:3 relative_energy_eV=-0.9001167721107777 branch=right pbc="F F F"
C       -2.21002749      -0.00491460      -3.26846691
C       -0.94257967       0.49462471      -2.59172183
O        0.09529060       0.66010801      -3.21978861
P        1.83930132      -0.40051876       2.56479018
O        0.56599824       0.22420854       1.94805793
O        3.06308313      -0.79872368       1.80382748
O        1.27450937      -1.66600056       3.44497557
C       -1.09317241       0.84944463      -1.10814105
O       -1.81774273       1.83697267      -0.91751628
O       -0.49018756       0.09498050      -0.28684608
O        2.12687711       0.70568101       3.73452091
H       -2.09294688      -0.01573896      -4.35659779
H       -2.43322537      -1.02004962      -2.90896674
H        1.86015442      -2.40425728       3.25136756
H        0.19933253       0.14064355       0.95388273
H        3.07265099       0.73092305       3.89985599
H       -3.05616951       0.60833815      -2.96851161
17
Properties=species:S:1:pos:R:3 relative_energy_eV=-1.0055725299862388 branch=right pbc="F F F"
C       -2.15753046       0.04298068      -3.21616532
C       -0.87926823       0.42228667      -2.49282000
O        0.20070568       0.44185046      -3.05303584
P        1.73262319      -0.31374976       2.48693163
O        0.45382306       0.32900472       1.92924496
O        2.91409269      -0.66904798       1.64286914
O        1.23789763      -1.64529870       3.34785841
C       -1.03491851       0.74429724      -1.00023288
O       -1.75199673       1.70956056      -0.68867535
O       -0.38272575      -0.09911260      -0.28334547
O        2.14180856       0.75199873       3.67889054
H       -1.97711116       0.02055609      -4.28586447
H       -2.46760768      -0.95314875      -2.89583847
H        1.80427988      -2.38285381       3.08963568
H       -0.00663941       0.18197751       0.88980277
H        3.10121500       0.71535019       3.78745336
H       -2.96750326       0.73906864      -2.96198831
17
Properties=species:S:1:pos:R:3 relative_energy_eV=-1.064208805833914 branch=right pbc="F F F"
C       -2.13631216       0.05947431      -3.19801354
C       -0.86818582       0.38375666      -2.45437872
O        0.21398774       0.37963121      -3.00723762
P        1.68427329      -0.27236773       2.46609149
O        0.40899269       0.38953419       1.95479981
O        2.84875516      -0.63646227       1.59700117
O        1.22462940      -1.61793239       3.32082883
C       -1.01455424       0.69987368      -0.95885074
O       -1.70561430       1.64907138      -0.60993782
O       -0.36940546      -0.15902345      -0.25972212
O        2.14711252       0.73453704       3.68737277
H       -1.93534828       0.04192473      -4.26589173
H       -2.48574468      -0.92115798      -2.88519706
H        1.79353668      -2.33586985       3.02011880
H       -0.03541540       0.16468815       0.79398502
H        3.10730932       0.70253808       3.73216967
H       -2.91687234       0.77350284      -2.95841846
17
Properties=species:S:1:pos:R:3 relative_energy_eV=-1.0865512286836747 branch=right pbc="F F F"
C       -2.14812795       0.06159728      -3.19906827
C       -0.87608654       0.40128799      -2.47367720
O        0.20525863       0.40867865      -3.02611876
P        1.67455038      -0.25924416       2.50111572
O        0.40070313       0.38610022       1.97123232
O        2.83462007      -0.62036509       1.62020418
O        1.20795066      -1.61499034       3.34061500
C       -1.00526868       0.69638472      -0.98270362
O       -1.69013634       1.64784693      -0.62518676
O       -0.35068754      -0.17259737      -0.29282673
O        2.18442264       0.70455405       3.75111724
H       -1.95223341       0.03991793      -4.26699126
H       -2.47801128      -0.92540504      -2.87150974
H        1.79255727      -2.30701675       3.01406128
H       -0.04112773       0.11750401       0.73819068
H        3.14801361       0.70786885       3.73227809
H       -2.94525302       0.76359709      -2.95601263
17
Properties=species:S:1:pos:R:3 relative_energy_eV=-1.0955990334841772 branch=right pbc="F F F"
C       -2.15347296       0.05641887      -3.20316923
C       -0.86761646       0.40229923      -2.49513852
O        0.20235840       0.43647564      -3.07090684
P        1.66972782      -0.25491920       2.52377833
O        0.40072027       0.39550014       1.99355404
O        2.83797400      -0.60929795       1.64913119
O        1.21259747      -1.62136414       3.35485847
C       -0.98750384       0.69921368      -0.99261225
O       -1.67953308       1.63789072      -0.62117249
O       -0.33110100      -0.17265846      -0.30133629
O        2.18936194       0.69778606       3.77705550
H       -1.99012574       0.03262797      -4.27568973
H       -2.49175140      -0.92562849      -2.87283654
H        1.79366972      -2.31671770       3.02610181
H       -0.05796809       0.10973315       0.71929641
H        3.15229820       0.70396316       3.71136918
H       -2.93849117       0.76439609      -2.94756355
17
Properties=species:S:1:pos:R:3 relative_energy_eV=-1.1004653334748582 branch=right pbc="F F F"
C       -2.15854415       0.05400233      -3.20121918
C       -0.86846858       0.39988794      -2.50296296
O        0.19623020       0.46895419      -3.08397812
P        1.66257614      -0.25780961       2.52883994
O        0.38546353       0.38420192       2.00587240
O        2.83789502      -0.59711737       1.65802772
O        1.20437555      -1.62585029       3.35712362
C       -0.97462100       0.67992349      -1.00283088
O       -1.65716036       1.62578906      -0.63437625
O       -0.30524119      -0.17763045      -0.30900511
O        2.19037473       0.69306218       3.78085539
H       -2.00810599       0.02750124      -4.27765784
H       -2.50189659      -0.92531993      -2.86264015
H        1.79038699      -2.32141143       3.03697831
H       -0.05040995       0.11970766       0.71069920
H        3.15109277       0.71620357       3.70398204
H       -2.93280309       0.77162416      -2.93298868
17
Properties=species:S:1:pos:R:3 relative_energy_eV=-1.1065218809380895 branch=right pbc="F F F"
C       -2.17350961       0.04162851      -3.19018936
C       -0.87267836       0.40882269      -2.52622212
O        0.16572428       0.51071991      -3.14974246
P        1.66167455      -0.27196238       2.54160001
O        0.38282703       0.34924440       1.99539318
O        2.84232849      -0.60801969       1.67422905
O        1.20894886      -1.63264132       3.38400486
C       -0.94410520       0.69096363      -1.02137825
O       -1.63664705       1.62835073      -0.64317659
O       -0.25278753      -0.15818200      -0.33902366
O        2.16660730       0.68496702       3.80247779
H       -2.03549517       0.02662582      -4.26561811
H       -2.51610587      -0.93196065      -2.84301605
H        1.79372306      -2.33144445       3.07468741
H       -0.01652001       0.12464155       0.69646339
H        3.12537025       0.73832216       3.70244640
H       -2.93821087       0.76564253      -2.91821599
17
Properties=species:S:1:pos:R:3 relative_energy_eV=-1.120561414580152 branch=right pbc="F F F"
C       -2.20022288       0.04563525      -3.15713874
C       -0.87298069       0.43294245      -2.55418311
O        0.12688620       0.57374797      -3.23285986
P        1.62867703      -0.29848126       2.54865782
O        0.34607505       0.29893955       1.98535322
O        2.81215139      -0.61666077       1.68380993
O        1.19373450      -1.65221850       3.40982951
C       -0.86644946       0.69634590      -1.04807229
O       -1.56546940       1.60688240      -0.62104099
O       -0.09923104      -0.12788615      -0.41740500
O        2.11112923       0.68302046       3.79252788
H       -2.09229873      -0.00456782      -4.23721344
H       -2.52482585      -0.92398668      -2.77618971
H        1.79728526      -2.34947079       3.12864879
H        0.07294438       0.09638898       0.64652832
H        3.06192445       0.80931568       3.69821726
H       -2.96818551       0.76577179      -2.87475019
17
Properties=species:S:1:pos:R:3 relative_energy_eV=-1.1316626433581405 branch=right pbc="F F F"
C       -2.22018914       0.03838938      -3.13274239
C       -0.87928210       0.47187437      -2.59279593
O        0.09590684       0.62846015      -3.30086572
P        1.62008391      -0.33758997       2.55951978
O        0.33802360       0.20914882       1.94596067
O        2.82647233      -0.67513644       1.73023765
O        1.20962566      -1.66968751       3.46210174
C       -0.82363781       0.73002701      -1.08456242
O       -1.54253319       1.60635503      -0.61754116
O        0.01686083      -0.05758712      -0.49720721
O        2.03570755       0.70064890       3.78726637
H       -2.18223551      -0.03361897      -4.21620661
H       -2.50677220      -0.92662052      -2.71214747
H        1.82270732      -2.35796599       3.18282056
H        0.14193229       0.09982508       0.58909386
H        2.98349485       0.84880700       3.69542759
H       -2.97502155       0.76039043      -2.82363992
17
Properties=species:S:1:pos:R:3 relative_energy_eV=-1.138981345025968 branch=right pbc="F F F"
C       -2.23449746       0.04032903      -3.10664543
C       -0.88220222       0.50149415      -2.62337300
O        0.06013644       0.67189173      -3.37146471
P        1.60822092      -0.37675471       2.56563261
O        0.33058814       0.11255937       1.89854710
O        2.84635261      -0.70293900       1.78193025
O        1.21152539      -1.69345341       3.50239096
C       -0.78054540       0.76348432      -1.11589052
O       -1.52299505       1.60033300      -0.61855514
O        0.10966990       0.01298256      -0.56025253
O        1.97556606       0.71589816       3.76013382
H       -2.24704293      -0.05483229      -4.18880593
H       -2.48162260      -0.91675526      -2.64753608
H        1.84258545      -2.37593407       3.24728043
H        0.20060661       0.10751063       0.52932701
H        2.92275543       0.88645108       3.70151461
H       -2.99795776       0.74345533      -2.77951395
17
Properties=species:S:1:pos:R:3 relative_energy_eV=-1.1420640304459084 branch=right pbc="F F F"
C       -2.24088147       0.04224861      -3.09315239
C       -0.88567797       0.51408145      -2.63050208
O        0.04719674       0.68355449      -3.39040161
P        1.61003709      -0.38545397       2.56380321
O        0.33225300       0.08693166       1.88775497
O        2.86397699      -0.70539976       1.80194477
O        1.20730120      -1.69791395       3.50180372
C       -0.77314981       0.77465319      -1.12786813
O       -1.52005206       1.60234012      -0.62309575
O        0.12873683       0.02730648      -0.58180063
O        1.95526012       0.72137161       3.75159649
H       -2.24957697      -0.06104403      -4.17412386
H       -2.47292820      -0.91809992      -2.63107332
H        1.84846200      -2.38293899       3.28130596
H        0.21427063       0.10561734       0.50105939
H        2.90330250       0.88632449       3.69915444
H       -3.00738719       0.74214211      -2.76168568
17
Properties=species:S:1:pos:R:3 relative_energy_eV=-1.1442485337029211 branch=right pbc="F F F"
C       -2.24845812       0.03536708      -3.08117720
C       -0.89513506       0.52914353      -2.64127178
O        0.02243023       0.71731121      -3.41569186
P        1.60987623      -0.40115853       2.55900407
O        0.34385188       0.05231444       1.84966790
O        2.88619447      -0.70804794       1.82923075
O        1.19332307      -1.70691756       3.50408728
C       -0.75828102       0.79119562      -1.14094680
O       -1.49991933       1.61539999      -0.62230738
O        0.16258288       0.05272134      -0.61504089
O        1.92192470       0.71901953       3.74394770
H       -2.27570821      -0.06981239      -4.16111759
H       -2.46321593      -0.92161518      -2.60523948
H        1.86515079      -2.37972205       3.34532973
H        0.24034678       0.09380862       0.47183075
H        2.87073370       0.88456220       3.69900362
H       -3.01455377       0.73215129      -2.74458934
17
Properties=species:S:1:pos:R:3 relative_energy_eV=-1.1457663337641861 branch=right pbc="F F F"
C       -2.25408363       0.03340937      -3.06640031
C       -0.89759489       0.54320030      -2.65213599
O       -0.00365416       0.75753024      -3.44536137
P        1.60409555      -0.41546971       2.55370904
O        0.34540292       0.02290996       1.82345093
O        2.89317027      -0.72430644       1.84789158
O        1.17748796      -1.71523731       3.49777102
C       -0.73558953       0.79733482      -1.15397302
O       -1.47575447       1.61148683      -0.61859309
O        0.19722589       0.06400372      -0.64356084
O        1.89379780       0.71375221       3.73633499
H       -2.29888728      -0.08354882      -4.14465181
H       -2.46078994      -0.92233443      -2.58408824
H        1.88671148      -2.35964813       3.39707108
H        0.26729056       0.08903587       0.44456858
H        2.83974581       0.89353063       3.70384977
H       -3.01743127       0.73007222      -2.72116288
17
Properties=species:S:1:pos:R:3 relative_energy_eV=-1.1465228771230613 branch=right pbc="F F F"
C       -2.25428948       0.03269823      -3.07138828
C       -0.90154441       0.55038578      -2.65477747
O       -0.00456172       0.76589852      -3.44597374
P        1.61029354      -0.41505667       2.55254640
O        0.35663113       0.03113417       1.81920613
O        2.90407563      -0.72482669       1.85520519
O        1.17016604      -1.71759147       3.48663313
C       -0.74423148       0.79957291      -1.15471343
O       -1.47741365       1.62174644      -0.62081634
O        0.17603375       0.05065972      -0.64235967
O        1.89925391       0.70973597       3.74008399
H       -2.29641029      -0.08288061      -4.15019419
H       -2.45288135      -0.92416002      -2.58822837
H        1.89577563      -2.34808416       3.41578933
H        0.25658854       0.08475002       0.44647735
H        2.84766783       0.88049962       3.71149918
H       -3.02401061       0.72123979      -2.72426978
17
Properties=species:S:1:pos:R:3 relative_energy_eV=-1.1469303181074793 branch=right pbc="F F F"
C       -2.25305923       0.03266146      -3.07591907
C       -0.90212807       0.54888966      -2.65291142
O       -0.00267006       0.76855733      -3.43963007
P        1.61081634      -0.41014642       2.55288483
O        0.35699999       0.04838046       1.82722226
O        2.89971513      -0.72688581       1.84937664
O        1.17052302      -1.71727587       3.48224466
C       -0.75009125       0.79394735      -1.15240412
O       -1.47595415       1.62292208      -0.62054773
O        0.15911953       0.03392365      -0.63651787
O        1.90892978       0.70986877       3.74441878
H       -2.29145177      -0.07785613      -4.15504497
H       -2.44999663      -0.92545520      -2.59481914
H        1.89952082      -2.34448318       3.41273896
H        0.24827672       0.08336770       0.44823200
H        2.85811065       0.87597934       3.71745499
H       -3.02551784       0.71932639      -2.73205928
17
Properties=species:S:1:pos:R:3 relative_energy_eV=-1.1472331016375392 branch=right pbc="F F F"
C       -2.25556444       0.03088791      -3.07888495
C       -0.90707655       0.55548232      -2.65580170
O       -0.01070626       0.78448431      -3.44329970
P        1.61568874      -0.41275467       2.55359733
O        0.36411023       0.04305726       1.82313618
O        2.90721641      -0.72897821       1.85484449
O        1.17256313      -1.71626021       3.48647581
C       -0.75098698       0.79808038      -1.15548000
O       -1.46766206       1.63439615      -0.62257762
O        0.15094650       0.02779511      -0.64067894
O        1.90839720       0.70907595       3.74446073
H       -2.29529474      -0.07877080      -4.15821875
H       -2.44740396      -0.93079573      -2.60237366
H        1.90383970      -2.34190883       3.43117743
H        0.24708163       0.08106651       0.44208908
H        2.85879692       0.86945596       3.72874514
H       -3.03280252       0.71140846      -2.73249131
17
Properties=species:S:1:pos:R:3 relative_energy_eV=-1.147435572132963 branch=right pbc="F F F"
C       -2.25767130       0.02945935      -3.07747746
C       -0.91085690       0.55984724      -2.65698185
O       -0.01909794       0.79556318      -3.44802242
P        1.61764006      -0.41611177       2.55318306
O        0.36659853       0.03068450       1.81674186
O        2.91262909      -0.73648668       1.86254548
O        1.17492730      -1.71542109       3.49305411
C       -0.74913434       0.80128453      -1.15680665
O       -1.45997341       1.64068586      -0.62111891
O        0.15486557       0.03007928      -0.64665484
O        1.90143219       0.71695328       3.73558800
H       -2.29751923      -0.07606935      -4.15731684
H       -2.44420604      -0.93360381      -2.60212622
H        1.90603660      -2.34110016       3.43788379
H        0.24955769       0.07439871       0.43551976
H        2.85329361       0.86916021       3.73638791
H       -3.03737851       0.70639889      -2.72967923
17
Properties=species:S:1:pos:R:3 relative_energy_eV=-1.1475649358544615 branch=right pbc="F F F"
C       -2.25655525       0.02975234      -3.07984795
C       -0.91045083       0.55936558      -2.65511042
O       -0.01758853       0.79796022      -3.44401285
P        1.61743611      -0.41234322       2.55513484
O        0.36556806       0.03546567       1.82047398
O        2.91138429      -0.73505707       1.86327772
O        1.17665343      -1.71118645       3.49653624
C       -0.75039745       0.79802327      -1.15449252
O       -1.45726185       1.64103847      -0.61938638
O        0.14630209       0.01912777      -0.64245995
O        1.90612182       0.72169221       3.73533802
H       -2.29447837      -0.07277581      -4.15993421
H       -2.44510397      -0.93551681      -2.60945420
H        1.90242132      -2.34202515       3.42576701
H        0.24517188       0.07094777       0.43965844
H        2.85939349       0.86615956       3.73502338
H       -3.03747313       0.70509386      -2.73179158
17
Properties=species:S:1:pos:R:3 relative_energy_eV=-1.1476706002140418 branch=right pbc="F F F"
C       -2.25846814       0.03007223      -3.07519521
C       -0.91264870       0.56645915      -2.65825008
O       -0.02675462       0.81403662      -3.45232184
P        1.61722888      -0.41598431       2.55428517
O        0.36876682       0.02468230       1.80996811
O        2.91569881      -0.73943122       1.87153636
O        1.17584932      -1.71037486       3.50128541
C       -0.74408933       0.79843915      -1.15823702
O       -1.44749499       1.64109580      -0.61792547
O        0.15383744       0.01734342      -0.65202920
O        1.89565178       0.72509396       3.72928201
H       -2.30091204      -0.07328736      -4.15511090
H       -2.43762045      -0.93575388      -2.60231742
H        1.90252229      -2.34041157       3.43685622
H        0.25270971       0.06400250       0.43083826
H        2.84881599       0.86914615       3.73502846
H       -3.04194960       0.70059429      -2.72297329
