32
Properties=species:S:1:pos:R:3 relative_energy_eV=1.8167597109932103 branch=ts pbc="F F F"
O        4.13172017      -1.38690719       1.06904701
P        5.12755891      -0.44459670       0.40075733
O        6.46598706      -0.11160981       0.97396224
O        5.34196926      -0.93199715      -1.16442385
O        4.30083354       1.00449008       0.14481929
C        2.89667139       0.99022066       0.30357821
C        2.20342145      -0.11782852      -0.47022241
O        2.43536082      -0.34510760      -1.70179923
C        1.73412843      -1.21621786       0.30849199
O        1.39846079      -2.30510683      -0.32708606
C       -0.47953692       1.00831793       0.52452589
O       -0.17179765       1.09827980       1.71773602
C       -1.55321386       0.05449557       0.02297934
O       -1.29323810      -0.16657896      -1.35311806
C       -2.91713736       0.69156319       0.22055066
O       -3.87346022      -0.15333227      -0.40742494
P       -5.49080880       0.31833518      -0.35609631
O       -6.21092545      -0.64904571      -1.25179149
O       -5.56647436       1.81052109      -0.44339622
O       -5.85468934      -0.10438129       1.22873311
H        4.47526143      -0.85027215      -1.60189328
H        2.52655765       1.94771451      -0.07340605
H        2.61030834       0.89398407       1.35395387
H        1.55187391      -1.20824969       1.36429965
H        1.65461750      -2.11015108      -1.26785449
H       -0.33701707       1.85904179      -0.18355103
H        0.79934532       0.24939914      -0.10824947
H       -1.49632316      -0.87933814       0.59205032
H       -2.14548787      -0.44105209      -1.72507960
H       -3.12123883       0.81092359       1.28676284
H       -2.92835812       1.68137334      -0.24273875
H       -6.21443401      -0.99690837       1.16582877
