28
Properties=species:S:1:pos:R:3 relative_energy_eV=0.0 branch=left pbc="F F F"
O       -4.28344078       0.99045646      -1.52736899
C       -3.99911474       0.79059160      -0.36200508
C       -2.60442403       0.65441786       0.19981164
O       -2.73632314      -0.13695426       1.35854976
C       -1.58173616       0.11819630      -0.81542356
O       -1.55851975       0.89784345      -2.00231448
C       -0.18051256       0.11570261      -0.22456631
O       -0.23217894      -0.71404000       0.92590611
C        0.87758733      -0.34991722      -1.22450032
O        0.68960820      -1.70697502      -1.64367986
C        2.26975987      -0.19809303      -0.64740476
O        2.35163568      -0.76856780       0.64985702
P        3.21580490       0.14995982       1.80998299
O        4.63134476       0.26591496       1.32129308
O        2.33528451       1.29928959       2.18763415
O        3.14764291      -0.99701175       3.00519771
H       -4.78794789       0.70258887       0.41135030
H       -2.30181686       1.68586603       0.45706680
H       -1.82668415      -0.46660245       1.53698206
H       -1.86319242      -0.92210775      -1.02486005
H       -2.48467306       0.99178024      -2.27455596
H        0.09002188       1.13848213       0.06440710
H        0.71457494      -0.85254778       1.17938693
H        0.80710429       0.31815445      -2.08739670
H       -0.03500269      -1.70484954      -2.27758476
H        2.99083554      -0.68100116      -1.31235768
H        2.50042235       0.87033455      -0.61025568
H        3.98753608      -1.47002102       2.96955640
28
Properties=species:S:1:pos:R:3 relative_energy_eV=7.656652451260015e-05 branch=left pbc="F F F"
O       -4.28372758       0.98660738      -1.52707730
C       -3.99887509       0.79028633      -0.36131141
C       -2.60455075       0.65509763       0.20019503
O       -2.73553823      -0.13719947       1.35891580
C       -1.58167225       0.11995483      -0.81533444
O       -1.55851967       0.90131692      -2.00087600
C       -0.18005801       0.11548116      -0.22496359
O       -0.23165216      -0.71544213       0.92444861
C        0.87781769      -0.35023912      -1.22459983
O        0.68957355      -1.70715787      -1.64347045
C        2.26991399      -0.19887695      -0.64731082
O        2.35192229      -0.76938117       0.64992008
P        3.21428211       0.15004693       1.81020023
O        4.62990900       0.26931184       1.32273248
O        2.33265768       1.29853363       2.18717893
O        3.14724192      -0.99694996       3.00530505
H       -4.78704590       0.70465689       0.41302523
H       -2.30214769       1.68673279       0.45742919
H       -1.82581030      -0.46792017       1.53536246
H       -1.86269716      -0.91967474      -1.02712865
H       -2.48431486       0.99268477      -2.27563625
H        0.09153555       1.13720888       0.06536935
H        0.71502141      -0.85381525       1.17853591
H        0.80680675       0.31642061      -2.08820133
H       -0.03615795      -1.70487841      -2.27607501
H        2.98996091      -0.68288922      -1.31218116
H        2.50168740       0.86923619      -0.61071389
H        3.98803347      -1.46826211       2.96896964
28
Properties=species:S:1:pos:R:3 relative_energy_eV=0.0002726928287302144 branch=left pbc="F F F"
O       -4.28480496       0.97870946      -1.52398945
C       -3.99696337       0.79328673      -0.35724967
C       -2.60146177       0.65540818       0.20049199
O       -2.73264536      -0.13488807       1.36017308
C       -1.58128259       0.11893590      -0.81720943
O       -1.55904092       0.90374205      -2.00085424
C       -0.17959530       0.11261578      -0.22711900
O       -0.23124657      -0.72119087       0.92033715
C        0.87837045      -0.35066730      -1.22644518
O        0.69160770      -1.70736285      -1.64576380
C        2.26966821      -0.19822854      -0.64764414
O        2.35167353      -0.76914458       0.64946291
P        3.20955758       0.15207400       1.81261387
O        4.62584159       0.27613137       1.32796861
O        2.32302461       1.29717338       2.18908019
O        3.14580407      -0.99847207       3.00507490
H       -4.78283843       0.72044048       0.42135632
H       -2.29766981       1.68658747       0.45704189
H       -1.82384468      -0.47015394       1.53169840
H       -1.86527838      -0.92022450      -1.03045700
H       -2.48453929       0.98895954      -2.27855322
H        0.09208734       1.13341852       0.06593105
H        0.71535517      -0.85843640       1.17623153
H        0.80772825       0.31572934      -2.09006837
H       -0.03715222      -1.70613320      -2.27484442
H        2.99073584      -0.68161240      -1.31153622
H        2.50148769       0.86984088      -0.61050118
H        3.98901790      -1.46564798       2.96748119
28
Properties=species:S:1:pos:R:3 relative_energy_eV=0.000497646295116283 branch=left pbc="F F F"
O       -4.28746664       0.96787030      -1.52104140
C       -3.99566996       0.79391564      -0.35361432
C       -2.59894612       0.65638869       0.20068848
O       -2.72793137      -0.13320817       1.36078764
C       -1.58109234       0.12013924      -0.81860939
O       -1.55753465       0.90881407      -1.99972904
C       -0.17945520       0.11029700      -0.22843965
O       -0.23219332      -0.72713195       0.91688454
C        0.87939756      -0.35188011      -1.22873780
O        0.69221948      -1.70900910      -1.64838548
C        2.27086472      -0.19921875      -0.64859709
O        2.35092312      -0.76825262       0.64944696
P        3.20435343       0.15404602       1.81476084
O        4.62080538       0.28283026       1.33212601
O        2.31320274       1.29515148       2.19242537
O        3.14447008      -0.99875139       3.00460748
H       -4.77836972       0.73254542       0.42882856
H       -2.29421172       1.68749624       0.45684031
H       -1.82004538      -0.47286751       1.52957129
H       -1.86779169      -0.91758356      -1.03586890
H       -2.48232933       0.98835720      -2.28059787
H        0.09295765       1.13087834       0.06639175
H        0.71448449      -0.86259326       1.17304014
H        0.80969676       0.31693633      -2.09161922
H       -0.04167319      -1.70837409      -2.27164336
H        2.99294309      -0.68323923      -1.31148088
H        2.50210883       0.86924576      -0.61224135
H        3.98987982      -1.46191165       2.96691397
28
Properties=species:S:1:pos:R:3 relative_energy_eV=0.0006591556229977868 branch=left pbc="F F F"
O       -4.28879554       0.96040412      -1.52016614
C       -3.99495308       0.79401402      -0.35216233
C       -2.59790396       0.65694513       0.20137280
O       -2.72499525      -0.13335908       1.36196461
C       -1.58037962       0.12169548      -0.81842645
O       -1.55585414       0.91165819      -1.99824742
C       -0.17879417       0.10922107      -0.22921489
O       -0.23252323      -0.72998614       0.91418108
C        0.87992160      -0.35249156      -1.22961846
O        0.69252215      -1.70886885      -1.65037555
C        2.27161086      -0.20014162      -0.65009261
O        2.35082876      -0.76799881       0.64831424
P        3.20098068       0.15475552       1.81536575
O        4.61748742       0.28810201       1.33411916
O        2.30715055       1.29304929       2.19476814
O        3.14273387      -0.99879697       3.00450750
H       -4.77614515       0.73966559       0.43224858
H       -2.29294156       1.68856760       0.45627876
H       -1.81705521      -0.47451479       1.52952553
H       -1.86766216      -0.91452275      -1.03869109
H       -2.47997078       0.98892220      -2.28163250
H        0.09370264       1.12888680       0.06724194
H        0.71348799      -0.86566098       1.17144808
H        0.81055858       0.31721303      -2.09111763
H       -0.04568169      -1.71046590      -2.26861414
H        2.99442577      -0.68437762      -1.31224149
H        2.50238555       0.86835626      -0.61456223
H        3.98945582      -1.45938050       2.96653426
28
Properties=species:S:1:pos:R:3 relative_energy_eV=0.0008548892001272179 branch=left pbc="F F F"
O       -4.28917221       0.95279585      -1.51784404
C       -3.99347799       0.79604647      -0.34905627
C       -2.59544689       0.65661355       0.20239708
O       -2.72324068      -0.13305588       1.36311999
C       -1.57946467       0.12124735      -0.81931866
O       -1.55491116       0.91141868      -1.99934103
C       -0.17792339       0.10708641      -0.23103586
O       -0.23270000      -0.73439361       0.91054512
C        0.88051824      -0.35291441      -1.23164073
O        0.69683502      -1.70833106      -1.65576097
C        2.27133609      -0.19981763      -0.65129794
O        2.35094177      -0.76842014       0.64690705
P        3.19712581       0.15587561       1.81652588
O        4.61305004       0.29508993       1.33497381
O        2.30011190       1.29066787       2.19927559
O        3.13999261      -0.99985245       3.00423209
H       -4.77349874       0.75307720       0.43746682
H       -2.28997464       1.68813883       0.45612175
H       -1.81524152      -0.47361644       1.53058041
H       -1.86760957      -0.91509685      -1.03823801
H       -2.47846589       0.98852146      -2.28402724
H        0.09487724       1.12597956       0.06746455
H        0.71261884      -0.86990643       1.17020556
H        0.81064844       0.31801128      -2.09163448
H       -0.04790237      -1.71259373      -2.26598459
H        2.99560134      -0.68253334      -1.31259129
H        2.50098348       0.86891422      -0.61691834
H        3.98798576      -1.45806129       2.96758098
28
Properties=species:S:1:pos:R:3 relative_energy_eV=0.0009984317512135021 branch=left pbc="F F F"
O       -4.28905005       0.94728210      -1.51676864
C       -3.99254750       0.79619353      -0.34756511
C       -2.59465008       0.65665540       0.20210119
O       -2.72236497      -0.13254719       1.36310410
C       -1.57925438       0.12085657      -0.81983754
O       -1.55408493       0.91191253      -1.99940745
C       -0.17735638       0.10553892      -0.23145733
O       -0.23256993      -0.73772981       0.90933219
C        0.88138137      -0.35316912      -1.23348188
O        0.69952595      -1.70878422      -1.65909307
C        2.27192984      -0.19968857      -0.65200036
O        2.35107820      -0.76823662       0.64637653
P        3.19437019       0.15665874       1.81701829
O        4.60961364       0.29966752       1.33508545
O        2.29528058       1.28915677       2.20166655
O        3.13866594      -1.00021587       3.00326529
H       -4.77168984       0.76083381       0.44028150
H       -2.28913356       1.68798331       0.45697325
H       -1.81430932      -0.47192353       1.53178208
H       -1.86731898      -0.91593582      -1.03838711
H       -2.47744164       0.98996509      -2.28454260
H        0.09677259       1.12419271       0.06803828
H        0.71289263      -0.87229143       1.16919588
H        0.81021134       0.31916908      -2.09323591
H       -0.05014654      -1.71343588      -2.26330439
H        2.99592201      -0.68250319      -1.31341488
H        2.50094953       0.86925535      -0.61814703
H        3.98692131      -1.45796906       2.96912974
28
Properties=species:S:1:pos:R:3 relative_energy_eV=0.0011326635794830509 branch=left pbc="F F F"
O       -4.28852374       0.94266852      -1.51775465
C       -3.99191883       0.79684853      -0.34790623
C       -2.59450092       0.65691869       0.20229920
O       -2.72227193      -0.13224250       1.36376253
C       -1.57890921       0.12042787      -0.81895443
O       -1.55348205       0.91172398      -1.99797608
C       -0.17655046       0.10414167      -0.23157093
O       -0.23199430      -0.73979493       0.90849945
C        0.88196436      -0.35295004      -1.23474946
O        0.70100132      -1.70821313      -1.66118248
C        2.27273142      -0.19906489      -0.65364920
O        2.35084293      -0.76699507       0.64498617
P        3.19217644       0.15744108       1.81690960
O        4.60738167       0.30334488       1.33593851
O        2.29054525       1.28792285       2.20177176
O        3.13784367      -1.00071407       3.00227620
H       -4.77028464       0.76622145       0.44106479
H       -2.28878828       1.68799267       0.45830892
H       -1.81391344      -0.47040088       1.53355365
H       -1.86720485      -0.91591534      -1.03895592
H       -2.47674155       0.99067917      -2.28336106
H        0.09914144       1.12186949       0.06876275
H        0.71350442      -0.87403527       1.16838074
H        0.80988902       0.31949020      -2.09418818
H       -0.05241116      -1.71427202      -2.26073415
H        2.99620039      -0.68317981      -1.31510364
H        2.50180158       0.86974933      -0.61774835
H        3.98606863      -1.45877121       2.97002740
28
Properties=species:S:1:pos:R:3 relative_energy_eV=0.0013051671121502295 branch=left pbc="F F F"
O       -4.28832341       0.93891577      -1.51870701
C       -3.99087123       0.79819920      -0.34831049
C       -2.59293286       0.65651680       0.20360364
O       -2.72319916      -0.13193166       1.36472381
C       -1.57821072       0.11963423      -0.81839350
O       -1.55349631       0.91090349      -1.99764901
C       -0.17609975       0.10249856      -0.23224714
O       -0.23156134      -0.74195438       0.90730943
C        0.88216863      -0.35269873      -1.23568487
O        0.70273225      -1.70755400      -1.66326599
C        2.27287647      -0.19786100      -0.65461868
O        2.35099186      -0.76703552       0.64363924
P        3.19075357       0.15779408       1.81695589
O        4.60634101       0.30672539       1.33766992
O        2.28658006       1.28653199       2.20119258
O        3.13661503      -1.00157756       3.00182803
H       -4.76903252       0.77222619       0.44033557
H       -2.28681511       1.68739082       0.45856163
H       -1.81479793      -0.46863230       1.53604177
H       -1.86912939      -0.91603267      -1.03844165
H       -2.47743783       0.98985608      -2.28018825
H        0.10007882       1.11955739       0.06885439
H        0.71427414      -0.87519575       1.16704414
H        0.81007673       0.31993275      -2.09453785
H       -0.05358603      -1.71517828      -2.25911258
H        2.99681263      -0.68188144      -1.31544643
H        2.50358628       0.87077792      -0.61779856
H        3.98520338      -1.45903617       2.96934880
28
Properties=species:S:1:pos:R:3 relative_energy_eV=0.0016179758385987952 branch=left pbc="F F F"
O       -4.28546732       0.93415337      -1.52048351
C       -3.98878324       0.79841346      -0.34924282
C       -2.59201120       0.65631397       0.20321314
O       -2.72385438      -0.13117357       1.36508788
C       -1.57768564       0.11824277      -0.81753204
O       -1.55400862       0.91053004      -1.99596666
C       -0.17549258       0.10054467      -0.23123249
O       -0.23016491      -0.74581222       0.90719782
C        0.88315628      -0.35247441      -1.23620493
O        0.70413856      -1.70772512      -1.66434497
C        2.27439002      -0.19696161      -0.65550379
O        2.35458029      -0.76884455       0.64140430
P        3.18812418       0.15763640       1.81657571
O        4.60448709       0.31178270       1.34157707
O        2.28059069       1.28386230       2.19950267
O        3.13384088      -1.00227272       2.99987522
H       -4.76812909       0.78236738       0.43807372
H       -2.28474851       1.68746071       0.45785733
H       -1.81612669      -0.46729344       1.54009124
H       -1.87003836      -0.91722371      -1.03698604
H       -2.47941519       0.98895021      -2.27495883
H        0.09982125       1.11765264       0.07112643
H        0.71630452      -0.87749715       1.16531802
H        0.80892250       0.32160414      -2.09455861
H       -0.05566581      -1.71576121      -2.25590173
H        2.99807710      -0.67869070      -1.31744561
H        2.50587637       0.87168651      -0.61996864
H        3.98287914      -1.45857962       2.96613689
28
Properties=species:S:1:pos:R:3 relative_energy_eV=0.0020034765984746628 branch=left pbc="F F F"
O       -4.27932489       0.93011078      -1.52280750
C       -3.98649250       0.80291766      -0.34962533
C       -2.59111191       0.65667147       0.20373144
O       -2.72461283      -0.12947138       1.36662364
C       -1.57802108       0.11544983      -0.81589155
O       -1.55655456       0.90668530      -1.99455260
C       -0.17485000       0.09866981      -0.23019528
O       -0.22862611      -0.74948083       0.90664638
C        0.88422958      -0.35201794      -1.23617451
O        0.70733568      -1.70660715      -1.66605011
C        2.27645866      -0.19576115      -0.65809352
O        2.35968025      -0.76961961       0.63735360
P        3.18495733       0.15863117       1.81663414
O        4.60290677       0.31625526       1.34741525
O        2.27269097       1.28177398       2.19803487
O        3.13051952      -1.00380342       2.99747592
H       -4.76753596       0.79657370       0.43739474
H       -2.28023990       1.68683993       0.45764590
H       -1.81817545      -0.46754338       1.54391730
H       -1.86974924      -0.92059302      -1.03345477
H       -2.48249469       0.98437623      -2.27375455
H        0.09799488       1.11595415       0.07357274
H        0.71734592      -0.88213985       1.16513707
H        0.80739026       0.32277711      -2.09316885
H       -0.05529684      -1.71644167      -2.25387496
H        3.00104926      -0.67377506      -1.32252119
H        2.50390007       0.87335134      -0.62015054
H        3.98022415      -1.45889198       2.96143894
28
Properties=species:S:1:pos:R:3 relative_energy_eV=0.002345960230741184 branch=left pbc="F F F"
O       -4.27695284       0.92781825      -1.52307644
C       -3.98450445       0.80663343      -0.34909053
C       -2.58933766       0.65664676       0.20656043
O       -2.72626642      -0.12794988       1.36951635
C       -1.57792739       0.11401592      -0.81516976
O       -1.55720033       0.90300729      -1.99620745
C       -0.17473247       0.09748438      -0.22995338
O       -0.22871026      -0.75088526       0.90717581
C        0.88452613      -0.35179152      -1.23632464
O        0.70979826      -1.70607940      -1.66706664
C        2.27729805      -0.19442288      -0.66036943
O        2.36188370      -0.76978242       0.63431575
P        3.18356092       0.15932793       1.81665617
O        4.60281454       0.31936149       1.35185673
O        2.26824073       1.28052471       2.19709193
O        3.12874844      -1.00477969       2.99637948
H       -4.76652765       0.80517587       0.43589678
H       -2.27611166       1.68576557       0.45868416
H       -1.82032189      -0.46772946       1.54449078
H       -1.86967606      -0.92270484      -1.03038138
H       -2.48315623       0.98040234      -2.27501622
H        0.09635530       1.11484874       0.07433991
H        0.71697257      -0.88608073       1.16540488
H        0.80662653       0.32369624      -2.09243846
H       -0.05396371      -1.71648378      -2.25315874
H        3.00219204      -0.67085748      -1.32686889
H        2.50134767       0.87534611      -0.61912823
H        3.97862148      -1.45961637       2.95858774
28
Properties=species:S:1:pos:R:3 relative_energy_eV=0.0030056505638640374 branch=left pbc="F F F"
O       -4.27545957       0.92719631      -1.52306194
C       -3.98171093       0.80871285      -0.34908605
C       -2.58810438       0.65692423       0.20693010
O       -2.72622748      -0.12523380       1.37262835
C       -1.57652700       0.11089377      -0.81317339
O       -1.55369951       0.89450080      -1.99781824
C       -0.17409471       0.09618781      -0.22713886
O       -0.22891194      -0.75215066       0.91027948
C        0.88420283      -0.35069125      -1.23586501
O        0.71012165      -1.70596940      -1.66510466
C        2.27718734      -0.19063084      -0.66265178
O        2.36646929      -0.77086634       0.62923304
P        3.18139301       0.15894572       1.81534431
O        4.60229644       0.32703941       1.35900059
O        2.26161601       1.27674893       2.19388239
O        3.12552113      -1.00583202       2.99341064
H       -4.76426985       0.82083724       0.43412148
H       -2.27238516       1.68591213       0.46125445
H       -1.82173360      -0.47100604       1.54381984
H       -1.86568779      -0.92683331      -1.02585139
H       -2.47934977       0.97300684      -2.27735896
H        0.09572288       1.11334137       0.07780913
H        0.71593557      -0.89322600       1.16549648
H        0.80289288       0.32515166      -2.09236396
H       -0.05298762      -1.71597591      -2.25213680
H        2.99864905      -0.66381715      -1.33460300
H        2.49825751       0.87981666      -0.61932329
H        3.97448113      -1.46209161       2.95503377
28
Properties=species:S:1:pos:R:3 relative_energy_eV=0.0038444791280198842 branch=left pbc="F F F"
O       -4.27340811       0.92930164      -1.52308314
C       -3.98017101       0.81727414      -0.34831920
C       -2.58571345       0.65747717       0.20569128
O       -2.72506212      -0.12347969       1.37172269
C       -1.57593520       0.10523511      -0.81128230
O       -1.55104697       0.88071354      -2.00017333
C       -0.17423462       0.09479573      -0.22563342
O       -0.22883851      -0.75471584       0.91016079
C        0.88255692      -0.34890865      -1.23473059
O        0.71140472      -1.70414540      -1.66477722
C        2.27502788      -0.18450647      -0.66313893
O        2.37117859      -0.77078901       0.62507364
P        3.17962203       0.15948094       1.81516982
O        4.60170862       0.33319651       1.36417024
O        2.25457158       1.27380243       2.19180819
O        3.12218224      -1.00883063       2.99066430
H       -4.76042977       0.84013230       0.43945686
H       -2.26616308       1.68474380       0.46155926
H       -1.82334139      -0.47572468       1.54494864
H       -1.86547387      -0.93360405      -1.01826091
H       -2.47556658       0.95972664      -2.28171693
H        0.09581291       1.11183251       0.07950704
H        0.71452769      -0.89934705       1.16557558
H        0.79902447       0.32493171      -2.09162138
H       -0.04881205      -1.71654414      -2.25554383
H        2.99544721      -0.65133533      -1.33926858
H        2.49403542       0.88633484      -0.61820789
H        3.97069386      -1.46615660       2.95295603
28
Properties=species:S:1:pos:R:3 relative_energy_eV=0.004858215550484601 branch=left pbc="F F F"
O       -4.27268407       0.93148798      -1.52062122
C       -3.97658019       0.82803843      -0.34615842
C       -2.58300708       0.65838702       0.20606967
O       -2.72778720      -0.12668711       1.36855224
C       -1.57557708       0.10152685      -0.80988625
O       -1.54774735       0.86921540      -2.00504364
C       -0.17444535       0.09273277      -0.22295332
O       -0.22703522      -0.76035965       0.91103636
C        0.88121584      -0.34816251      -1.23330548
O        0.71113514      -1.70385536      -1.66296352
C        2.27461872      -0.17840329      -0.66505020
O        2.37490879      -0.76915440       0.62060833
P        3.17714158       0.16016301       1.81460809
O        4.59959345       0.33799365       1.36646026
O        2.24715005       1.27086106       2.19094365
O        3.11820895      -1.01202338       2.98690708
H       -4.75282423       0.85741883       0.44477312
H       -2.25964813       1.68388534       0.45829035
H       -1.82632571      -0.47775831       1.54366407
H       -1.86897408      -0.93856220      -1.00610487
H       -2.47128162       0.94366198      -2.28931026
H        0.09627073       1.10989637       0.08309464
H        0.71694784      -0.90302196       1.16636040
H        0.79333601       0.32504419      -2.08970128
H       -0.04453747      -1.71595993      -2.25968429
H        2.99679121      -0.63861327      -1.34447899
H        2.48846296       0.89369150      -0.61563660
H        3.96627081      -1.47055148       2.95223680
28
Properties=species:S:1:pos:R:3 relative_energy_eV=0.006125444037024863 branch=left pbc="F F F"
O       -4.27428526       0.93867688      -1.51786972
C       -3.97367376       0.83216608      -0.34501644
C       -2.58189726       0.65900504       0.20314483
O       -2.72879751      -0.12868262       1.36463723
C       -1.57471225       0.09771283      -0.80736397
O       -1.54838064       0.85852555      -2.00627638
C       -0.17288622       0.08875651      -0.21997115
O       -0.22363835      -0.76549077       0.91304016
C        0.88221139      -0.34870335      -1.23385954
O        0.71133681      -1.70508793      -1.66093911
C        2.27539843      -0.17387574      -0.66795476
O        2.37573863      -0.76804967       0.61595863
P        3.17371144       0.15904468       1.81305017
O        4.59587398       0.34143922       1.36659987
O        2.24263582       1.26732589       2.19307472
O        3.11344803      -1.01388719       2.98346126
H       -4.74591167       0.87689467       0.44854280
H       -2.25497958       1.68452754       0.45814437
H       -1.82706211      -0.47814368       1.54042415
H       -1.86903368      -0.94210136      -0.99670961
H       -2.47067978       0.92635595      -2.29746202
H        0.09573810       1.10450023       0.09049011
H        0.72176948      -0.90233963       1.16702170
H        0.78734371       0.32605283      -2.08882991
H       -0.03951729      -1.71397348      -2.26371537
H        3.00217463      -0.62675257      -1.34785473
H        2.48035666       0.89946445      -0.61244714
H        3.96131548      -1.47246887       2.95138649
28
Properties=species:S:1:pos:R:3 relative_energy_eV=0.007401927185128443 branch=left pbc="F F F"
O       -4.27850804       0.94480270      -1.51775003
C       -3.97381755       0.84274246      -0.34507736
C       -2.57846199       0.66024888       0.20314246
O       -2.72785494      -0.12557717       1.36341147
C       -1.57560233       0.09300501      -0.80800869
O       -1.55159730       0.84790951      -2.01090014
C       -0.17382422       0.08486339      -0.22118631
O       -0.22255291      -0.76826547       0.91304328
C        0.88261689      -0.34916089      -1.23518164
O        0.71699133      -1.70459065      -1.66469582
C        2.27452616      -0.17072350      -0.66823577
O        2.37516879      -0.76843926       0.61442126
P        3.17214834       0.15847749       1.81355366
O        4.59394989       0.34124685       1.36557880
O        2.24185943       1.26608728       2.19802160
O        3.11002113      -1.01595378       2.98278421
H       -4.74112871       0.89134162       0.45430911
H       -2.24846096       1.68218247       0.46423710
H       -1.82763004      -0.47849219       1.54016065
H       -1.87122088      -0.94808187      -0.99246643
H       -2.47410393       0.90981660      -2.30235809
H        0.09306083       1.09897188       0.09376079
H        0.72407501      -0.89983582       1.16690585
H        0.78572448       0.32534169      -2.08975117
H       -0.03182839      -1.71275655      -2.26972429
H        3.00866363      -0.61548449      -1.34595363
H        2.47241696       0.90348620      -0.60964943
H        3.95896651      -1.47227094       2.95031529
28
Properties=species:S:1:pos:R:3 relative_energy_eV=0.009894416427414399 branch=left pbc="F F F"
O       -4.28386250       0.95739890      -1.51049042
C       -3.97133438       0.85959634      -0.33999681
C       -2.57937999       0.66099083       0.20293506
O       -2.72731929      -0.12519528       1.36804482
C       -1.57934642       0.08377672      -0.81114390
O       -1.55833732       0.83052374      -2.02072105
C       -0.17645857       0.08009329      -0.22359822
O       -0.22216457      -0.77588533       0.90972861
C        0.88451866      -0.35006939      -1.23720167
O        0.72759823      -1.70490851      -1.67520498
C        2.27356115      -0.16467512      -0.66349837
O        2.37368557      -0.76499314       0.61769734
P        3.17029006       0.15794031       1.81709802
O        4.59079533       0.33678478       1.36433315
O        2.24191482       1.26620449       2.20441592
O        3.10856549      -1.01911566       2.98226302
H       -4.73605702       0.91678379       0.45804443
H       -2.23961120       1.67999433       0.46522777
H       -1.82542884      -0.47863381       1.53975799
H       -1.87050903      -0.96033633      -0.99143388
H       -2.48431117       0.88605106      -2.30275143
H        0.08866700       1.09675533       0.09068344
H        0.72560817      -0.89670608       1.16725710
H        0.78705213       0.32433835      -2.09189124
H       -0.01921556      -1.71458649      -2.28303382
H        3.01395121      -0.59917204      -1.34065481
H        2.46208167       0.91113938      -0.60309775
H        3.95864349      -1.47320305       2.94993863
28
Properties=species:S:1:pos:R:3 relative_energy_eV=0.01509727078519063 branch=left pbc="F F F"
O       -4.28123757       0.98260882      -1.49565580
C       -3.96831240       0.87791124      -0.32600193
C       -2.57485394       0.65797089       0.20461826
O       -2.72709986      -0.12334559       1.37047603
C       -1.58476545       0.06857036      -0.81240643
O       -1.57706422       0.79661456      -2.03023558
C       -0.17806818       0.07034763      -0.23569857
O       -0.22540719      -0.78503512       0.89679596
C        0.88876362      -0.35186749      -1.24573711
O        0.74893784      -1.70485108      -1.69619523
C        2.26890380      -0.15114389      -0.65610580
O        2.36345217      -0.75535348       0.62351933
P        3.16858331       0.15707290       1.82353295
O        4.58873452       0.32897459       1.36653309
O        2.24415710       1.26761417       2.21432960
O        3.10981601      -1.02501582       2.98502223
H       -4.73392600       0.96596742       0.47022212
H       -2.21631111       1.67360061       0.46132818
H       -1.82701675      -0.47914166       1.54273414
H       -1.87711388      -0.97460002      -0.98180096
H       -2.50481358       0.84255923      -2.31028587
H        0.08300480       1.09052047       0.07401538
H        0.71950407      -0.89296508       1.16823302
H        0.79461423       0.32765319      -2.09559113
H        0.00633708      -1.72140194      -2.30972284
H        3.02031705      -0.57221900      -1.32823340
H        2.44306862       0.92664302      -0.58512702
H        3.96139297      -1.47679758       2.95014467
28
Properties=species:S:1:pos:R:3 relative_energy_eV=0.019085647982137743 branch=left pbc="F F F"
O       -4.27950048       0.99619628      -1.48975806
C       -3.96668787       0.89365231      -0.31915289
C       -2.56910830       0.65432680       0.20653686
O       -2.72655346      -0.12123565       1.37099019
C       -1.59131912       0.05730222      -0.81771470
O       -1.58891971       0.77737115      -2.04123292
C       -0.18372221       0.06192095      -0.24800022
O       -0.23125296      -0.78598640       0.89093162
C        0.88997013      -0.35051308      -1.25297612
O        0.76361063      -1.70285515      -1.70580135
C        2.26500873      -0.14259485      -0.65250853
O        2.35528225      -0.75130616       0.62644002
P        3.16989161       0.15586943       1.82739313
O        4.59077970       0.32667376       1.37159143
O        2.24944078       1.26824220       2.22223843
O        3.11217402      -1.02756019       2.98875090
H       -4.72645673       0.99493135       0.48548117
H       -2.19931574       1.66545676       0.45530864
H       -1.82918978      -0.48081952       1.54791289
H       -1.88960887      -0.98802680      -0.96692184
H       -2.51743725       0.82058160      -2.31560364
H        0.07614887       1.08083095       0.06000631
H        0.71292223      -0.89248291       1.16587209
H        0.80002530       0.33441778      -2.10047976
H        0.02722492      -1.72306894      -2.32564213
H        3.02564623      -0.55715265      -1.31909834
H        2.43076635       0.93597092      -0.57248399
H        3.96377781      -1.47925083       2.95062818
28
Properties=species:S:1:pos:R:3 relative_energy_eV=0.023020377462671604 branch=left pbc="F F F"
O       -4.28438234       1.00798133      -1.48286474
C       -3.96027868       0.90604247      -0.31574160
C       -2.57026144       0.65123795       0.20147887
O       -2.72571742      -0.12104415       1.37500250
C       -1.60047378       0.04312302      -0.82387691
O       -1.59828024       0.75925847      -2.05052819
C       -0.19102558       0.05581463      -0.25558474
O       -0.23746199      -0.78610300       0.88780036
C        0.89182062      -0.34750448      -1.25679207
O        0.77566566      -1.69972797      -1.71046000
C        2.26371211      -0.13732509      -0.64749599
O        2.35283862      -0.74922353       0.63028893
P        3.17221076       0.15474347       1.83171484
O        4.59319733       0.32539660       1.37627726
O        2.25580164       1.26870211       2.22970813
O        3.11490398      -1.02856681       2.99113610
H       -4.70708137       1.01795857       0.49545032
H       -2.18963801       1.65958462       0.44759865
H       -1.82756937      -0.48247637       1.55133692
H       -1.90278755      -1.00490484      -0.95613056
H       -2.52946678       0.81284791      -2.31749332
H        0.06636941       1.07599918       0.04938084
H        0.70682603      -0.89284186       1.15979765
H        0.80209340       0.33979485      -2.10510365
H        0.04589776      -1.72195999      -2.33785652
H        3.02941018      -0.54612956      -1.31166346
H        2.42153436       0.94147369      -0.56429092
H        3.96573987      -1.48125997       2.95161879
28
Properties=species:S:1:pos:R:3 relative_energy_eV=0.027983175132249016 branch=left pbc="F F F"
O       -4.29525716       1.01573059      -1.47352420
C       -3.95454538       0.91399683      -0.31184647
C       -2.56562883       0.64921152       0.19593966
O       -2.72867961      -0.11583317       1.37239398
C       -1.60749921       0.02756255      -0.82694813
O       -1.60891432       0.72754737      -2.06090642
C       -0.19617376       0.05202956      -0.26123248
O       -0.24089055      -0.78832382       0.88116017
C        0.89401831      -0.34704210      -1.25513728
O        0.78769803      -1.69741674      -1.71657311
C        2.26331896      -0.13214080      -0.64110503
O        2.35443928      -0.74536650       0.63542952
P        3.17581302       0.15616727       1.83776324
O        4.59648417       0.32222256       1.37859824
O        2.26045133       1.27072236       2.23737025
O        3.11742616      -1.03139444       2.99365090
H       -4.68542604       1.03756677       0.50839709
H       -2.17350727       1.65191398       0.44401366
H       -1.83270791      -0.47838767       1.55096920
H       -1.92123830      -1.01688010      -0.95299505
H       -2.53952562       0.81642970      -2.32096923
H        0.04793656       1.07948013       0.04025915
H        0.70306353      -0.89465732       1.15161131
H        0.80294591       0.33856581      -2.10244749
H        0.06367734      -1.71911382      -2.35055523
H        3.03176068      -0.53480817      -1.30566551
H        2.41620001       0.94717831      -0.55821211
H        3.96835790      -1.48406943       2.95326896
28
Properties=species:S:1:pos:R:3 relative_energy_eV=0.032958764299110044 branch=left pbc="F F F"
O       -4.30267974       1.02040709      -1.46847565
C       -3.95730420       0.92288767      -0.30655443
C       -2.56165420       0.64759468       0.19275142
O       -2.73076834      -0.11246044       1.36614687
C       -1.61154494       0.01675915      -0.83568620
O       -1.61413289       0.70204574      -2.08097161
C       -0.20174890       0.04573184      -0.26595593
O       -0.23867860      -0.79193263       0.88008863
C        0.89468220      -0.34844352      -1.25240457
O        0.79386266      -1.69847018      -1.71762605
C        2.26263302      -0.12629615      -0.63689663
O        2.35350755      -0.74052774       0.63911883
P        3.17846169       0.15676763       1.84164233
O        4.59859126       0.31973160       1.38020724
O        2.26450172       1.27185780       2.24361708
O        3.11977398      -1.03320001       2.99626393
H       -4.67723394       1.05561755       0.52740214
H       -2.16114622       1.64862264       0.43499110
H       -1.83638943      -0.47339580       1.54963345
H       -1.92542197      -1.02915627      -0.95483443
H       -2.54699832       0.82402392      -2.31360613
H        0.02518042       1.07759891       0.03402774
H        0.70845078      -0.89772938       1.14699277
H        0.80416639       0.33778557      -2.09751411
H        0.07686092      -1.71477987      -2.36015581
H        3.03213271      -0.52713015      -1.30206086
H        2.41605214       0.95363137      -0.55258026
H        3.97044151      -1.48664979       2.95514685
28
Properties=species:S:1:pos:R:3 relative_energy_eV=0.03836530348780798 branch=left pbc="F F F"
O       -4.31069838       1.02780942      -1.46012782
C       -3.96065130       0.93078876      -0.30043026
C       -2.56743413       0.64632465       0.18189394
O       -2.72808623      -0.11403648       1.36308762
C       -1.61418543       0.00535843      -0.84459834
O       -1.61829460       0.68616301      -2.09287830
C       -0.20569917       0.03820238      -0.26654256
O       -0.23543327      -0.79513916       0.88357737
C        0.89554886      -0.34731700      -1.25172285
O        0.79426158      -1.69841419      -1.71332813
C        2.26205709      -0.12193869      -0.63410565
O        2.35174316      -0.73766920       0.64134462
P        3.17971752       0.15589591       1.84424871
O        4.59930986       0.31867318       1.38165467
O        2.26854010       1.27178251       2.24842840
O        3.12189904      -1.03311315       2.99796043
H       -4.67650038       1.07435115       0.53582799
H       -2.15494430       1.64777404       0.41921319
H       -1.83154392      -0.47182285       1.54845542
H       -1.91569944      -1.04336393      -0.95821497
H       -2.55452127       0.83290849      -2.30193414
H        0.00870738       1.07090864       0.03161152
H        0.71538613      -0.89850675       1.14269620
H        0.80474055       0.34013452      -2.09746368
H        0.08668507      -1.71131145      -2.36610047
H        3.03087608      -0.52305556      -1.29890929
H        2.41636079       0.95775482      -0.54776138
H        3.97145589      -1.48825030       2.95682549
28
Properties=species:S:1:pos:R:3 relative_energy_eV=0.048990295887051616 branch=left pbc="F F F"
O       -4.33262099       1.03707223      -1.44793153
C       -3.96644183       0.94294890      -0.29543988
C       -2.56580636       0.63749469       0.17394162
O       -2.72052978      -0.11323301       1.35630152
C       -1.61586706      -0.01108770      -0.84381554
O       -1.62835112       0.67217885      -2.08732686
C       -0.20771338       0.03596722      -0.26564719
O       -0.23268139      -0.79795864       0.88345329
C        0.89359558      -0.34195922      -1.25163527
O        0.79180754      -1.69431537      -1.70580640
C        2.26041315      -0.11962928      -0.63195196
O        2.35111427      -0.73808683       0.64302156
P        3.18122166       0.15678394       1.84770852
O        4.60116920       0.31789679       1.38187300
O        2.27137566       1.27226957       2.25346100
O        3.12310334      -1.03368070       3.00049388
H       -4.68817128       1.09404494       0.53313255
H       -2.13939726       1.63289170       0.39265074
H       -1.82311101      -0.46838127       1.54317159
H       -1.90344930      -1.06278087      -0.96016789
H       -2.55909170       0.84816105      -2.29683371
H        0.00419263       1.06725162       0.03761173
H        0.72051047      -0.89503525       1.13473061
H        0.80491841       0.34234080      -2.10169292
H        0.09588198      -1.70921759      -2.37066847
H        3.03036357      -0.52119666      -1.29550299
H        2.41488118       0.95956696      -0.54273708
H        3.97228110      -1.48941572       2.95831390
28
Properties=species:S:1:pos:R:3 relative_energy_eV=0.06700606262893416 branch=left pbc="F F F"
O       -4.34240262       1.06225304      -1.45658814
C       -3.97885987       0.93683178      -0.30011252
C       -2.57588771       0.61240506       0.17389123
O       -2.70763569      -0.11474577       1.36652727
C       -1.62217216      -0.02539889      -0.84432841
O       -1.63893905       0.66827869      -2.08544108
C       -0.21005368       0.04390748      -0.26502912
O       -0.22629473      -0.80232897       0.87546463
C        0.89222334      -0.33915752      -1.24890817
O        0.79005130      -1.69351998      -1.70056337
C        2.25927718      -0.11877665      -0.62870497
O        2.35078757      -0.73694280       0.64600294
P        3.18285043       0.15626566       1.84934893
O        4.59989812       0.31667589       1.38154568
O        2.27259713       1.27286894       2.25737034
O        3.12375115      -1.03429543       3.00235311
H       -4.68084195       1.12819527       0.54034860
H       -2.15031040       1.62116931       0.35568339
H       -1.80164705      -0.46605154       1.53099387
H       -1.88680633      -1.09175009      -0.96385676
H       -2.56854094       0.85978372      -2.27845026
H        0.00643959       1.07663741       0.04931523
H        0.72760235      -0.89330172       1.13233186
H        0.80180657       0.34132428      -2.09985298
H        0.10344641      -1.70858343      -2.37513143
H        3.02861734      -0.52037607      -1.29314349
H        2.41165264       0.95981530      -0.53804572
H        3.97298840      -1.49029189       2.95968722
28
Properties=species:S:1:pos:R:3 relative_energy_eV=0.11400832844083197 branch=left pbc="F F F"
O       -4.33740764       1.08952730      -1.46059022
C       -3.98778821       0.92682518      -0.30524343
C       -2.60686892       0.58356592       0.15080935
O       -2.69210159      -0.10197502       1.39129249
C       -1.61211076      -0.02767009      -0.85307881
O       -1.64323021       0.66360014      -2.09112424
C       -0.20483686       0.04595079      -0.26039947
O       -0.21912369      -0.80944371       0.87068224
C        0.89259182      -0.34028230      -1.24597767
O        0.78888055      -1.69531485      -1.69770908
C        2.25735699      -0.11810016      -0.62576371
O        2.35025143      -0.73566253       0.64964160
P        3.18076918       0.15583654       1.85167190
O        4.59895942       0.31557024       1.38019043
O        2.27384900       1.27176040       2.25880848
O        3.12442670      -1.03451451       3.00231222
H       -4.66156140       1.15953681       0.54464124
H       -2.18173837       1.58429270       0.33420540
H       -1.78083758      -0.46576941       1.51664133
H       -1.86882574      -1.08199453      -0.96066843
H       -2.58262721       0.86343613      -2.25317369
H        0.00018240       1.08240834       0.05070824
H        0.73390383      -0.89294660       1.13374918
H        0.79674602       0.34049435      -2.09467747
H        0.10825213      -1.70886403      -2.37848504
H        3.02403582      -0.51961036      -1.29142801
H        2.40931044       0.96100341      -0.53515761
H        3.97313989      -1.49076921       2.96083070
28
Properties=species:S:1:pos:R:3 relative_energy_eV=0.27407912490161834 branch=left pbc="F F F"
O       -4.28799813       1.13094429      -1.45385995
C       -3.94914374       0.93907937      -0.30581400
C       -2.59531257       0.53711931       0.15377496
O       -2.65329276      -0.10062573       1.38434573
C       -1.60502769      -0.03312594      -0.84767881
O       -1.67080642       0.64939765      -2.08919181
C       -0.20869417       0.03895233      -0.25847108
O       -0.21759301      -0.81343192       0.88063051
C        0.88940817      -0.34142238      -1.24133679
O        0.78784039      -1.69538747      -1.69181224
C        2.25383344      -0.11646463      -0.62307618
O        2.34586576      -0.73825087       0.65100760
P        3.18270785       0.15592431       1.85286972
O        4.59799511       0.31487967       1.37787788
O        2.27193637       1.27246866       2.26081111
O        3.12331744      -1.03712581       3.00360469
H       -4.60914574       1.20881688       0.54256575
H       -2.36096177       1.59061909       0.28526612
H       -1.74759808      -0.47495030       1.50745462
H       -1.82069506      -1.09463384      -0.99486852
H       -2.61326371       0.86160562      -2.20195382
H       -0.02460193       1.07579693       0.04092318
H        0.73760822      -0.89629430       1.13962630
H        0.78977923       0.34244794      -2.08858612
H        0.11559659      -1.70809188      -2.38024597
H        3.02012721      -0.51963561      -1.28865090
H        2.40793198       0.96306609      -0.53453643
H        3.97378464      -1.49078679       2.96203243
28
Properties=species:S:1:pos:R:3 relative_energy_eV=0.6559879120759433 branch=left pbc="F F F"
O       -4.22433631       1.17631209      -1.46468130
C       -3.95136519       0.88654940      -0.31217263
C       -2.61088620       0.55490342       0.15488488
O       -2.63346625      -0.15669079       1.39004284
C       -1.61742407      -0.07585388      -0.85404569
O       -1.69399537       0.64716256      -2.06447408
C       -0.21851673       0.03304382      -0.25453874
O       -0.21616872      -0.80591996       0.88665153
C        0.88586884      -0.33898065      -1.23792081
O        0.78870157      -1.69498311      -1.68782369
C        2.25207368      -0.11669405      -0.62238178
O        2.34520965      -0.73638746       0.65259536
P        3.17882962       0.15247433       1.85128297
O        4.59514179       0.31552955       1.37794579
O        2.27450334       1.27020037       2.26099729
O        3.12396731      -1.03635315       3.00289864
H       -4.53741960       1.25905173       0.54359153
H       -2.48990761       1.72511727       0.24996428
H       -1.70041217      -0.49872926       1.52014814
H       -1.77457342      -1.16360226      -1.04742287
H       -2.64982043       0.86093243      -2.16298324
H       -0.03613948       1.07696127       0.04011603
H        0.73442254      -0.90176377       1.14522327
H        0.78730604       0.34380699      -2.08576931
H        0.12071326      -1.70701373      -2.38068832
H        3.02038551      -0.51987405      -1.28680019
H        2.40719999       0.96226366      -0.53508854
H        3.97370633      -1.49057245       2.96315669
28
Properties=species:S:1:pos:R:3 relative_energy_eV=1.067315791362489 branch=left pbc="F F F"
O       -4.19457851       1.17949796      -1.46325311
C       -3.90870045       0.93389130      -0.30922584
C       -2.65103918       0.42559889       0.13853051
O       -2.61554267      -0.16380369       1.39513509
C       -1.61923356      -0.10377818      -0.85872081
O       -1.70332190       0.65063683      -2.04864423
C       -0.21743066       0.03665068      -0.25390652
O       -0.21802503      -0.80467613       0.89209577
C        0.88591328      -0.33915841      -1.23757884
O        0.78816942      -1.69449294      -1.68590714
C        2.25101500      -0.11720708      -0.62413759
O        2.34478052      -0.73539150       0.65472962
P        3.17696268       0.15047678       1.85104431
O        4.59494243       0.31545442       1.37836305
O        2.27441622       1.27002881       2.26099022
O        3.12463865      -1.03541851       3.00174998
H       -4.51503182       1.26166939       0.54415735
H       -2.55349547       1.84340228       0.23156320
H       -1.68408720      -0.50704106       1.52301969
H       -1.76062480      -1.17568077      -1.05928686
H       -2.66967035       0.86409686      -2.15185697
H       -0.03772203       1.07968646       0.04177224
H        0.73233057      -0.90288634       1.14616936
H        0.78645099       0.34401436      -2.08460449
H        0.12155988      -1.70648911      -2.38181711
H        3.02025975      -0.51961534      -1.28634541
H        2.40676691       0.96175713      -0.53483904
H        3.97389544      -1.49033289       2.96351167
28
Properties=species:S:1:pos:R:3 relative_energy_eV=1.6594508394846343 branch=ts pbc="F F F"
O       -4.19141980       1.17619680      -1.48016608
C       -3.82082186       1.02283819      -0.27445951
C       -2.67039661       0.27921072       0.14150670
O       -2.60602115      -0.14260146       1.38373395
C       -1.61539816      -0.09837987      -0.85712987
O       -1.71249716       0.65044753      -2.04302268
C       -0.21681035       0.03808489      -0.25315549
O       -0.22205024      -0.80551346       0.89522826
C        0.88780693      -0.34112299      -1.23929984
O        0.78544915      -1.69373343      -1.68453258
C        2.25114709      -0.11664917      -0.62313934
O        2.34144139      -0.73743336       0.65255431
P        3.18045964       0.15371015       1.85298187
O        4.59517218       0.31456555       1.37833700
O        2.27206148       1.27069329       2.26088523
O        3.12402112      -1.03653813       3.00201003
H       -4.52188674       1.22439720       0.54783160
H       -2.74901004       1.88224407       0.16069711
H       -1.67651600      -0.50859398       1.51565760
H       -1.75494905      -1.17309748      -1.05921786
H       -2.68186320       0.87154419      -2.14224058
H       -0.03983256       1.08141609       0.04263724
H        0.73333379      -0.90189560       1.14789654
H        0.78436096       0.34451663      -2.08355273
H        0.12265872      -1.70670747      -2.38344080
H        3.01962267      -0.51949583      -1.28684651
H        2.40708365       0.96155089      -0.53469444
H        3.97484708      -1.48969847       2.96297439
28
Properties=species:S:1:pos:R:3 relative_energy_eV=1.3573636050641653 branch=right pbc="F F F"
O       -4.16900882       1.16918402      -1.48490457
C       -3.76277713       1.11195541      -0.24519669
C       -2.68834077       0.20542571       0.13690967
O       -2.59060251      -0.13566157       1.38514428
C       -1.61332019      -0.10257467      -0.86418935
O       -1.71567334       0.64486986      -2.04358003
C       -0.21914639       0.03998216      -0.24937659
O       -0.22560458      -0.80399278       0.89863169
C        0.88699981      -0.34026022      -1.23901826
O        0.78095104      -1.69368454      -1.68208031
C        2.25141219      -0.11657603      -0.62290687
O        2.33749318      -0.73754104       0.65217183
P        3.18145991       0.15496408       1.85460531
O        4.59522596       0.31379929       1.37782284
O        2.27056728       1.27038958       2.26076918
O        3.12334425      -1.03714074       3.00156036
H       -4.52682975       1.18043492       0.55074128
H       -2.94178800       1.88907029       0.08369248
H       -1.66307198      -0.51308123       1.51129559
H       -1.74234322      -1.17578664      -1.06361995
H       -2.69936092       0.88213437      -2.12671820
H       -0.04383508       1.08328293       0.04450197
H        0.73122864      -0.90103088       1.14975933
H        0.78399282       0.34485694      -2.08378597
H        0.12294199      -1.70699771      -2.38498530
H        3.01963837      -0.51953349      -1.28735946
H        2.40806624       0.96189154      -0.53501429
H        3.97476870      -1.48935875       2.96248888
28
Properties=species:S:1:pos:R:3 relative_energy_eV=1.209340986708412 branch=right pbc="F F F"
O       -4.10099058       1.17836930      -1.50085978
C       -3.72539114       1.14700153      -0.23307569
C       -2.65829099       0.19882867       0.14324953
O       -2.55817342      -0.17639266       1.37721936
C       -1.61499821      -0.14367995      -0.87980359
O       -1.72836839       0.60277231      -2.04985841
C       -0.22750401       0.03694798      -0.24957960
O       -0.22905006      -0.79685825       0.90745820
C        0.88145445      -0.33943944      -1.23333674
O        0.76537129      -1.69416607      -1.66991350
C        2.24619802      -0.11610842      -0.62159797
O        2.32879605      -0.73474192       0.65489522
P        3.17661495       0.15372966       1.85465357
O        4.59024044       0.31079887       1.37594897
O        2.26823536       1.26991788       2.26247600
O        3.12049342      -1.03910682       3.00027163
H       -4.50303485       1.14943961       0.56491965
H       -3.08300345       2.05020218       0.04712239
H       -1.60837295      -0.53620447       1.50217912
H       -1.70461594      -1.22169805      -1.09314363
H       -2.72321552       0.90094339      -2.07864612
H       -0.07179418       1.08306684       0.04752407
H        0.72589618      -0.89812792       1.15344763
H        0.78249170       0.34375004      -2.07960817
H        0.12173642      -1.70121121      -2.38647630
H        3.01553824      -0.52100672      -1.28439252
H        2.40732273       0.96177545      -0.53585037
H        3.97280206      -1.48978080       2.96213598
28
Properties=species:S:1:pos:R:3 relative_energy_eV=1.1724713351359242 branch=right pbc="F F F"
O       -4.07360947       1.16007109      -1.49240007
C       -3.70352338       1.18634269      -0.22038099
C       -2.63853943       0.23282664       0.13859963
O       -2.54732585      -0.18269372       1.35271936
C       -1.60981580      -0.14392205      -0.88593062
O       -1.73094881       0.57971096      -2.06758474
C       -0.22051996       0.03043746      -0.25193562
O       -0.21660343      -0.80307306       0.90676296
C        0.88604017      -0.34365811      -1.23352285
O        0.76415963      -1.69772117      -1.66937473
C        2.24638080      -0.11691380      -0.61929809
O        2.32900659      -0.73557999       0.65777489
P        3.17501137       0.15271746       1.85712402
O        4.58525299       0.30865897       1.37443792
O        2.26634203       1.27094620       2.26675802
O        3.11646026      -1.04147509       3.00050073
H       -4.49439858       1.10676766       0.54264622
H       -3.15137954       2.12749155       0.07860764
H       -1.59479350      -0.56017009       1.47431713
H       -1.71662082      -1.22686381      -1.05830962
H       -2.73662378       0.89372842      -2.06962432
H       -0.09229184       1.08223865       0.03443831
H        0.74009016      -0.89337504       1.15963018
H        0.77759624       0.34121294      -2.07764867
H        0.12160931      -1.69548097      -2.38731123
H        3.01231998      -0.52498507      -1.28155927
H        2.40311687       0.96186948      -0.53381223
H        3.96999539      -1.49008715       2.96173505
28
Properties=species:S:1:pos:R:3 relative_energy_eV=1.1547143915086053 branch=right pbc="F F F"
O       -4.03727163       1.18937495      -1.50938441
C       -3.70807755       1.19454916      -0.22162981
C       -2.62336053       0.26457989       0.14964376
O       -2.53651157      -0.16872456       1.35891646
C       -1.60968913      -0.13407245      -0.87729691
O       -1.73554186       0.55279602      -2.07483291
C       -0.21477811       0.03354535      -0.25962233
O       -0.21210048      -0.80224065       0.89643082
C        0.88954510      -0.34593151      -1.23980770
O        0.77348157      -1.69857186      -1.68077573
C        2.24918207      -0.12069587      -0.62111159
O        2.33327608      -0.73773332       0.65744219
P        3.17459428       0.15290193       1.85968136
O        4.58761211       0.31082864       1.38064337
O        2.26546435       1.26807505       2.27002215
O        3.11503531      -1.04112448       3.00310150
H       -4.50896437       1.06565667       0.53554926
H       -3.20890812       2.14820240       0.11039272
H       -1.59621443      -0.58412787       1.45151038
H       -1.75004790      -1.22123328      -1.01072591
H       -2.74973121       0.87542085      -2.07792623
H       -0.07013078       1.08290076       0.03066679
H        0.74544557      -0.88326654       1.14784017
H        0.78212493       0.33840349      -2.08303757
H        0.12116307      -1.69883199      -2.38980198
H        3.02053757      -0.52538408      -1.27886389
H        2.40396177       0.95721830      -0.53295554
H        3.96629160      -1.49349383       2.96329075
28
Properties=species:S:1:pos:R:3 relative_energy_eV=1.147326893027639 branch=right pbc="F F F"
O       -4.03716458       1.21994068      -1.51279107
C       -3.71774000       1.19349038      -0.22375278
C       -2.62311894       0.27057957       0.15090789
O       -2.53243602      -0.14991239       1.36553205
C       -1.61201840      -0.13110152      -0.87325140
O       -1.74722442       0.53233620      -2.08110975
C       -0.20905546       0.03332311      -0.26469929
O       -0.20952971      -0.80437246       0.89110870
C        0.89511983      -0.34734592      -1.24864539
O        0.78108165      -1.69992278      -1.69091131
C        2.25625987      -0.12186938      -0.62603910
O        2.33636024      -0.73723985       0.65436743
P        3.17487459       0.15195634       1.86118265
O        4.58941675       0.31301386       1.38830139
O        2.26298422       1.26595220       2.26855594
O        3.11442407      -1.04212644       3.00550031
H       -4.53978601       1.03339228       0.50327104
H       -3.23743895       2.15198009       0.14486315
H       -1.60018269      -0.56945955       1.46039491
H       -1.75402144      -1.22014712      -0.97785200
H       -2.74952451       0.87949606      -2.07199362
H       -0.04160795       1.07834722       0.02816599
H        0.74800062      -0.88786639       1.14289210
H        0.79482303       0.33967502      -2.09244544
H        0.11886678      -1.70533050      -2.39080288
H        3.03180547      -0.52639614      -1.28115060
H        2.40946114       0.95703987      -0.53762160
H        3.96375846      -1.49841135       2.96538199
28
Properties=species:S:1:pos:R:3 relative_energy_eV=1.143311533051019 branch=right pbc="F F F"
O       -4.02133849       1.23904061      -1.51603558
C       -3.72660062       1.19375670      -0.22264464
C       -2.62596883       0.27832149       0.15048226
O       -2.53236316      -0.13430114       1.36745471
C       -1.61158243      -0.13277624      -0.87094076
O       -1.75005412       0.52030545      -2.08356423
C       -0.20393918       0.03153662      -0.26571946
O       -0.20777565      -0.80566846       0.89194319
C        0.90102355      -0.35053227      -1.25082733
O        0.78627468      -1.70245250      -1.69543797
C        2.26152968      -0.12359900      -0.62873618
O        2.34145117      -0.73848078       0.65108032
P        3.17381361       0.15106470       1.86002011
O        4.58966901       0.31297504       1.39135639
O        2.25952920       1.26328511       2.26762351
O        3.11029221      -1.04413096       3.00271469
H       -4.55545002       1.00847433       0.49115521
H       -3.27133031       2.14890452       0.16893255
H       -1.59276543      -0.54172574       1.46594553
H       -1.74257418      -1.22462178      -0.96868466
H       -2.75090981       0.89012486      -2.07145681
H       -0.04123870       1.07746735       0.02554111
H        0.74859483      -0.89662916       1.14367757
H        0.80056958       0.33704072      -2.09406558
H        0.11692773      -1.70624750      -2.38885969
H        3.03557989      -0.52824407      -1.28395047
H        2.41490447       0.95573658      -0.54520525
H        3.96011894      -1.49960332       2.96556081
28
Properties=species:S:1:pos:R:3 relative_energy_eV=1.1407899351615924 branch=right pbc="F F F"
O       -4.01720720       1.25148470      -1.52194565
C       -3.72943903       1.18537973      -0.22782744
C       -2.62286641       0.27678142       0.14853176
O       -2.52133596      -0.11418198       1.37239911
C       -1.60902148      -0.13233519      -0.87198542
O       -1.74235728       0.52454206      -2.08347555
C       -0.20542467       0.03421823      -0.26390496
O       -0.20788588      -0.79935264       0.89531558
C        0.89880756      -0.35020747      -1.24735911
O        0.78604219      -1.70174004      -1.69149968
C        2.26261378      -0.12714191      -0.63245128
O        2.34425542      -0.74199408       0.64694039
P        3.17174778       0.14910815       1.85763904
O        4.58886984       0.31413474       1.39332985
O        2.25588312       1.26042754       2.26360501
O        3.10482234      -1.04774327       2.99871826
H       -4.56115167       0.98023465       0.47981474
H       -3.28886291       2.13840674       0.19219378
H       -1.58164166      -0.51686392       1.47333869
H       -1.74270620      -1.22353911      -0.97322901
H       -2.73992936       0.89285929      -2.07134982
H       -0.04926564       1.08165448       0.02493731
H        0.74786520      -0.90043752       1.14346647
H        0.79663546       0.33422662      -2.09105577
H        0.11595510      -1.70585804      -2.38369314
H        3.03523348      -0.53447802      -1.28957011
H        2.42018571       0.95110610      -0.54845526
H        3.95656591      -1.49967019       2.96493149
28
Properties=species:S:1:pos:R:3 relative_energy_eV=1.1392277678532992 branch=right pbc="F F F"
O       -4.00588750       1.25939722      -1.52250939
C       -3.73261136       1.18060037      -0.22710070
C       -2.61789942       0.28404684       0.15171349
O       -2.51081122      -0.09902688       1.37730236
C       -1.60791098      -0.13005857      -0.86989360
O       -1.73689184       0.52405228      -2.08340954
C       -0.20309030       0.03625809      -0.26337769
O       -0.20428436      -0.79470662       0.89829460
C        0.89877978      -0.34948852      -1.24860275
O        0.77993564      -1.70349966      -1.68601126
C        2.26359528      -0.12908046      -0.63390999
O        2.34544972      -0.74642887       0.64477675
P        3.16902762       0.14667322       1.85667804
O        4.58699363       0.31386571       1.39636805
O        2.25000699       1.25713374       2.25823494
O        3.10162490      -1.05040454       2.99692799
H       -4.57073114       0.94560755       0.46250906
H       -3.31292921       2.13504353       0.20597411
H       -1.56955212      -0.50248288       1.47856274
H       -1.74802787      -1.22083044      -0.97329529
H       -2.73133054       0.90003935      -2.07385964
H       -0.04597430       1.08505112       0.02213742
H        0.75275396      -0.89675826       1.14171431
H        0.79304991       0.33590257      -2.09314434
H        0.11271789      -1.70817673      -2.38105098
H        3.03110682      -0.54058928      -1.29343596
H        2.42562613       0.94896607      -0.54978617
H        3.95365142      -1.50208496       2.96555274
28
Properties=species:S:1:pos:R:3 relative_energy_eV=1.1380931746025453 branch=right pbc="F F F"
O       -4.00529928       1.24691818      -1.52827465
C       -3.73741013       1.17046692      -0.23097001
C       -2.61681148       0.28334959       0.15397100
O       -2.50649732      -0.09626632       1.38085432
C       -1.60275616      -0.12137072      -0.86749803
O       -1.72662238       0.53970342      -2.07810191
C       -0.20026070       0.04034295      -0.26156129
O       -0.19750043      -0.78792872       0.90111871
C        0.89564235      -0.35089354      -1.24749431
O        0.77124188      -1.70469348      -1.68255544
C        2.26133286      -0.13185767      -0.63641802
O        2.34747012      -0.74980811       0.64138761
P        3.16599112       0.14316635       1.85496032
O        4.58452795       0.31150983       1.39705711
O        2.24286049       1.25112447       2.25384224
O        3.09925776      -1.05135522       2.99854706
H       -4.57573411       0.93162795       0.45681393
H       -3.32663584       2.12732828       0.20602972
H       -1.56121293      -0.49241486       1.48362976
H       -1.74476328      -1.21143229      -0.97599231
H       -2.72361787       0.91186825      -2.06968843
H       -0.03960023       1.08892491       0.02000262
H        0.76133566      -0.88721517       1.14257972
H        0.79129690       0.33033181      -2.09354409
H        0.10580800      -1.70933897      -2.37938766
H        3.02578038      -0.54510793      -1.29695526
H        2.42723525       0.94503584      -0.55106531
H        3.95132893      -1.50299494       2.96607184
28
Properties=species:S:1:pos:R:3 relative_energy_eV=1.136554670651094 branch=right pbc="F F F"
O       -4.00833301       1.23371231      -1.53173578
C       -3.74915343       1.15664859      -0.23276250
C       -2.61274550       0.29006364       0.15690025
O       -2.50012749      -0.08757750       1.38312974
C       -1.59387979      -0.10664941      -0.86113840
O       -1.71409032       0.56645014      -2.06489201
C       -0.19136736       0.04914875      -0.25765661
O       -0.19141120      -0.77058130       0.91103596
C        0.89787343      -0.35582148      -1.24915432
O        0.76321761      -1.71087337      -1.68063684
C        2.26650867      -0.14263962      -0.64255970
O        2.35333883      -0.76155012       0.63581495
P        3.16232188       0.13843384       1.85338570
O        4.58180035       0.31182199       1.40063666
O        2.23296578       1.24259973       2.24887871
O        3.09411656      -1.05419523       2.99787143
H       -4.59236594       0.90042967       0.44362802
H       -3.36279651       2.12068364       0.20883258
H       -1.55184935      -0.47710843       1.48659407
H       -1.73626755      -1.19727539      -0.97630054
H       -2.71658943       0.92114408      -2.06563888
H       -0.02325496       1.09865390       0.01792176
H        0.76817086      -0.87782870       1.14419412
H        0.79231941       0.32401312      -2.09802166
H        0.09422171      -1.70868530      -2.37413727
H        3.02991996      -0.55414210      -1.30729741
H        2.42748993       0.93553405      -0.55796840
H        3.94635440      -1.50538896       2.96843562
28
Properties=species:S:1:pos:R:3 relative_energy_eV=1.1350731496349908 branch=right pbc="F F F"
O       -4.01926095       1.21120884      -1.53538923
C       -3.76291495       1.14464654      -0.23554647
C       -2.61275420       0.29771182       0.16193412
O       -2.49801817      -0.08034455       1.38834221
C       -1.58624046      -0.08647170      -0.85653442
O       -1.70538944       0.59488864      -2.05677108
C       -0.18174979       0.05979534      -0.25519798
O       -0.18462807      -0.75296531       0.91819647
C        0.90061452      -0.35851221      -1.24760924
O        0.75167623      -1.71294665      -1.67343780
C        2.27238157      -0.15242645      -0.64752448
O        2.36193389      -0.77079318       0.62970980
P        3.15960104       0.13269331       1.84941291
O        4.58015086       0.31584546       1.40486895
O        2.22437447       1.23316441       2.24116850
O        3.08968193      -1.05965701       2.99472014
H       -4.60039202       0.86921552       0.43939381
H       -3.39479540       2.11701648       0.20585629
H       -1.54674529      -0.46724186       1.49057599
H       -1.72948225      -1.17434084      -0.98854159
H       -2.71489754       0.92449944      -2.06428330
H       -0.00497762       1.10939129       0.01108822
H        0.77275247      -0.87510390       1.15204804
H        0.79762493       0.31922871      -2.09717539
H        0.08259176      -1.70985095      -2.36702935
H        3.03392933      -0.56508972      -1.31255384
H        2.43814378       0.92417519      -0.56435790
H        3.94317684      -1.50871639       2.97199575
28
Properties=species:S:1:pos:R:3 relative_energy_eV=1.1333262331827427 branch=right pbc="F F F"
O       -4.03758312       1.18046567      -1.53722583
C       -3.77884749       1.12231819      -0.23728908
C       -2.60617564       0.30888882       0.16250316
O       -2.49330387      -0.06488224       1.38998076
C       -1.57669716      -0.06169124      -0.85687946
O       -1.70059191       0.63485064      -2.04875955
C       -0.17210135       0.07435811      -0.25553275
O       -0.18191697      -0.73607764       0.91902781
C        0.90567485      -0.35724030      -1.24575309
O        0.74178898      -1.71369349      -1.66005357
C        2.28245509      -0.16371531      -0.65142581
O        2.37086340      -0.78222592       0.62546779
P        3.15846953       0.12609984       1.84780550
O        4.58105850       0.31915154       1.41318021
O        2.21115262       1.21943442       2.23107725
O        3.08761449      -1.06821415       2.99118680
H       -4.60922779       0.82747108       0.43957565
H       -3.44335538       2.10658031       0.20159697
H       -1.54257033      -0.44357424       1.49838203
H       -1.72557628      -1.14983808      -0.99698919
H       -2.71957689       0.93439902      -2.06434563
H        0.01632111       1.12200385       0.00809275
H        0.77322234      -0.86879672       1.15168807
H        0.81127879       0.31495478      -2.10075648
H        0.07058760      -1.70984403      -2.35152566
H        3.03325496      -0.58967276      -1.32088449
H        2.46688796       0.91082772      -0.57071311
H        3.94328152      -1.51331787       2.97592766
28
Properties=species:S:1:pos:R:3 relative_energy_eV=1.1320684798192815 branch=right pbc="F F F"
O       -4.05274577       1.14841820      -1.54154348
C       -3.79907740       1.10297490      -0.24016746
C       -2.60524882       0.32285800       0.16712750
O       -2.48158416      -0.04322673       1.39524633
C       -1.57196892      -0.03470865      -0.85270404
O       -1.69810988       0.66996698      -2.03877583
C       -0.16389545       0.09086251      -0.25719376
O       -0.17637470      -0.72123003       0.91657366
C        0.91114432      -0.35540207      -1.24738103
O        0.73717602      -1.71455849      -1.65053724
C        2.29243536      -0.17806394      -0.65617640
O        2.37688018      -0.79536064       0.62238927
P        3.15427685       0.11710368       1.84914387
O        4.57785687       0.31866541       1.42271474
O        2.19970407       1.20550863       2.22820576
O        3.08692407      -1.07607484       2.99302715
H       -4.61959578       0.77623268       0.43318360
H       -3.49599379       2.09787526       0.19925709
H       -1.52593033      -0.41754363       1.49901164
H       -1.72253821      -1.12073985      -1.00420594
H       -2.72156131       0.94567657      -2.06008130
H        0.03159418       1.13736004       0.00759588
H        0.77848995      -0.85828264       1.14747778
H        0.82354833       0.31171348      -2.10855271
H        0.05955042      -1.71023524      -2.33528638
H        3.03271119      -0.61902908      -1.32870512
H        2.49333939       0.89403572      -0.58017958
H        3.94538091      -1.51577662       2.97789429
28
Properties=species:S:1:pos:R:3 relative_energy_eV=1.131101771206886 branch=right pbc="F F F"
O       -4.06624679       1.13205078      -1.53939157
C       -3.80605273       1.09569216      -0.23889607
C       -2.60419643       0.32506681       0.16790705
O       -2.47160961      -0.03256882       1.39745244
C       -1.57112355      -0.02847807      -0.85622396
O       -1.70361056       0.68333897      -2.03798650
C       -0.16207536       0.09469416      -0.26122980
O       -0.17479756      -0.72129975       0.91026437
C        0.91372818      -0.35231947      -1.24888812
O        0.73865982      -1.71040770      -1.65325565
C        2.29448637      -0.18194540      -0.65407483
O        2.37327579      -0.79334492       0.62710921
P        3.15273008       0.11505511       1.85445313
O        4.57498940       0.31493781       1.42272406
O        2.19846873       1.20137408       2.23990257
O        3.09104646      -1.08022453       2.99670503
H       -4.62520183       0.77442305       0.43921672
H       -3.50329605       2.09555538       0.18925105
H       -1.51534077      -0.40993922       1.49607132
H       -1.72347201      -1.11428665      -1.01177195
H       -2.73198164       0.94410866      -2.06039125
H        0.03064001       1.14174748       0.00526160
H        0.77999445      -0.85829189       1.14391470
H        0.83061310       0.31564204      -2.10893227
H        0.05627511      -1.71327230      -2.33340269
H        3.03315685      -0.63234372      -1.32067440
H        2.50487231       0.88811953      -0.58557025
H        3.95245584      -1.51406407       2.97781413
28
Properties=species:S:1:pos:R:3 relative_energy_eV=1.1304312362262863 branch=right pbc="F F F"
O       -4.07311575       1.10824768      -1.54091411
C       -3.81492904       1.08368657      -0.23940717
C       -2.60183303       0.33247265       0.17135162
O       -2.46045491      -0.01541905       1.40197261
C       -1.56948936      -0.01635172      -0.85578947
O       -1.70218724       0.70440429      -2.03209990
C       -0.15907493       0.09952533      -0.26461883
O       -0.17219658      -0.71112961       0.91067989
C        0.91532949      -0.35451761      -1.25135769
O        0.73361034      -1.71222899      -1.65495873
C        2.29756078      -0.18956780      -0.65501874
O        2.37126463      -0.79709369       0.62906803
P        3.14984836       0.11179000       1.85806833
O        4.57067305       0.31743028       1.42428969
O        2.19196551       1.19360385       2.24745932
O        3.09221599      -1.08798412       2.99572181
H       -4.63097990       0.75433340       0.43840595
H       -3.53183352       2.08902764       0.18777258
H       -1.50131442      -0.39062879       1.49847580
H       -1.72412900      -1.10088816      -1.02079480
H       -2.73420347       0.94528607      -2.05960699
H        0.04382016       1.14551259      -0.00312864
H        0.78386847      -0.85268614       1.13913918
H        0.83801991       0.31571740      -2.11119382
H        0.04733054      -1.70883529      -2.33111819
H        3.03578734      -0.64829713      -1.31776333
H        2.51459783       0.88025079      -0.58825793
H        3.95623648      -1.51664106       2.98098142
28
Properties=species:S:1:pos:R:3 relative_energy_eV=1.129898613289697 branch=right pbc="F F F"
O       -4.08073908       1.09076215      -1.53945982
C       -3.81959200       1.07636325      -0.23878619
C       -2.59975744       0.33685570       0.17307750
O       -2.45472192      -0.00128271       1.40586535
C       -1.56762782      -0.01079606      -0.85619591
O       -1.70281727       0.71368309      -2.03039640
C       -0.15586838       0.10164584      -0.26880556
O       -0.17198538      -0.70845867       0.90640620
C        0.91847152      -0.35561507      -1.25349867
O        0.73208136      -1.71101810      -1.66120879
C        2.29843240      -0.19521416      -0.65228201
O        2.36925050      -0.79936137       0.63288332
P        3.14745160       0.10934906       1.86153047
O        4.56598918       0.32278383       1.42500916
O        2.18843117       1.18787544       2.25673991
O        3.09537861      -1.09428005       2.99512522
H       -4.62999262       0.74226551       0.44337045
H       -3.54143997       2.08704658       0.18078061
H       -1.49499245      -0.37331136       1.50280443
H       -1.72953037      -1.09383170      -1.02558148
H       -2.73588899       0.94457281      -2.05939826
H        0.04970168       1.14808750      -0.00923962
H        0.78346802      -0.85007268       1.13692509
H        0.84561198       0.31385140      -2.11388217
H        0.04257556      -1.70265158      -2.33424442
H        3.03614952      -0.65528562      -1.31312846
H        2.51685242       0.87361010      -0.58881833
H        3.96149596      -1.51855376       2.98176596
28
Properties=species:S:1:pos:R:3 relative_energy_eV=1.1294238021509955 branch=right pbc="F F F"
O       -4.08540813       1.07536849      -1.54035144
C       -3.82335268       1.06924488      -0.23987653
C       -2.59423878       0.34694851       0.17597007
O       -2.44518249       0.01819338       1.41077750
C       -1.56615512      -0.00312717      -0.85533699
O       -1.70202812       0.72254540      -2.02918132
C       -0.15406116       0.10355187      -0.27131995
O       -0.17102745      -0.70385115       0.90639877
C        0.91901177      -0.35804183      -1.25618872
O        0.72793360      -1.71163561      -1.66779817
C        2.29938065      -0.20090840      -0.65313190
O        2.37071236      -0.80507063       0.63222230
P        3.14366568       0.10595709       1.86402033
O        4.56108612       0.32793904       1.42747072
O        2.17650522       1.17622780       2.26270941
O        3.09894331      -1.09942755       2.99635212
H       -4.62730482       0.72380573       0.44473129
H       -3.56102727       2.08541801       0.17446596
H       -1.48606870      -0.35640379       1.50882411
H       -1.73275229      -1.08596732      -1.02243884
H       -2.73582812       0.94411487      -2.06032709
H        0.05421333       1.14970758      -0.01379208
H        0.78346700      -0.84627642       1.14028382
H        0.85491870       0.31398905      -2.11553949
H        0.03832011      -1.69931190      -2.34083157
H        3.03896197      -0.66149712      -1.31238377
H        2.51728856       0.86833765      -0.58739312
H        3.96641451      -1.52081123       2.97902213
28
Properties=species:S:1:pos:R:3 relative_energy_eV=1.1286728229097207 branch=right pbc="F F F"
O       -4.08825175       1.05901658      -1.54192758
C       -3.82541438       1.06519991      -0.24144269
C       -2.58977437       0.35682766       0.17884112
O       -2.43194608       0.05127994       1.41795096
C       -1.56425520      -0.00136152      -0.85235530
O       -1.70177644       0.72143970      -2.02821602
C       -0.15082763       0.10320538      -0.27136762
O       -0.17183677      -0.70536350       0.90546013
C        0.92122145      -0.35864478      -1.25663105
O        0.72598358      -1.70986085      -1.67408405
C        2.30106029      -0.20589161      -0.65208669
O        2.37151459      -0.81503310       0.63114866
P        3.13513177       0.09881575       1.86517636
O        4.55028331       0.33887622       1.43204657
O        2.15445408       1.15656904       2.26413354
O        3.10658752      -1.10650569       2.99705208
H       -4.62436839       0.71299286       0.44439502
H       -3.57799439       2.08598045       0.17000660
H       -1.47585849      -0.33223286       1.51276003
H       -1.73558468      -1.08400363      -1.01724036
H       -2.73722502       0.93685500      -2.06364890
H        0.06023081       1.14931186      -0.01427205
H        0.78039038      -0.84102762       1.14738226
H        0.85931918       0.31837614      -2.11244315
H        0.04163774      -1.69444333      -2.35252525
H        3.04036914      -0.66052878      -1.31571376
H        2.51765526       0.86332804      -0.58455097
H        3.97566238      -1.52415814       2.96950982
28
Properties=species:S:1:pos:R:3 relative_energy_eV=1.1275248993915739 branch=right pbc="F F F"
O       -4.09446787       1.03521725      -1.54036556
C       -3.82378739       1.06909660      -0.24220006
C       -2.58665926       0.36428373       0.18073806
O       -2.42352231       0.07196823       1.42213831
C       -1.56490980      -0.00541625      -0.85142643
O       -1.70561642       0.70980500      -2.03204170
C       -0.15189226       0.09699872      -0.27033862
O       -0.17434050      -0.71571350       0.90467582
C        0.92121971      -0.35782481      -1.25618425
O        0.73075965      -1.70574219      -1.68418882
C        2.29966419      -0.20419446      -0.64992030
O        2.37543935      -0.82289005       0.62795260
P        3.12523782       0.09365067       1.86645753
O        4.53540201       0.35923988       1.43187619
O        2.12698662       1.13256302       2.27301909
O        3.11770859      -1.11753419       2.99271009
H       -4.62147381       0.74148380       0.45846043
H       -3.56036555       2.09775153       0.14027193
H       -1.46995545      -0.32044667       1.51725605
H       -1.73848776      -1.08795767      -1.00878065
H       -2.74235718       0.91393388      -2.06492769
H        0.06093075       1.14080904      -0.00788714
H        0.77559015      -0.83693812       1.15916930
H        0.85683308       0.32343955      -2.10828519
H        0.05452949      -1.68218148      -2.37017249
H        3.04040589      -0.65328282      -1.31472648
H        2.51263175       0.86473354      -0.57126181
H        3.99088452      -1.52583309       2.95533968
28
Properties=species:S:1:pos:R:3 relative_energy_eV=1.1267426956328563 branch=right pbc="F F F"
O       -4.09157296       1.03590664      -1.54160669
C       -3.81558591       1.08054390      -0.24425564
C       -2.58625387       0.36393362       0.18372246
O       -2.42239330       0.07598761       1.42661487
C       -1.56870791      -0.01854739      -0.84803956
O       -1.70751985       0.68551551      -2.03594420
C       -0.15506563       0.09039450      -0.26782965
O       -0.17511500      -0.72584277       0.90485325
C        0.92027180      -0.35615993      -1.25630704
O        0.73672703      -1.70336822      -1.69166782
C        2.29885063      -0.19861408      -0.65034338
O        2.37531177      -0.82233324       0.62540500
P        3.11993275       0.09347577       1.86732244
O        4.52655617       0.37917027       1.43318573
O        2.11178217       1.11891852       2.28408766
O        3.12237475      -1.12767621       2.98249518
H       -4.61759712       0.77349212       0.45983512
H       -3.53948015       2.11019869       0.12712593
H       -1.46953574      -0.31836404       1.52152004
H       -1.74459336      -1.10309132      -0.99248631
H       -2.74356001       0.89813576      -2.07084467
H        0.05155872       1.13489244       0.00026789
H        0.77408576      -0.84211295       1.16442730
H        0.85137114       0.32828178      -2.10528572
H        0.06422680      -1.67773774      -2.38119899
H        3.04195405      -0.64067935      -1.31870140
H        2.50859499       0.87120069      -0.56640681
H        3.99977027      -1.52650136       2.94741338
28
Properties=species:S:1:pos:R:3 relative_energy_eV=1.125966886182141 branch=right pbc="F F F"
O       -4.09041536       1.02361697      -1.54306010
C       -3.81313951       1.08359643      -0.24688367
C       -2.58509364       0.36856408       0.18458227
O       -2.42114060       0.08622807       1.42843511
C       -1.56805643      -0.02226342      -0.84342878
O       -1.70520397       0.67537157      -2.03506844
C       -0.15506866       0.08875335      -0.26482717
O       -0.17388257      -0.72686356       0.90798340
C        0.91955288      -0.35295314      -1.25597275
O        0.73481770      -1.69971020      -1.69192793
C        2.30018955      -0.19620073      -0.65386281
O        2.38110653      -0.82188173       0.61976255
P        3.11157312       0.09024775       1.87099222
O        4.51441786       0.39828418       1.44173395
O        2.09239217       1.10084789       2.29754922
O        3.12847656      -1.14290586       2.97349382
H       -4.61379326       0.78840986       0.46381023
H       -3.53189620       2.11651973       0.11010098
H       -1.47074269      -0.31285669       1.52433404
H       -1.74851049      -1.10640899      -0.98043862
H       -2.74030519       0.88532218      -2.07154411
H        0.04799050       1.13392822       0.00122363
H        0.77581669      -0.84326456       1.16334428
H        0.84894804       0.33434967      -2.10303646
H        0.06332432      -1.67620579      -2.38259834
H        3.04027866      -0.63773075      -1.32489217
H        2.51290053       0.87293373      -0.57357749
H        4.01185140      -1.52870906       2.94113174
28
Properties=species:S:1:pos:R:3 relative_energy_eV=1.1254708076376119 branch=right pbc="F F F"
O       -4.08904163       1.02580537      -1.54315867
C       -3.80800537       1.08975917      -0.24802199
C       -2.58449761       0.36799268       0.18434330
O       -2.42285392       0.08854320       1.42966825
C       -1.56919322      -0.02997776      -0.84381414
O       -1.70680063       0.65992921      -2.04037015
C       -0.15659480       0.08660239      -0.26446015
O       -0.17440891      -0.72908042       0.90818375
C        0.91836589      -0.35183006      -1.25675740
O        0.73797545      -1.69810145      -1.69596991
C        2.29920059      -0.19153687      -0.65633558
O        2.37931241      -0.81584776       0.61809432
P        3.10863679       0.09028510       1.87531544
O        4.51065123       0.40794848       1.44856147
O        2.08337799       1.09040689       2.31202662
O        3.13374601      -1.14984946       2.97021042
H       -4.60900493       0.80426943       0.46627390
H       -3.51566743       2.12250541       0.10314137
H       -1.47577910      -0.31539193       1.52663615
H       -1.74560528      -1.11595261      -0.97443690
H       -2.74094165       0.87749656      -2.07328820
H        0.04510511       1.13243309       0.00192461
H        0.77603365      -0.84670636       1.16178058
H        0.84335030       0.33671439      -2.10180030
H        0.06019010      -1.67355672      -2.38050273
H        3.03884125      -0.63591663      -1.32682445
H        2.50920523       0.87884428      -0.57725779
H        4.02079039      -1.52676835       2.93419691
28
Properties=species:S:1:pos:R:3 relative_energy_eV=1.125154055422172 branch=right pbc="F F F"
O       -4.08455958       1.03248753      -1.54506910
C       -3.80298580       1.09439501      -0.24958539
C       -2.58289864       0.36786713       0.18277506
O       -2.42273202       0.08882723       1.42822271
C       -1.56852461      -0.03341756      -0.84282005
O       -1.70730855       0.64768910      -2.04382673
C       -0.15654262       0.08599760      -0.26297623
O       -0.17388843      -0.73016244       0.90904077
C        0.91699004      -0.35057818      -1.25655859
O        0.73784234      -1.69661349      -1.69675003
C        2.29831830      -0.18955653      -0.65626484
O        2.38160646      -0.81614214       0.61698054
P        3.10452638       0.08950244       1.87750609
O        4.50462646       0.41718685       1.45342032
O        2.07395075       1.08230512       2.31823390
O        3.13799893      -1.15611749       2.96515491
H       -4.60509907       0.81133270       0.46414134
H       -3.50947161       2.12567720       0.10249984
H       -1.47668066      -0.31602010       1.52757477
H       -1.74170904      -1.12002704      -0.96733955
H       -2.74147057       0.87008022      -2.07703086
H        0.04465336       1.13140607       0.00401863
H        0.77584309      -0.84469368       1.16511466
H        0.83679813       0.33656968      -2.10264145
H        0.05488097      -1.67256745      -2.37621578
H        3.03726639      -0.63108731      -1.32901389
H        2.50727010       0.88104821      -0.57758381
H        4.02768747      -1.52636936       2.92635167
28
Properties=species:S:1:pos:R:3 relative_energy_eV=1.124829500062333 branch=right pbc="F F F"
O       -4.08301295       1.03780584      -1.54627434
C       -3.80036339       1.09770121      -0.25119499
C       -2.58292414       0.36665461       0.18025800
O       -2.42463931       0.08420134       1.42528182
C       -1.56782593      -0.03565252      -0.84442419
O       -1.70926710       0.64002827      -2.04804450
C       -0.15606408       0.08702505      -0.26331194
O       -0.17461579      -0.73007017       0.90867500
C        0.91702619      -0.35066425      -1.25720725
O        0.73466608      -1.69681123      -1.69581782
C        2.29774161      -0.18859718      -0.65671129
O        2.37997282      -0.81470223       0.61644927
P        3.10156364       0.08845621       1.87920796
O        4.49902760       0.42739521       1.45489642
O        2.06693818       1.07435995       2.32652272
O        3.14451843      -1.16215272       2.96174981
H       -4.60175118       0.81657503       0.46397523
H       -3.49976913       2.12741635       0.10070355
H       -1.47614280      -0.31696025       1.52391317
H       -1.73686298      -1.12358454      -0.96314302
H       -2.74372278       0.86573705      -2.07812871
H        0.04417127       1.13267567       0.00499663
H        0.77427057      -0.83854074       1.16956478
H        0.83839501       0.33779273      -2.10240643
H        0.04392327      -1.67339065      -2.36767176
H        3.03858811      -0.62898532      -1.32783715
H        2.50596530       0.88177050      -0.57501752
H        4.03658146      -1.52646392       2.91835537
28
Properties=species:S:1:pos:R:3 relative_energy_eV=1.1245532356624608 branch=right pbc="F F F"
O       -4.07887043       1.04520225      -1.54809636
C       -3.79602080       1.10269763      -0.25269021
C       -2.58351936       0.36430734       0.17849602
O       -2.42591581       0.08243858       1.42347525
C       -1.56936975      -0.04195968      -0.84487123
O       -1.71050621       0.62657232      -2.05189488
C       -0.15795532       0.08657774      -0.26337113
O       -0.17576635      -0.72907592       0.90931502
C        0.91684429      -0.34970935      -1.25553119
O        0.73565134      -1.69506523      -1.69540609
C        2.29744056      -0.18735744      -0.65493753
O        2.38140788      -0.81562754       0.61672997
P        3.09900746       0.08798548       1.87982074
O        4.49219541       0.43962505       1.45182623
O        2.05601804       1.06138555       2.33540818
O        3.15320853      -1.16633258       2.95617042
H       -4.60037116       0.82770411       0.46145815
H       -3.48805119       2.12990716       0.09979906
H       -1.47792352      -0.32052992       1.52208224
H       -1.73563654      -1.13078219      -0.95837022
H       -2.74327782       0.86283037      -2.07950424
H        0.03997625       1.13262827       0.00426747
H        0.77157561      -0.83205227       1.17601025
H        0.84037615       0.33826462      -2.10108623
H        0.03801872      -1.67257056      -2.36020920
H        3.03955660      -0.62432194      -1.32751740
H        2.50225186       0.88390162      -0.57308593
H        4.04604345      -1.52762405       2.90907159
28
Properties=species:S:1:pos:R:3 relative_energy_eV=1.1243360234657302 branch=right pbc="F F F"
O       -4.07782573       1.04898977      -1.54944060
C       -3.79566505       1.10410623      -0.25390480
C       -2.58457245       0.36313330       0.17757670
O       -2.42895891       0.07957757       1.42260314
C       -1.56945710      -0.04320023      -0.84579880
O       -1.71061418       0.62552552      -2.05295635
C       -0.15811814       0.08680764      -0.26391317
O       -0.17600192      -0.72593214       0.91081583
C        0.91790997      -0.35046764      -1.25492608
O        0.73731516      -1.69627268      -1.69384171
C        2.29771982      -0.18786308      -0.65405963
O        2.38196035      -0.81809417       0.61681503
P        3.09783181       0.08562967       1.88022934
O        4.48703987       0.44800544       1.44879661
O        2.05138987       1.05370159       2.33956609
O        3.16230869      -1.16854129       2.95723900
H       -4.60123637       0.83082238       0.45968963
H       -3.48660877       2.13043320       0.09976225
H       -1.48119699      -0.32341217       1.52233447
H       -1.73534425      -1.13210972      -0.95925142
H       -2.74294045       0.86372890      -2.08076998
H        0.03617461       1.13482341      -0.00062420
H        0.77056133      -0.82386505       1.18134644
H        0.84251838       0.33774003      -2.10084727
H        0.03487259      -1.67286389      -2.35341457
H        3.03890340      -0.62459538      -1.32729690
H        2.50355471       0.88301829      -0.57083254
H        4.05486768      -1.52980598       2.90246220
28
Properties=species:S:1:pos:R:3 relative_energy_eV=1.1240971643856028 branch=right pbc="F F F"
O       -4.07672704       1.05604341      -1.55101898
C       -3.79449867       1.10934514      -0.25568665
C       -2.58747607       0.36171846       0.17576180
O       -2.43533016       0.07507370       1.42055657
C       -1.57189853      -0.04753316      -0.84667820
O       -1.71124172       0.62046551      -2.05444478
C       -0.16074851       0.08522832      -0.26433564
O       -0.17765400      -0.72348976       0.91274062
C        0.91716973      -0.35140110      -1.25405084
O        0.73953957      -1.69683838      -1.69529177
C        2.29727567      -0.18828039      -0.65165475
O        2.38219743      -0.81848646       0.61918996
P        3.09790253       0.08549573       1.88281915
O        4.48323132       0.45841155       1.44719297
O        2.04477497       1.04267921       2.35056594
O        3.17675957      -1.17109923       2.95538753
H       -4.60103596       0.83882890       0.45777601
H       -3.47964510       2.13397974       0.09887604
H       -1.48632599      -0.32384548       1.52243849
H       -1.73678059      -1.13671541      -0.95937140
H       -2.74242098       0.86175360      -2.08188088
H        0.03173582       1.13434843      -0.00432521
H        0.76838690      -0.81451415       1.18715038
H        0.84113450       0.33701825      -2.09955942
H        0.03564107      -1.67745865      -2.35357275
H        3.03927141      -0.62358216      -1.32525939
H        2.50367557       0.88234663      -0.56714132
H        4.06947526      -1.53047259       2.89117492
28
Properties=species:S:1:pos:R:3 relative_energy_eV=1.1238071557454532 branch=right pbc="F F F"
O       -4.07426349       1.06526642      -1.55560661
C       -3.79292636       1.11401610      -0.25966629
C       -2.58989580       0.36099157       0.17220510
O       -2.44082430       0.07445858       1.41721846
C       -1.57388679      -0.05103847      -0.84701478
O       -1.71180113       0.61229060      -2.05746198
C       -0.16299198       0.08386646      -0.26269263
O       -0.18009450      -0.71994421       0.91725812
C        0.91541047      -0.35454545      -1.25101619
O        0.73882753      -1.70057851      -1.69096267
C        2.29540993      -0.18927944      -0.64919080
O        2.38280515      -0.81907808       0.62122357
P        3.09671699       0.08267025       1.88586908
O        4.47479748       0.47744871       1.44686946
O        2.03588514       1.02452274       2.36684270
O        3.19669705      -1.18056284       2.94872811
H       -4.60160153       0.84665957       0.45294706
H       -3.47433042       2.13651880       0.09760049
H       -1.49151295      -0.32186383       1.52244093
H       -1.73958988      -1.14018646      -0.95609044
H       -2.74127398       0.86272970      -2.08554600
H        0.02915854       1.13346988      -0.00452606
H        0.76395790      -0.80232282       1.19917145
H        0.83886326       0.33439925      -2.09632715
H        0.04288614      -1.68024398      -2.35738640
H        3.03797190      -0.62455746      -1.32207590
H        2.49909245       0.88222358      -0.56695861
H        4.09290123      -1.52831111       2.87150596
28
Properties=species:S:1:pos:R:3 relative_energy_eV=1.1235308453105972 branch=right pbc="F F F"
O       -4.07330845       1.06930716      -1.55984083
C       -3.79582323       1.11530250      -0.26314936
C       -2.59201195       0.36355782       0.17082951
O       -2.44542328       0.07462431       1.41575754
C       -1.57383590      -0.04790779      -0.84775576
O       -1.71067602       0.61630592      -2.05797413
C       -0.16324608       0.08544435      -0.26141169
O       -0.18327649      -0.71698125       0.91984660
C        0.91503570      -0.35809677      -1.24745696
O        0.73474911      -1.70520771      -1.68248965
C        2.29517504      -0.19227562      -0.64719748
O        2.38133048      -0.81831470       0.62424943
P        3.09650932       0.08160605       1.88833570
O        4.46915304       0.48926166       1.44397601
O        2.03038752       1.01219445       2.38103451
O        3.21516658      -1.18805565       2.94148015
H       -4.60570154       0.84337567       0.44600449
H       -3.48103967       2.13748624       0.09697630
H       -1.49556036      -0.32201424       1.52118513
H       -1.73916647      -1.13726353      -0.95662992
H       -2.74078600       0.86628021      -2.08575720
H        0.03076652       1.13582794      -0.00650782
H        0.75852034      -0.79123159       1.20981552
H        0.83992581       0.32662811      -2.09589990
H        0.04957160      -1.68241339      -2.35983033
H        3.03604113      -0.62996461      -1.32069552
H        2.49975497       0.87929091      -0.56816763
H        4.11415646      -1.52774706       2.85863081
28
Properties=species:S:1:pos:R:3 relative_energy_eV=1.1233944234409137 branch=right pbc="F F F"
O       -4.07111208       1.07176109      -1.56295556
C       -3.79485831       1.11739918      -0.26597642
C       -2.59300945       0.36379308       0.16956622
O       -2.44813343       0.07667512       1.41504066
C       -1.57414765      -0.04864747      -0.84689213
O       -1.70888437       0.61462172      -2.05751035
C       -0.16438395       0.08522588      -0.26037333
O       -0.18627801      -0.71677958       0.92083833
C        0.91341480      -0.35924697      -1.24639650
O        0.73203388      -1.70705514      -1.67912177
C        2.29375736      -0.19193419      -0.64629706
O        2.38062084      -0.81827651       0.62478860
P        3.09588868       0.07974196       1.88945931
O        4.46325598       0.50017219       1.44048691
O        2.02521662       0.99987149       2.39191478
O        3.22762194      -1.19257257       2.93818173
H       -4.60637041       0.84699121       0.44203541
H       -3.47761616       2.13904150       0.09503735
H       -1.49951404      -0.32206588       1.52203685
H       -1.73714468      -1.13800329      -0.95526962
H       -2.73833730       0.86581461      -2.08803496
H        0.02953772       1.13506082      -0.00447361
H        0.75300441      -0.78594999       1.21760439
H        0.83829900       0.32330932      -2.09653846
H        0.05172730      -1.68448447      -2.36140228
H        3.03486596      -0.62903642      -1.31986832
H        2.49881777       0.87976830      -0.56744943
H        4.12811578      -1.52617571       2.84892661
