31
Properties=species:S:1:pos:R:3 relative_energy_eV=1.7302705164256622 branch=ts pbc="F F F"
O       -0.19283655       2.15057539      -4.95381112
C        0.24141944       2.04551454      -3.81918876
C       -0.13945564       0.88842625      -2.94580384
O       -0.85970627      -0.06874557      -3.69227298
C       -0.95435587       1.42021571      -1.74603591
O       -0.28238406       2.52225746      -1.18325204
C       -1.25368326       0.30524438      -0.72479857
O       -2.31034981       0.71038521       0.13684094
C        0.00040828       0.02124316       0.11557760
O        0.20994996       1.15733138       0.89442851
C       -0.17930124      -1.21254928       0.99744049
O        1.03400816      -1.59512837       1.66519176
O        1.20178750      -1.95527794       4.70463309
P        0.38155540      -2.88942438       3.90437247
O       -1.04720433      -3.24451630       4.03853322
O        1.18924483      -3.82029885       2.87996939
O        2.09199324       0.70118402       2.35601586
H        0.89121202       2.81430437      -3.37628204
H        0.78904584       0.44343316      -2.56235940
H       -1.00072249       0.35234062      -4.55717172
H       -1.91456401       1.75592396      -2.15304382
H        0.03829337       2.18997622      -0.27587036
H       -1.58795488      -0.57407963      -1.27156902
H       -1.82074219       1.20759942       0.82285010
H        0.84921159      -0.18763814      -0.56048959
H        1.26556778       1.00830859       1.72486104
H       -0.47580850      -2.07490978       0.40185544
H       -0.95799894      -1.00564668       1.72914276
H        1.52395864      -0.76486971       1.99571483
H        1.43652164      -3.15243483       2.18158365
H        1.83268091       0.85134384       3.27292151
