16
Properties=species:S:1:pos:R:3 relative_energy_eV=4.468292787016253 branch=ts pbc="F F F"
O        3.79776574      -0.16079663       0.13270998
C        2.61211386       0.37027906      -0.19430794
C        1.38483942      -0.00719165       0.29794635
O        1.32371246      -0.84380338       1.32141759
C        0.10643007       0.45154708      -0.28109999
O       -0.92423487       0.01620245       0.58404282
P       -2.31610990      -0.67941623      -0.14949573
O       -1.88997323      -1.12514397      -1.51522552
O       -2.93533983      -1.52255754       0.92592718
O       -3.24616621       0.69593196      -0.33292351
H        2.50045944       0.72726095      -1.19955743
H        3.14379032       0.77112286       0.21143595
H        0.35091668      -0.94165114       1.46847684
H       -0.06679061       0.02368624      -1.27954121
H        0.06360438       1.54414773      -0.38069556
H       -3.89964082       0.66310640       0.37579387
