17
Properties=species:S:1:pos:R:3 relative_energy_eV=0.0 branch=left pbc="F F F"
C        0.30902093      -1.49938823       0.07626505
C       -0.72327171      -1.07863377       0.82087582
O       -1.01288244       0.18422676       1.18749653
P        1.66616470       2.08422182      -1.07430232
O        2.22903504       3.43985916      -1.41171184
O        2.41669609       0.90615733      -0.54587972
O        0.77602990       1.57348573      -2.39550325
C       -1.72236095      -2.03108141       1.36110353
O       -2.67010362      -1.73139305       2.05477920
O       -1.49785771      -3.33502317       1.00822677
O        0.41300760       2.34385138       0.03088223
H        1.05746011      -0.82638599      -0.31787160
H        0.41999873      -2.55081090      -0.14129783
H        0.76303194       2.32065929      -3.00438978
H       -2.22761693      -3.81828639       1.42417795
H        0.19413866       3.28198842      -0.00867297
H       -0.40271771       0.81780931       0.75414710
17
Properties=species:S:1:pos:R:3 relative_energy_eV=0.00041332428008900024 branch=left pbc="F F F"
C        0.31571052      -1.50070878       0.08600966
C       -0.72150764      -1.08084450       0.82408095
O       -1.01142178       0.18229756       1.19360882
P        1.66030249       2.08488556      -1.07604328
O        2.23520686       3.43196667      -1.42693527
O        2.40484844       0.90458647      -0.54272843
O        0.75880009       1.57384369      -2.38993393
C       -1.72206306      -2.03414878       1.35957712
O       -2.65748291      -1.73990874       2.07209474
O       -1.51340663      -3.33294799       0.97954280
O        0.41478393       2.36147711       0.03211362
H        1.06679310      -0.82631424      -0.30062304
H        0.42945409      -2.55187549      -0.13048101
H        0.76553341       2.31080007      -3.01128666
H       -2.23749765      -3.81792214       1.40273941
H        0.20162709       3.30002241      -0.01420140
H       -0.40190817       0.81604708       0.76079096
17
Properties=species:S:1:pos:R:3 relative_energy_eV=0.0006585922019439749 branch=left pbc="F F F"
C        0.32275379      -1.50165801       0.09295810
C       -0.71629037      -1.07960579       0.82736875
O       -1.00424007       0.18327791       1.19508464
P        1.65819918       2.08445757      -1.07584645
O        2.22973527       3.43041117      -1.43755078
O        2.40447824       0.90651035      -0.54171300
O        0.74663606       1.57041402      -2.38180251
C       -1.72097028      -2.03105853       1.35825575
O       -2.65127116      -1.73665744       2.07736573
O       -1.52420846      -3.32827392       0.96565900
O        0.42133865       2.36227113       0.04183535
H        1.07743658      -0.82915955      -0.29078215
H        0.43229136      -2.55237694      -0.12905372
H        0.76473229       2.30080889      -3.01017146
H       -2.25510489      -3.81048042       1.38134853
H        0.19426970       3.29711664      -0.01762086
H       -0.39201374       0.81525877       0.76299030
17
Properties=species:S:1:pos:R:3 relative_energy_eV=0.0010699660306272563 branch=left pbc="F F F"
C        0.32698338      -1.50281353       0.09633802
C       -0.71435941      -1.07893993       0.82641739
O       -1.00087246       0.18563504       1.19238488
P        1.65885752       2.08207024      -1.07439450
O        2.22981070       3.42814431      -1.43383692
O        2.40979741       0.90333134      -0.54665958
O        0.74111760       1.57104092      -2.37723507
C       -1.72213699      -2.02660563       1.35822298
O       -2.64469353      -1.73060034       2.08674290
O       -1.53534228      -3.32060687       0.95168683
O        0.42658036       2.35661800       0.04778135
H        1.08490718      -0.83012235      -0.28058709
H        0.43749729      -2.55358740      -0.12448145
H        0.75724060       2.29978097      -3.00810812
H       -2.26055643      -3.80642487       1.37137831
H        0.18495221       3.28749685      -0.02160911
H       -0.39201098       0.81683908       0.75428464
17
Properties=species:S:1:pos:R:3 relative_energy_eV=0.0014672690886072814 branch=left pbc="F F F"
C        0.33275230      -1.50118899       0.10194265
C       -0.71052629      -1.07387910       0.82694351
O       -1.00005609       0.19047554       1.18626115
P        1.66035526       2.07858745      -1.07403313
O        2.22520686       3.42648131      -1.43689775
O        2.41522735       0.90064041      -0.55177727
O        0.73625484       1.56695879      -2.37277541
C       -1.71857520      -2.02184404       1.35654694
O       -2.63632888      -1.72804592       2.09182098
O       -1.54207949      -3.31448061       0.94027314
O        0.43434179       2.34738530       0.05819090
H        1.09293010      -0.83188198      -0.27627877
H        0.43744779      -2.55250781      -0.11842986
H        0.75261996       2.29609355      -3.00279415
H       -2.27482806      -3.79399266       1.35533940
H        0.16896163       3.27114398      -0.01999620
H       -0.38593162       0.82131056       0.75398952
17
Properties=species:S:1:pos:R:3 relative_energy_eV=0.0018189445981988683 branch=left pbc="F F F"
C        0.33827133      -1.50087526       0.10138533
C       -0.70464624      -1.07127233       0.82622839
O       -0.98845847       0.19127521       1.19888946
P        1.66091860       2.07673630      -1.07187875
O        2.21547448       3.42600934      -1.44476830
O        2.42499504       0.90570731      -0.54655826
O        0.73338199       1.55297284      -2.36352531
C       -1.71953706      -2.01635288       1.34910153
O       -2.63464964      -1.71936563       2.08661358
O       -1.55286875      -3.30785527       0.92590964
O        0.44065593       2.34551746       0.06602146
H        1.10693998      -0.83738280      -0.27046677
H        0.43667972      -2.55210136      -0.12408303
H        0.73719466       2.28097325      -2.99582818
H       -2.28742544      -3.78364867       1.34179110
H        0.16062014       3.26394369      -0.02649758
H       -0.37977377       0.82697438       0.76599138
17
Properties=species:S:1:pos:R:3 relative_energy_eV=0.002656979580933694 branch=left pbc="F F F"
C        0.33740092      -1.48920218       0.10302092
C       -0.70690563      -1.06640115       0.82891723
O       -1.00210029       0.19261345       1.20073978
P        1.66911901       2.07074328      -1.07438453
O        2.20793019       3.42564604      -1.45261075
O        2.44468888       0.90610767      -0.55308686
O        0.73900209       1.54098119      -2.36291842
C       -1.71789709      -2.01509108       1.35263007
O       -2.62370892      -1.72420745       2.10318369
O       -1.55986001      -3.30098043       0.91056592
O        0.45157686       2.33210068       0.07193390
H        1.10662275      -0.82070639      -0.25715170
H        0.43542197      -2.53782110      -0.13319650
H        0.73182617       2.27288823      -2.98993945
H       -2.28945991      -3.78572783       1.32532078
H        0.15902903       3.24531820      -0.03079077
H       -0.39491351       0.83499461       0.77609238
17
Properties=species:S:1:pos:R:3 relative_energy_eV=0.004538332621450536 branch=left pbc="F F F"
C        0.34017230      -1.47635617       0.11074017
C       -0.70428717      -1.05790349       0.83907081
O       -0.98061058       0.19898040       1.23833219
P        1.67743997       2.06996774      -1.07584376
O        2.18259620       3.42753161      -1.48569587
O        2.49072323       0.93361668      -0.54859467
O        0.73558286       1.49781595      -2.33536326
C       -1.72608064      -2.00762937       1.33827318
O       -2.62711194      -1.72117716       2.09695472
O       -1.58204827      -3.28562842       0.86722810
O        0.47338704       2.32075981       0.08395925
H        1.11609753      -0.80722881      -0.23482370
H        0.42474254      -2.51820435      -0.16104682
H        0.70279434       2.21640756      -2.97760269
H       -2.30851036      -3.77128158       1.28602067
H        0.14622028       3.22077578      -0.03428362
H       -0.37333430       0.84080939       0.81100105
17
Properties=species:S:1:pos:R:3 relative_energy_eV=0.005337185579264769 branch=left pbc="F F F"
C        0.33822783      -1.46443148       0.11002365
C       -0.70453067      -1.05111052       0.84299569
O       -0.97409258       0.20232851       1.25401833
P        1.67974917       2.06452344      -1.07606397
O        2.17354207       3.42281022      -1.49916367
O        2.49814274       0.93601259      -0.54099153
O        0.73855165       1.47513649      -2.32972840
C       -1.72614347      -2.00550981       1.33630492
O       -2.62460783      -1.73209513       2.10215819
O       -1.58410536      -3.27841758       0.85183186
O        0.47764041       2.32174364       0.08749395
H        1.11961290      -0.79592757      -0.22152106
H        0.42104999      -2.50189749      -0.17391152
H        0.68923266       2.19233577      -2.97152432
H       -2.31309082      -3.76765614       1.26256952
H        0.14861042       3.21983825      -0.03759051
H       -0.37001591       0.84357238       0.82142466
17
Properties=species:S:1:pos:R:3 relative_energy_eV=0.0060081403753429186 branch=left pbc="F F F"
C        0.34141495      -1.46748364       0.10760260
C       -0.69429114      -1.05302697       0.85029736
O       -0.94978760       0.19923403       1.27682740
P        1.67184260       2.06786882      -1.07288714
O        2.16269843       3.42060335      -1.51511579
O        2.49297402       0.94710132      -0.52441358
O        0.73233879       1.45626018      -2.31519213
C       -1.72554107      -2.00238717       1.33125431
O       -2.63361293      -1.72500617       2.08541893
O       -1.58301861      -3.27363251       0.84293844
O        0.47618749       2.33880213       0.09083433
H        1.13051022      -0.80182930      -0.21571139
H        0.41041805      -2.50405164      -0.18681274
H        0.67767335       2.15874190      -2.97339273
H       -2.32397940      -3.75692129       1.23832270
H        0.15064380       3.23732859      -0.04097994
H       -0.34869754       0.83965371       0.83933517
17
Properties=species:S:1:pos:R:3 relative_energy_eV=0.006906306534801843 branch=left pbc="F F F"
C        0.34430006      -1.46239211       0.10868761
C       -0.68606897      -1.04841441       0.85796721
O       -0.93592955       0.19969819       1.29758974
P        1.66671494       2.06235119      -1.07015147
O        2.15630867       3.41151813      -1.52730783
O        2.48586512       0.94616747      -0.51014106
O        0.72521317       1.43556045      -2.30649923
C       -1.72165104      -1.99853996       1.32729010
O       -2.63253764      -1.72523675       2.07811538
O       -1.57726243      -3.26825115       0.83509642
O        0.47036818       2.34914643       0.09200080
H        1.12732583      -0.79511434      -0.22010410
H        0.40965970      -2.49587631      -0.19366408
H        0.67155359       2.12958081      -2.97283634
H       -2.32794870      -3.75399171       1.20873608
H        0.15508222       3.24989678      -0.04372581
H       -0.34321964       0.84515256       0.85727233
17
Properties=species:S:1:pos:R:3 relative_energy_eV=0.008064821849984583 branch=left pbc="F F F"
C        0.35067909      -1.46329140       0.10679595
C       -0.67246406      -1.04989496       0.86750075
O       -0.90903359       0.19535923       1.32447996
P        1.65933581       2.06460483      -1.06721815
O        2.14427324       3.40754667      -1.54461993
O        2.49087142       0.96116734      -0.49952806
O        0.70836203       1.42229078      -2.28560309
C       -1.72227856      -1.99327784       1.32026387
O       -2.64750524      -1.71217615       2.05148997
O       -1.57946635      -3.26349456       0.82907807
O        0.46876868       2.35458239       0.09660983
H        1.13130158      -0.79906420      -0.23761884
H        0.41216927      -2.49791366      -0.19460004
H        0.66997434       2.09744843      -2.97243475
H       -2.34493163      -3.73774795       1.18684049
H        0.14808308       3.25318356      -0.04329526
H       -0.32036527       0.84193240       0.88018491
17
Properties=species:S:1:pos:R:3 relative_energy_eV=0.009034975559188752 branch=left pbc="F F F"
C        0.35325437      -1.46370056       0.09991650
C       -0.66500140      -1.04838738       0.86466362
O       -0.88336699       0.19177958       1.34157809
P        1.65355774       2.06122863      -1.06395280
O        2.13183962       3.40161742      -1.55718916
O        2.48710208       0.96415278      -0.48711629
O        0.70145923       1.40745919      -2.27590667
C       -1.72346954      -1.98545497       1.30691652
O       -2.65277701      -1.69606539       2.02934163
O       -1.58475872      -3.25899228       0.82158630
O        0.46488377       2.35826741       0.10164179
H        1.12906081      -0.79584295      -0.24532789
H        0.41970310      -2.50155386      -0.18717100
H        0.66356862       2.08256609      -2.96249819
H       -2.35343217      -3.72881802       1.17910878
H        0.14153299       3.25504571      -0.04368806
H       -0.29538249       0.83795319       0.89642251
17
Properties=species:S:1:pos:R:3 relative_energy_eV=0.009784462476090994 branch=left pbc="F F F"
C        0.35817647      -1.46820648       0.10000570
C       -0.65917305      -1.04866689       0.86473056
O       -0.86824210       0.19056962       1.34865859
P        1.64540918       2.06058495      -1.06021321
O        2.12680850       3.39619515      -1.56087906
O        2.47614106       0.96673798      -0.47269835
O        0.69813851       1.39669504      -2.26935455
C       -1.72779746      -1.97835357       1.29753519
O       -2.66058786      -1.68638011       2.01445612
O       -1.58785625      -3.25116957       0.81278074
O        0.45887656       2.36951958       0.10163712
H        1.13524455      -0.80356324      -0.25100662
H        0.42124606      -2.50605935      -0.18963502
H        0.65175096       2.06710662      -2.96075584
H       -2.35066593      -3.72446373       1.17688006
H        0.14014780       3.26758474      -0.04643990
H       -0.26984285       0.83312371       0.91262414
17
Properties=species:S:1:pos:R:3 relative_energy_eV=0.01116184765851358 branch=left pbc="F F F"
C        0.36828415      -1.47902449       0.09884928
C       -0.64529381      -1.05737060       0.86774931
O       -0.84318537       0.18286376       1.35599173
P        1.63978180       2.06641235      -1.05456583
O        2.12639162       3.39801604      -1.56446667
O        2.46172483       0.96874027      -0.46041681
O        0.69522309       1.39094443      -2.26163454
C       -1.72746266      -1.97736455       1.29137804
O       -2.66918989      -1.67060736       1.99134341
O       -1.59846739      -3.25604237       0.81590838
O        0.45054116       2.38870871       0.10349783
H        1.14589905      -0.81351141      -0.24758380
H        0.42707100      -2.51309367      -0.20405669
H        0.63737960       2.05668121      -2.95579380
H       -2.36983907      -3.71545462       1.18227178
H        0.13792177       3.28713640      -0.05354841
H       -0.24900555       0.82422015       0.91340254
17
Properties=species:S:1:pos:R:3 relative_energy_eV=0.013672205233888235 branch=left pbc="F F F"
C        0.37641826      -1.48554997       0.09435531
C       -0.63323453      -1.06106303       0.86642056
O       -0.81649861       0.17372934       1.37164107
P        1.63304392       2.06605790      -1.04945941
O        2.14690540       3.38375351      -1.56399251
O        2.43806967       0.97179785      -0.42822490
O        0.69055743       1.38020954      -2.24910112
C       -1.72469540      -1.97215164       1.28129875
O       -2.66975746      -1.65886134       1.97283596
O       -1.59701065      -3.25252131       0.81379936
O        0.43088787       2.41124686       0.08522157
H        1.16305304      -0.82465734      -0.24203575
H        0.42156461      -2.51859722      -0.21447663
H        0.59837631       2.04256869      -2.94282885
H       -2.37126619      -3.70803360       1.17765215
H        0.13756238       3.31611605      -0.06990168
H       -0.23620157       0.81720977       0.91512195
17
Properties=species:S:1:pos:R:3 relative_energy_eV=0.016869252773176413 branch=left pbc="F F F"
C        0.38520750      -1.50504441       0.09277487
C       -0.62419579      -1.07171389       0.86105694
O       -0.79488582       0.16537664       1.36763157
P        1.62049585       2.07270583      -1.04163780
O        2.13707448       3.38256652      -1.57460074
O        2.43049046       0.98534485      -0.41080341
O        0.67800051       1.37811572      -2.23882537
C       -1.72561562      -1.97095342       1.27675534
O       -2.67770039      -1.63721675       1.94938425
O       -1.59746465      -3.26137144       0.83536961
O        0.41844089       2.43952009       0.08780990
H        1.18474025      -0.85176462      -0.22895613
H        0.41103536      -2.53400903      -0.23313793
H        0.59454816       2.04283803      -2.93255870
H       -2.39503467      -3.69809489       1.17115091
H        0.13781168       3.34541840      -0.08754744
H       -0.19517355       0.79953601       0.92446013
17
Properties=species:S:1:pos:R:3 relative_energy_eV=0.019208385736419586 branch=left pbc="F F F"
C        0.38384839      -1.50692861       0.09077072
C       -0.61937764      -1.06804239       0.86426536
O       -0.78950714       0.16931505       1.36703568
P        1.61858252       2.06807382      -1.03933210
O        2.13879312       3.37161531      -1.58692637
O        2.41247789       0.98107553      -0.39009891
O        0.68001527       1.36976360      -2.23458799
C       -1.72086620      -1.96785727       1.27959420
O       -2.67847608      -1.64093659       1.94728886
O       -1.59004184      -3.25464409       0.83204591
O        0.40898921       2.44749222       0.07675904
H        1.18949683      -0.86160774      -0.22636432
H        0.40611190      -2.53395480      -0.23867114
H        0.58372434       2.04740792      -2.91243874
H       -2.38650398      -3.69879279       1.16083659
H        0.14037019       3.35559362      -0.09801944
H       -0.18986214       0.80368080       0.92616867
17
Properties=species:S:1:pos:R:3 relative_energy_eV=0.026532868127105758 branch=left pbc="F F F"
C        0.38880754      -1.54010549       0.10396779
C       -0.60683072      -1.08033933       0.87417873
O       -0.75373716       0.15873537       1.37853261
P        1.61850046       2.08539517      -1.04060436
O        2.11088616       3.39419045      -1.59934354
O        2.43350229       1.01421757      -0.39044761
O        0.67683912       1.38492406      -2.23094728
C       -1.73336107      -1.96041093       1.26726750
O       -2.70199811      -1.61966734       1.91253083
O       -1.59891205      -3.25508402       0.83773972
O        0.42896146       2.45415807       0.09585508
H        1.20039004      -0.90850515      -0.22658040
H        0.37015003      -2.56494436      -0.23609970
H        0.59523702       2.06227801      -2.91281346
H       -2.39648397      -3.68633178       1.17925324
H        0.13115902       3.35169699      -0.09777872
H       -0.17533518       0.79104590       0.90361558
17
Properties=species:S:1:pos:R:3 relative_energy_eV=0.047609017143258825 branch=left pbc="F F F"
C        0.37076826      -1.56438917       0.10050686
C       -0.61300354      -1.07696721       0.86917274
O       -0.72640575       0.15963985       1.39184166
P        1.61823820       2.12264763      -1.04599547
O        2.11993028       3.42012597      -1.62215682
O        2.44723688       1.05022744      -0.41126528
O        0.66997565       1.39535679      -2.22012867
C       -1.74445245      -1.95586188       1.26237786
O       -2.72111359      -1.60499263       1.88563557
O       -1.60845362      -3.24901828       0.83273885
O        0.42721824       2.47936975       0.10642868
H        1.22403735      -0.98434910      -0.21317947
H        0.31954900      -2.59220602      -0.22142025
H        0.61774304       2.03216980      -2.94305919
H       -2.37800309      -3.72056382       1.18470198
H        0.11251818       3.37534349      -0.05620235
H       -0.14800792       0.79472043       0.91832921
17
Properties=species:S:1:pos:R:3 relative_energy_eV=0.07478853741849889 branch=left pbc="F F F"
C        0.37939466      -1.64400324       0.10026329
C       -0.60239644      -1.12074293       0.84962628
O       -0.68335471       0.11751335       1.36199228
P        1.64982323       2.19155762      -1.06273988
O        2.06820469       3.52062787      -1.62788706
O        2.52974509       1.13194234      -0.48313393
O        0.65782285       1.47004915      -2.20639665
C       -1.78900729      -1.93431193       1.23574657
O       -2.77797661      -1.52112698       1.80169696
O       -1.65663289      -3.26059096       0.92158727
O        0.51151451       2.46186506       0.14970290
H        1.24001698      -1.06857074      -0.20030898
H        0.31638385      -2.67163915      -0.21940858
H        0.65951190       2.05384671      -2.97088219
H       -2.47373801      -3.67134419       1.24331843
H        0.03597722       3.28459383       0.01831770
H       -0.07751297       0.74158615       0.90683149
17
Properties=species:S:1:pos:R:3 relative_energy_eV=0.10638338071294129 branch=left pbc="F F F"
C        0.37419382      -1.70761483       0.10729243
C       -0.60271231      -1.13656534       0.82647661
O       -0.65217038       0.11549317       1.30881959
P        1.67324035       2.24130746      -1.05162859
O        2.01306688       3.61631863      -1.56110675
O        2.63855294       1.19977575      -0.57936799
O        0.64561093       1.52553930      -2.17564136
C       -1.80875647      -1.90822553       1.21738213
O       -2.81726310      -1.43909798       1.69857880
O       -1.70016454      -3.25245297       0.98238391
O        0.58088857       2.40846809       0.22375510
H        1.24604344      -1.15403450      -0.20962113
H        0.30351916      -2.74666900      -0.18690208
H        0.65200321       2.09053856      -2.95682571
H       -2.53981999      -3.60607963       1.31042788
H       -0.02351465       3.12770179      -0.01934330
H        0.00505923       0.70684772       0.88364637
17
Properties=species:S:1:pos:R:3 relative_energy_eV=0.12874115096201422 branch=left pbc="F F F"
C        0.39025194      -1.73399707       0.10403457
C       -0.58497141      -1.16903236       0.82845162
O       -0.62527678       0.09310587       1.27704491
P        1.69880359       2.26260122      -1.05619447
O        1.96941270       3.65237141      -1.56411683
O        2.69333278       1.23568703      -0.61702255
O        0.66803168       1.55287303      -2.18468394
C       -1.82554722      -1.90220573       1.20921710
O       -2.83093254      -1.37138117       1.62552038
O       -1.76118947      -3.25994669       1.06043084
O        0.64466699       2.39249763       0.25671211
H        1.25038812      -1.16977806      -0.22306513
H        0.33050033      -2.77344310      -0.17526468
H        0.64990678       2.17057062      -2.92700315
H       -2.63426383      -3.57053139       1.35165520
H       -0.07480873       2.99795749       0.02761701
H        0.02947296       0.67390097       0.82499294
17
Properties=species:S:1:pos:R:3 relative_energy_eV=0.1483820595749421 branch=left pbc="F F F"
C        0.40123679      -1.75015137       0.10982894
C       -0.58542418      -1.17005446       0.80951152
O       -0.60754209       0.09470716       1.26014753
P        1.70821962       2.27411581      -1.05625005
O        1.96727777       3.67081591      -1.55311873
O        2.71497611       1.24962667      -0.64515142
O        0.68965104       1.54917892      -2.18005956
C       -1.83751539      -1.88749807       1.20334624
O       -2.84518500      -1.34231370       1.59758573
O       -1.77681235      -3.24960901       1.08855172
O        0.67019981       2.36508223       0.27143798
H        1.25239631      -1.17501526      -0.23983427
H        0.33497333      -2.79656290      -0.15897405
H        0.62660254       2.21375603      -2.88050811
H       -2.65764007      -3.54879781       1.36863352
H       -0.10338590       2.90501501       0.03111222
H        0.03575002       0.67895402       0.79206669
17
Properties=species:S:1:pos:R:3 relative_energy_eV=0.17465939400426578 branch=left pbc="F F F"
C        0.38426653      -1.76658745       0.09936772
C       -0.58702804      -1.16390315       0.79936428
O       -0.60870505       0.10567932       1.22282713
P        1.74512288       2.27421329      -1.05417222
O        1.97885338       3.67657655      -1.53960613
O        2.77567099       1.26976702      -0.64848933
O        0.71744128       1.57154396      -2.18616124
C       -1.84235163      -1.85828059       1.18968328
O       -2.85400807      -1.30111732       1.55440631
O       -1.77951873      -3.22009648       1.11473085
O        0.69099400       2.33181978       0.28353327
H        1.23660174      -1.21196356      -0.25507462
H        0.35835618      -2.82092146      -0.12845041
H        0.54407045       2.27579021      -2.82416116
H       -2.66771075      -3.49725621       1.38997076
H       -0.15508916       2.73869675       0.04247642
H        0.05081309       0.67728770       0.75808091
17
Properties=species:S:1:pos:R:3 relative_energy_eV=0.20964936089876574 branch=left pbc="F F F"
C        0.38093415      -1.76837890       0.09695200
C       -0.59148450      -1.13179549       0.76917231
O       -0.62061931       0.15127768       1.15384358
P        1.76411063       2.28326626      -1.04194102
O        1.99978995       3.69877796      -1.47912666
O        2.80933992       1.29451072      -0.64837792
O        0.72265922       1.57825916      -2.18000161
C       -1.84453384      -1.82919111       1.17330517
O       -2.86320048      -1.27316747       1.52151178
O       -1.77782206      -3.19202475       1.11307192
O        0.71778959       2.28462058       0.27963452
H        1.24479762      -1.24074852      -0.28713048
H        0.31687692      -2.83808454      -0.06351370
H        0.44441278       2.30208216      -2.75810065
H       -2.65324245      -3.48270580       1.41385964
H       -0.16992230       2.54799249      -0.00443639
H        0.10789391       0.69655728       0.75960330
17
Properties=species:S:1:pos:R:3 relative_energy_eV=0.24964456056113704 branch=left pbc="F F F"
C        0.37979288      -1.76487963       0.10930747
C       -0.59695960      -1.11621702       0.75382110
O       -0.62286227       0.16069229       1.13682096
P        1.78393364       2.28629526      -1.03197701
O        1.98525230       3.71811420      -1.43161092
O        2.83717023       1.27582866      -0.69676571
O        0.74346352       1.58818839      -2.14654247
C       -1.85341539      -1.80391697       1.15140886
O       -2.86559696      -1.24626635       1.50951641
O       -1.76046606      -3.16815849       1.10458327
O        0.70320061       2.26968583       0.29298807
H        1.24417454      -1.27999457      -0.31061571
H        0.28999793      -2.82682710      -0.02440692
H        0.40792808       2.30148225      -2.70229175
H       -2.62331688      -3.46909464       1.42319558
H       -0.18008276       2.46675958      -0.06358977
H        0.11556624       0.68955566       0.74448430
17
Properties=species:S:1:pos:R:3 relative_energy_eV=0.34700892143155215 branch=left pbc="F F F"
C        0.35932477      -1.78729666       0.09017969
C       -0.58557141      -1.08644105       0.74973750
O       -0.60457300       0.18860646       1.13721883
P        1.78763709       2.26247920      -1.02456277
O        1.95887326       3.71687769      -1.35225024
O        2.87044487       1.27357427      -0.75785968
O        0.73211469       1.55426021      -2.13397403
C       -1.85150424      -1.78109854       1.15300847
O       -2.88740818      -1.25772581       1.49996120
O       -1.75968841      -3.14881297       1.08749482
O        0.69234816       2.28732747       0.28358289
H        1.23186846      -1.29474618      -0.30631161
H        0.29509734      -2.87124397      -0.00936899
H        0.41585332       2.30616727      -2.64727027
H       -2.60674082      -3.47019817       1.43449792
H       -0.17611454       2.43385014      -0.09891847
H        0.11581885       0.75566774       0.71316048
17
Properties=species:S:1:pos:R:3 relative_energy_eV=0.9701948641813942 branch=left pbc="F F F"
C        0.33481030      -1.79052675       0.09012855
C       -0.63533353      -1.07709660       0.68703120
O       -0.55723181       0.21435640       0.98467968
P        1.82710069       2.23516913      -1.05752662
O        1.92337692       3.69719365      -1.31986272
O        2.92160337       1.25961430      -0.74537865
O        0.72102603       1.57979433      -2.11080004
C       -1.89626911      -1.80126537       1.13455911
O       -2.93687506      -1.31862132       1.52649811
O       -1.77138661      -3.17284903       1.09795325
O        0.70638584       2.16382634       0.35217961
H        1.19963408      -1.26872551      -0.28452718
H        0.29386106      -2.86141157       0.02530334
H        0.37025838       2.30803353      -2.64094598
H       -2.61877752      -3.48945480       1.44975664
H       -0.18757814       2.32319588      -0.05503557
H        0.29317583       1.08001359       0.68431308
17
Properties=species:S:1:pos:R:3 relative_energy_eV=1.2263427180478175 branch=left pbc="F F F"
C        0.32695643      -1.77267773       0.10077524
C       -0.67720266      -1.05943540       0.66343583
O       -0.63167909       0.22838426       0.88485430
P        1.83351493       2.24268625      -1.05362601
O        1.93297875       3.71028377      -1.33750808
O        2.90588428       1.26162984      -0.73378199
O        0.72574624       1.58198845      -2.11652218
C       -1.90477889      -1.80849436       1.13290722
O       -2.94457265      -1.33062885       1.53352567
O       -1.76937511      -3.17850406       1.10447017
O        0.68668937       2.14668183       0.36444010
H        1.20284149      -1.27061533      -0.28893861
H        0.29136874      -2.83969583       0.03771825
H        0.34455240       2.30173861      -2.63446158
H       -2.61922071      -3.49373577       1.45101833
H       -0.19004640       2.17512654      -0.00179453
H        0.47412377       1.18651369       0.71181378
17
Properties=species:S:1:pos:R:3 relative_energy_eV=1.3225399628463492 branch=ts pbc="F F F"
C        0.32696106      -1.75851356       0.10406230
C       -0.69200599      -1.03158757       0.65145540
O       -0.76288590       0.24547727       0.80725794
P        1.83706235       2.25816544      -1.10224229
O        1.94942349       3.72133376      -1.34312501
O        2.87187447       1.27168652      -0.71613711
O        0.73751561       1.57627764      -2.11781223
C       -1.90575242      -1.80927848       1.13695578
O       -2.94815581      -1.33068649       1.53563687
O       -1.76544698      -3.17973977       1.10800906
O        0.67940165       2.17972981       0.39130604
H        1.20986444      -1.28082223      -0.29780143
H        0.29028417      -2.83494948       0.04370123
H        0.32495451       2.29276434      -2.61423965
H       -2.61575151      -3.49514347       1.44945587
H       -0.21694236       1.92724679       0.07141384
H        0.75715396       1.26189867       0.77600749
17
Properties=species:S:1:pos:R:3 relative_energy_eV=1.281861036815826 branch=right pbc="F F F"
C        0.32865349      -1.75097994       0.10625234
C       -0.69518660      -1.02102686       0.64431516
O       -0.79673530       0.25864447       0.77968220
P        1.82317859       2.26137509      -1.10398546
O        1.95108266       3.72371085      -1.34359136
O        2.86161541       1.27542565      -0.70947337
O        0.74358446       1.57373742      -2.12300524
C       -1.90532027      -1.80508224       1.13677158
O       -2.94762977      -1.33076175       1.53686072
O       -1.76541612      -3.17683637       1.10795967
O        0.66993837       2.16528946       0.37706735
H        1.21158018      -1.27941188      -0.30078867
H        0.29068112      -2.82978039       0.04651316
H        0.31703119       2.29058216      -2.60564473
H       -2.61619823      -3.49396044       1.44987602
H       -0.19985831       1.76891608       0.14568232
H        0.89632776       1.31663117       0.80499061
17
Properties=species:S:1:pos:R:3 relative_energy_eV=0.8162083699644427 branch=right pbc="F F F"
C        0.32735410      -1.69514125       0.11857250
C       -0.73836113      -0.96611786       0.59128146
O       -0.96509966       0.31640932       0.60465056
P        1.77133524       2.27570739      -1.10313291
O        1.93568567       3.72824928      -1.34503576
O        2.81529806       1.29370159      -0.66573726
O        0.76502011       1.56338737      -2.17236130
C       -1.90737548      -1.78159362       1.13183012
O       -2.94721203      -1.32344482       1.54938046
O       -1.75745023      -3.15584405       1.10585323
O        0.63522402       2.08298520       0.31743394
H        1.21501389      -1.24746036      -0.30286948
H        0.28658814      -2.77664149       0.06693188
H        0.29260764       2.28180512      -2.60023508
H       -2.60834160      -3.47817295       1.44884730
H       -0.18281968       1.31075687       0.34274563
H        1.22986202       1.51788712       0.86132725
17
Properties=species:S:1:pos:R:3 relative_energy_eV=0.4386434548832767 branch=right pbc="F F F"
C        0.30987543      -1.64076608       0.11499147
C       -0.77362060      -0.97080720       0.54612509
O       -1.05010775       0.31837384       0.50663710
P        1.73391913       2.25255718      -1.05587211
O        1.89850348       3.71881020      -1.34873362
O        2.82587332       1.30349117      -0.65514666
O        0.77794689       1.56546779      -2.21327342
C       -1.91585577      -1.75982771       1.11712090
O       -2.94485154      -1.30100653       1.56206221
O       -1.73975331      -3.12418687       1.09878836
O        0.68193209       1.99497863       0.31856804
H        1.20338733      -1.19531818      -0.29330450
H        0.27514022      -2.71927317       0.10034082
H        0.26504885       2.27971704      -2.61161888
H       -2.58452655      -3.45656025       1.44447515
H       -0.21034061       0.94959563       0.44734971
H        1.41475886       1.73122770       0.87097309
17
Properties=species:S:1:pos:R:3 relative_energy_eV=0.21301031353141298 branch=right pbc="F F F"
C        0.30281753      -1.65477123       0.08132836
C       -0.78857518      -1.01368006       0.54054199
O       -1.05015139       0.27706395       0.61322928
P        1.77182205       2.21616637      -1.07183354
O        1.83154371       3.68480336      -1.32359836
O        2.92812278       1.31323795      -0.77515860
O        0.75537106       1.54094350      -2.18872118
C       -1.93434450      -1.76292443       1.10293242
O       -2.93624036      -1.26032329       1.55734845
O       -1.74108497      -3.11415302       1.07987274
O        0.74878879       2.04040554       0.28949103
H        1.16194407      -1.09818638      -0.27313864
H        0.30709168      -2.73651660       0.12761199
H        0.28727418       2.27452414      -2.60863923
H       -2.55711744      -3.46558049       1.45479898
H       -0.27569134       0.88428563       0.34221909
H        1.35575904       1.82117811       1.00119803
17
Properties=species:S:1:pos:R:3 relative_energy_eV=0.13637278992246138 branch=right pbc="F F F"
C        0.29591322      -1.63406994       0.10039024
C       -0.79876203      -1.00329548       0.55707149
O       -1.07166107       0.29739273       0.61604405
P        1.78488482       2.23995262      -1.06597103
O        1.84563194       3.71382910      -1.35891946
O        2.94105964       1.31137704      -0.84563144
O        0.75741417       1.51905028      -2.17008406
C       -1.93702527      -1.77929068       1.10768320
O       -2.94314820      -1.28747827       1.55346536
O       -1.76466669      -3.13596752       1.07688011
O        0.78371524       2.06175964       0.29643758
H        1.15178125      -1.10907355      -0.28362953
H        0.35401969      -2.71279096       0.10801549
H        0.30735803       2.25831693      -2.59636879
H       -2.57685659      -3.48969049       1.47287243
H       -0.29888523       0.85670328       0.32845511
H        1.33655688       1.83974826       1.05277211
17
Properties=species:S:1:pos:R:3 relative_energy_eV=0.10813172571943142 branch=right pbc="F F F"
C        0.30589191      -1.61587334       0.11022519
C       -0.80913606      -1.01705658       0.56508983
O       -1.09655666       0.28095491       0.59297007
P        1.80357312       2.24706311      -1.07456946
O        1.86988251       3.70982668      -1.39374472
O        2.96918520       1.32572707      -0.86817480
O        0.75462665       1.52758151      -2.14283056
C       -1.95591607      -1.79891080       1.11522717
O       -2.97363474      -1.32191697       1.56600424
O       -1.77242787      -3.15248945       1.07782568
O        0.79832169       2.08078348       0.31612421
H        1.14884183      -1.07340226      -0.29964297
H        0.36213408      -2.69417237       0.10878407
H        0.29948568       2.24169899      -2.60406591
H       -2.58490913      -3.49942113       1.47691983
H       -0.31536277       0.84428768       0.33747726
H        1.36333057       1.86179248       1.06586376
17
Properties=species:S:1:pos:R:3 relative_energy_eV=0.09024045802289038 branch=right pbc="F F F"
C        0.28592463      -1.60451457       0.11203938
C       -0.83728336      -1.02052563       0.55712844
O       -1.13201738       0.28185012       0.56596938
P        1.81334774       2.25270278      -1.07860857
O        1.89576891       3.70713606      -1.42643846
O        2.98612545       1.34647378      -0.86209715
O        0.73718835       1.51637696      -2.11655394
C       -1.96224939      -1.82330773       1.11586000
O       -2.98151058      -1.35533166       1.57130873
O       -1.76810471      -3.17751899       1.08305152
O        0.84595519       2.09598878       0.32039934
H        1.10238268      -1.02593958      -0.29136233
H        0.38511198      -2.67993818       0.12414250
H        0.29377711       2.22287854      -2.60162438
H       -2.58489592      -3.52929714       1.47177965
H       -0.34399875       0.84745439       0.34846764
H        1.43180818       1.89198513       1.05602118
17
Properties=species:S:1:pos:R:3 relative_energy_eV=0.08221487489936408 branch=right pbc="F F F"
C        0.27068769      -1.59041279       0.10998018
C       -0.86154674      -1.02231711       0.55077941
O       -1.16369658       0.28037358       0.56315486
P        1.82538153       2.25503868      -1.07893523
O        1.89051437       3.70599929      -1.45521543
O        2.99893167       1.34242059      -0.87436164
O        0.73866820       1.50613639      -2.09421489
C       -1.97486646      -1.83206460       1.11477866
O       -2.99503851      -1.37402115       1.57748005
O       -1.75956429      -3.18172813       1.08016766
O        0.86828575       2.10408191       0.33994250
H        1.07693359      -0.99571422      -0.28869737
H        0.40617648      -2.66130448       0.14023026
H        0.29848385       2.20638017      -2.59041339
H       -2.56828929      -3.55457000       1.46475948
H       -0.37493073       0.83787470       0.33763341
H        1.49119982       1.92030029       1.05241441
17
Properties=species:S:1:pos:R:3 relative_energy_eV=0.07676553325654822 branch=right pbc="F F F"
C        0.26784631      -1.57627547       0.11291624
C       -0.86931948      -1.01308679       0.55220978
O       -1.17632561       0.28973691       0.56436818
P        1.82117061       2.24824088      -1.07812673
O        1.88033194       3.69558919      -1.46409992
O        2.99732923       1.34222466      -0.87444470
O        0.73870177       1.48753184      -2.08758141
C       -1.98444101      -1.83225124       1.11563604
O       -3.01280563      -1.39320895       1.58035367
O       -1.74982441      -3.17862810       1.07080146
O        0.89136976       2.10978469       0.34707150
H        1.07195204      -0.98200624      -0.29652466
H        0.40819902      -2.64725238       0.15356632
H        0.30290098       2.19481308      -2.57677780
H       -2.54641794      -3.57310015       1.45820576
H       -0.39890410       0.85280370       0.32441882
H        1.52556707       1.92155763       1.04749039
17
Properties=species:S:1:pos:R:3 relative_energy_eV=0.07024623678444186 branch=right pbc="F F F"
C        0.25937470      -1.54396173       0.12674223
C       -0.88158357      -0.99058220       0.56256592
O       -1.20828877       0.30875781       0.56269803
P        1.82938426       2.23543656      -1.07754633
O        1.86229440       3.67863921      -1.48425686
O        3.01419088       1.33679347      -0.87367592
O        0.73141811       1.46321896      -2.07133251
C       -1.98090810      -1.83544919       1.10973359
O       -3.01993442      -1.41979392       1.57060298
O       -1.72536742      -3.17778955       1.05177846
O        0.91902597       2.11988256       0.36466913
H        1.05673769      -0.96278146      -0.30863734
H        0.39927431      -2.61225781       0.17454792
H        0.29036823       2.16472818      -2.56691769
H       -2.51061455      -3.58758720       1.44643668
H       -0.43157318       0.86822771       0.31458898
H        1.56353230       1.90099209       1.04748561
17
Properties=species:S:1:pos:R:3 relative_energy_eV=0.06104727972706314 branch=right pbc="F F F"
C        0.25355845      -1.49955031       0.12888849
C       -0.89437498      -0.95739925       0.55908150
O       -1.24373450       0.33630475       0.56905743
P        1.82826325       2.22630295      -1.07418124
O        1.85860516       3.65594733      -1.52126182
O        3.01847109       1.33517440      -0.88311567
O        0.72493075       1.41847218      -2.02602694
C       -1.97434424      -1.82980147       1.09602555
O       -3.02691726      -1.44694092       1.55539183
O       -1.67464930      -3.16417935       1.03435018
O        0.95293832       2.12842564       0.38834731
H        1.03956573      -0.91099235      -0.31945140
H        0.39183471      -2.56801618       0.20695524
H        0.26884623       2.09348002      -2.54162945
H       -2.45419169      -3.59284416       1.41679171
H       -0.48487668       0.91072667       0.31441927
H        1.58340611       1.81136377       1.04584087
17
Properties=species:S:1:pos:R:3 relative_energy_eV=0.04864109851405374 branch=right pbc="F F F"
C        0.24387435      -1.42078692       0.11396104
C       -0.91962217      -0.91842335       0.55076754
O       -1.29684366       0.36812331       0.57171268
P        1.83415067       2.19806114      -1.06774445
O        1.83803748       3.61524145      -1.55251001
O        3.04354470       1.32847828      -0.89374655
O        0.70099267       1.34288165      -1.95696534
C       -1.97869990      -1.81924529       1.08349164
O       -3.04623504      -1.47466916       1.53811020
O       -1.62576794      -3.13695620       1.02638495
O        1.00647313       2.15259816       0.41978126
H        1.02422861      -0.82717280      -0.33214770
H        0.43980476      -2.47341690       0.22489408
H        0.23411395       1.98644013      -2.50300625
H       -2.39017198      -3.61344915       1.38009734
H       -0.54103368       0.94467089       0.31790358
H        1.60048561       1.69409877       1.02849878
17
Properties=species:S:1:pos:R:3 relative_energy_eV=0.03963500528334407 branch=right pbc="F F F"
C        0.26121456      -1.41051253       0.11181849
C       -0.90404700      -0.90381189       0.54498041
O       -1.28046990       0.38434216       0.57253407
P        1.82205211       2.18735928      -1.05693608
O        1.82088251       3.60782561      -1.53416685
O        3.02526083       1.30887886      -0.86853693
O        0.70321895       1.33086072      -1.96124805
C       -1.96396936      -1.80268441       1.08432804
O       -3.03564754      -1.45126681       1.52421439
O       -1.62010687      -3.12555532       1.02967963
O        0.98526501       2.13695173       0.42267580
H        1.04246535      -0.81777425      -0.34104582
H        0.44437841      -2.47112078       0.20633925
H        0.22009178       1.97210540      -2.49572141
H       -2.39292114      -3.59346222       1.37765164
H       -0.52219883       0.96158919       0.32746574
H        1.56186258       1.63274925       1.00545042
17
Properties=species:S:1:pos:R:3 relative_energy_eV=0.025584548322513 branch=right pbc="F F F"
C        0.28123101      -1.35830188       0.10651788
C       -0.89433198      -0.89044412       0.54785104
O       -1.29349497       0.39082396       0.56654622
P        1.80977771       2.15406543      -1.04376827
O        1.78315508       3.56866629      -1.53799120
O        3.01750962       1.28288268      -0.85714410
O        0.70170784       1.27784541      -1.94489356
C       -1.95163113      -1.79622104       1.07080746
O       -3.02564790      -1.43770012       1.50011563
O       -1.61459589      -3.12004433       1.02887587
O        0.99785069       2.11392023       0.45074903
H        1.01177111      -0.71890987      -0.36321928
H        0.50183384      -2.41169426       0.17651146
H        0.20139658       1.91804783      -2.46449635
H       -2.39157345      -3.58003486       1.38308602
H       -0.54025953       0.97085721       0.31477349
H        1.57263292       1.58271542       1.01516135
17
Properties=species:S:1:pos:R:3 relative_energy_eV=0.020674045499617932 branch=right pbc="F F F"
C        0.28829239      -1.35360007       0.08647498
C       -0.88387057      -0.88041222       0.53984316
O       -1.28532190       0.39926501       0.56685873
P        1.79613536       2.13549283      -1.03664668
O        1.78007485       3.55435421      -1.51439210
O        3.00361932       1.26668002      -0.83657424
O        0.69763375       1.27199909      -1.95339539
C       -1.94115127      -1.78401069       1.06653472
O       -3.01594800      -1.42374458       1.49449463
O       -1.60812416      -3.11060187       1.02978790
O        0.96772341       2.07218900       0.44913615
H        1.03253723      -0.72229288      -0.37894794
H        0.51448254      -2.40796698       0.15877447
H        0.19132245       1.91314585      -2.46478834
H       -2.39593047      -3.54549214       1.39005272
H       -0.53375754       0.98662003       0.32469987
H        1.55961403       1.57484934       1.02757002
17
Properties=species:S:1:pos:R:3 relative_energy_eV=0.017875173147331225 branch=right pbc="F F F"
C        0.28782960      -1.33855544       0.08121773
C       -0.88601033      -0.86797425       0.52801781
O       -1.29684240       0.40892010       0.56193416
P        1.79543695       2.12007916      -1.03112250
O        1.77846824       3.53986532      -1.50911338
O        3.00580953       1.25355550      -0.83974870
O        0.69149437       1.25617954      -1.94710343
C       -1.93506762      -1.77862608       1.05739558
O       -3.01015216      -1.42652230       1.48998261
O       -1.59630485      -3.10261093       1.02686943
O        0.96715459       2.05692727       0.45655657
H        1.02580317      -0.71110950      -0.39296435
H        0.51008758      -2.39127021       0.16224604
H        0.18677252       1.89647275      -2.46224329
H       -2.37725044      -3.55020945       1.38928002
H       -0.54489717       1.00426719       0.33659003
H        1.56499988       1.57708534       1.04168828
17
Properties=species:S:1:pos:R:3 relative_energy_eV=0.01571360266461852 branch=right pbc="F F F"
C        0.29068384      -1.33878515       0.07253441
C       -0.88211383      -0.86454542       0.52180835
O       -1.28803636       0.41314984       0.54981586
P        1.78844766       2.10972014      -1.03008942
O        1.78048535       3.53547009      -1.48706991
O        2.99357379       1.23684440      -0.83614063
O        0.69366366       1.25560116      -1.95574755
C       -1.93247352      -1.77098266       1.05702283
O       -3.00498955      -1.40923674       1.48846416
O       -1.59383361      -3.09771056       1.02916611
O        0.94527922       2.04135475       0.45126601
H        1.03348360      -0.71581706      -0.40483778
H        0.50577761      -2.39398757       0.15065082
H        0.19011915       1.89940975      -2.46557135
H       -2.37318352      -3.54377817       1.39448910
H       -0.52337358       1.00856331       0.36201244
H        1.54382138       1.58120385       1.05170914
17
Properties=species:S:1:pos:R:3 relative_energy_eV=0.01455013459053589 branch=right pbc="F F F"
C        0.28569329      -1.33725804       0.06732025
C       -0.88206062      -0.85773035       0.52279350
O       -1.28351825       0.42104840       0.54964540
P        1.78723487       2.10273751      -1.02800977
O        1.78068801       3.52869734      -1.48554020
O        2.98885772       1.22567552      -0.83082609
O        0.69636476       1.25165497      -1.96305078
C       -1.93149797      -1.76567174       1.05624475
O       -3.00806733      -1.41517026       1.48675728
O       -1.58539441      -3.08945951       1.02509924
O        0.94031440       2.03947692       0.45430348
H        1.02434352      -0.71172379      -0.40988665
H        0.50467625      -2.39111199       0.14838050
H        0.19086049       1.89785700      -2.46889341
H       -2.35932085      -3.54159203       1.39425028
H       -0.51376890       1.01595640       0.37405054
H        1.53192625       1.57308764       1.05684426
17
Properties=species:S:1:pos:R:3 relative_energy_eV=0.013748431287240237 branch=right pbc="F F F"
C        0.28299253      -1.33430885       0.06616386
C       -0.88542685      -0.85681056       0.52361057
O       -1.27769111       0.42432138       0.56596335
P        1.78786558       2.10034148      -1.02919878
O        1.79081512       3.52612379      -1.48677804
O        2.98511932       1.22027376      -0.82048067
O        0.69901145       1.25428556      -1.96969792
C       -1.93448686      -1.76694036       1.05454752
O       -3.01106494      -1.41903294       1.48775204
O       -1.58172125      -3.08977704       1.02758227
O        0.93206294       2.03951265       0.44858613
H        1.01844897      -0.70936647      -0.41833215
H        0.50382251      -2.38850052       0.14129127
H        0.19823032       1.90416848      -2.47526083
H       -2.35503131      -3.54229999       1.39692398
H       -0.50389030       1.01324996       0.38115288
H        1.51827504       1.57123367       1.05565707
17
Properties=species:S:1:pos:R:3 relative_energy_eV=0.012842900887335418 branch=right pbc="F F F"
C        0.27533613      -1.32767956       0.05737835
C       -0.88692294      -0.85445492       0.53241039
O       -1.27853829       0.42632833       0.58835679
P        1.79326476       2.09724625      -1.02946207
O        1.80792626       3.52125465      -1.49364690
O        2.98487669       1.21135171      -0.81181559
O        0.70229411       1.25498832      -1.97217170
C       -1.93418842      -1.77110676       1.05740974
O       -3.01527011      -1.42976577       1.48386044
O       -1.57711458      -3.09261931       1.02741893
O        0.92610355       2.04179339       0.44156910
H        1.00413191      -0.69913882      -0.43112633
H        0.49872760      -2.38004834       0.13732445
H        0.21081114       1.90787350      -2.48298289
H       -2.34478866      -3.55258428       1.40023483
H       -0.50843602       1.01647230       0.39144422
H        1.50911797       1.57656335       1.05328075
17
Properties=species:S:1:pos:R:3 relative_energy_eV=0.012290498798392946 branch=right pbc="F F F"
C        0.27360115      -1.32760507       0.05541464
C       -0.88665299      -0.85546798       0.53854757
O       -1.27979345       0.42512305       0.60227058
P        1.79524553       2.09542092      -1.03086244
O        1.81938482       3.51890619      -1.49326847
O        2.98296454       1.20645511      -0.80744027
O        0.70783932       1.25812503      -1.97818745
C       -1.93344373      -1.77350815       1.06128903
O       -3.01680996      -1.43228151       1.48243998
O       -1.57431621      -3.09508991       1.03125210
O        0.92105240       2.04672277       0.43585530
H        0.99865695      -0.69765597      -0.43819997
H        0.50092915      -2.38092447       0.12619868
H        0.21759163       1.91119771      -2.48927347
H       -2.34446720      -3.55286816       1.40084606
H       -0.51352584       1.01822477       0.40061109
H        1.49907494       1.58169969       1.05198948
17
Properties=species:S:1:pos:R:3 relative_energy_eV=0.011964795379753923 branch=right pbc="F F F"
C        0.27152107      -1.32443386       0.05225780
C       -0.88710799      -0.85490978       0.54001318
O       -1.28235929       0.42459838       0.60950839
P        1.79771084       2.09406461      -1.03068016
O        1.82600739       3.51755163      -1.49507757
O        2.98013847       1.19875901      -0.80162165
O        0.71176875       1.25668026      -1.98340110
C       -1.93208453      -1.77475489       1.06251253
O       -3.01670240      -1.43653884       1.48252685
O       -1.56949801      -3.09453471       1.03599417
O        0.91931975       2.04987913       0.43441524
H        0.99393955      -0.69343491      -0.44219248
H        0.49764516      -2.37730355       0.11995467
H        0.22023699       1.91068101      -2.49257304
H       -2.34069290      -3.55630479       1.39877245
H       -0.51944898       1.02128081       0.40736842
H        1.49693717       1.58519453       1.05170472
17
Properties=species:S:1:pos:R:3 relative_energy_eV=0.011796527724072803 branch=right pbc="F F F"
C        0.27035981      -1.32565949       0.04852249
C       -0.88669520      -0.85588032       0.54099576
O       -1.28102844       0.42410946       0.61337350
P        1.79815214       2.09352519      -1.03094649
O        1.83373410       3.51696225      -1.49365823
O        2.97664350       1.19463347      -0.79775140
O        0.71532706       1.25977287      -1.98835067
C       -1.93053251      -1.77614793       1.06572615
O       -3.01516950      -1.43694551       1.48521425
O       -1.56799306      -3.09661055       1.04179773
O        0.91495222       2.05490343       0.43180312
H        0.99677616      -0.69425547      -0.44114117
H        0.49362441      -2.38019406       0.10950627
H        0.22176726       1.91429727      -2.49469696
H       -2.34284919      -3.55638069       1.39937710
H       -0.51837310       1.01999142       0.40664467
H        1.48863541       1.59035259       1.05306631
17
Properties=species:S:1:pos:R:3 relative_energy_eV=0.011496762686874717 branch=right pbc="F F F"
C        0.26601783      -1.32360792       0.04186428
C       -0.88816539      -0.85480850       0.54026488
O       -1.28282175       0.42481982       0.61327440
P        1.80081320       2.08956119      -1.02858340
O        1.85009378       3.51131021      -1.49592508
O        2.97259289       1.18303443      -0.78993035
O        0.71511674       1.25884809      -1.98741120
C       -1.92756396      -1.77717018       1.06943394
O       -3.01262204      -1.44236357       1.49112657
O       -1.56058124      -3.09615754       1.04587175
O        0.90905112       2.06162672       0.42980050
H        0.99469752      -0.68915202      -0.43879902
H        0.48260450      -2.37939526       0.09045048
H        0.22365617       1.91595093      -2.49261525
H       -2.33371912      -3.55957850       1.40254111
H       -0.52220064       1.02108093       0.40113308
H        1.48036162       1.60247482       1.05698573
17
Properties=species:S:1:pos:R:3 relative_energy_eV=0.011269666370935738 branch=right pbc="F F F"
C        0.26394963      -1.32322511       0.03830842
C       -0.88981331      -0.85552127       0.53966620
O       -1.28588456       0.42414510       0.61288713
P        1.80397220       2.08717172      -1.02813581
O        1.86171502       3.50736185      -1.49897481
O        2.96915128       1.17402449      -0.78285664
O        0.71503868       1.26123343      -1.98514074
C       -1.92697156      -1.77843096       1.07200988
O       -3.01151541      -1.44535480       1.49667632
O       -1.55688779      -3.09662942       1.04750112
O        0.90732617       2.06680932       0.42595643
H        0.99396859      -0.68654908      -0.43805542
H        0.47840011      -2.38036629       0.07415661
H        0.22496676       1.91805981      -2.49166956
H       -2.32747276      -3.56130043       1.40746081
H       -0.52652400       1.02069033       0.39783153
H        1.47391231       1.61435475       1.06186096
17
Properties=species:S:1:pos:R:3 relative_energy_eV=0.010979833441524534 branch=right pbc="F F F"
C        0.26328997      -1.32558082       0.03050689
C       -0.88918924      -0.85776288       0.53465220
O       -1.28599372       0.42164102       0.61101621
P        1.80443523       2.08506679      -1.02570924
O        1.87816109       3.50184354      -1.50461457
O        2.96077025       1.16341914      -0.76992742
O        0.71337312       1.26530070      -1.98625626
C       -1.92496782      -1.77939783       1.07219454
O       -3.00523846      -1.44264280       1.50461491
O       -1.55758011      -3.09835459       1.04552984
O        0.90085002       2.07849618       0.42524636
H        0.99922155      -0.68828930      -0.43581832
H        0.47262755      -2.38398973       0.05736546
H        0.22591694       1.92615527      -2.49044192
H       -2.32073932      -3.56318567       1.42094102
H       -0.52923784       1.02071984       0.39553880
H        1.46163219       1.62303437       1.06464398
17
Properties=species:S:1:pos:R:3 relative_energy_eV=0.010824554487044225 branch=right pbc="F F F"
C        0.26213879      -1.32583579       0.02572361
C       -0.88995259      -0.85892693       0.53126097
O       -1.28717054       0.42032470       0.60998339
P        1.80522052       2.08318757      -1.02430162
O        1.88762152       3.49880171      -1.50533118
O        2.95496804       1.15409133      -0.76557601
O        0.71113876       1.26721154      -1.98420917
C       -1.92288480      -1.78165057       1.07197218
O       -3.00162846      -1.44653725       1.50972591
O       -1.55634085      -3.10075040       1.04395111
O        0.89878819       2.08680129       0.42437254
H        0.99849447      -0.68833043      -0.43963496
H        0.47077366      -2.38427529       0.05288782
H        0.22951881       1.93009458      -2.49105030
H       -2.31818986      -3.56075123       1.42804249
H       -0.53135350       1.02032298       0.39444088
H        1.45618922       1.63269528       1.06722487
17
Properties=species:S:1:pos:R:3 relative_energy_eV=0.010639024279953446 branch=right pbc="F F F"
C        0.26319101      -1.32938555       0.02203442
C       -0.88811302      -0.86099640       0.52914907
O       -1.28631967       0.41865713       0.60518337
P        1.80418273       2.08247544      -1.02127788
O        1.90000173       3.49602803      -1.50526656
O        2.94596086       1.14443180      -0.75880669
O        0.70554611       1.27361005      -1.98102819
C       -1.92109185      -1.78211674       1.07362933
O       -2.99679648      -1.44433176       1.51685372
O       -1.55720837      -3.10216030       1.04523692
O        0.89482198       2.09714926       0.42480605
H        0.99819825      -0.69228445      -0.44684906
H        0.47376316      -2.38799958       0.05067599
H        0.23125004       1.93659176      -2.49456126
H       -2.31788432      -3.56186633       1.43226010
H       -0.53121027       1.01860136       0.38818249
H        1.44903943       1.64006893       1.06926083
17
Properties=species:S:1:pos:R:3 relative_energy_eV=0.010408415266283555 branch=right pbc="F F F"
C        0.26258832      -1.33020697       0.01701447
C       -0.88745601      -0.86228193       0.52613238
O       -1.28713110       0.41675936       0.59887280
P        1.80342041       2.08005503      -1.01733027
O        1.91564642       3.49085311      -1.50651787
O        2.93491745       1.13027748      -0.75205167
O        0.69568862       1.27819152      -1.97494855
C       -1.91701229      -1.78256214       1.07723376
O       -2.99102051      -1.44482131       1.52455753
O       -1.55319136      -3.10236173       1.04550632
O        0.89334707       2.10731933       0.42771762
H        0.99342542      -0.69453128      -0.45923778
H        0.47530168      -2.38744845       0.05368783
H        0.23378162       1.94211039      -2.49836123
H       -2.31265293      -3.56285598       1.43360836
H       -0.53478399       1.01779262       0.37784794
H        1.44246247       1.65018294       1.07575118
17
Properties=species:S:1:pos:R:3 relative_energy_eV=0.01032171646511415 branch=right pbc="F F F"
C        0.26279577      -1.33120041       0.01486002
C       -0.88713881      -0.86316703       0.52460509
O       -1.28941249       0.41555538       0.59406082
P        1.80345924       2.07740450      -1.01636138
O        1.92385713       3.48615069      -1.50972586
O        2.92993852       1.12277987      -0.74749770
O        0.69163922       1.28244782      -1.97423127
C       -1.91454589      -1.78320216       1.07972010
O       -2.98728013      -1.44497540       1.52979361
O       -1.55093971      -3.10307547       1.04798209
O        0.89102860       2.11221274       0.42707173
H        0.99323726      -0.69641688      -0.46368940
H        0.47641916      -2.38846019       0.05344728
H        0.23721289       1.95231082      -2.49677719
H       -2.31156466      -3.56326479       1.43409246
H       -0.53735261       1.01731016       0.37423957
H        1.43597786       1.65406205       1.07789295
