16
Properties=species:S:1:pos:R:3 relative_energy_eV=0.0 branch=left pbc="F F F"
O        2.72128219       1.48957668       0.25462859
C        1.58477199       1.07340847       0.42644378
C        1.27832410      -0.39496878       0.34386356
O        2.47717876      -1.11344549       0.08086161
C        0.18691930      -0.68361809      -0.71401948
O       -1.03039206      -1.13720085      -0.17257151
P       -2.08167201       0.01957473       0.43782329
O       -3.22888197      -0.74113354       1.02535666
O       -1.26732663       1.06612206       1.15231624
O       -2.59398035       0.71903706      -0.99760808
H        0.72709628       1.72432470       0.63127419
H        0.86391778      -0.68396880       1.31791725
H        3.16628579      -0.42698696       0.05918837
H        0.03522791       0.19972695      -1.34223457
H        0.57294700      -1.48006595      -1.34894554
H       -3.41293470       0.26281303      -1.22404600
16
Properties=species:S:1:pos:R:3 relative_energy_eV=0.00014080341861699708 branch=left pbc="F F F"
O        2.72271232       1.48830182       0.25656890
C        1.58679157       1.07219841       0.43190733
C        1.27988336      -0.39611700       0.34381843
O        2.47752053      -1.11316872       0.07254484
C        0.18667495      -0.68224559      -0.71237267
O       -1.03133299      -1.13518276      -0.17133547
P       -2.08297648       0.02388329       0.43452953
O       -3.22914528      -0.73266446       1.02937175
O       -1.26623480       1.07369324       1.14133459
O       -2.60160079       0.71278176      -1.00362311
H        0.73062162       1.72291433       0.64432292
H        0.86827056      -0.68865633       1.31784127
H        3.16737046      -0.42712637       0.05725409
H        0.03697479       0.20244863      -1.33877180
H        0.57194603      -1.47779332      -1.34891585
H       -3.41871233       0.24992827      -1.22422678
16
Properties=species:S:1:pos:R:3 relative_energy_eV=0.0003771402989514172 branch=left pbc="F F F"
O        2.73000034       1.48494710       0.27064532
C        1.59317071       1.06847414       0.44038908
C        1.28321146      -0.39818241       0.34198116
O        2.47952048      -1.11628550       0.06684726
C        0.18626426      -0.67639003      -0.71270121
O       -1.03018910      -1.12775955      -0.16761042
P       -2.08573504       0.03172493       0.43085934
O       -3.22452441      -0.72439273       1.04013568
O       -1.27127333       1.09536236       1.11992253
O       -2.61699967       0.70125568      -1.01191558
H        0.73678291       1.71668871       0.65675506
H        0.87386709      -0.69534124       1.31627248
H        3.17049713      -0.43110993       0.05207561
H        0.03559100       0.21107779      -1.33489910
H        0.56678777      -1.47116380      -1.35321598
H       -3.42820801       0.22428956      -1.22529379
16
Properties=species:S:1:pos:R:3 relative_energy_eV=0.0005897443588764872 branch=left pbc="F F F"
O        2.73287180       1.48058668       0.27702148
C        1.59522045       1.06650798       0.44752602
C        1.28398201      -0.40000382       0.34314423
O        2.47976535      -1.11696297       0.06222139
C        0.18523641      -0.67336446      -0.71161108
O       -1.03177442      -1.12370659      -0.16676049
P       -2.08655673       0.03755424       0.42854874
O       -3.21862112      -0.72059792       1.04862825
O       -1.27327184       1.10877505       1.10694765
O       -2.62394629       0.69464824      -1.01734852
H        0.74121127       1.71775903       0.66734296
H        0.87630932      -0.70265877       1.31645815
H        3.16908427      -0.43045599       0.04439084
H        0.03670151       0.21463336      -1.33412504
H        0.56280725      -1.46818062      -1.35360179
H       -3.43025562       0.20866151      -1.22853571
16
Properties=species:S:1:pos:R:3 relative_energy_eV=0.0007525996516051237 branch=left pbc="F F F"
O        2.73126939       1.48183871       0.27921763
C        1.59536154       1.06459657       0.45279440
C        1.28704511      -0.40185860       0.34306322
O        2.48269552      -1.11568326       0.05394724
C        0.18557436      -0.67334470      -0.70806812
O       -1.03027263      -1.11977014      -0.15827953
P       -2.08972490       0.04193119       0.42787589
O       -3.22016057      -0.71503133       1.05159492
O       -1.28108784       1.11997077       1.10103887
O       -2.62567075       0.68977439      -1.02286137
H        0.74079892       1.71312043       0.67785395
H        0.88238043      -0.71093678       1.31567026
H        3.17214226      -0.42908827       0.03205524
H        0.03913939       0.21431434      -1.33099061
H        0.56063070      -1.47021322      -1.34889325
H       -3.43135730       0.20357475      -1.23577192
16
Properties=species:S:1:pos:R:3 relative_energy_eV=0.0008382622618228197 branch=left pbc="F F F"
O        2.72913826       1.48356798       0.27651272
C        1.59463207       1.06404323       0.45468270
C        1.28798784      -0.40320702       0.34407808
O        2.48422422      -1.11376125       0.05150502
C        0.18550427      -0.67598520      -0.70586040
O       -1.03063216      -1.12078755      -0.15518201
P       -2.09011435       0.04289521       0.42742747
O       -3.22203638      -0.71283649       1.05026227
O       -1.28202997       1.12143698       1.10053971
O       -2.62213769       0.68903855      -1.02537776
H        0.74006002       1.71083490       0.68460817
H        0.88604227      -0.71389909       1.31705074
H        3.16915578      -0.42316795       0.02406651
H        0.03934653       0.21179882      -1.32870721
H        0.55970131      -1.47395389      -1.34652078
H       -3.43007847       0.20717763      -1.23883840
16
Properties=species:S:1:pos:R:3 relative_energy_eV=0.0009530291281407699 branch=left pbc="F F F"
O        2.72301049       1.48853824       0.26841406
C        1.59208141       1.06440693       0.45735188
C        1.28941365      -0.40356274       0.34504559
O        2.48784232      -1.11047748       0.04972057
C        0.18533626      -0.67963987      -0.70256731
O       -1.03037564      -1.12243018      -0.14966585
P       -2.09060817       0.04318281       0.42600000
O       -3.22779611      -0.70922582       1.04254939
O       -1.28383659       1.12019293       1.10293220
O       -2.61444803       0.68936227      -1.02975333
H        0.73805555       1.70675496       0.69945231
H        0.89134527      -0.71712161       1.31881906
H        3.16928840      -0.41700319       0.01012445
H        0.03905457       0.20443475      -1.33023514
H        0.55903828      -1.48055740      -1.33891032
H       -3.42863818       0.21634020      -1.23903067
16
Properties=species:S:1:pos:R:3 relative_energy_eV=0.0010874804902414326 branch=left pbc="F F F"
O        2.72026760       1.48863462       0.26355361
C        1.59125969       1.06263122       0.45880997
C        1.29145924      -0.40566852       0.34834379
O        2.49075861      -1.10907408       0.05082035
C        0.18665856      -0.68061554      -0.70043128
O       -1.03018707      -1.12153503      -0.14916316
P       -2.09205270       0.04466269       0.42405330
O       -3.22948830      -0.70910201       1.03875422
O       -1.28622584       1.12165806       1.10189897
O       -2.61601413       0.69057556      -1.03131694
H        0.73700936       1.70503240       0.70074586
H        0.89544186      -0.72185461       1.32188926
H        3.17019069      -0.41379830       0.00604719
H        0.04087558       0.20401113      -1.32788599
H        0.56025190      -1.48114285      -1.33814405
H       -3.43144156       0.21878006      -1.23772813
16
Properties=species:S:1:pos:R:3 relative_energy_eV=0.0014413718417927157 branch=left pbc="F F F"
O        2.72376156       1.48501934       0.26124155
C        1.59438572       1.06190988       0.46015938
C        1.29092488      -0.40593450       0.35104670
O        2.49056094      -1.11498079       0.06391799
C        0.19167360      -0.67569520      -0.70359048
O       -1.02636342      -1.11860394      -0.15683361
P       -2.08978787       0.04404524       0.41973458
O       -3.22333426      -0.71304894       1.03827362
O       -1.28496531       1.12634883       1.09173866
O       -2.62767861       0.68366624      -1.03435240
H        0.74195973       1.70629153       0.70276490
H        0.88396454      -0.71997000       1.32096470
H        3.16895263      -0.41996103       0.00782670
H        0.04827710       0.21267270      -1.32512961
H        0.56595503      -1.47281906      -1.34476228
H       -3.44952270       0.21425441      -1.22275352
16
Properties=species:S:1:pos:R:3 relative_energy_eV=0.0029937892650195863 branch=left pbc="F F F"
O        2.73212415       1.47772521       0.26388785
C        1.60117294       1.05764723       0.46073341
C        1.29094360      -0.40838801       0.35805590
O        2.48831232      -1.12444107       0.08651274
C        0.19569546      -0.66310690      -0.70804778
O       -1.02295257      -1.11736821      -0.17143040
P       -2.08895463       0.04128986       0.40908681
O       -3.21260211      -0.71052608       1.05244368
O       -1.28178379       1.12717283       1.07107639
O       -2.64283635       0.65923996      -1.04793266
H        0.74928598       1.70575849       0.69440132
H        0.87402541      -0.71808657       1.32406913
H        3.16773697      -0.43139571       0.01420152
H        0.05840402       0.23797304      -1.31594889
H        0.57339152      -1.44894487      -1.36105171
H       -3.48319918       0.20864538      -1.19981052
16
Properties=species:S:1:pos:R:3 relative_energy_eV=0.005930692834226647 branch=left pbc="F F F"
O        2.73487731       1.47601984       0.26999220
C        1.60248332       1.05909539       0.46539906
C        1.29067727      -0.40567856       0.35941246
O        2.48773603      -1.12743300       0.09427656
C        0.19796900      -0.65763259      -0.70790136
O       -1.01944449      -1.12037002      -0.17240580
P       -2.08558781       0.03764155       0.41045621
O       -3.21746843      -0.69820639       1.05818890
O       -1.27169991       1.12622091       1.06168604
O       -2.63711579       0.63643284      -1.05427274
H        0.74735980       1.70621054       0.69265923
H        0.86933150      -0.71964814       1.32239363
H        3.16855738      -0.43888786       0.00620380
H        0.04572673       0.24161103      -1.31165034
H        0.57780412      -1.43533093      -1.36900325
H       -3.49244226       0.21314997      -1.19518783
16
Properties=species:S:1:pos:R:3 relative_energy_eV=0.013344303471967578 branch=left pbc="F F F"
O        2.78364371       1.44257691       0.31242663
C        1.63485027       1.05446249       0.46804480
C        1.28456242      -0.40235179       0.36621210
O        2.46012365      -1.16603083       0.12148079
C        0.20555164      -0.62326052      -0.72435787
O       -1.00795374      -1.12263108      -0.21387745
P       -2.08112661       0.02588263       0.37846212
O       -3.15878764      -0.72353742       1.09862682
O       -1.27197252       1.15695458       0.95998277
O       -2.71556527       0.57479406      -1.07045447
H        0.78981589       1.72920318       0.66276552
H        0.84094005      -0.68240486       1.33241436
H        3.17018951      -0.50229674       0.06352982
H        0.04962473       0.30778686      -1.27897244
H        0.60955813      -1.35725682      -1.42203651
H       -3.59468986       0.18130379      -1.12400052
16
Properties=species:S:1:pos:R:3 relative_energy_eV=0.018806221491104225 branch=left pbc="F F F"
O        2.80630460       1.42737817       0.32647797
C        1.64991802       1.05402644       0.46579165
C        1.28168434      -0.39628188       0.36824079
O        2.44665087      -1.17694116       0.13796352
C        0.21372918      -0.60609516      -0.72471297
O       -1.00293724      -1.11867731      -0.23804198
P       -2.07835625       0.02052261       0.36319014
O       -3.12808248      -0.74038492       1.11546619
O       -1.26749405       1.16476957       0.91719015
O       -2.75332062       0.55828594      -1.07939959
H        0.80989176       1.73442141       0.64812651
H        0.82300350      -0.67079504       1.32736321
H        3.17136066      -0.52724262       0.08988670
H        0.04740310       0.33109983      -1.25714585
H        0.61358061      -1.32748976      -1.43383851
H       -3.63457138       0.16659825      -1.09631157
16
Properties=species:S:1:pos:R:3 relative_energy_eV=0.025977493038226385 branch=left pbc="F F F"
O        2.85616915       1.39250083       0.35392995
C        1.68745978       1.04961540       0.46775666
C        1.28455280      -0.39213722       0.36261044
O        2.43751032      -1.19822776       0.16492584
C        0.21667414      -0.57412145      -0.74687628
O       -1.00057917      -1.09755330      -0.27600336
P       -2.08487253       0.01722154       0.34446079
O       -3.08420347      -0.76546988       1.13602931
O       -1.27945248       1.18438667       0.85556444
O       -2.82958290       0.51509226      -1.07064046
H        0.85900978       1.75711895       0.62640933
H        0.79417246      -0.64801869       1.30942879
H        3.17505986      -0.56453871       0.16378319
H        0.06190922       0.38434307      -1.25254853
H        0.61639292      -1.29170686      -1.45974639
H       -3.71145474       0.12468941      -1.04883754
16
Properties=species:S:1:pos:R:3 relative_energy_eV=0.034399419873807346 branch=left pbc="F F F"
O        2.92190708       1.33123175       0.40534903
C        1.73627153       1.04289033       0.46783403
C        1.26703621      -0.37317437       0.35234708
O        2.39211980      -1.22685884       0.19931471
C        0.23482005      -0.52734477      -0.78943926
O       -0.99262494      -1.06107337      -0.35655017
P       -2.08721236       0.01517465       0.32572423
O       -3.01390577      -0.79515749       1.18166180
O       -1.30902770       1.22181838       0.78280766
O       -2.93547748       0.45202193      -1.05477517
H        0.95674022       1.79644350       0.60519557
H        0.72939443      -0.59686680       1.28629014
H        3.15936439      -0.62921226       0.27482768
H        0.09128012       0.43782734      -1.28322868
H        0.64679962      -1.22966498      -1.51208802
H       -3.79871924       0.03513919      -0.95502472
16
Properties=species:S:1:pos:R:3 relative_energy_eV=0.0385872833612666 branch=left pbc="F F F"
O        2.95701685       1.29600364       0.44488811
C        1.76173624       1.04121760       0.46732535
C        1.26104803      -0.36728270       0.34655558
O        2.36524548      -1.25197063       0.22548641
C        0.24229449      -0.50297188      -0.81354981
O       -0.99110372      -1.03904395      -0.40050544
P       -2.08839288       0.01799658       0.31542303
O       -2.96053731      -0.80804505       1.21191118
O       -1.32989783       1.24397640       0.74757727
O       -2.99295463       0.43177786      -1.03208879
H        0.99193392       1.81906397       0.56795497
H        0.69824699      -0.56811640       1.27021694
H        3.13878405      -0.67187177       0.33570722
H        0.11025583       0.47048078      -1.29546291
H        0.66601518      -1.18705059      -1.54914279
H       -3.83092423      -0.03096967      -0.91205052
16
Properties=species:S:1:pos:R:3 relative_energy_eV=0.0458881504710007 branch=left pbc="F F F"
O        2.97745503       1.27154603       0.46855611
C        1.77662656       1.04137037       0.46103702
C        1.24396031      -0.34916485       0.34291112
O        2.31527547      -1.27501219       0.26490263
C        0.25625699      -0.47309224      -0.83861201
O       -0.98684307      -1.00995797      -0.46415157
P       -2.07825657       0.02386047       0.30579466
O       -2.89573778      -0.83314291       1.22589907
O       -1.33555232       1.26742486       0.71803180
O       -3.04847962       0.41280916      -1.00207516
H        1.02096546       1.83108965       0.55086663
H        0.65075728      -0.52609096       1.24982939
H        3.11972389      -0.73971468       0.37843724
H        0.13025430       0.50162754      -1.31723021
H        0.70800519      -1.15440310      -1.55875121
H       -3.85564412      -0.09595500      -0.85519983
16
Properties=species:S:1:pos:R:3 relative_energy_eV=0.04965339165937621 branch=left pbc="F F F"
O        2.98454851       1.25739870       0.47993269
C        1.78297981       1.03800410       0.46470618
C        1.23336198      -0.34854229       0.34978848
O        2.28995640      -1.29541609       0.28474961
C        0.26351185      -0.45289164      -0.85251991
O       -0.98732877      -0.98672268      -0.50450665
P       -2.07275674       0.02267452       0.29891574
O       -2.85004174      -0.85087446       1.23780948
O       -1.33325576       1.27182378       0.69481432
O       -3.08003339       0.41020372      -0.97663930
H        1.03249691       1.83938883       0.52286260
H        0.62078486      -0.50420217       1.24974682
H        3.09682733      -0.76686139       0.40257264
H        0.15429974       0.52922461      -1.32594938
H        0.72509841      -1.13460478      -1.56734083
H       -3.86168210      -0.13540859      -0.82869689
16
Properties=species:S:1:pos:R:3 relative_energy_eV=0.0523684213294473 branch=left pbc="F F F"
O        2.98767609       1.24047074       0.48790056
C        1.78347355       1.03600258       0.46462339
C        1.22049251      -0.34478580       0.35510579
O        2.26923025      -1.29889769       0.30385436
C        0.26799418      -0.44386584      -0.85965356
O       -0.98737475      -0.98163914      -0.53577705
P       -2.06317589       0.02077309       0.29587323
O       -2.81840630      -0.85831470       1.24772461
O       -1.32477912       1.27415318       0.68284979
O       -3.09675711       0.40873619      -0.95840874
H        1.04438376       1.84733571       0.50279048
H        0.60369184      -0.49611931       1.25314021
H        3.07996228      -0.77397094       0.41576485
H        0.17107452       0.54266049      -1.32524931
H        0.72491982      -1.11963140      -1.58140526
H       -3.86363816      -0.15971307      -0.81888781
16
Properties=species:S:1:pos:R:3 relative_energy_eV=0.054587607071880484 branch=left pbc="F F F"
O        2.99090696       1.22597810       0.50551508
C        1.78518337       1.03277047       0.45868003
C        1.21462004      -0.34723351       0.35266395
O        2.26279400      -1.30203240       0.31891694
C        0.26487531      -0.44216928      -0.86626413
O       -0.99338748      -0.97307946      -0.54703298
P       -2.06112105       0.02300013       0.29711886
O       -2.79647085      -0.86160235       1.25860987
O       -1.31784313       1.27589307       0.67409730
O       -3.10495126       0.40555797      -0.94861752
H        1.05452446       1.85298052       0.48613534
H        0.59216274      -0.48642137       1.24907322
H        3.07222732      -0.77470648       0.42655807
H        0.17117872       0.54971965      -1.31977456
H        0.72549240      -1.10685069      -1.59848262
H       -3.86142400      -0.17861029      -0.81695133
16
Properties=species:S:1:pos:R:3 relative_energy_eV=0.05718076430275687 branch=left pbc="F F F"
O        2.99966378       1.20813190       0.54082824
C        1.79390662       1.02805792       0.45860687
C        1.21254678      -0.34615828       0.34447032
O        2.25701723      -1.30546243       0.31121198
C        0.26096824      -0.43283854      -0.87145963
O       -0.99430814      -0.97579438      -0.55282553
P       -2.05966945       0.02565116       0.30090444
O       -2.78310465      -0.85312316       1.27724072
O       -1.32219907       1.28638229       0.66458298
O       -3.11352848       0.39884916      -0.94016974
H        1.07605490       1.85949594       0.44912601
H        0.58405161      -0.48709030       1.23572554
H        3.06325265      -0.77735609       0.44971669
H        0.15114421       0.56317527      -1.31240546
H        0.72644027      -1.09009860      -1.60590025
H       -3.85346887      -0.20862778      -0.81940760
16
Properties=species:S:1:pos:R:3 relative_energy_eV=0.0624310769198928 branch=left pbc="F F F"
O        3.00971761       1.19940395       0.59444958
C        1.80823724       1.02651936       0.45359437
C        1.22001414      -0.34406740       0.33057888
O        2.25520188      -1.30942613       0.29664356
C        0.25868257      -0.42296157      -0.87430410
O       -0.98560182      -0.97295429      -0.52455445
P       -2.06102624       0.02746335       0.30706043
O       -2.78154898      -0.84555561       1.29043239
O       -1.33228907       1.29891189       0.64755707
O       -3.12480215       0.39031446      -0.92947413
H        1.08745715       1.85472159       0.41160875
H        0.58637369      -0.47499467       1.22071707
H        3.06308370      -0.79646991       0.47294457
H        0.13708980       0.57487107      -1.31143278
H        0.70646664      -1.07250860      -1.62773846
H       -3.84828845      -0.24007334      -0.82783716
16
Properties=species:S:1:pos:R:3 relative_energy_eV=0.08192820948534063 branch=left pbc="F F F"
O        3.01005532       1.22176457       0.62349679
C        1.81752650       1.02255725       0.45089753
C        1.23570513      -0.34560574       0.32451908
O        2.26393427      -1.32823444       0.28628751
C        0.25240592      -0.41797092      -0.86619531
O       -0.99571371      -0.96357064      -0.52186941
P       -2.08174208       0.04400882       0.31471502
O       -2.77756054      -0.85231055       1.29602827
O       -1.34942207       1.31878066       0.64206692
O       -3.14875132       0.39126137      -0.92135472
H        1.09390509       1.84422323       0.35672446
H        0.60752095      -0.49279071       1.21655058
H        3.07612823      -0.82001937       0.50061770
H        0.15402631       0.58198088      -1.29211331
H        0.69200547      -1.04485175      -1.63770311
H       -3.85125570      -0.26602849      -0.84242239
16
Properties=species:S:1:pos:R:3 relative_energy_eV=0.10073074462707154 branch=left pbc="F F F"
O        3.00675738       1.21149301       0.73979503
C        1.83691531       1.03046567       0.43970550
C        1.25238216      -0.34523025       0.29348568
O        2.27617839      -1.32524674       0.20298690
C        0.24374889      -0.40066017      -0.86681508
O       -0.99506285      -0.94571682      -0.49478703
P       -2.08736931       0.04989607       0.31922782
O       -2.78441451      -0.81400927       1.32687288
O       -1.39689829       1.34826807       0.63173618
O       -3.16051320       0.35366264      -0.92682719
H        1.14514217       1.86939847       0.26868090
H        0.66245870      -0.48800180       1.21210770
H        3.06903576      -0.89499582       0.56287524
H        0.11393895       0.61102028      -1.26161364
H        0.64989503      -1.03135349      -1.65815625
H       -3.83342674      -0.33579566      -0.85902900
16
Properties=species:S:1:pos:R:3 relative_energy_eV=0.12359542860212969 branch=left pbc="F F F"
O        3.01343815       1.17632847       0.82292669
C        1.86003987       1.03837687       0.44821571
C        1.25032174      -0.31533789       0.27136385
O        2.27237142      -1.29206741       0.11235756
C        0.22597298      -0.38462315      -0.87228188
O       -0.99036452      -0.96249022      -0.45694733
P       -2.09944971       0.05890854       0.33095805
O       -2.79466823      -0.78842680       1.35595870
O       -1.40210922       1.36293469       0.61476183
O       -3.14731115       0.31352108      -0.94906642
H        1.19642272       1.89286769       0.22439065
H        0.68173498      -0.48877069       1.20365798
H        3.03284343      -0.93957161       0.60345164
H        0.06997670       0.62650079      -1.26296705
H        0.63979158      -1.02219072      -1.65752650
H       -3.81024288      -0.38276553      -0.85900778
16
Properties=species:S:1:pos:R:3 relative_energy_eV=0.1469730467579211 branch=left pbc="F F F"
O        3.00951494       1.16364369       0.86113699
C        1.86791994       1.04222491       0.45195091
C        1.24529594      -0.31058418       0.25823007
O        2.26899324      -1.27436056       0.05772705
C        0.21430209      -0.37403435      -0.85940700
O       -0.98550142      -0.96311133      -0.42913174
P       -2.08780247       0.05237587       0.33247502
O       -2.80530007      -0.76636751       1.36428930
O       -1.40203523       1.36384098       0.59777776
O       -3.13541721       0.28713713      -0.95053647
H        1.24778816       1.91539799       0.20762056
H        0.69017905      -0.49464043       1.19144646
H        2.99102087      -0.96078715       0.62288678
H        0.04039885       0.62050164      -1.27556291
H        0.63795245      -0.99875887      -1.64015425
H       -3.79854121      -0.40928374      -0.86050275
16
Properties=species:S:1:pos:R:3 relative_energy_eV=0.1930494769148936 branch=left pbc="F F F"
O        3.00383437       1.15349667       0.95054310
C        1.88959068       1.06932429       0.45597763
C        1.25378463      -0.27816556       0.22295452
O        2.23807019      -1.28278640       0.05490536
C        0.20611510      -0.36953879      -0.88278602
O       -0.95561146      -0.99315004      -0.37452227
P       -2.08270329       0.04837275       0.34288287
O       -2.82122878      -0.73775531       1.38589139
O       -1.37768980       1.35931496       0.57392277
O       -3.10624762       0.24662933      -0.96545624
H        1.30514581       1.98751179       0.23084887
H        0.69030676      -0.47290159       1.14241655
H        2.97173867      -1.00487727       0.61828549
H       -0.02717606       0.61539193      -1.29839747
H        0.59050970      -1.01166853      -1.67408181
H       -3.77967105      -0.43600418      -0.85313887
16
Properties=species:S:1:pos:R:3 relative_energy_eV=0.2879058601829456 branch=left pbc="F F F"
O        3.01100442       1.16180869       1.03008991
C        1.91550665       1.08446844       0.50518638
C        1.25797890      -0.25732091       0.19773322
O        2.24804598      -1.26897947       0.03702014
C        0.18690901      -0.39081736      -0.90339860
O       -0.95979981      -1.01352740      -0.35358961
P       -2.06954363       0.04031343       0.34428209
O       -2.81440016      -0.70820624       1.40323640
O       -1.37773270       1.36152253       0.57679085
O       -3.06981849       0.21216754      -0.98960079
H        1.34123316       1.98314498       0.25502052
H        0.64627660      -0.38108782       1.08860729
H        2.99583492      -1.04281237       0.61079587
H       -0.07453289       0.58733324      -1.30653129
H        0.52045230      -1.02744657      -1.72681640
H       -3.75864649      -0.44736666      -0.83858019
16
Properties=species:S:1:pos:R:3 relative_energy_eV=0.7123242284578737 branch=left pbc="F F F"
O        2.91138092       1.03495727       1.19263298
C        1.92746474       1.01782006       0.46908304
C        1.34605233      -0.24301640       0.05023389
O        2.25602324      -1.29031480       0.02117543
C        0.18507782      -0.39584840      -0.92846546
O       -0.89985143      -1.00762609      -0.27747618
P       -2.06184250       0.05281698       0.36335618
O       -2.81201045      -0.69986291       1.41715091
O       -1.39290510       1.38369537       0.57514646
O       -3.01421426       0.15640773      -0.99977543
H        1.28253301       1.91017581       0.33593715
H        0.71503593      -0.12136328       1.05184778
H        2.97717391      -0.98120729       0.59567080
H       -0.09962486       0.57905924      -1.33429101
H        0.42093205      -1.05184148      -1.77371170
H       -3.74245782      -0.45065789      -0.82827007
16
Properties=species:S:1:pos:R:3 relative_energy_eV=1.2609415104598156 branch=left pbc="F F F"
O        2.83189251       0.92087706       1.25870139
C        1.90652700       1.00625275       0.48528410
C        1.32075793      -0.21605135      -0.01771112
O        2.26772589      -1.34290836       0.02422382
C        0.18982729      -0.38260785      -0.96539909
O       -0.86769477      -0.98885745      -0.18910265
P       -2.04545457       0.04612892       0.37423409
O       -2.81694129      -0.70623070       1.42220274
O       -1.40292609       1.40402881       0.56891562
O       -2.99390720       0.13200453      -1.00382099
H        1.23736351       1.84230270       0.37356523
H        0.85591502       0.03098037       0.97501233
H        2.95994121      -0.92097965       0.59204799
H       -0.09392370       0.58909095      -1.34660850
H        0.38942109      -1.06840009      -1.79509247
H       -3.73975649      -0.45243674      -0.82620852
16
Properties=species:S:1:pos:R:3 relative_energy_eV=1.7359783948377299 branch=ts pbc="F F F"
O        2.87810139       0.89974524       1.24906026
C        1.76686339       0.90573692       0.60725943
C        1.40781044      -0.26995020      -0.13761322
O        2.23684999      -1.29958217       0.02028430
C        0.18538202      -0.39989260      -0.96249490
O       -0.82734853      -0.98082743      -0.16510963
P       -2.05765964       0.06479664       0.38255026
O       -2.81015976      -0.71131907       1.41939507
O       -1.42319105       1.41325091       0.56377947
O       -2.99235300       0.12731233      -1.00495468
H        1.26333554       1.84589263       0.32932936
H        0.87916366       0.23454203       1.07376588
H        2.94542862      -0.89217720       0.60739961
H       -0.09051794       0.58507971      -1.35015613
H        0.38021967      -1.06956387      -1.80474962
H       -3.74191766      -0.45305742      -0.82775491
16
Properties=species:S:1:pos:R:3 relative_energy_eV=1.6857951765305188 branch=right pbc="F F F"
O        2.90322505       0.88518565       1.24086165
C        1.74610899       0.89594196       0.64415742
C        1.41895749      -0.26788599      -0.15784636
O        2.23448446      -1.28710810       0.01510924
C        0.18443145      -0.41130158      -0.98126730
O       -0.82169867      -0.98058879      -0.15993844
P       -2.06207179       0.07081273       0.38473200
O       -2.81004354      -0.71554733       1.41894322
O       -1.43708265       1.42209472       0.56420198
O       -2.99339081       0.12537516      -1.00576776
H        1.28838853       1.84358361       0.29746753
H        0.86770842       0.35106976       1.18955421
H        2.94058792      -0.87226216       0.62276677
H       -0.08937151       0.57936652      -1.35197078
H        0.37462307      -1.07846997      -1.82123233
H       -3.74360942      -0.45348716      -0.83003382
16
Properties=species:S:1:pos:R:3 relative_energy_eV=1.5783809905697126 branch=right pbc="F F F"
O        2.99419174       0.74504177       1.18023679
C        1.71909109       0.83812110       0.73573200
C        1.43437589      -0.25128602      -0.21516907
O        2.24149697      -1.22587492      -0.05303024
C        0.19770882      -0.43479913      -1.03034730
O       -0.79300139      -0.95409795      -0.14383073
P       -2.07978954       0.08612073       0.38697530
O       -2.80172101      -0.73661956       1.40946286
O       -1.53481495       1.47562256       0.56554285
O       -2.99796111       0.11247138      -1.01225586
H        1.35033557       1.77129683       0.28422788
H        0.84267685       0.50539053       1.43689806
H        2.92158145      -0.76485729       0.65061153
H       -0.10849572       0.54404104      -1.40145000
H        0.36797292      -1.14059797      -1.88660594
H       -3.75240105      -0.46319382      -0.83726073
16
Properties=species:S:1:pos:R:3 relative_energy_eV=1.1178120266813494 branch=right pbc="F F F"
O        2.98360253       0.52301583       1.12315850
C        1.67486574       0.75089872       0.75928691
C        1.41410202      -0.31897504      -0.23855902
O        2.27757848      -1.21861368      -0.18445408
C        0.19845006      -0.43132798      -1.05281140
O       -0.77196538      -0.89892768      -0.13795292
P       -2.08660475       0.07953220       0.37206054
O       -2.77791882      -0.75172883       1.39232910
O       -1.62110865       1.50590086       0.56050475
O       -3.00293984       0.09348028      -1.02545178
H        1.44033278       1.71060764       0.32830504
H        0.87984201       0.74564832       1.71247232
H        2.93668912      -0.54771564       0.69407772
H       -0.13308361       0.50562035      -1.50219468
H        0.34910538      -1.16108873      -1.88371207
H       -3.75970110      -0.47954679      -0.84732122
16
Properties=species:S:1:pos:R:3 relative_energy_eV=0.35462886320601683 branch=right pbc="F F F"
O        2.95095533       0.49267676       1.18307368
C        1.61330071       0.73294804       0.78876974
C        1.37805730      -0.39651640      -0.21735243
O        2.23534136      -1.28507556      -0.27361236
C        0.15044641      -0.41488051      -1.05129314
O       -0.80944704      -0.90116329      -0.14133712
P       -2.08464151       0.08405063       0.35974793
O       -2.77599844      -0.75834953       1.39645913
O       -1.57569456       1.47585791       0.54839120
O       -3.00619014       0.08396093      -1.04002889
H        1.46800183       1.74623133       0.34875250
H        0.96416835       0.77097932       1.62328815
H        3.03995540      -0.42979919       0.74439810
H       -0.12304071       0.52759552      -1.53085867
H        0.33207438      -1.13389100      -1.81778225
H       -3.75604281      -0.48784469      -0.85087787
16
Properties=species:S:1:pos:R:3 relative_energy_eV=-0.08099120742554078 branch=right pbc="F F F"
O        2.96247609       0.55049057       1.26825387
C        1.66995860       0.72313701       0.74708491
C        1.35220360      -0.38192824      -0.23393176
O        2.14894108      -1.30990810      -0.33416093
C        0.09741633      -0.41785345      -1.03574525
O       -0.88200558      -0.93981315      -0.17384430
P       -2.09580859       0.07541226       0.36568528
O       -2.81919766      -0.72725281       1.40261189
O       -1.50368832       1.44661693       0.53242236
O       -3.01796561       0.09665205      -1.03243993
H        1.51993083       1.71043917       0.29644233
H        0.91284866       0.67942164       1.54943794
H        3.24844682      -0.30736074       0.87261520
H       -0.12434571       0.56289875      -1.47130654
H        0.28560031      -1.15295606      -1.82559974
H       -3.75356506      -0.50121569      -0.85778756
16
Properties=species:S:1:pos:R:3 relative_energy_eV=-0.15346164635775494 branch=right pbc="F F F"
O        2.97382645       0.58618702       1.27720428
C        1.66426607       0.70348525       0.74296937
C        1.39943154      -0.40373666      -0.24879689
O        2.21685261      -1.31456523      -0.32582191
C        0.10423618      -0.42837435      -1.03437209
O       -0.89171925      -0.96608998      -0.18357559
P       -2.10743808       0.07922170       0.36467597
O       -2.85640918      -0.69185981       1.41224599
O       -1.49128695       1.43715436       0.53654735
O       -3.04975708       0.12989230      -1.02297783
H        1.54512601       1.68371079       0.26594860
H        0.87602659       0.63455330       1.50903006
H        3.28943425      -0.26608433       0.92412106
H       -0.16731883       0.55846535      -1.42773559
H        0.25102759      -1.12709650      -1.85668173
H       -3.75505209      -0.50808319      -0.86304333
16
Properties=species:S:1:pos:R:3 relative_energy_eV=-0.17428447646670975 branch=right pbc="F F F"
O        2.95610750       0.59970687       1.30600388
C        1.66926757       0.68847707       0.73137711
C        1.40505513      -0.42927960      -0.25249379
O        2.24496930      -1.31425187      -0.36889648
C        0.10000991      -0.44822570      -1.02402057
O       -0.89114707      -0.96903413      -0.16276443
P       -2.10975548       0.08509989       0.36621935
O       -2.86730279      -0.68115995       1.40799406
O       -1.48293141       1.43851852       0.53400664
O       -3.06057301       0.14725547      -1.01289492
H        1.52500471       1.66000115       0.24729213
H        0.87361983       0.63973530       1.48673171
H        3.31034038      -0.23750726       0.95361871
H       -0.15557178       0.55032943      -1.39014170
H        0.23906405      -1.11494122      -1.88273974
H       -3.75491097      -0.50794396      -0.86955420
16
Properties=species:S:1:pos:R:3 relative_energy_eV=-0.18594533177747508 branch=right pbc="F F F"
O        2.93830220       0.60092450       1.31020985
C        1.64789313       0.67609064       0.72953167
C        1.42026899      -0.43737738      -0.26342457
O        2.27939826      -1.30018883      -0.40869847
C        0.10830570      -0.45689940      -1.01208901
O       -0.88753536      -0.97336741      -0.15154093
P       -2.10764052       0.08859680       0.37079114
O       -2.86845459      -0.67814246       1.41187322
O       -1.48872596       1.44714632       0.53136626
O       -3.05156458       0.15619143      -1.01298603
H        1.50469955       1.63591112       0.21538197
H        0.85389562       0.64155217       1.48801484
H        3.30844971      -0.23249864       0.96598734
H       -0.12987230       0.55131321      -1.35675565
H        0.21991570      -1.11405935      -1.87528077
H       -3.74608972      -0.49841274      -0.87264306
16
Properties=species:S:1:pos:R:3 relative_energy_eV=-0.19076536912689335 branch=right pbc="F F F"
O        2.93001956       0.60341924       1.31245262
C        1.64494162       0.66962562       0.72868353
C        1.41982718      -0.44264048      -0.26106431
O        2.29574628      -1.28428272      -0.42476115
C        0.10468820      -0.45781612      -1.00502378
O       -0.88762754      -0.96796003      -0.14112353
P       -2.10418354       0.09059565       0.37269267
O       -2.86351298      -0.67409796       1.41480462
O       -1.48493867       1.44822908       0.53432080
O       -3.03780943       0.15345306      -1.01694635
H        1.49673871       1.62252191       0.20610540
H        0.83769268       0.62927930       1.47188941
H        3.29839168      -0.22920522       0.96593112
H       -0.12071940       0.55763470      -1.34651558
H        0.21230690      -1.12017699      -1.86650613
H       -3.74031537      -0.49179913      -0.87520155
16
Properties=species:S:1:pos:R:3 relative_energy_eV=-0.19526282043443643 branch=right pbc="F F F"
O        2.90906878       0.59550307       1.33046306
C        1.62980726       0.65724378       0.73168795
C        1.42685522      -0.43783909      -0.27626018
O        2.31614189      -1.26107756      -0.46091641
C        0.10510511      -0.46585412      -1.00122171
O       -0.87535511      -0.95746338      -0.11390094
P       -2.09824325       0.10258862       0.38074400
O       -2.86430369      -0.65942956       1.42008957
O       -1.47963940       1.46096729       0.54664040
O       -3.01255854       0.14192322      -1.02560722
H        1.49487856       1.61024497       0.21004840
H        0.81479506       0.61352421       1.46381672
H        3.29766012      -0.21682694       0.96026621
H       -0.13035952       0.54015638      -1.35343477
H        0.20006843      -1.13256004      -1.85840174
H       -3.73267514      -0.48432094      -0.88427545
16
Properties=species:S:1:pos:R:3 relative_energy_eV=-0.20133616178281954 branch=right pbc="F F F"
O        2.88783474       0.57122772       1.35959836
C        1.62095156       0.65408172       0.73656606
C        1.43035286      -0.42950929      -0.29205899
O        2.33343900      -1.23217429      -0.50247168
C        0.10003943      -0.47195929      -1.00331845
O       -0.85649338      -0.95398301      -0.08161563
P       -2.08863438       0.10732888       0.38810851
O       -2.87146777      -0.63693459       1.42717754
O       -1.48425480       1.47193545       0.55140613
O       -2.97890872       0.13350261      -1.03354833
H        1.48639626       1.61996364       0.22955621
H        0.79671186       0.59365100       1.46002983
H        3.30196730      -0.20803121       0.94526441
H       -0.14855258       0.52584351      -1.38324880
H        0.18527341      -1.16427515      -1.84324610
H       -3.71340914      -0.47388774      -0.88846113
16
Properties=species:S:1:pos:R:3 relative_energy_eV=-0.2048680424632039 branch=right pbc="F F F"
O        2.87110177       0.55662030       1.37738646
C        1.61275689       0.64438865       0.73946846
C        1.43912572      -0.41766208      -0.30988068
O        2.36185312      -1.19012083      -0.54372103
C        0.09737162      -0.48695936      -0.99820179
O       -0.85076663      -0.94695660      -0.05783151
P       -2.08574171       0.11699349       0.39366853
O       -2.88184695      -0.62027651       1.42884500
O       -1.48176794       1.48264526       0.54483951
O       -2.95694554       0.13698373      -1.03639289
H        1.47591906       1.61669216       0.25081493
H        0.78467397       0.57065110       1.44929003
H        3.30098126      -0.19838471       0.93951534
H       -0.15706565       0.50246721      -1.38897908
H        0.16395175      -1.19258954      -1.82799849
H       -3.69235518      -0.46771236      -0.89108483
16
Properties=species:S:1:pos:R:3 relative_energy_eV=-0.21091708563471911 branch=right pbc="F F F"
O        2.86623098       0.53655325       1.38550228
C        1.60457818       0.63923974       0.75485725
C        1.44216118      -0.40089640      -0.32459996
O        2.39650740      -1.11632740      -0.61159087
C        0.08691649      -0.51306504      -0.98480914
O       -0.85775474      -0.94264479      -0.03134359
P       -2.08459040       0.14079365       0.39013965
O       -2.88890941      -0.59981269       1.41635715
O       -1.47013502       1.50440187       0.52942547
O       -2.95258639       0.14983436      -1.04382975
H        1.46775513       1.63190732       0.30321711
H        0.77967937       0.53605358       1.46825573
H        3.30191972      -0.19943030       0.91936344
H       -0.16865690       0.46347305      -1.41238795
H        0.14719327      -1.24507031      -1.79279798
H       -3.66906331      -0.47823004      -0.89602077
16
Properties=species:S:1:pos:R:3 relative_energy_eV=-0.2172139494541625 branch=right pbc="F F F"
O        2.87335535       0.52825104       1.39400319
C        1.60292792       0.62663203       0.77813793
C        1.44317615      -0.38795012      -0.33026144
O        2.41337820      -1.05248271      -0.68024612
C        0.08262529      -0.52913947      -0.97468701
O       -0.86665030      -0.93516728      -0.01965647
P       -2.08901109       0.15292615       0.38097759
O       -2.89914085      -0.55998749       1.41939829
O       -1.46688441       1.51030911       0.51849269
O       -2.96144280       0.16311520      -1.04820556
H        1.45505403       1.62219572       0.33571764
H        0.78276250       0.50422135       1.49292114
H        3.31277788      -0.19125051       0.90462266
H       -0.17788171       0.43274160      -1.43162072
H        0.15109098      -1.28526137      -1.75957116
H       -3.65489156      -0.49237342      -0.91028451
16
Properties=species:S:1:pos:R:3 relative_energy_eV=-0.22571800163495936 branch=right pbc="F F F"
O        2.87356287       0.49360436       1.40858787
C        1.59492647       0.59373175       0.80862843
C        1.44591127      -0.35286316      -0.35412530
O        2.44844968      -0.90993948      -0.79761753
C        0.06992468      -0.56007102      -0.95349662
O       -0.88516658      -0.92497193       0.01117089
P       -2.09827075       0.19182252       0.38639839
O       -2.92837827      -0.48512472       1.43516286
O       -1.45391856       1.54354617       0.48555047
O       -2.95211541       0.17132502      -1.05660233
H        1.41656465       1.60442681       0.41847818
H        0.79242947       0.42399882       1.53160637
H        3.33294937      -0.17106432       0.86209413
H       -0.19951021       0.36499148      -1.48536685
H        0.16687643      -1.36397023      -1.68602446
H       -3.62298946      -0.51266222      -0.94470615
16
Properties=species:S:1:pos:R:3 relative_energy_eV=-0.2341087488057383 branch=right pbc="F F F"
O        2.86152342       0.46454485       1.40958385
C        1.57259315       0.56681705       0.83119380
C        1.44298840      -0.33710015      -0.36188541
O        2.45954836      -0.81977814      -0.85528149
C        0.07128142      -0.59106251      -0.93534826
O       -0.87882146      -0.91465924       0.04552005
P       -2.08819366       0.22187798       0.38405903
O       -2.92299967      -0.41820415       1.45118551
O       -1.45247048       1.57944488       0.45052561
O       -2.92097392       0.16925883      -1.06808169
H        1.35915735       1.58899206       0.48261257
H        0.78235414       0.33113481       1.54732371
H        3.34937774      -0.12968789       0.80737045
H       -0.20666092       0.30981038      -1.49889232
H        0.16962646      -1.40524819      -1.65813036
H       -3.59708450      -0.50936082      -0.96201658
16
Properties=species:S:1:pos:R:3 relative_energy_eV=-0.23928102128775208 branch=right pbc="F F F"
O        2.90372787       0.45265036       1.39485712
C        1.57338467       0.48592174       0.90684872
C        1.41733334      -0.30044452      -0.37352399
O        2.42216204      -0.64744401      -0.96929898
C        0.04471382      -0.63593411      -0.91104397
O       -0.93449559      -0.91169970       0.04444677
P       -2.08764234       0.29426130       0.33342396
O       -2.90204751      -0.26087994       1.46273044
O       -1.39267960       1.62324338       0.30589581
O       -2.95894506       0.19898362      -1.10234024
H        1.24486913       1.50894200       0.72034857
H        0.86201851       0.11445344       1.64504678
H        3.39543503       0.03925500       0.67662129
H       -0.22580036       0.21537112      -1.54100714
H        0.19480886      -1.51461005      -1.53968504
H       -3.55559660      -0.55528984      -0.98358142
16
Properties=species:S:1:pos:R:3 relative_energy_eV=-0.26429653036029777 branch=right pbc="F F F"
O        2.89029189       0.43545916       1.39119970
C        1.54742375       0.43955315       0.93574275
C        1.41931723      -0.29499300      -0.37250680
O        2.43519413      -0.56843734      -1.00781092
C        0.05119762      -0.65566246      -0.89903008
O       -0.91921064      -0.89952297       0.08024439
P       -2.06687366       0.32442299       0.33133875
O       -2.89435468      -0.17576166       1.47450669
O       -1.37835644       1.65610700       0.24949037
O       -2.92053037       0.18938924      -1.10070140
H        1.15858025       1.45823554       0.78659831
H        0.86423879      -0.00719735       1.66468668
H        3.39642449       0.12125016       0.61074997
H       -0.23574280       0.17483870      -1.55891411
H        0.18964177      -1.54559320      -1.51976085
H       -3.53599488      -0.54530826      -0.99609465
16
Properties=species:S:1:pos:R:3 relative_energy_eV=-0.27575713726400863 branch=right pbc="F F F"
O        2.88683079       0.46189789       1.37987713
C        1.53736337       0.39372059       0.96185050
C        1.41551894      -0.30481436      -0.36666433
O        2.43535740      -0.54741065      -1.00941672
C        0.05157719      -0.65691327      -0.90166217
O       -0.91091933      -0.88401394       0.08903420
P       -2.04695208       0.34632054       0.31430578
O       -2.88336340      -0.11892958       1.46590072
O       -1.32971037       1.65839392       0.18643295
O       -2.92376834       0.18756398      -1.10367593
H        1.08344802       1.38456800       0.83810187
H        0.90793577      -0.11171083       1.70010846
H        3.38096271       0.22574508       0.57609172
H       -0.23274722       0.16810565      -1.56751872
H        0.16789887      -1.55089366      -1.51666695
H       -3.53818571      -0.54484967      -0.97635966
16
Properties=species:S:1:pos:R:3 relative_energy_eV=-0.2830937615799485 branch=right pbc="F F F"
O        2.87830627       0.49534529       1.37661442
C        1.52971028       0.37343500       0.96553079
C        1.42026096      -0.31147266      -0.36821154
O        2.44090199      -0.53318033      -1.01220026
C        0.05265380      -0.66348982      -0.90194481
O       -0.91663117      -0.88198646       0.08855783
P       -2.04826240       0.35973212       0.30356704
O       -2.88384720      -0.07641638       1.46699193
O       -1.31661197       1.66148678       0.17020846
O       -2.92366997       0.18279421      -1.11309313
H        1.02175694       1.34213118       0.85076031
H        0.94858954      -0.18144620       1.70672549
H        3.38618117       0.26257477       0.57948384
H       -0.21211161       0.16735108      -1.57064661
H        0.16858136      -1.55349324      -1.52603246
H       -3.54456132      -0.53658568      -0.94657244
16
Properties=species:S:1:pos:R:3 relative_energy_eV=-0.2927303397009382 branch=right pbc="F F F"
O        2.86809447       0.55368229       1.36137392
C        1.52263705       0.33690502       0.98331631
C        1.42574091      -0.31866592      -0.36651035
O        2.44838483      -0.50780984      -1.01994382
C        0.06250988      -0.66993321      -0.90991319
O       -0.91546830      -0.87081289       0.07320572
P       -2.03184960       0.38454865       0.28426366
O       -2.87597349      -0.02235475       1.45271315
O       -1.30430986       1.68967360       0.14069045
O       -2.92044316       0.16497003      -1.11815235
H        0.93980850       1.26513821       0.91509927
H        1.00249701      -0.27842749       1.72211840
H        3.36920110       0.31626401       0.56023296
H       -0.19514217       0.15644741      -1.58573730
H        0.16759893      -1.57063671      -1.52015577
H       -3.56203938      -0.52220879      -0.90286217
16
Properties=species:S:1:pos:R:3 relative_energy_eV=-0.3009307156316936 branch=right pbc="F F F"
O        2.86026248       0.61758914       1.33444677
C        1.52269768       0.30790774       1.00014112
C        1.42608133      -0.31378362      -0.36514043
O        2.45164333      -0.49019369      -1.01647580
C        0.06738956      -0.66842884      -0.91819710
O       -0.91198822      -0.84744311       0.06642404
P       -2.03393886       0.40384872       0.26655077
O       -2.86899645       0.00558162       1.44542255
O       -1.30571652       1.70230754       0.08887206
O       -2.93193731       0.16039857      -1.12055507
H        0.87466240       1.19152762       1.00110541
H        1.07039044      -0.36799497       1.73368806
H        3.36255904       0.35219523       0.54403502
H       -0.18392242       0.13420355      -1.62275751
H        0.19107008      -1.58315813      -1.50514024
H       -3.58900983      -0.49777779      -0.86268077
16
Properties=species:S:1:pos:R:3 relative_energy_eV=-0.30489048941308283 branch=right pbc="F F F"
O        2.85946518       0.63872116       1.33253780
C        1.52560095       0.31150857       1.00037337
C        1.43083802      -0.30438856      -0.36644278
O        2.45597548      -0.49298396      -1.01687874
C        0.07271000      -0.66506383      -0.91356692
O       -0.90856804      -0.84885889       0.06955164
P       -2.03507004       0.40096295       0.26262093
O       -2.86232485      -0.00379895       1.44517241
O       -1.31711355       1.70536462       0.07601736
O       -2.94908837       0.16628505      -1.12041932
H        0.86576242       1.18564317       1.00709426
H        1.09307829      -0.39007938       1.72166531
H        3.36674356       0.34109563       0.55479760
H       -0.18125876       0.12988350      -1.62773026
H        0.19855953      -1.58419792      -1.49122633
H       -3.61406302      -0.48331358      -0.86382749
16
Properties=species:S:1:pos:R:3 relative_energy_eV=-0.30656576679393766 branch=right pbc="F F F"
O        2.85892376       0.64553090       1.33310358
C        1.52707724       0.30620237       1.00104742
C        1.43442937      -0.30379881      -0.36924909
O        2.46138778      -0.49045793      -1.01651780
C        0.07409668      -0.66509067      -0.91680120
O       -0.90529170      -0.84003011       0.06862702
P       -2.03670590       0.40331888       0.26001436
O       -2.85409490       0.00155048       1.45002056
O       -1.32255655       1.70869323       0.06874452
O       -2.94788071       0.15769011      -1.12201893
H        0.85441431       1.17159599       1.02030005
H        1.10887071      -0.40717656       1.72020969
H        3.36958333       0.35372905       0.55669958
H       -0.18727492       0.12613974      -1.63038905
H        0.20057428      -1.59027362      -1.48583011
H       -3.63430592      -0.47084348      -0.86822178
16
Properties=species:S:1:pos:R:3 relative_energy_eV=-0.30735571079640067 branch=right pbc="F F F"
O        2.86023343       0.65172810       1.33477489
C        1.53148879       0.30093829       1.00400915
C        1.43674392      -0.30719139      -0.36738281
O        2.46321993      -0.48868152      -1.01743704
C        0.07563906      -0.66771941      -0.91589109
O       -0.90504172      -0.84244680       0.06860533
P       -2.03690293       0.40171006       0.25451698
O       -2.85290794       0.00254867       1.44640434
O       -1.32694362       1.70901185       0.05805698
O       -2.95099691       0.15040669      -1.12634710
H        0.85167376       1.16022932       1.02848552
H        1.12015349      -0.41519134       1.72377438
H        3.37513087       0.37167280       0.55831708
H       -0.17949734       0.12519945      -1.63183721
H        0.19353792      -1.59199094      -1.48878736
H       -3.65428374      -0.45344418      -0.85952315
16
Properties=species:S:1:pos:R:3 relative_energy_eV=-0.308323410081357 branch=right pbc="F F F"
O        2.86971248       0.64519101       1.33419676
C        1.53742896       0.30020351       1.00983652
C        1.43981293      -0.30609154      -0.36251065
O        2.46516183      -0.47676077      -1.01630873
C        0.07951834      -0.66903434      -0.91244064
O       -0.90696147      -0.84303080       0.06565492
P       -2.04373578       0.39631330       0.24966408
O       -2.85905227      -0.00073394       1.44301864
O       -1.33373481       1.70312384       0.05099512
O       -2.95732436       0.13934398      -1.12991646
H        0.86314848       1.16469599       1.03102046
H        1.12560952      -0.41246339       1.73308553
H        3.37400694       0.37271545       0.54596831
H       -0.17166528       0.12059026      -1.63179668
H        0.20206344      -1.59339013      -1.48370167
H       -3.68274180      -0.43389263      -0.85702644
16
Properties=species:S:1:pos:R:3 relative_energy_eV=-0.3090365959069459 branch=right pbc="F F F"
O        2.87006121       0.64306647       1.33654586
C        1.53833225       0.29935848       1.00930351
C        1.44177954      -0.30566847      -0.36361771
O        2.46649862      -0.47387388      -1.01953299
C        0.08267732      -0.67136908      -0.91158101
O       -0.90191895      -0.84427958       0.06939235
P       -2.04346623       0.39304200       0.24562762
O       -2.86815226      -0.00181459       1.43394393
O       -1.33233019       1.69927248       0.04650712
O       -2.95740317       0.12881678      -1.13343396
H        0.86510002       1.16422501       1.03311437
H        1.12689363      -0.41709709       1.72836544
H        3.37653654       0.38073312       0.54714679
H       -0.16949597       0.12261079      -1.62637304
H        0.20677475      -1.59692167      -1.48174216
H       -3.70063994      -0.41332093      -0.84392693
16
Properties=species:S:1:pos:R:3 relative_energy_eV=-0.30928509757723077 branch=right pbc="F F F"
O        2.87228783       0.63922400       1.33750217
C        1.54014155       0.29865669       1.00932474
C        1.44293819      -0.30176605      -0.36445299
O        2.46725684      -0.46977392      -1.02108576
C        0.08339002      -0.67040717      -0.90967879
O       -0.90113463      -0.84499377       0.07116652
P       -2.04398083       0.39107198       0.24360552
O       -2.86955082      -0.00054094       1.43194787
O       -1.33295410       1.69755483       0.04549097
O       -2.95588760       0.12234901      -1.13567893
H        0.86541083       1.16269747       1.03583359
H        1.12613634      -0.41783630       1.72738582
H        3.37701325       0.38201832       0.54511748
H       -0.17359463       0.11867261      -1.62777598
H        0.21226591      -1.59635311      -1.47752012
H       -3.70849091      -0.40379371      -0.84144287
16
Properties=species:S:1:pos:R:3 relative_energy_eV=-0.3093516329099657 branch=right pbc="F F F"
O        2.87282276       0.63824438       1.33870961
C        1.54005143       0.29958224       1.00994934
C        1.44186484      -0.29981771      -0.36491957
O        2.46624314      -0.46668925      -1.02220739
C        0.08273565      -0.67092231      -0.91011136
O       -0.90120895      -0.84576947       0.07114702
P       -2.04300366       0.39099392       0.24316779
O       -2.87041795      -0.00079992       1.43049344
O       -1.33096673       1.69684295       0.04458138
O       -2.95439239       0.12094158      -1.13623728
H        0.86614138       1.16420450       1.03716561
H        1.12667804      -0.41824041       1.72662310
H        3.37764980       0.38111532       0.54647748
H       -0.17612667       0.11603988      -1.62967092
H        0.21169554      -1.59750230      -1.47658723
H       -3.70851902      -0.40144348      -0.83884176
16
Properties=species:S:1:pos:R:3 relative_energy_eV=-0.3094596679547976 branch=right pbc="F F F"
O        2.87123248       0.63800094       1.34001652
C        1.53916251       0.29745872       1.01072640
C        1.44103717      -0.29624447      -0.36652928
O        2.46413806      -0.45208188      -1.02806333
C        0.08274465      -0.67362346      -0.90947605
O       -0.90025178      -0.84716505       0.07295179
P       -2.04069893       0.39084556       0.24224393
O       -2.86844214       0.00315998       1.43061594
O       -1.32711635       1.69549479       0.04078896
O       -2.95190253       0.11875668      -1.13687599
H        0.86494924       1.16199195       1.03962875
H        1.12624435      -0.42164915       1.72667606
H        3.37727168       0.37913910       0.54905012
H       -0.17975250       0.10902474      -1.63227642
H        0.21444582      -1.60240498      -1.47184512
H       -3.71181455      -0.39392359      -0.83789283
