17
Properties=species:S:1:pos:R:3 relative_energy_eV=1.2844430952245602 branch=ts pbc="F F F"
C        0.70937851      -1.65435931       0.92159426
C       -0.56492266      -1.19839946       0.72378830
O       -0.93530221      -0.10352256       0.15827996
P        1.49689410       2.48616188      -1.38968161
O        1.53180508       3.97270015      -1.39591584
O        2.51560528       1.50912234      -0.94027711
O        0.67358332       1.93042735      -2.70109304
C       -1.69567072      -2.07985882       1.23844620
O       -2.87488856      -1.79084391       1.25312030
O       -1.30076764      -3.30915159       1.71976453
O        0.06959653       2.11678920      -0.20522970
H        1.56514745      -1.09795094       0.56387535
H        0.91076645      -2.59451833       1.41225167
H        0.34515467       2.70889928      -3.16589014
H       -2.13763498      -3.72220060       1.98086849
H        0.30005368       1.29781506       0.31019343
H       -0.62052632       1.59731255      -0.67746776
