24
Properties=species:S:1:pos:R:3 relative_energy_eV=0.5513866619148757 branch=ts pbc="F F F"
O       -0.10708432       0.85559463      -0.74367394
C       -0.54471384      -0.24354854      -0.27564559
O       -1.73651564      -0.62943249      -0.30289521
P       -2.73388253       2.13744777      -2.68136098
O       -2.04191620       1.64618144      -3.91009851
O       -4.04250851       2.87302185      -2.67957888
O       -1.86755738       2.35956416      -1.41149112
C        0.47835427      -1.16601585       0.37978201
O       -0.11622290      -2.43333101       0.63545496
C        1.03028865      -0.53975595       1.66818711
O        2.03866971      -1.33934464       2.24710803
P        3.61502501      -0.79416657       2.28893114
O        3.64486442       0.62527641       2.80493273
O        4.40867766      -1.92505321       2.86551095
O        3.94192410      -0.69159804       0.64213799
O       -3.58832788       0.31903277      -1.99865529
H       -0.99371629       1.57436201      -1.14102032
H        1.32087421      -1.28842509      -0.30393335
H       -1.06110594      -2.30224456       0.44964044
H        1.38688712       0.46878227       1.44952941
H        0.20682007      -0.47090598       2.38572810
H        3.94957948       0.25170377       0.44330639
H       -2.91459366      -0.03932698      -1.33781395
H       -4.27374497       0.75199413      -1.47419819
