17
Properties=species:S:1:pos:R:3 relative_energy_eV=0.0 branch=left pbc="F F F"
O       -1.86278567       1.10674992       1.46583591
C       -1.60009292       0.14290675       0.77765373
O       -1.32526790      -1.07858458       1.27484562
C       -1.49261250       0.19062611      -0.73257752
O       -1.72373711      -1.05368633      -1.35573919
C       -0.10356708       0.73385879      -1.09223978
O        0.84058687      -0.27980973      -0.83998346
P        2.21468068       0.08137687       0.09558654
O        3.21598558      -0.97174788      -0.27457234
O        2.42443386       1.56165341       0.05806707
O        1.63102474      -0.31401260       1.62435693
H       -1.07848507      -0.94498970       2.20296779
H       -2.25646781       0.88982608      -1.07774267
H       -0.89457584      -1.53755172      -1.21520721
H        0.11945405       1.64371094      -0.53273141
H       -0.09735389       0.96998474      -2.16037009
H        2.08617694      -1.13568312       1.84520520
17
Properties=species:S:1:pos:R:3 relative_energy_eV=0.00012846526806242764 branch=left pbc="F F F"
O       -1.86646961       1.10331089       1.46580871
C       -1.60016667       0.14003484       0.77810419
O       -1.32354348      -1.08062972       1.27541824
C       -1.49199896       0.19050620      -0.73175747
O       -1.72165081      -1.05225980      -1.35848369
C       -0.10325893       0.73530551      -1.09050010
O        0.83883149      -0.28073838      -0.84048131
P        2.21478452       0.07878460       0.09277484
O        3.21111769      -0.97964852      -0.27464116
O        2.43009094       1.55804077       0.04933056
O        1.63039578      -0.30728227       1.62335908
H       -1.08384311      -0.94656598       2.20562849
H       -2.25785567       0.88916479      -1.07321914
H       -0.89046239      -1.53424453      -1.22323085
H        0.12297046       1.64311271      -0.52897919
H       -0.09707433       0.97472678      -2.15793957
H        2.08552995      -1.12698989       1.85216350
17
Properties=species:S:1:pos:R:3 relative_energy_eV=0.0007529358772444539 branch=left pbc="F F F"
O       -1.86058403       1.08606843       1.47813336
C       -1.59873964       0.12821980       0.78123406
O       -1.32527527      -1.09608091       1.27158136
C       -1.49145443       0.19173547      -0.72872525
O       -1.72687338      -1.04524434      -1.36509085
C       -0.10161513       0.73380891      -1.08365436
O        0.83737173      -0.28708605      -0.84063044
P        2.21812070       0.07370000       0.08339228
O        3.20158949      -1.00494313      -0.25857266
O        2.45129332       1.54865803       0.00428707
O        1.62501930      -0.26782115       1.62206826
H       -1.09138633      -0.96421978       2.20363832
H       -2.25144603       0.89985527      -1.06366825
H       -0.88957661      -1.52280723      -1.25021573
H        0.12506390       1.63654409      -0.51438524
H       -0.09234824       0.98139069      -2.14892483
H        2.06823740      -1.08715007       1.87288789
17
Properties=species:S:1:pos:R:3 relative_energy_eV=0.0019494077423587441 branch=left pbc="F F F"
O       -1.85477425       1.06710007       1.48611779
C       -1.59787052       0.11368501       0.78133620
O       -1.32497866      -1.11665690       1.25689494
C       -1.49207061       0.19242181      -0.72685617
O       -1.72871374      -1.03479048      -1.37955922
C       -0.10086044       0.73762898      -1.06797075
O        0.83403079      -0.29211266      -0.84366058
P        2.22286231       0.06374558       0.06842111
O        3.17574116      -1.05314060      -0.23672373
O        2.48940755       1.52937921      -0.06314186
O        1.62371124      -0.20677400       1.61898634
H       -1.09615945      -0.99907314       2.19177460
H       -2.25084469       0.90349861      -1.05805522
H       -0.89590837      -1.51881357      -1.26464323
H        0.12481685       1.62720655      -0.47802195
H       -0.08686457       1.01226283      -2.12686484
H        2.05587200      -1.02093939       1.90532110
17
Properties=species:S:1:pos:R:3 relative_energy_eV=0.0025500220799585804 branch=left pbc="F F F"
O       -1.84678973       1.05459877       1.49472279
C       -1.59561608       0.10563948       0.78231870
O       -1.32976034      -1.12948159       1.25083226
C       -1.49099252       0.19388971      -0.72576705
O       -1.72339855      -1.03270991      -1.38155638
C       -0.10026561       0.74330634      -1.06473641
O        0.83133103      -0.28936399      -0.84341352
P        2.22475668       0.06146495       0.06206109
O        3.16268998      -1.07333501      -0.22240103
O        2.51434851       1.52027232      -0.09418538
O        1.61673884      -0.17745079       1.61520375
H       -1.10138256      -1.01647322       2.18627119
H       -2.25386851       0.90385588      -1.04945247
H       -0.88937714      -1.51535091      -1.26384243
H        0.12957492       1.62938839      -0.47117577
H       -0.08525802       1.02230931      -2.12169199
H        2.03466558      -0.99593196       1.91016691
17
Properties=species:S:1:pos:R:3 relative_energy_eV=0.0030095292495389003 branch=left pbc="F F F"
O       -1.84757025       1.04623600       1.50167934
C       -1.59390601       0.10105767       0.78500776
O       -1.32686962      -1.13439283       1.25141888
C       -1.48750961       0.19381088      -0.72350308
O       -1.71880508      -1.02977860      -1.38506876
C       -0.09830557       0.74626652      -1.06494994
O        0.83637188      -0.28664799      -0.85531156
P        2.22601237       0.05990330       0.05775875
O        3.15962756      -1.08098999      -0.21499384
O        2.52517898       1.51612898      -0.10345469
O        1.60608700      -0.16897530       1.60821870
H       -1.10839849      -1.01994428       2.18918226
H       -2.25025111       0.90462258      -1.04653603
H       -0.89017230      -1.51912547      -1.25998063
H        0.13241431       1.62980873      -0.46696958
H       -0.08942279       1.03068903      -2.12096731
H        2.02291505      -0.98404139       1.91182403
17
Properties=species:S:1:pos:R:3 relative_energy_eV=0.0038102599464764353 branch=left pbc="F F F"
O       -1.82487489       1.04131769       1.50969503
C       -1.58259211       0.09575354       0.78982386
O       -1.33515739      -1.14660417       1.24941249
C       -1.48222027       0.19489165      -0.71801023
O       -1.72122770      -1.02590849      -1.38278108
C       -0.09600188       0.74739035      -1.07091770
O        0.84489844      -0.28055154      -0.86767617
P        2.22851598       0.06091591       0.05653369
O        3.15409467      -1.08991325      -0.20245183
O        2.54145742       1.51410884      -0.10715940
O        1.59182537      -0.15156829       1.60178474
H       -1.12462591      -1.04467469       2.19071733
H       -2.24679213       0.90811354      -1.03205401
H       -0.89133373      -1.51536737      -1.26654428
H        0.13665498       1.63386165      -0.47927811
H       -0.09861692       1.02694515      -2.12785076
H        2.00339240      -0.96408275       1.92011083
17
Properties=species:S:1:pos:R:3 relative_energy_eV=0.004879632080701413 branch=left pbc="F F F"
O       -1.81348993       1.03563280       1.51484185
C       -1.58122052       0.09207392       0.78924492
O       -1.34381552      -1.15471248       1.24326799
C       -1.48284324       0.19678274      -0.71808490
O       -1.72532584      -1.02252746      -1.38438187
C       -0.09697396       0.74924597      -1.07078519
O        0.84050667      -0.28229669      -0.87073856
P        2.22384504       0.05461348       0.05485286
O        3.14177037      -1.10537031      -0.19269290
O        2.55036966       1.50420775      -0.11725784
O        1.58271022      -0.14685092       1.59942518
H       -1.12645138      -1.05437374       2.18181435
H       -2.24740543       0.91106169      -1.02765046
H       -0.89245486      -1.51050608      -1.27749576
H        0.13966792       1.63071486      -0.47344919
H       -0.10115740       1.03955896      -2.12599961
H        2.02966457      -0.93262671       1.93844351
17
Properties=species:S:1:pos:R:3 relative_energy_eV=0.006840329435362946 branch=left pbc="F F F"
O       -1.80781515       1.03245994       1.51896219
C       -1.57984045       0.09093916       0.79010965
O       -1.34987494      -1.15903360       1.23524698
C       -1.48339402       0.20118338      -0.71716542
O       -1.72291770      -1.01556277      -1.38769254
C       -0.09744584       0.75505986      -1.06567858
O        0.83447412      -0.28049233      -0.86302551
P        2.22238377       0.04779692       0.05066714
O        3.13412593      -1.11696842      -0.19913647
O        2.55650552       1.49414513      -0.13510359
O        1.57873238      -0.14797788       1.59734426
H       -1.14064207      -1.07198177       2.17524799
H       -2.24997791       0.91419124      -1.02377131
H       -0.89203950      -1.50522716      -1.27825097
H        0.13802952       1.63956181      -0.47186474
H       -0.09211202       1.03504661      -2.12198620
H        2.04920478      -0.90851229       1.95945142
17
Properties=species:S:1:pos:R:3 relative_energy_eV=0.013055132661975222 branch=left pbc="F F F"
O       -1.75940000       1.04683253       1.51277946
C       -1.58153376       0.08894787       0.78961117
O       -1.40590921      -1.16513630       1.25394914
C       -1.48154892       0.19347904      -0.71715426
O       -1.70887995      -1.02395209      -1.39241571
C       -0.09617197       0.75312382      -1.05466121
O        0.83201944      -0.28558241      -0.84873897
P        2.23843993       0.05487041       0.03577747
O        3.15423773      -1.10458838      -0.21757578
O        2.55995914       1.50040886      -0.16207109
O        1.61460514      -0.13223216       1.58695624
H       -1.24738936      -1.06899854       2.20889559
H       -2.25242599       0.90039135      -1.03473469
H       -0.87812593      -1.51400632      -1.27422899
H        0.13817277       1.63268326      -0.45132944
H       -0.08895065       1.04288342      -2.10870331
H        2.06029819      -0.91449615       1.93699855
17
Properties=species:S:1:pos:R:3 relative_energy_eV=0.03269572557474021 branch=left pbc="F F F"
O       -1.79674356       1.02761122       1.54452193
C       -1.58851126       0.08883990       0.80110346
O       -1.46713920      -1.17397529       1.25531081
C       -1.46574474       0.20301230      -0.70679693
O       -1.72489972      -1.01083737      -1.37691075
C       -0.07990163       0.73815737      -1.05567544
O        0.84052088      -0.29187242      -0.79133068
P        2.28448382       0.07794418       0.01664835
O        3.18237188      -1.08363615      -0.28392419
O        2.58888929       1.52283193      -0.20522223
O        1.76439913      -0.08311171       1.60320091
H       -1.50668132      -1.08696217       2.22050921
H       -2.22282114       0.92132243      -1.01978652
H       -0.92213562      -1.54267733      -1.22387667
H        0.15020216       1.64619019      -0.49280741
H       -0.06191755       0.98913093      -2.12017257
H        2.12302528      -0.93733944       1.89856295
17
Properties=species:S:1:pos:R:3 relative_energy_eV=0.061994244111701846 branch=left pbc="F F F"
O       -1.72230314       1.12072312       1.48161936
C       -1.60575442       0.11568302       0.81702625
O       -1.61944402      -1.12004019       1.35932832
C       -1.44331198       0.12846116      -0.68940629
O       -1.56859792      -1.13923060      -1.29100416
C       -0.08764709       0.75720619      -1.03166296
O        0.88567069      -0.23896094      -0.85173918
P        2.33191818       0.10210875      -0.01684797
O        3.22128092      -1.03762064      -0.41755146
O        2.62215818       1.56479574      -0.14481033
O        1.81938456      -0.13500821       1.56299380
H       -1.71322585      -0.97098273       2.31239122
H       -2.24839809       0.76774812      -1.06828130
H       -0.67783544      -1.52393585      -1.19043240
H        0.09146071       1.63983858      -0.41669922
H       -0.09975411       1.05827054      -2.08392321
H        1.91179521      -1.08442623       1.73235337
17
Properties=species:S:1:pos:R:3 relative_energy_eV=0.07968846539006336 branch=left pbc="F F F"
O       -1.80293717       1.15872670       1.45988455
C       -1.65912422       0.12764340       0.82943236
O       -1.71213475      -1.09728406       1.39226216
C       -1.43440461       0.10753116      -0.67243897
O       -1.51713084      -1.16378534      -1.27098630
C       -0.08402394       0.75937060      -1.00091402
O        0.90514307      -0.22665863      -0.85866159
P        2.36834260       0.09729783      -0.04605291
O        3.25469320      -1.04689076      -0.43495348
O        2.67330536       1.55169532      -0.18843314
O        1.86614111      -0.14821922       1.52992824
H       -1.82502385      -0.94332732       2.34735820
H       -2.24435328       0.72445015      -1.07312590
H       -0.60550693      -1.50576894      -1.20031158
H        0.09402441       1.62537190      -0.36228776
H       -0.12477942       1.08897113      -2.04462055
H        1.94516538      -1.10449348       1.65727420
17
Properties=species:S:1:pos:R:3 relative_energy_eV=0.13275478161813226 branch=left pbc="F F F"
O       -2.04468855       1.23339080       1.33363533
C       -1.76805647       0.17054388       0.81215663
O       -1.78154753      -0.99796648       1.48279272
C       -1.41035114       0.03196592      -0.65299744
O       -1.29827474      -1.29352368      -1.10114557
C       -0.08787370       0.79982190      -0.93126404
O        0.94726909      -0.14872838      -1.02442894
P        2.38336778       0.06383471      -0.13592938
O        3.24686959      -1.07424266      -0.58511489
O        2.73240982       1.51620630      -0.15750482
O        1.79540233      -0.27441447       1.40111391
H       -1.91481163      -0.74756213       2.40920606
H       -2.24149524       0.52508527      -1.17756608
H       -0.32464898      -1.42949455      -1.12639856
H        0.11447290       1.52278547      -0.14423399
H       -0.18248467       1.32566211      -1.88680913
H        1.93183606      -1.21873198       1.54784098
17
Properties=species:S:1:pos:R:3 relative_energy_eV=0.1424274850069196 branch=left pbc="F F F"
O       -2.26096693       1.25851068       1.19751092
C       -1.84180166       0.18994478       0.79616145
O       -1.75733867      -0.89726835       1.58833502
C       -1.36895509      -0.02799728      -0.62522826
O       -1.17181577      -1.37351856      -0.95796070
C       -0.07088483       0.81361087      -0.86877714
O        0.99085000      -0.06497311      -1.13754011
P        2.39900013       0.06397492      -0.19015101
O        3.25620189      -1.05942681      -0.68887607
O        2.75850970       1.51140524      -0.11082217
O        1.75746579      -0.36475145       1.29270902
H       -2.02993406      -0.58413266       2.46430740
H       -2.17716416       0.37962612      -1.24526789
H       -0.19747038      -1.43357125      -1.06745185
H        0.15503215       1.45074436      -0.01596616
H       -0.21879830       1.46270932      -1.73224939
H        1.87546431      -1.32025397       1.36461953
17
Properties=species:S:1:pos:R:3 relative_energy_eV=0.14475431043319986 branch=left pbc="F F F"
O       -2.31281736       1.25584233       1.17091671
C       -1.85559276       0.19510465       0.79226489
O       -1.75010366      -0.87682040       1.60078762
C       -1.36403082      -0.03105136      -0.62051412
O       -1.15460597      -1.37666877      -0.94208161
C       -0.07009866       0.81525808      -0.85965983
O        0.99288981      -0.05627010      -1.14512093
P        2.40781476       0.06076044      -0.20387204
O        3.26018971      -1.06146201      -0.71281082
O        2.77542889       1.50533050      -0.11429612
O        1.76802396      -0.37701069       1.27863191
H       -2.06843408      -0.56881427       2.46276086
H       -2.17125825       0.37194919      -1.24457185
H       -0.17988319      -1.43193765      -1.04634603
H        0.15754740       1.43203897       0.00637011
H       -0.22900888       1.47919313      -1.71057537
H        1.89133305      -1.33080906       1.35146919
17
Properties=species:S:1:pos:R:3 relative_energy_eV=0.1466885958070634 branch=left pbc="F F F"
O       -2.36872397       1.24839169       1.14503399
C       -1.86740147       0.19913159       0.78951497
O       -1.73379020      -0.85588072       1.61641287
C       -1.35846121      -0.03799952      -0.61301694
O       -1.12776828      -1.38790299      -0.90279154
C       -0.07011576       0.82360567      -0.85394899
O        1.00055218      -0.03223004      -1.15881708
P        2.41474912       0.05902742      -0.20876842
O        3.26114853      -1.06290034      -0.72861267
O        2.79441567       1.49902063      -0.08979108
O        1.76031580      -0.39903136       1.26054806
H       -2.06898497      -0.54234217       2.46960112
H       -2.16576658       0.34037171      -1.25470555
H       -0.15491302      -1.41978326      -1.03659839
H        0.16472601       1.43907576       0.01189490
H       -0.24564649       1.49174617      -1.69807572
H        1.86305844      -1.35766722       1.31547306
17
Properties=species:S:1:pos:R:3 relative_energy_eV=0.14888342405174626 branch=left pbc="F F F"
O       -2.40954423       1.24050567       1.13198013
C       -1.88236286       0.20017555       0.78754541
O       -1.72834907      -0.84410946       1.62542541
C       -1.35446030      -0.04094907      -0.61119142
O       -1.10717787      -1.39059493      -0.88907522
C       -0.07102642       0.83336880      -0.85452081
O        1.00273954      -0.01613263      -1.16362237
P        2.41188642       0.05299984      -0.20832547
O        3.24763638      -1.07008386      -0.74327333
O        2.80449033       1.48767466      -0.07932567
O        1.75978803      -0.41172307       1.25903686
H       -2.05603871      -0.53116766       2.48208251
H       -2.15637400       0.32600711      -1.26469054
H       -0.13443403      -1.41126497      -1.02209643
H        0.15876345       1.44926380       0.01318826
H       -0.24757380       1.50253290      -1.69948731
H        1.85943078      -1.37186961       1.29970248
17
Properties=species:S:1:pos:R:3 relative_energy_eV=0.1542023904112284 branch=left pbc="F F F"
O       -2.43980149       1.22789559       1.09218671
C       -1.88967045       0.19170745       0.77253178
O       -1.70284526      -0.82618216       1.63465449
C       -1.35087080      -0.05197535      -0.61411333
O       -1.08203273      -1.39760674      -0.88056175
C       -0.08121296       0.84328374      -0.84391129
O        1.00250562       0.01684515      -1.16340861
P        2.40770978       0.05227782      -0.20299736
O        3.21379448      -1.08351405      -0.75801627
O        2.83537072       1.47476059      -0.04599137
O        1.74582416      -0.43064869       1.25224997
H       -2.01202050      -0.48794630       2.48836251
H       -2.14932703       0.30735109      -1.27430458
H       -0.10935948      -1.40832992      -1.01292524
H        0.13419597       1.45805239       0.02878648
H       -0.27372795       1.50851506      -1.68608421
H        1.84886145      -1.38985265       1.27689450
17
Properties=species:S:1:pos:R:3 relative_energy_eV=0.16072684481696342 branch=left pbc="F F F"
O       -2.46220397       1.22696496       1.06099969
C       -1.88389379       0.19851403       0.76480650
O       -1.66148974      -0.78735704       1.65458406
C       -1.33955597      -0.07264306      -0.61652109
O       -1.03047884      -1.41795419      -0.85241006
C       -0.09077825       0.85728199      -0.84529171
O        1.01253931       0.06833057      -1.19649463
P        2.40205337       0.04302989      -0.19815798
O        3.20952933      -1.08358356      -0.77138933
O        2.83868325       1.45572358       0.01325368
O        1.70393339      -0.46720271       1.23281076
H       -1.96562688      -0.43073904       2.50276667
H       -2.14674481       0.23943170      -1.29275272
H       -0.06228201      -1.39786224      -1.01561700
H        0.12250920       1.45521996       0.03916052
H       -0.32273593       1.54708252      -1.65965076
H        1.77393570      -1.42960442       1.24325588
17
Properties=species:S:1:pos:R:3 relative_energy_eV=0.16566232573677553 branch=left pbc="F F F"
O       -2.45848895       1.23094419       1.03961349
C       -1.87358632       0.20023248       0.76502919
O       -1.63952064      -0.76462239       1.67538966
C       -1.32881340      -0.08796136      -0.61179220
O       -0.99366868      -1.43310469      -0.81169691
C       -0.09103393       0.85710657      -0.85065037
O        1.01745645       0.08574862      -1.22615885
P        2.38762295       0.04945528      -0.19853802
O        3.21175021      -1.06065017      -0.77557567
O        2.82279947       1.45577468       0.05439136
O        1.66181398      -0.49024957       1.20650060
H       -1.95285047      -0.39893556       2.51663159
H       -2.13942929       0.19970435      -1.29639988
H       -0.03260749      -1.38392097      -1.00905940
H        0.13147431       1.43213410       0.04550872
H       -0.32382247       1.56687162      -1.64854757
H        1.69829749      -1.45389422       1.18870688
17
Properties=species:S:1:pos:R:3 relative_energy_eV=0.17223716836087988 branch=left pbc="F F F"
O       -2.45191298       1.24322943       1.02135035
C       -1.85668046       0.21211831       0.76995891
O       -1.63034397      -0.73922693       1.69478609
C       -1.29534103      -0.10170966      -0.59114347
O       -0.94176317      -1.44743740      -0.75374160
C       -0.07655853       0.85389493      -0.84603593
O        1.03025741       0.09625499      -1.25482619
P        2.37576232       0.05461274      -0.20262976
O        3.23579316      -1.02043736      -0.79522603
O        2.76521678       1.46256463       0.10620811
O        1.61187290      -0.51707628       1.17048912
H       -1.95416488      -0.36086887       2.52573494
H       -2.10639592       0.15004191      -1.28635948
H        0.00439582      -1.39121176      -1.00487636
H        0.15949499       1.42250188       0.05312886
H       -0.33590148       1.56411904      -1.63391404
H        1.56366212      -1.47673677       1.09044925
17
Properties=species:S:1:pos:R:3 relative_energy_eV=0.18570123007157235 branch=left pbc="F F F"
O       -2.44037933       1.25622192       1.00883310
C       -1.84723881       0.21900014       0.77864077
O       -1.63679376      -0.71780072       1.72329533
C       -1.27123947      -0.12191642      -0.57159348
O       -0.89149216      -1.46927201      -0.69223538
C       -0.06723115       0.84962265      -0.84689017
O        1.04236099       0.11167657      -1.28337372
P        2.37509893       0.06346384      -0.19632910
O        3.26665185      -0.97884350      -0.79703237
O        2.72322597       1.47462991       0.15068808
O        1.60143422      -0.55511811       1.15017149
H       -1.97018005      -0.32975982       2.54668424
H       -2.07405915       0.11041829      -1.28677821
H        0.02620877      -1.39773907      -1.03760932
H        0.20328204       1.42321805       0.04040357
H       -0.37019830       1.56098240      -1.61837184
H        1.42794241      -1.49415133       0.99484993
17
Properties=species:S:1:pos:R:3 relative_energy_eV=0.22336145847293665 branch=left pbc="F F F"
O       -2.42964145       1.26146723       0.98533661
C       -1.83561481       0.21827753       0.79138926
O       -1.65667761      -0.70519027       1.75638436
C       -1.24434562      -0.13191724      -0.54520423
O       -0.84951274      -1.47914394      -0.62232942
C       -0.06411756       0.85063107      -0.84590811
O        1.05557527       0.12545484      -1.28210213
P        2.39987566       0.06194576      -0.18977295
O        3.34557567      -0.92131244      -0.80452959
O        2.70940137       1.47070699       0.19730804
O        1.63172395      -0.61149880       1.12683453
H       -2.00344101      -0.29060080       2.56171614
H       -2.06290318       0.05894088      -1.25266108
H        0.00688419      -1.43549177      -1.09059504
H        0.17456681       1.44908761       0.03181869
H       -0.35571423       1.55738919      -1.62551538
H        1.27575827      -1.47411299       0.87118324
17
Properties=species:S:1:pos:R:3 relative_energy_eV=0.2572869732612162 branch=left pbc="F F F"
O       -2.42613385       1.28144330       0.99331224
C       -1.84150304       0.23159499       0.80256536
O       -1.66120406      -0.68457676       1.77265889
C       -1.23751360      -0.14862528      -0.52144853
O       -0.81204686      -1.49084225      -0.58395961
C       -0.05731374       0.83752650      -0.84506759
O        1.07458388       0.12950529      -1.25566889
P        2.42667033       0.06811042      -0.17607049
O        3.36914706      -0.86696481      -0.86328121
O        2.71653986       1.46539819       0.27179507
O        1.66935106      -0.67231134       1.10750431
H       -2.04185664      -0.27760020       2.56519772
H       -2.04748268       0.01964103      -1.24125258
H        0.00302039      -1.42107456      -1.12022586
H        0.19293396       1.44550445       0.02027977
H       -0.37079132       1.50070509      -1.65677620
H        1.14099218      -1.41280124       0.79379053
17
Properties=species:S:1:pos:R:3 relative_energy_eV=0.2977754411913338 branch=left pbc="F F F"
O       -2.43508286       1.27929398       0.99130976
C       -1.82825707       0.24315959       0.80718819
O       -1.66059084      -0.68404318       1.77297363
C       -1.22462329      -0.13159802      -0.51638913
O       -0.78819293      -1.47613127      -0.53341829
C       -0.04615658       0.85570186      -0.86357566
O        1.06396881       0.10067774      -1.26037576
P        2.42532425       0.04418612      -0.18617912
O        3.38542460      -0.80380890      -0.95436042
O        2.68605900       1.42524304       0.33120039
O        1.74635382      -0.77154494       1.10737462
H       -2.07781964      -0.31469900       2.56628031
H       -2.03306212       0.00787686      -1.25068723
H        0.03672876      -1.40791048      -1.06645570
H        0.20610602       1.51077946      -0.02358113
H       -0.38383029       1.48277545      -1.69288534
H        1.02504320      -1.35532539       0.83493393
17
Properties=species:S:1:pos:R:3 relative_energy_eV=0.3293975740452879 branch=left pbc="F F F"
O       -2.45272180       1.27856761       1.01078198
C       -1.83252558       0.25227563       0.81634282
O       -1.67119619      -0.68732616       1.77070123
C       -1.21244219      -0.11905946      -0.50503001
O       -0.74795443      -1.45401947      -0.51725297
C       -0.05379752       0.87690498      -0.88172525
O        1.06453002       0.12962495      -1.27906571
P        2.41783951       0.02258924      -0.19443205
O        3.39829874      -0.81132223      -0.94871732
O        2.64251121       1.41465048       0.31506339
O        1.79278405      -0.87420345       1.07658076
H       -2.09701299      -0.32346507       2.56105228
H       -2.03450678      -0.02691854      -1.22433471
H        0.09245421      -1.36610879      -1.02823213
H        0.19823369       1.53369361      -0.04575932
H       -0.37357540       1.49128714      -1.72699834
H        0.96647415      -1.33253754       0.86437851
17
Properties=species:S:1:pos:R:3 relative_energy_eV=0.5212998256065475 branch=left pbc="F F F"
O       -2.42193877       1.26883003       1.00422506
C       -1.84051375       0.21682157       0.82641603
O       -1.68005728      -0.68743541       1.81846638
C       -1.23631948      -0.14241993      -0.50265801
O       -0.63941331      -1.41265745      -0.49397847
C       -0.08037007       0.86434142      -0.89945330
O        1.05051719       0.11403472      -1.27686560
P        2.43108200      -0.01766690      -0.18909120
O        3.43492394      -0.87230605      -0.90274676
O        2.59149294       1.38037628       0.32004139
O        1.77795973      -0.90939748       1.05579451
H       -2.12835537      -0.29165091       2.58483903
H       -2.06813460      -0.05228702      -1.22325819
H        0.15797353      -1.19666589      -1.01983398
H        0.20587754       1.50378714      -0.08591212
H       -0.41140802       1.50315403      -1.71356326
H        0.95407626      -1.26422522       0.76093168
17
Properties=species:S:1:pos:R:3 relative_energy_eV=0.8873978204355808 branch=left pbc="F F F"
O       -2.38057646       1.29490791       0.97684208
C       -1.80774329       0.22512628       0.86956283
O       -1.73645907      -0.65599132       1.88717251
C       -1.16768535      -0.22862245      -0.41588522
O       -0.51720020      -1.45370629      -0.41818325
C       -0.13314008       0.86590020      -0.88510013
O        0.95051133       0.08050417      -1.40175377
P        2.48386815      -0.08198955      -0.08471128
O        3.47931432      -0.88490596      -0.84128030
O        2.64658332       1.33650996       0.33223681
O        1.57607673      -0.93135346       0.94398459
H       -2.17445943      -0.20088006       2.62425345
H       -1.99039962      -0.25517032      -1.14258209
H        0.43686972      -0.86456885      -1.10715859
H        0.23942541       1.49425018      -0.07812410
H       -0.53247692       1.49953950      -1.67574714
H        0.72488327      -1.23491703       0.47982689
17
Properties=species:S:1:pos:R:3 relative_energy_eV=0.920758498228679 branch=left pbc="F F F"
O       -2.37355813       1.31669382       0.97308115
C       -1.81107252       0.23975975       0.87924459
O       -1.75842689      -0.63990877       1.89983417
C       -1.14568989      -0.24719371      -0.39421668
O       -0.46864620      -1.44838692      -0.32029434
C       -0.15250462       0.85387658      -0.89237932
O        0.93756185       0.12507342      -1.47540419
P        2.50609712      -0.10534339      -0.02342931
O        3.47809080      -0.90778058      -0.81670590
O        2.65492885       1.32788948       0.36255751
O        1.56496611      -0.93228007       0.94110331
H       -2.17864417      -0.18753259       2.64752706
H       -1.98090839      -0.31294304      -1.11824599
H        0.53933246      -0.82137664      -1.30436977
H        0.25784806       1.46694144      -0.09435702
H       -0.60427638       1.50477739      -1.63952194
H        0.63229357      -1.22763342       0.43893006
17
Properties=species:S:1:pos:R:3 relative_energy_eV=0.9504620228144631 branch=ts pbc="F F F"
O       -2.37309951       1.31847732       0.97125676
C       -1.81090854       0.24328054       0.88030570
O       -1.76002511      -0.63934020       1.89907356
C       -1.14265671      -0.24929004      -0.38799237
O       -0.47654508      -1.45660366      -0.29462495
C       -0.15520397       0.85057404      -0.89530506
O        0.93025382       0.13810307      -1.50024066
P        2.50519517      -0.12063321       0.00412804
O        3.47384119      -0.90381827      -0.81508173
O        2.65462152       1.32217158       0.36010372
O        1.55159403      -0.93824077       0.93549822
H       -2.17572615      -0.18860422       2.65012232
H       -1.97014844      -0.33244647      -1.11353631
H        0.58014154      -0.80667354      -1.36654543
H        0.26227411       1.46017043      -0.09677585
H       -0.61418241       1.50789629      -1.63260203
H        0.53548430      -1.23738121       0.37229215
17
Properties=species:S:1:pos:R:3 relative_energy_eV=0.8755561281432165 branch=right pbc="F F F"
O       -2.37474507       1.32027245       0.96933009
C       -1.81433949       0.24588786       0.88240178
O       -1.75793126      -0.63866489       1.89668744
C       -1.15168674      -0.23800113      -0.38527609
O       -0.49195233      -1.46436596      -0.28299920
C       -0.15498339       0.84862001      -0.89796890
O        0.91193972       0.15082173      -1.52901786
P        2.53083433      -0.13200030       0.04864689
O        3.47287756      -0.89628573      -0.82431052
O        2.65724214       1.32838669       0.34802905
O        1.57087390      -0.93389019       0.94481091
H       -2.17288007      -0.19049481       2.64979976
H       -1.96642775      -0.34841457      -1.11267740
H        0.62271834      -0.79585549      -1.41674051
H        0.26597199       1.45468975      -0.09620471
H       -0.61876430       1.50959489      -1.62798861
H        0.40368039      -1.28964962       0.31027662
17
Properties=species:S:1:pos:R:3 relative_energy_eV=0.7454998024186352 branch=right pbc="F F F"
O       -2.40171594       1.34107443       0.98203627
C       -1.83194252       0.26995680       0.88213682
O       -1.75473972      -0.61618220       1.89325628
C       -1.15771233      -0.24373081      -0.37341884
O       -0.57625740      -1.49545733      -0.22320194
C       -0.17577222       0.82928390      -0.92684392
O        0.86635822       0.20165535      -1.66582049
P        2.61171313      -0.12861639       0.12737075
O        3.51055659      -0.87474943      -0.81032937
O        2.71585238       1.34948728       0.35464781
O        1.68045134      -0.93559258       1.03731958
H       -2.17175157      -0.19215831       2.65693238
H       -1.96922156      -0.36438406      -1.10133066
H        0.73677954      -0.75705490      -1.57568098
H        0.28756864       1.40376642      -0.12336825
H       -0.67778618       1.54369612      -1.58830405
H        0.24004770      -1.40034360       0.33139730
17
Properties=species:S:1:pos:R:3 relative_energy_eV=0.7109424063310144 branch=right pbc="F F F"
O       -2.40703251       1.34406328       0.97832731
C       -1.83315438       0.27759418       0.88966579
O       -1.75312863      -0.60537794       1.90649548
C       -1.17367183      -0.24133058      -0.37877753
O       -0.59726820      -1.50976896      -0.24294955
C       -0.17768399       0.81355009      -0.93283530
O        0.86398434       0.22253763      -1.69524194
P        2.64534200      -0.12330065       0.14562674
O        3.53986267      -0.87103869      -0.79812539
O        2.74404431       1.35503839       0.37529543
O        1.69598766      -0.91686522       1.03608729
H       -2.17798106      -0.17799989       2.66510757
H       -1.98527869      -0.37415733      -1.10261791
H        0.76049909      -0.74155596      -1.64980652
H        0.30882868       1.37021079      -0.13571357
H       -0.71289615       1.53518737      -1.55292675
H        0.19197476      -1.42613587       0.36918751
17
Properties=species:S:1:pos:R:3 relative_energy_eV=0.6975136631444911 branch=right pbc="F F F"
O       -2.40005994       1.33761466       0.96896253
C       -1.83280283       0.26747770       0.88390655
O       -1.74748928      -0.59462597       1.91681574
C       -1.17266036      -0.26068050      -0.38095112
O       -0.58854153      -1.51761914      -0.24742928
C       -0.17952171       0.80601722      -0.92448251
O        0.86803423       0.22647556      -1.69258251
P        2.64465054      -0.11793903       0.13831604
O        3.56286477      -0.86731414      -0.78270327
O        2.77001369       1.35749590       0.39226575
O        1.66576157      -0.90415488       1.00655509
H       -2.18196450      -0.15653101       2.66557349
H       -1.99480895      -0.37185898      -1.09764454
H        0.74200426      -0.73549474      -1.67950682
H        0.31719641       1.35033885      -0.12268704
H       -0.72460905       1.52789781      -1.53881098
H        0.18436072      -1.41644871       0.37120155
17
Properties=species:S:1:pos:R:3 relative_energy_eV=0.6883109061418509 branch=right pbc="F F F"
O       -2.40227943       1.33369678       0.95012318
C       -1.82751973       0.26598103       0.88383902
O       -1.74101041      -0.58555598       1.92534357
C       -1.17708636      -0.26986701      -0.37715803
O       -0.61152094      -1.53451191      -0.23237481
C       -0.18370778       0.79541337      -0.91728714
O        0.85806931       0.23452845      -1.70457167
P        2.65587569      -0.11035397       0.14646281
O        3.57820241      -0.86348155      -0.76356735
O        2.79819163       1.36026164       0.40468752
O        1.64841776      -0.88879150       0.98577734
H       -2.17719144      -0.13010631       2.66140976
H       -1.99638493      -0.37980504      -1.09689949
H        0.73454630      -0.72647434      -1.72130563
H        0.30624231       1.32808996      -0.10551110
H       -0.72353041       1.53263095      -1.51482894
H        0.19311406      -1.43100400       0.35265961
17
Properties=species:S:1:pos:R:3 relative_energy_eV=0.6856094003778708 branch=right pbc="F F F"
O       -2.40796403       1.33606598       0.94425066
C       -1.83664310       0.26584676       0.88007492
O       -1.73958735      -0.57280464       1.92963299
C       -1.18047770      -0.27838025      -0.37838759
O       -0.61076713      -1.54232186      -0.23642911
C       -0.18500360       0.79095214      -0.91107944
O        0.86167066       0.23555963      -1.69782502
P        2.65666611      -0.10629411       0.14318751
O        3.58044103      -0.86933796      -0.75968473
O        2.80431303       1.36355984       0.41103008
O        1.64287023      -0.88104216       0.97915347
H       -2.17125565      -0.11581632       2.66826349
H       -1.99747212      -0.38823030      -1.09991606
H        0.73233912      -0.72434071      -1.73239919
H        0.30387363       1.31715160      -0.09427848
H       -0.72442666       1.53583956      -1.50126198
H        0.20385152      -1.43575661       0.33246716
17
Properties=species:S:1:pos:R:3 relative_energy_eV=0.6841522549730144 branch=right pbc="F F F"
O       -2.41729814       1.33327765       0.93319774
C       -1.84157823       0.26503827       0.87805963
O       -1.73936144      -0.56721521       1.93279986
C       -1.18425898      -0.28070804      -0.37934136
O       -0.61198894      -1.54340471      -0.24217968
C       -0.18648477       0.78950638      -0.90431240
O        0.86102158       0.24073618      -1.69369300
P        2.65751385      -0.10822132       0.14706780
O        3.57628402      -0.86713637      -0.76254959
O        2.80865492       1.36197199       0.40477093
O        1.64507765      -0.88254766       0.98497992
H       -2.16153546      -0.10281137       2.67242357
H       -1.99804548      -0.39367728      -1.10408643
H        0.73834586      -0.71948903      -1.73533209
H        0.30479435       1.30745512      -0.08314514
H       -0.72518364       1.53477541      -1.49375344
H        0.20647078      -1.43689945       0.32189236
17
Properties=species:S:1:pos:R:3 relative_energy_eV=0.6816939225609531 branch=right pbc="F F F"
O       -2.44761081       1.31286219       0.90567607
C       -1.85227333       0.25454715       0.86538710
O       -1.72989150      -0.55310654       1.93621688
C       -1.18709491      -0.29114240      -0.38570227
O       -0.60993020      -1.55056860      -0.24203998
C       -0.18749950       0.78523661      -0.89227835
O        0.86278497       0.25510593      -1.68941140
P        2.65826059      -0.11135230       0.14137289
O        3.56846585      -0.87653598      -0.77355601
O        2.81434158       1.35842598       0.40350677
O        1.65160787      -0.88325520       0.98947702
H       -2.13431564      -0.06562190       2.67158587
H       -1.99894256      -0.39218445      -1.11447658
H        0.74867007      -0.70538818      -1.73832171
H        0.29555739       1.28830924      -0.05838805
H       -0.72508317       1.54178883      -1.46594017
H        0.20538112      -1.43646979       0.32369057
17
Properties=species:S:1:pos:R:3 relative_energy_eV=0.6790008222742472 branch=right pbc="F F F"
O       -2.49296295       1.29210802       0.87955608
C       -1.86968240       0.24913173       0.85273935
O       -1.70589970      -0.53423190       1.93691972
C       -1.19060312      -0.29664659      -0.38908985
O       -0.60803134      -1.55361957      -0.23834067
C       -0.18960236       0.78964011      -0.87748134
O        0.85847507       0.26707020      -1.68309612
P        2.66091942      -0.11795502       0.13874842
O        3.55322577      -0.88455474      -0.79005760
O        2.82148913       1.34990489       0.39988505
O        1.65496376      -0.88751139       0.98723298
H       -2.10715211      -0.03855043       2.66730649
H       -1.98607347      -0.40411101      -1.13429749
H        0.75991525      -0.69587806      -1.73473682
H        0.29497927       1.27927564      -0.03417744
H       -0.72436216       1.55767877      -1.44261954
H        0.20282963      -1.44110002       0.33830733
17
Properties=species:S:1:pos:R:3 relative_energy_eV=0.6753575160873879 branch=right pbc="F F F"
O       -2.57545690       1.24658376       0.83378817
C       -1.89413394       0.24022564       0.83088732
O       -1.66541134      -0.48974080       1.94078783
C       -1.19294449      -0.30695372      -0.39817652
O       -0.60824178      -1.55850310      -0.22934978
C       -0.18926474       0.78814725      -0.85304413
O        0.85633651       0.28960074      -1.67423873
P        2.65847316      -0.12577064       0.12483344
O        3.54134910      -0.89704109      -0.81210221
O        2.85083415       1.33675166       0.40396105
O        1.65306063      -0.89086939       0.98039659
H       -2.06784329       0.01003487       2.66819070
H       -1.96511055      -0.42455515      -1.16541879
H        0.76439927      -0.67275273      -1.73507905
H        0.29463094       1.25383779       0.00288936
H       -0.72313633       1.57272064      -1.39153922
H        0.19488704      -1.44106513       0.35001237
17
Properties=species:S:1:pos:R:3 relative_energy_eV=0.6690710960356228 branch=right pbc="F F F"
O       -2.80605631       1.10079409       0.76020783
C       -1.96539069       0.22926834       0.80448823
O       -1.56225132      -0.36139562       1.94015144
C       -1.20635409      -0.30732059      -0.39814744
O       -0.62794193      -1.56326897      -0.20102208
C       -0.18030112       0.78933915      -0.81799104
O        0.83885566       0.31871055      -1.68590766
P        2.71390150      -0.15087369       0.13176444
O        3.51872557      -0.91610776      -0.87003824
O        2.93896763       1.30032262       0.41678890
O        1.69694864      -0.89616328       0.98205825
H       -2.04662526       0.06858496       2.66265487
H       -1.93508275      -0.40683239      -1.20613157
H        0.75490314      -0.64386516      -1.72671875
H        0.32599957       1.20257637       0.05091957
H       -0.72151450       1.59157271      -1.31982053
H        0.19564319      -1.42469093       0.35354164
17
Properties=species:S:1:pos:R:3 relative_energy_eV=0.6521656210607034 branch=right pbc="F F F"
O       -2.88513982       1.03586997       0.72691264
C       -1.98521901       0.21446303       0.78981764
O       -1.53702449      -0.31789507       1.95047291
C       -1.20994530      -0.30682467      -0.40415709
O       -0.61463882      -1.55128519      -0.20327137
C       -0.18740275       0.79040047      -0.79536017
O        0.82961552       0.32086635      -1.66764007
P        2.71678595      -0.15363358       0.11215475
O        3.51793337      -0.93403761      -0.88803449
O        2.97663936       1.29087109       0.42605393
O        1.70739628      -0.90162070       0.97409106
H       -2.03559555       0.11884563       2.65704478
H       -1.93475555      -0.40334035      -1.21886127
H        0.75986624      -0.64288436      -1.72997770
H        0.32606468       1.17655492       0.08430546
H       -0.71758087       1.61045634      -1.28553056
H        0.20542744      -1.41615596       0.34877720
17
Properties=species:S:1:pos:R:3 relative_energy_eV=0.6376412006902683 branch=right pbc="F F F"
O       -3.01488808       0.90023154       0.71001362
C       -2.02976568       0.19384200       0.78583800
O       -1.51436648      -0.22473612       1.96069614
C       -1.21487198      -0.29221678      -0.40492307
O       -0.60474931      -1.53157472      -0.20664504
C       -0.18041661       0.79530109      -0.78303259
O        0.82096413       0.32137304      -1.67319308
P        2.75451046      -0.17149360       0.10222750
O        3.53071320      -0.94327084      -0.92160395
O        3.05574651       1.26133269       0.42755586
O        1.73561310      -0.91437269       0.95752791
H       -2.06511002       0.17488781       2.64885039
H       -1.93181558      -0.40106067      -1.22316381
H        0.74804014      -0.64468930      -1.71989199
H        0.31879502       1.15426436       0.11403521
H       -0.68987549       1.64435263      -1.24095558
H        0.21390304      -1.39152027       0.34346175
17
Properties=species:S:1:pos:R:3 relative_energy_eV=0.6291404242947465 branch=right pbc="F F F"
O       -3.09705980       0.80410428       0.67996629
C       -2.05851243       0.17623823       0.77006126
O       -1.50315771      -0.15864400       1.95635209
C       -1.22157867      -0.30058538      -0.41018319
O       -0.60577097      -1.53677117      -0.19323151
C       -0.18906473       0.80297420      -0.75435937
O        0.81022273       0.35325643      -1.65758726
P        2.77935716      -0.18899416       0.08320253
O        3.53055673      -0.96366530      -0.95797286
O        3.09925558       1.23648612       0.42175158
O        1.75459931      -0.91886569       0.94097930
H       -2.06230868       0.24485413       2.63925192
H       -1.91789616      -0.41701261      -1.24538344
H        0.75834693      -0.61257009      -1.70608019
H        0.31884695       1.12001008       0.15551642
H       -0.67487806       1.67429135      -1.20209629
H        0.21146785      -1.38445637       0.35660975
17
Properties=species:S:1:pos:R:3 relative_energy_eV=0.6250083598388301 branch=right pbc="F F F"
O       -3.16237411       0.72200475       0.66516375
C       -2.08707397       0.16148607       0.76197669
O       -1.50026205      -0.09261549       1.95143509
C       -1.22594608      -0.29695512      -0.40675484
O       -0.60627100      -1.52832748      -0.17965293
C       -0.18785904       0.80473358      -0.73312015
O        0.81246572       0.37125925      -1.64460354
P        2.79992856      -0.19936295       0.06246431
O        3.53619951      -0.97955136      -0.98561046
O        3.15058975       1.21549484       0.41425497
O        1.76906676      -0.92389711       0.91766536
H       -2.08655015       0.29246596       2.62029670
H       -1.90607183      -0.42215756      -1.25286613
H        0.76347860      -0.59400749      -1.69416191
H        0.31746841       1.09519367       0.18510743
H       -0.67595541       1.68245169      -1.15971388
H        0.22159214      -1.37756542       0.35491627
17
Properties=species:S:1:pos:R:3 relative_energy_eV=0.6216953835391905 branch=right pbc="F F F"
O       -3.17222855       0.71012651       0.64633550
C       -2.09125698       0.16283345       0.75070443
O       -1.50321311      -0.07288399       1.94210902
C       -1.22167839      -0.30757604      -0.40665123
O       -0.60731670      -1.54012274      -0.16767715
C       -0.18977109       0.80027932      -0.71250165
O        0.81579147       0.38693955      -1.62766508
P        2.79999556      -0.20451738       0.05114534
O        3.52387949      -0.98727264      -1.00352216
O        3.15899821       1.20940679       0.39721412
O        1.77057962      -0.92524560       0.91150008
H       -2.08860341       0.31563254       2.61039840
H       -1.89344826      -0.42340786      -1.26128770
H        0.78522463      -0.57872216      -1.69177563
H        0.31196311       1.08938904       0.20886861
H       -0.69148249       1.67697460      -1.12803057
H        0.22499258      -1.38118363       0.35763232
17
Properties=species:S:1:pos:R:3 relative_energy_eV=0.6194348426506622 branch=right pbc="F F F"
O       -3.18376146       0.68789140       0.63255865
C       -2.09681211       0.15619301       0.75138865
O       -1.51357551      -0.04541519       1.95183109
C       -1.21830142      -0.30932143      -0.39865687
O       -0.60078437      -1.54020293      -0.16344647
C       -0.18802073       0.80250074      -0.69941531
O        0.81956634       0.39069779      -1.61367361
P        2.80665957      -0.20988887       0.03390085
O        3.51483511      -0.99515999      -1.03003388
O        3.17664747       1.20131280       0.37976666
O        1.78379545      -0.92562894       0.90657032
H       -2.13196130       0.31959751       2.60340813
H       -1.87951745      -0.42431853      -1.26048739
H        0.78963760      -0.57491559      -1.68372306
H        0.30806135       1.09722317       0.22364631
H       -0.68588316       1.67954248      -1.11776152
H        0.23184017      -1.37945778       0.36092393
17
Properties=species:S:1:pos:R:3 relative_energy_eV=0.6175898234141641 branch=right pbc="F F F"
O       -3.17767041       0.70015920       0.61779024
C       -2.09462418       0.16257984       0.75050261
O       -1.53091614      -0.05004496       1.95927727
C       -1.20846512      -0.30933892      -0.39365777
O       -0.59808467      -1.54297774      -0.14924784
C       -0.18119478       0.80470635      -0.69676625
O        0.82730001       0.39391238      -1.60882797
P        2.80485328      -0.20714433       0.02505270
O        3.50286553      -0.99701312      -1.04228269
O        3.18406310       1.20313054       0.36624198
O        1.78995517      -0.92234104       0.90804765
H       -2.16045874       0.30359093       2.60757785
H       -1.87230265      -0.42569734      -1.25549500
H        0.78375139      -0.57010081      -1.68967670
H        0.31355698       1.10197152       0.22694364
H       -0.68818586       1.67465428      -1.12027342
H        0.23798261      -1.38939723       0.37159012
17
Properties=species:S:1:pos:R:3 relative_energy_eV=0.61570528012453 branch=right pbc="F F F"
O       -3.19495878       0.68459093       0.59411719
C       -2.10900897       0.16028363       0.74731280
O       -1.55978652      -0.04692048       1.96255866
C       -1.20435278      -0.30993505      -0.38118981
O       -0.58786500      -1.53892623      -0.13315415
C       -0.17967109       0.80564371      -0.68401772
O        0.83185488       0.40021067      -1.59590009
P        2.81410284      -0.21144648       0.00881273
O        3.49466096      -1.00605661      -1.06633926
O        3.20973280       1.19553749       0.34507411
O        1.80267078      -0.91801822       0.90348463
H       -2.19436477       0.31205643       2.60229074
H       -1.85903312      -0.43211589      -1.24630010
H        0.77999693      -0.56125348      -1.69854817
H        0.31662554       1.09830952       0.23856863
H       -0.67965824       1.68131458      -1.10301250
H        0.25147997      -1.38262516       0.38303865
17
Properties=species:S:1:pos:R:3 relative_energy_eV=0.6130917940317886 branch=right pbc="F F F"
O       -3.19590320       0.70138751       0.57315338
C       -2.12081668       0.15782107       0.74205592
O       -1.59953239      -0.06674071       1.96696973
C       -1.19703436      -0.31305248      -0.37119212
O       -0.58044539      -1.53537397      -0.09728326
C       -0.17214639       0.80542719      -0.66915767
O        0.83154722       0.40314272      -1.59144331
P        2.82192647      -0.21260474      -0.00826447
O        3.48299072      -1.01935137      -1.08690190
O        3.23330714       1.19172755       0.31941469
O        1.81614293      -0.90230290       0.90587875
H       -2.23907762       0.29934951       2.59762348
H       -1.83856023      -0.44529178      -1.24726505
H        0.76527905      -0.55456516      -1.71938572
H        0.33365950       1.10185608       0.24924359
H       -0.67840975       1.67948529      -1.08281546
H        0.26949844      -1.36026473       0.39616560
17
Properties=species:S:1:pos:R:3 relative_energy_eV=0.6116183567573898 branch=right pbc="F F F"
O       -3.19102717       0.71493658       0.56394891
C       -2.12422677       0.15961479       0.74072880
O       -1.62358225      -0.08309148       1.97166850
C       -1.19406699      -0.31390732      -0.36705193
O       -0.56791998      -1.52963175      -0.08551935
C       -0.17412189       0.80722593      -0.66434473
O        0.82518672       0.40743029      -1.59354843
P        2.82821185      -0.21458599      -0.01604234
O        3.47305689      -1.03165740      -1.09636913
O        3.24618892       1.19225350       0.29275843
O        1.83158749      -0.89791524       0.91361083
H       -2.26935088       0.29210680       2.59085169
H       -1.82384138      -0.45094619      -1.25135350
H        0.76171648      -0.55148604      -1.71662623
H        0.33283898       1.09279862       0.25666035
H       -0.68011137       1.68545900      -1.07077936
H        0.28188683      -1.34795501       0.40820359
17
Properties=species:S:1:pos:R:3 relative_energy_eV=0.6104638728756981 branch=right pbc="F F F"
O       -3.16776013       0.75572018       0.55020639
C       -2.12289079       0.16076946       0.73651856
O       -1.64416213      -0.10485524       1.97086543
C       -1.18853033      -0.32095050      -0.36309060
O       -0.55965080      -1.53320296      -0.07750470
C       -0.17561146       0.80455397      -0.65875453
O        0.81872088       0.41354240      -1.59560554
P        2.82900664      -0.21069145      -0.02087108
O        3.46662235      -1.04267062      -1.09414138
O        3.25213943       1.19754912       0.27199905
O        1.83161725      -0.87907018       0.91794693
H       -2.28652676       0.27740724       2.58962667
H       -1.81402702      -0.46256775      -1.24861952
H        0.75602423      -0.54446614      -1.72160021
H        0.33568583       1.08179789       0.26137350
H       -0.68813262       1.68345508      -1.05490733
H        0.28990090      -1.34567139       0.41335452
17
Properties=species:S:1:pos:R:3 relative_energy_eV=0.609568490570382 branch=right pbc="F F F"
O       -3.16191959       0.76693296       0.54219983
C       -2.12371659       0.16319978       0.73482166
O       -1.66170422      -0.11854823       1.97166818
C       -1.18728850      -0.32078448      -0.36003021
O       -0.55386940      -1.53142843      -0.07292641
C       -0.17479032       0.80643069      -0.65433295
O        0.81098216       0.41510812      -1.60067320
P        2.83573697      -0.20934417      -0.02743852
O        3.46250073      -1.05338321      -1.09788738
O        3.27046101       1.19843387       0.24947505
O        1.83967019      -0.86146244       0.92459782
H       -2.31242524       0.26236080       2.58191572
H       -1.81624357      -0.46750091      -1.24312057
H        0.75456816      -0.54531215      -1.71182671
H        0.34242804       1.08002464       0.26500802
H       -0.68659411       1.68861656      -1.04401081
H        0.29462974      -1.34269437       0.41935676
17
Properties=species:S:1:pos:R:3 relative_energy_eV=0.6088300667252042 branch=right pbc="F F F"
O       -3.14644197       0.79165757       0.53472499
C       -2.12457819       0.16327052       0.73454037
O       -1.68755891      -0.14746508       1.97366037
C       -1.18462172      -0.32048760      -0.35611448
O       -0.55183981      -1.52998271      -0.06393373
C       -0.17234317       0.80682932      -0.65257031
O        0.80948439       0.41313171      -1.60142585
P        2.83973906      -0.20211046      -0.03443717
O        3.44857030      -1.06763114      -1.09796771
O        3.29029742       1.20510364       0.22015300
O        1.84205667      -0.83561709       0.92827941
H       -2.33789258       0.23659781       2.58231216
H       -1.81051697      -0.46901731      -1.24132390
H        0.75670676      -0.54867028      -1.70225081
H        0.35164662       1.07883800       0.26256181
H       -0.68515874       1.69120315      -1.03630871
H        0.29487630      -1.33500116       0.42689704
17
Properties=species:S:1:pos:R:3 relative_energy_eV=0.6081304763174558 branch=right pbc="F F F"
O       -3.15519851       0.78218667       0.54474546
C       -2.12628771       0.16201679       0.73579510
O       -1.67654571      -0.14746757       1.97145286
C       -1.18904488      -0.31665542      -0.35987498
O       -0.55820708      -1.52918650      -0.07354270
C       -0.17196306       0.80652733      -0.65526763
O        0.80849858       0.40987528      -1.60517341
P        2.83820882      -0.19903638      -0.03272959
O        3.44829553      -1.07018736      -1.09158497
O        3.29668899       1.20595438       0.22113197
O        1.83208182      -0.82295675       0.92775525
H       -2.32313836       0.23364793       2.58607097
H       -1.81280190      -0.45955777      -1.24656701
H        0.76869343      -0.55427956      -1.69061155
H        0.34900853       1.07661289       0.26261656
H       -0.67960368       1.69128427      -1.04385846
H        0.28374071      -1.33812936       0.42643868
17
Properties=species:S:1:pos:R:3 relative_energy_eV=0.6079537038276612 branch=right pbc="F F F"
O       -3.13899442       0.80648692       0.54574810
C       -2.12405576       0.16452319       0.73738786
O       -1.69320628      -0.16955245       1.97271582
C       -1.18641197      -0.31738879      -0.35722457
O       -0.55409553      -1.52848914      -0.06888990
C       -0.17055335       0.80582921      -0.65557725
O        0.80895559       0.40859640      -1.60584742
P        2.83770458      -0.19522319      -0.03539886
O        3.44260337      -1.07695436      -1.08828578
O        3.30184999       1.20989061       0.20526758
O        1.83205431      -0.80730973       0.93306374
H       -2.33904342       0.21538494       2.58562891
H       -1.81058294      -0.46198452      -1.24380267
H        0.76640727      -0.55509616      -1.69472849
H        0.35113965       1.07700428       0.26146594
H       -0.67869651       1.68929143      -1.04554268
H        0.28735102      -1.33435982       0.43081622
17
Properties=species:S:1:pos:R:3 relative_energy_eV=0.6078476529874024 branch=right pbc="F F F"
O       -3.14107203       0.80164952       0.55147141
C       -2.12236755       0.16353787       0.73754905
O       -1.68236219      -0.16697256       1.97068914
C       -1.18875299      -0.31723850      -0.36074221
O       -0.55600635      -1.52874585      -0.07506651
C       -0.17164670       0.80621123      -0.65775626
O        0.81304315       0.40983679      -1.60321359
P        2.83516202      -0.19560964      -0.03157391
O        3.44210140      -1.07915314      -1.08204505
O        3.29841659       1.21039860       0.20774146
O        1.82822191      -0.80772990       0.93590165
H       -2.32676614       0.21714782       2.58576540
H       -1.81618329      -0.46145660      -1.24502838
H        0.76914035      -0.55336624      -1.69649676
H        0.34617837       1.07768724       0.26150188
H       -0.67802822       1.68964275      -1.05039633
H        0.28334727      -1.33519050       0.42849538
17
Properties=species:S:1:pos:R:3 relative_energy_eV=0.6077507273257652 branch=right pbc="F F F"
O       -3.14746933       0.79412877       0.54669883
C       -2.12548524       0.16199947       0.73571649
O       -1.68526461      -0.16332637       1.97047689
C       -1.18751500      -0.31672474      -0.36007466
O       -0.55414448      -1.52706025      -0.07107916
C       -0.17157177       0.80752507      -0.65433583
O        0.81346075       0.41348438      -1.59975260
P        2.83832533      -0.19754596      -0.03476633
O        3.43733273      -1.08741439      -1.08400834
O        3.30987696       1.20633653       0.19778814
O        1.83081621      -0.80086063       0.93699332
H       -2.33445072       0.21449029       2.58421686
H       -1.81231657      -0.46252245      -1.24604426
H        0.76826209      -0.54921864      -1.69659145
H        0.34582716       1.07721271       0.26539462
H       -0.67865303       1.69140152      -1.04450777
H        0.28539502      -1.33125642       0.43067149
17
Properties=species:S:1:pos:R:3 relative_energy_eV=0.607591921598214 branch=right pbc="F F F"
O       -3.14871897       0.78761229       0.55055626
C       -2.12334781       0.16067467       0.73637482
O       -1.67691937      -0.16411778       1.96860044
C       -1.18730693      -0.31444812      -0.36221935
O       -0.55121903      -1.52425207      -0.07664586
C       -0.17307772       0.81140359      -0.65783263
O        0.81393021       0.41446728      -1.60066195
P        2.83608587      -0.20025009      -0.02991440
O        3.43403577      -1.09665417      -1.07470508
O        3.31052533       1.20397992       0.19678301
O        1.82692329      -0.79681755       0.94477330
H       -2.32528550       0.20678582       2.58736112
H       -1.81348327      -0.45966397      -1.24735937
H        0.76396696      -0.54798839      -1.69959825
H        0.34271058       1.08460799       0.26208418
H       -0.68149650       1.69339882      -1.05178861
H        0.28510236      -1.32808927       0.43098843
17
Properties=species:S:1:pos:R:3 relative_energy_eV=0.6074644832515332 branch=right pbc="F F F"
O       -3.14988640       0.78232343       0.54968445
C       -2.12346918       0.15708361       0.73651366
O       -1.67982539      -0.16808452       1.96971774
C       -1.18427943      -0.31441897      -0.36150739
O       -0.54667704      -1.52384960      -0.07815019
C       -0.17307321       0.81431995      -0.65667643
O        0.81357983       0.42037846      -1.60073249
P        2.83556770      -0.20217559      -0.02925594
O        3.42443351      -1.10900450      -1.07000411
O        3.31876828       1.20046662       0.18754856
O        1.82544501      -0.78804191       0.95056037
H       -2.32846103       0.20606394       2.58635330
H       -1.80936343      -0.45980364      -1.24725169
H        0.76317596      -0.54163547      -1.70255512
H        0.34346882       1.09008298       0.26203792
H       -0.68544870       1.69394291      -1.05024528
H        0.28846980      -1.32699864       0.43075862
