31
Properties=species:S:1:pos:R:3 relative_energy_eV=0.16455867211334407 branch=ts pbc="F F F"
O       -1.34931355       2.49866834       0.01873527
C       -1.03175575       1.59714245       0.76834647
C       -1.41969432       0.14033304       0.53699984
O       -2.19856265      -0.30492460       1.64698058
C       -0.21909767      -0.79590809       0.29909637
O        0.43080026       2.12953342       3.90117216
C        0.58042888      -0.58182278      -0.98541666
O        1.11974290       0.73942322      -1.09469948
C       -0.23132273      -0.79627639      -2.25714989
O       -1.10122105       0.29996921      -2.52149564
C        0.68495143      -0.98717091      -3.45848009
O       -0.03032591      -0.97603086      -4.68424687
O        1.78323898      -2.16159566       1.61919825
P        0.91193115      -0.94849643       1.75705518
O        0.08113706      -0.65462300       3.00777600
O       -0.99137341       1.92471007       4.03064115
O        1.90486747       0.41014082       1.53631768
H       -0.45905004       1.81664989       1.68631057
H       -2.06183388       0.10823653      -0.33979386
H       -1.53331501      -0.58484758       2.31325528
H       -0.64271073      -1.80122021       0.24991924
H        0.75364684       1.23444162       3.67205134
H        1.40069058      -1.30975006      -0.98667724
H        1.49767160       0.94708589      -0.22310602
H       -0.87067167      -1.67510729      -2.14205422
H       -0.63207958       1.08672237      -2.20022197
H        1.19744867      -1.94871725      -3.38845969
H        1.44686698      -0.20140182      -3.43701977
H       -0.69139829      -0.27574908      -4.57593165
H       -1.09057298       0.99483043       3.75418650
H        2.80501894       0.06757555       1.49428385
