16
Properties=species:S:1:pos:R:3 relative_energy_eV=4.058370292190375 branch=ts pbc="F F F"
O        2.29484220       1.82729340       0.20394448
C        1.33549327       1.07330355      -0.21059861
C        1.25642460      -0.28008019       0.18702119
O        2.11663962      -0.57605670       1.17049307
C        0.28722747      -1.26540852      -0.30253311
O       -0.87980460      -1.17505188       0.52130294
P       -2.20709708      -0.35625560      -0.14554953
O       -2.35847989      -0.79504396      -1.57007580
O       -3.26715892      -0.34753378       0.91253855
O       -1.53616064       1.19867365      -0.17887963
H        0.81926567       1.36847605      -1.13296663
H        0.76844649       0.76984822       0.20914140
H        2.64583655       0.26279246       1.24415919
H        0.66910686      -2.28309593      -0.19033371
H        0.02514917      -1.11050846      -1.35464961
H       -1.94540954       1.65851096       0.56559067
