24
Properties=species:S:1:pos:R:3 relative_energy_eV=0.5590267546504037 branch=ts pbc="F F F"
O       -0.54162391      -0.59997564       0.40483204
C       -0.17232703       0.58577063       0.09430639
O       -0.80918811       1.37570007      -0.63562727
P       -3.92803886      -0.90225508      -0.87065994
O       -5.18537530      -0.12146580      -0.59643295
O       -3.82314075      -1.95444482      -1.92475391
O       -2.92605292      -0.96228783       0.30486273
C        1.15283495       1.08501520       0.65304423
O        1.12120952       2.51065575       0.73495765
C        2.34803860       0.66673140      -0.21686502
O        2.55089632      -0.71678495      -0.30220562
P        3.18975028      -1.54134490       1.04942441
O        4.23120846      -2.48829399       0.53738925
O        3.45292287      -0.52423690       2.12988000
O        1.84060133      -2.42441720       1.44548116
O       -3.07295136       0.73999779      -1.89682722
H       -1.70462686      -0.77747807       0.25915286
H        1.32323067       0.67068132       1.64546893
H        0.47792991       2.77970493       0.05972420
H        2.18247120       1.04219984      -1.23232429
H        3.21593749       1.17347761       0.20777870
H        1.05586329      -1.94748079       1.13755119
H       -2.21694124       1.00189947      -1.42798609
H       -3.76264466       1.32855783      -1.56019815
