17
Properties=species:S:1:pos:R:3 relative_energy_eV=1.3991735070303548 branch=ts pbc="F F F"
O       -2.63507872      -0.93377163       0.30442327
C       -1.76044734      -0.14108693       0.58028885
O       -1.93975112       0.81425998       1.52799426
C       -0.37212799      -0.07013663      -0.04015560
O        0.60783543      -0.11573723       0.96289125
C       -0.15563134       1.16985337      -0.90108823
O       -1.03611752       1.22428471      -2.02354285
P        2.41592869      -0.89510507       0.31066378
O        2.32381247      -0.82401833      -1.18334042
O        3.45688656      -0.19199646       1.11599443
O        1.68602701      -2.13223730       1.00231766
H       -2.83348632       0.66609165       1.87502492
H       -0.28485502      -0.95314983      -0.67735017
H       -0.83077293       0.45442499      -2.56675206
H        0.89068121       1.14859975      -1.20263478
H       -0.33350669       2.06880323      -0.31499841
H        0.80074240      -1.28915216       1.23023534
