35
Properties=species:S:1:pos:R:3 relative_energy_eV=3.913985675171716 branch=ts pbc="F F F"
O       -1.11235855      -2.16032232      -1.02062150
P       -2.57763013      -1.54679734      -0.66758045
O       -3.60953117      -2.24157995      -1.51190347
O       -2.74832348      -1.42295482       0.85305405
O       -2.35395903       0.01225031      -1.19028975
C       -3.50026443       0.87041676      -1.09624919
C       -3.54986197       1.76260759       0.12282820
O       -3.03221483       1.22420927       1.17031233
C        0.37213841       1.05129381       2.16805071
O       -0.23046922       1.25345800       3.18281803
C        1.28117497       1.21080568       1.10695723
O        2.10422127       2.24608400       1.09797374
C        1.14995152       0.17461932       0.03329544
O        1.10003626      -1.11562939       0.62003995
C        2.23340557       0.21433166      -1.05178237
O        3.43941828      -0.37012854      -0.56795968
P        4.81097477       0.54554265      -0.39483889
O        5.92118173      -0.41535165      -0.11644483
O        4.47692543       1.74006995       0.47533931
O        4.99046483       1.16811612      -1.93114813
O       -5.14593576      -3.04968796       0.96749774
H       -2.78955150       0.21293110       1.11797178
H       -4.43505764       0.29235040      -1.12460934
H       -3.50961989       1.50384275      -1.98309599
H       -0.49515044      -1.96890536      -0.29367846
H       -0.21877752       1.75699668       0.96717539
H        1.61648345       0.18128548       2.33497553
H        3.07952177       1.99653255       0.81220499
H        0.18065022       0.37417205      -0.42665036
H        2.02478820      -1.39924405       0.67015212
H        1.89303420      -0.38552897      -1.89781861
H        2.39097981       1.23532311      -1.40345221
H        5.54178097       0.53411165      -2.40486269
H       -4.39159605      -2.48849861       1.23559918
H       -4.97995734      -3.05830229       0.01213342
