17
Properties=species:S:1:pos:R:3 relative_energy_eV=1.0793805743705889 branch=ts pbc="F F F"
O       -2.77652636       0.93061305       1.23568216
C       -2.20488490       0.16082277       0.48772915
O       -2.40769997      -1.17169709       0.52744166
C       -1.18538610       0.59250695      -0.54644107
O       -0.92410067      -0.39158924      -1.51185662
C        0.11105443       0.93610814       0.19546847
O        0.65802743      -0.25483360       0.64538325
P        2.70775049      -0.77976017      -0.47291538
O        2.73366413      -2.26846954      -0.45344983
O        2.71213663       0.08063336      -1.68804882
O        2.99385024      -0.05231960       0.89642396
H       -3.01078494      -1.31070455       1.27270790
H       -1.58636370       1.48054610      -1.04055914
H       -0.26099176      -0.95205353      -1.06810631
H       -0.09772193       1.64027492       1.01630173
H        0.77221060       1.43913504      -0.52065472
H        1.87208047      -0.00952813       1.10334796
