28
Properties=species:S:1:pos:R:3 relative_energy_eV=0.0 branch=left pbc="F F F"
O       -4.48901761       1.71812352       0.13006956
C       -3.48953774       1.11344087       0.47178165
C       -3.09177157      -0.18576538      -0.17514618
O       -4.06593591      -0.55847012      -1.13633600
C       -1.70296305      -0.15095008      -0.83544394
O       -1.72466841       0.68652244      -1.98344192
C       -0.60273738       0.34971621       0.09920492
O       -0.85110406      -0.11555448       1.42209368
C        0.77251647      -0.14393906      -0.37367987
O        0.82402003      -1.49914394       0.00859011
C        1.91177953       0.67845756       0.21972535
O        3.16023773       0.39572695      -0.39997569
P        4.13841074      -0.75819517       0.28105583
O        5.39165601      -0.81315710      -0.53096225
O        3.26751599      -1.96369204       0.59209730
O        4.47862304      -0.04659812       1.75265469
H       -2.85399335       1.47972523       1.28917614
H       -3.04136472      -0.92454785       0.63167051
H       -4.73896198       0.14651358      -1.09850800
H       -1.45026811      -1.17763938      -1.11819677
H       -2.45899029       0.36412779      -2.52049316
H       -0.63120521       1.44253961       0.11263403
H       -0.32726471      -0.94215059       1.44494263
H        0.81122810      -0.04540998      -1.46465614
H        1.79819398      -1.73238106       0.22893648
H        1.95553664       0.52598371       1.30175978
H        1.72028615       1.73657215       0.03358198
H        5.36788523       0.31629521       1.66960576
28
Properties=species:S:1:pos:R:3 relative_energy_eV=0.00013085878163110465 branch=left pbc="F F F"
O       -4.48820562       1.71641550       0.13350895
C       -3.48986626       1.11010207       0.47461337
C       -3.09132413      -0.18716764      -0.17503354
O       -4.06494474      -0.55847157      -1.13761616
C       -1.70278104      -0.14980364      -0.83605825
O       -1.72659441       0.68799426      -1.98381809
C       -0.60229610       0.35227045       0.09762495
O       -0.85036444      -0.10957335       1.42203205
C        0.77201963      -0.14454758      -0.37487701
O        0.82272070      -1.49893349       0.01046854
C        1.91057660       0.67899991       0.21803466
O        3.16055388       0.39756111      -0.39944539
P        4.13800837      -0.75840361       0.28074817
O        5.39322513      -0.81238455      -0.52856336
O        3.26627100      -1.96408653       0.59028175
O        4.47816050      -0.04893325       1.75353768
H       -2.85331909       1.47546974       1.29186063
H       -3.04023336      -0.92776711       0.63017673
H       -4.73817172       0.14634468      -1.09820225
H       -1.44910655      -1.17639971      -1.11915311
H       -2.46050167       0.36417962      -2.52067122
H       -0.62873310       1.44550692       0.10728825
H       -0.32564818      -0.93549943       1.44729755
H        0.81067393      -0.04916581      -1.46626520
H        1.79712479      -1.73287892       0.22996162
H        1.95404848       0.52720387       1.30004881
H        1.71793684       1.73676961       0.03107996
H        5.36887608       0.31134882       1.67388030
28
Properties=species:S:1:pos:R:3 relative_energy_eV=0.0003401114299776964 branch=left pbc="F F F"
O       -4.49235674       1.71126674       0.13746288
C       -3.49013740       1.10907966       0.47559723
C       -3.09006962      -0.18765871      -0.17529374
O       -4.06312227      -0.55789218      -1.13875694
C       -1.70230608      -0.14988498      -0.83680947
O       -1.72613532       0.68804373      -1.98450595
C       -0.60098744       0.35331941       0.09498697
O       -0.84758115      -0.10326977       1.42131469
C        0.77255499      -0.14578237      -0.37639237
O        0.82167931      -1.49963564       0.01227700
C        1.91010433       0.67900403       0.21637722
O        3.16062016       0.39682443      -0.39895404
P        4.13884960      -0.75735958       0.28227786
O        5.39428360      -0.81068499      -0.52660445
O        3.26769528      -1.96396152       0.58794655
O        4.47793204      -0.04971524       1.75629225
H       -2.85426786       1.47599287       1.29226702
H       -3.03898560      -0.92848738       0.63005842
H       -4.73916273       0.14416490      -1.09533502
H       -1.44900602      -1.17586821      -1.12129730
H       -2.46497092       0.37047913      -2.51832592
H       -0.62692214       1.44646697       0.10170119
H       -0.32359899      -0.92955561       1.44843020
H        0.81116618      -0.05401157      -1.46783854
H        1.79597296      -1.73529540       0.22924748
H        1.94879133       0.52740505       1.29859834
H        1.71746031       1.73714365       0.02975670
H        5.37060570       0.30602281       1.67826205
28
Properties=species:S:1:pos:R:3 relative_energy_eV=0.0006320620595943183 branch=left pbc="F F F"
O       -4.49737361       1.70366231       0.14614689
C       -3.49078309       1.10550373       0.47820205
C       -3.08842496      -0.18888446      -0.17540319
O       -4.06192457      -0.56103674      -1.13788223
C       -1.70160146      -0.14913524      -0.83927169
O       -1.72847337       0.69156546      -1.98540222
C       -0.60030044       0.35606546       0.09123050
O       -0.84639722      -0.09313631       1.42044342
C        0.77305859      -0.14472935      -0.37803932
O        0.81955906      -1.49739772       0.01452219
C        1.91081875       0.67955383       0.21560182
O        3.16301920       0.39806113      -0.39643935
P        4.13764891      -0.75939699       0.28346870
O        5.39372044      -0.81227410      -0.52450326
O        3.26488543      -1.96584471       0.58637140
O        4.47575985      -0.05276603       1.75866675
H       -2.85102691       1.47416449       1.29133134
H       -3.03533041      -0.93076229       0.62892654
H       -4.74031126       0.13804537      -1.09321391
H       -1.44748022      -1.17521044      -1.12489107
H       -2.46855320       0.37416616      -2.51749315
H       -0.62772781       1.44888732       0.09225411
H       -0.32285342      -0.91915999       1.45359217
H        0.81410823      -0.05406839      -1.46991501
H        1.79440685      -1.73462743       0.22576869
H        1.94683711       0.52992009       1.29829318
H        1.72193925       1.73729458       0.02604513
H        5.37090562       0.29769045       1.68432977
28
Properties=species:S:1:pos:R:3 relative_energy_eV=0.0015330100723076612 branch=left pbc="F F F"
O       -4.50748200       1.68694672       0.16099425
C       -3.49221136       1.09663253       0.48267157
C       -3.08744004      -0.19435093      -0.17734047
O       -4.06164839      -0.56361858      -1.14056644
C       -1.70133149      -0.14708965      -0.84272688
O       -1.73453787       0.69219439      -1.98919339
C       -0.59762291       0.36576927       0.08186319
O       -0.84647543      -0.07124800       1.41497566
C        0.77779354      -0.13875463      -0.37944791
O        0.82055900      -1.49046900       0.01481738
C        1.91541594       0.68509360       0.21628941
O        3.16724512       0.39612634      -0.39263018
P        4.13635303      -0.76530074       0.28585069
O        5.39351760      -0.81866026      -0.52030710
O        3.26037071      -1.97056131       0.58340772
O        4.47046954      -0.06470643       1.76373387
H       -2.85137802       1.46747155       1.29337575
H       -3.03223545      -0.94023613       0.62314145
H       -4.74927482       0.12637876      -1.07782387
H       -1.44422222      -1.17129953      -1.12906581
H       -2.48074532       0.37832453      -2.51530345
H       -0.62357771       1.45904244       0.06888759
H       -0.32465131      -0.89751442       1.45738593
H        0.82795776      -0.05145690      -1.47091387
H        1.79534845      -1.73069186       0.22710625
H        1.95061957       0.53744552       1.29955663
H        1.72857536       1.74257404       0.01941338
H        5.36871377       0.27810887       1.69458851
28
Properties=species:S:1:pos:R:3 relative_energy_eV=0.0023863291571615264 branch=left pbc="F F F"
O       -4.51601804       1.67311432       0.17370971
C       -3.49663061       1.08718073       0.48841751
C       -3.08477526      -0.19773887      -0.17726523
O       -4.06027618      -0.56966874      -1.13859230
C       -1.70016049      -0.14372516      -0.84874153
O       -1.74193398       0.69436575      -1.99634674
C       -0.59639308       0.37475232       0.07416174
O       -0.84591623      -0.05053181       1.41132909
C        0.78006478      -0.13285816      -0.38098275
O        0.81964365      -1.48390539       0.01545805
C        1.91926110       0.68897346       0.21513695
O        3.17108968       0.39482960      -0.39395704
P        4.13456680      -0.77193095       0.28708069
O        5.39474530      -0.82937560      -0.51402180
O        3.25507331      -1.97601902       0.58050698
O        4.46749593      -0.07755748       1.76921544
H       -2.84955779       1.46032587       1.29296805
H       -3.02299526      -0.94562837       0.62146021
H       -4.75491089       0.11238994      -1.07086122
H       -1.43891959      -1.16837118      -1.13297513
H       -2.49310636       0.38023455      -2.51485491
H       -0.62206535       1.46742691       0.05396281
H       -0.32760999      -0.87783175       1.46016400
H        0.83443294      -0.04190163      -1.47242506
H        1.79458818      -1.72784475       0.22780494
H        1.95574693       0.54772549       1.29896714
H        1.73555719       1.74668345       0.01896792
H        5.36710807       0.26303668       1.70445198
28
Properties=species:S:1:pos:R:3 relative_energy_eV=0.0036343065148685127 branch=left pbc="F F F"
O       -4.52453823       1.65052075       0.18683435
C       -3.49602287       1.07440659       0.49232754
C       -3.07775805      -0.20724928      -0.17878340
O       -4.05730520      -0.58353304      -1.13407232
C       -1.69701056      -0.13925820      -0.85426831
O       -1.75414684       0.69309848      -2.00487465
C       -0.59476518       0.39356182       0.06549876
O       -0.84259918      -0.02064386       1.40647179
C        0.78135654      -0.11820886      -0.38388881
O        0.81104462      -1.46709646       0.01989165
C        1.92646838       0.69589277       0.21285400
O        3.17808286       0.39035155      -0.38989704
P        4.13204459      -0.78376243       0.28970875
O        5.39698250      -0.84571746      -0.50349213
O        3.24255119      -1.98253583       0.57331608
O        4.46156744      -0.09518351       1.77326203
H       -2.85008852       1.45018095       1.29546333
H       -3.00518258      -0.95611970       0.61774219
H       -4.75305915       0.09598443      -1.05863585
H       -1.42323901      -1.16001159      -1.13806301
H       -2.51259228       0.37787906      -2.51275479
H       -0.62155606       1.48594873       0.03875622
H       -0.33491320      -0.85439243       1.45775589
H        0.83293196      -0.03047826      -1.47582283
H        1.78436812      -1.72051686       0.22808437
H        1.95978187       0.55582902       1.29628945
H        1.75278962       1.75538273       0.01679366
H        5.36291147       0.24182108       1.71624222
28
Properties=species:S:1:pos:R:3 relative_energy_eV=0.004834031125938054 branch=left pbc="F F F"
O       -4.53321780       1.63027849       0.19382540
C       -3.49944134       1.06261654       0.49662671
C       -3.07124494      -0.21406373      -0.17470158
O       -4.04854085      -0.60066213      -1.12892968
C       -1.69396131      -0.12965057      -0.85705050
O       -1.76896869       0.70245786      -2.00765149
C       -0.59265627       0.41341754       0.05942447
O       -0.83748330       0.00525387       1.40388691
C        0.78244995      -0.10423195      -0.38867931
O        0.80186487      -1.45340920       0.01601832
C        1.93384993       0.70130841       0.21076273
O        3.18617004       0.38852494      -0.39038893
P        4.12904664      -0.79433097       0.29351932
O        5.39739268      -0.86418599      -0.49395383
O        3.23046214      -1.98850220       0.56792763
O        4.45555504      -0.11150821       1.78313585
H       -2.85241938       1.44757296       1.29480324
H       -2.98870265      -0.96502781       0.61883363
H       -4.75559530       0.06725636      -1.04706672
H       -1.40871023      -1.14796291      -1.14197411
H       -2.52547009       0.37251102      -2.50954347
H       -0.62148072       1.50594492       0.02349885
H       -0.33849501      -0.83426954       1.45209112
H        0.83522319      -0.02231135      -1.48104855
H        1.77277111      -1.71277757       0.22463891
H        1.96016711       0.55585351       1.29501472
H        1.77154603       1.76262320       0.01335983
H        5.35799283       0.22342455       1.72635932
28
Properties=species:S:1:pos:R:3 relative_energy_eV=0.0059964372048852965 branch=left pbc="F F F"
O       -4.54323834       1.60571839       0.20448463
C       -3.50070893       1.05235316       0.50267784
C       -3.06202198      -0.22032410      -0.17040252
O       -4.03928158      -0.61621101      -1.11976001
C       -1.68980367      -0.12060333      -0.85852880
O       -1.77243677       0.70793038      -2.00977298
C       -0.59103458       0.43040081       0.05203195
O       -0.83701151       0.02813218       1.39743906
C        0.78224778      -0.09334823      -0.39373717
O        0.79303023      -1.44274399       0.01099867
C        1.93578300       0.70431756       0.20693199
O        3.18703092       0.38321463      -0.38869421
P        4.12227579      -0.80283403       0.29666840
O        5.39311026      -0.87583559      -0.48578448
O        3.21842141      -1.99323700       0.56737420
O        4.44779872      -0.12596012       1.78685604
H       -2.85047072       1.44898043       1.29217720
H       -2.96569154      -0.97021369       0.62282518
H       -4.75254665       0.04443323      -1.03720075
H       -1.39510316      -1.13508148      -1.14131304
H       -2.52685660       0.37135200      -2.50973611
H       -0.62494542       1.52215231       0.01256045
H       -0.34759389      -0.81634946       1.44359077
H        0.84255766      -0.01275529      -1.48495271
H        1.76187953      -1.70759260       0.22082069
H        1.95833397       0.55804504       1.28930721
H        1.78282781       1.76681492       0.01170908
H        5.35155137       0.20539478       1.73416782
28
Properties=species:S:1:pos:R:3 relative_energy_eV=0.007983917806996033 branch=left pbc="F F F"
O       -4.56878959       1.56529596       0.22012132
C       -3.50741667       1.04010258       0.50490152
C       -3.04580622      -0.22723595      -0.16059789
O       -4.01945505      -0.65714751      -1.09923420
C       -1.68322681      -0.10507135      -0.86123646
O       -1.78704447       0.73017232      -2.00675853
C       -0.58315901       0.45687332       0.04199766
O       -0.82336954       0.06738437       1.39349415
C        0.78526457      -0.07509408      -0.40707354
O        0.78051041      -1.42717757      -0.00946137
C        1.94145860       0.70874023       0.20476122
O        3.19065362       0.37389514      -0.38989452
P        4.11046757      -0.82138031       0.30297491
O        5.38487874      -0.90149585      -0.47380518
O        3.19293794      -2.00286841       0.57046127
O        4.43152436      -0.14616277       1.79695301
H       -2.85539493       1.45942930       1.28199511
H       -2.92277325      -0.96574088       0.64002321
H       -4.74710520      -0.01227372      -1.01925958
H       -1.37738630      -1.11651413      -1.14940804
H       -2.52665911       0.37540602      -2.51577096
H       -0.61593554       1.54886124      -0.00664388
H       -0.35980192      -0.79124669       1.43833998
H        0.85087970       0.01419846      -1.49986882
H        1.74416529      -1.70486236       0.20737309
H        1.95548761       0.55992369       1.28871718
H        1.79458206       1.77293689       0.01026155
H        5.33861521       0.17720167       1.74937579
28
Properties=species:S:1:pos:R:3 relative_energy_eV=0.009360108095279429 branch=left pbc="F F F"
O       -4.57185584       1.54917878       0.22150705
C       -3.50815010       1.03153851       0.51035492
C       -3.03736232      -0.23265455      -0.15558832
O       -4.01102200      -0.67414405      -1.08720540
C       -1.68005712      -0.09769881      -0.86197420
O       -1.79302446       0.73801933      -2.00636618
C       -0.57874027       0.46898309       0.03752283
O       -0.81355713       0.09153478       1.39286949
C        0.78537864      -0.06655924      -0.40994039
O        0.77332929      -1.41991481      -0.01997525
C        1.94198223       0.71320946       0.20299873
O        3.19082188       0.37388640      -0.38606608
P        4.10108497      -0.82780323       0.30486454
O        5.37551599      -0.91796525      -0.46959690
O        3.18067020      -2.00669948       0.56901909
O        4.42129588      -0.15662373       1.79887552
H       -2.86274728       1.45202709       1.29123102
H       -2.90374221      -0.96884795       0.64520654
H       -4.74109840      -0.03146422      -1.01323206
H       -1.36989000      -1.10536012      -1.15539217
H       -2.51824148       0.36769402      -2.52509839
H       -0.60601819       1.55963750      -0.01859997
H       -0.36628209      -0.77506271       1.43797593
H        0.85122316       0.02694283      -1.50057354
H        1.73367249      -1.70070447       0.20193606
H        1.95410633       0.56520743       1.28558211
H        1.80093151       1.77767491       0.00715517
H        5.32987769       0.16211794       1.75524769
28
Properties=species:S:1:pos:R:3 relative_energy_eV=0.010292887913237792 branch=left pbc="F F F"
O       -4.57643825       1.53917368       0.21596792
C       -3.51274599       1.02532911       0.51051483
C       -3.03504724      -0.23744678      -0.14976064
O       -4.00646861      -0.69117382      -1.07898467
C       -1.68077480      -0.09053505      -0.86109556
O       -1.80102145       0.74836465      -2.00228074
C       -0.57714498       0.47587758       0.03590832
O       -0.80990293       0.10469244       1.39350388
C        0.78581184      -0.06249844      -0.41414676
O        0.77029294      -1.41827536      -0.03181116
C        1.94564824       0.71411845       0.20171232
O        3.19637985       0.37317038      -0.38511667
P        4.09856962      -0.83506624       0.30700106
O        5.37437854      -0.93107041      -0.46514677
O        3.16997822      -2.00900058       0.56856383
O        4.41652501      -0.16216415       1.80215061
H       -2.86803046       1.45583705       1.28801803
H       -2.88851052      -0.96998940       0.65217796
H       -4.73812578      -0.04993035      -1.01019996
H       -1.36808006      -1.09421470      -1.16369421
H       -2.51874307       0.36658905      -2.52249108
H       -0.60313272       1.56633792      -0.02382445
H       -0.36406559      -0.76169136       1.44404071
H        0.84906491       0.03872184      -1.50476963
H        1.73016775      -1.70079814       0.19342883
H        1.95471035       0.56635122       1.28503910
H        1.80902823       1.77995066       0.00710155
H        5.32577797       0.15549019       1.76093105
28
Properties=species:S:1:pos:R:3 relative_energy_eV=0.011293728006421588 branch=left pbc="F F F"
O       -4.57395217       1.53839613       0.20451955
C       -3.51554876       1.02155324       0.51183495
C       -3.03099446      -0.24025918      -0.14758441
O       -4.00498595      -0.69819687      -1.07043895
C       -1.67923552      -0.08789232      -0.86200052
O       -1.80577376       0.75272151      -2.00128954
C       -0.57685886       0.48106992       0.03419466
O       -0.81375431       0.11149308       1.39204455
C        0.78677412      -0.05757088      -0.41676122
O        0.76971212      -1.41284862      -0.03543067
C        1.94754477       0.71501034       0.20024034
O        3.19770150       0.37152428      -0.38507718
P        4.09677917      -0.83765802       0.30749710
O        5.37346190      -0.94075631      -0.46157825
O        3.16401580      -2.00806518       0.56689352
O        4.41546894      -0.16946956       1.80322194
H       -2.88376023       1.44519187       1.30155012
H       -2.87874262      -0.97098589       0.65457981
H       -4.73352417      -0.05262829      -1.00643099
H       -1.36515669      -1.09069900      -1.16549529
H       -2.51538858       0.36206970      -2.52611857
H       -0.60562204       1.57134735      -0.02780540
H       -0.36001081      -0.74975521       1.45025690
H        0.84926935       0.04301138      -1.50821610
H        1.72903421      -1.70123467       0.18798299
H        1.95521159       0.56811824       1.28349270
H        1.81326374       1.78024574       0.00564117
H        5.32317243       0.15241669       1.76301441
28
Properties=species:S:1:pos:R:3 relative_energy_eV=0.012403345179336611 branch=left pbc="F F F"
O       -4.58331715       1.52945734       0.19926691
C       -3.52102607       1.02084253       0.50816650
C       -3.02965431      -0.24192798      -0.14416306
O       -4.00254591      -0.71289937      -1.06198049
C       -1.68166278      -0.08443357      -0.86408311
O       -1.81545011       0.76275849      -1.99768649
C       -0.57743491       0.48508559       0.03094124
O       -0.81009410       0.11759116       1.38959665
C        0.78599972      -0.05404163      -0.41957708
O        0.76796764      -1.41097378      -0.04333371
C        1.94954662       0.71470617       0.19836017
O        3.20044587       0.36704759      -0.38622803
P        4.09767951      -0.84428567       0.31127690
O        5.37628125      -0.94865448      -0.45493024
O        3.16230758      -2.01299194       0.56972818
O        4.41593108      -0.17628377       1.80869191
H       -2.89236657       1.45472088       1.29613763
H       -2.86755667      -0.96611525       0.66164630
H       -4.73454739      -0.07164296      -0.99602298
H       -1.36258964      -1.08562931      -1.17167272
H       -2.51789452       0.37082859      -2.53067350
H       -0.60761041       1.57581946      -0.02700963
H       -0.35190998      -0.74068875       1.45385244
H        0.85266553       0.05114672      -1.50903703
H        1.72733271      -1.69645002       0.17831050
H        1.95676060       0.56182272       1.28055236
H        1.81845253       1.78172816       0.00576815
H        5.32239056       0.14961255       1.76683982
28
Properties=species:S:1:pos:R:3 relative_energy_eV=0.01450140163069591 branch=left pbc="F F F"
O       -4.60345732       1.50771625       0.19402699
C       -3.53058826       1.02150478       0.50280731
C       -3.02693330      -0.24194790      -0.14037612
O       -4.00126434      -0.72962257      -1.04686496
C       -1.68294806      -0.07619552      -0.86630850
O       -1.81925634       0.77513607      -1.99898873
C       -0.57517196       0.49019955       0.02988651
O       -0.80180596       0.12328886       1.39058023
C        0.78864707      -0.04703776      -0.42692840
O        0.76835714      -1.40482511      -0.05517765
C        1.95409190       0.71085105       0.19834481
O        3.20278171       0.35538156      -0.38197410
P        4.09982532      -0.85312941       0.31839886
O        5.37987894      -0.95188900      -0.44588305
O        3.16538798      -2.02216303       0.57475467
O        4.41516533      -0.18319718       1.81399271
H       -2.90343916       1.47659139       1.28079968
H       -2.85394850      -0.95541921       0.67384896
H       -4.74693135      -0.10486733      -0.97288389
H       -1.36384603      -1.07241564      -1.18397910
H       -2.52137758       0.38747467      -2.53656653
H       -0.60798540       1.57931802      -0.03106744
H       -0.34077577      -0.73396792       1.44750397
H        0.85568605       0.06199179      -1.51741766
H        1.72314173      -1.69369064       0.17246800
H        1.95540050       0.55385062       1.27986127
H        1.82872955       1.77877301       0.01001025
H        5.32073697       0.14444005       1.76986960
28
Properties=species:S:1:pos:R:3 relative_energy_eV=0.01696359804191161 branch=left pbc="F F F"
O       -4.62751488       1.49168449       0.19512594
C       -3.54353479       1.02530423       0.49536907
C       -3.02680275      -0.23530727      -0.13687121
O       -3.99505815      -0.74587328      -1.03839921
C       -1.68503873      -0.06594299      -0.86890242
O       -1.82232519       0.78970983      -1.99685963
C       -0.57096892       0.49737601       0.02090466
O       -0.79201547       0.12529870       1.37953260
C        0.79148498      -0.04323569      -0.43441368
O        0.76897282      -1.40309387      -0.06718047
C        1.95775540       0.70677170       0.19962425
O        3.20684727       0.34841926      -0.37902776
P        4.10289456      -0.86011327       0.32363275
O        5.38536625      -0.95565256      -0.43790604
O        3.16780394      -2.02930669       0.57858855
O        4.41557486      -0.18930233       1.82112268
H       -2.91433523       1.49339173       1.26373485
H       -2.84480388      -0.93809408       0.68478544
H       -4.76129304      -0.14801369      -0.94679672
H       -1.37212872      -1.06328031      -1.19177293
H       -2.52344879       0.40010709      -2.53286319
H       -0.60090379       1.58892426      -0.03627808
H       -0.33205797      -0.73355230       1.43732548
H        0.85754451       0.07107354      -1.52345400
H        1.71968894      -1.69500499       0.17080852
H        1.95212786       0.54606896       1.28122707
H        1.84411660       1.77661085       0.01694144
H        5.32015330       0.14118199       1.77473984
28
Properties=species:S:1:pos:R:3 relative_energy_eV=0.020972350626834668 branch=left pbc="F F F"
O       -4.65740551       1.47004550       0.19759662
C       -3.55679178       1.03283270       0.48233753
C       -3.02225804      -0.22799179      -0.13672424
O       -3.98184710      -0.76467248      -1.03082199
C       -1.68435000      -0.05801594      -0.86747250
O       -1.83067050       0.80215160      -1.99184605
C       -0.56588369       0.49813440       0.02104787
O       -0.78986550       0.12756001       1.37990253
C        0.79642435      -0.04062695      -0.44055762
O        0.76997072      -1.40446307      -0.08863396
C        1.96429238       0.70414226       0.19860115
O        3.21265960       0.34267232      -0.37701086
P        4.10527276      -0.86556010       0.32938287
O        5.38979071      -0.96664682      -0.42737239
O        3.16610189      -2.03126986       0.58211504
O        4.41482125      -0.19284596       1.82530136
H       -2.92506777       1.52335934       1.23416788
H       -2.82237623      -0.91466783       0.69278120
H       -4.76585857      -0.19412496      -0.92821606
H       -1.37775535      -1.05726890      -1.19000369
H       -2.54823103       0.42280187      -2.51482651
H       -0.58851195       1.58669651      -0.03950368
H       -0.33337818      -0.73271104       1.42372135
H        0.86327686       0.08239179      -1.52849534
H        1.71620721      -1.69715493       0.16032654
H        1.95282528       0.53500287       1.27792284
H        1.85782078       1.77707187       0.02524728
H        5.31888864       0.13930674       1.78377077
28
Properties=species:S:1:pos:R:3 relative_energy_eV=0.025613462697947398 branch=left pbc="F F F"
O       -4.67882551       1.44696422       0.19504671
C       -3.56761514       1.03822641       0.47522484
C       -3.01796259      -0.22156698      -0.12897426
O       -3.96228995      -0.77738271      -1.02978365
C       -1.68501441      -0.04781858      -0.86707352
O       -1.84110199       0.80837150      -1.99270300
C       -0.55937528       0.50333391       0.01579930
O       -0.77874959       0.12814637       1.37445560
C        0.80099790      -0.03843057      -0.44876231
O        0.77097910      -1.40317276      -0.10375856
C        1.97025842       0.69848615       0.19759750
O        3.22269102       0.34384736      -0.37841836
P        4.10729127      -0.86948663       0.33394539
O        5.39368510      -0.98340193      -0.41823267
O        3.15846861      -2.02770997       0.58662458
O        4.41399317      -0.19553290       1.83188283
H       -2.93506096       1.56181196       1.20572772
H       -2.81769207      -0.90062697       0.70766624
H       -4.76928626      -0.24330433      -0.91779282
H       -1.38082848      -1.04714641      -1.19092728
H       -2.58236820       0.44474460      -2.49268955
H       -0.57432770       1.59392235      -0.03403217
H       -0.33960988      -0.74146906       1.42477365
H        0.87442842       0.09190188      -1.53564097
H        1.71739241      -1.69821175       0.14189380
H        1.96193586       0.52128583       1.27573362
H        1.85865923       1.77109338       0.03041593
H        5.31742897       0.13927469       1.79473952
28
Properties=species:S:1:pos:R:3 relative_energy_eV=0.028615915813134052 branch=left pbc="F F F"
O       -4.69625710       1.42662623       0.20325268
C       -3.57089546       1.04175670       0.46759109
C       -3.01154589      -0.22369445      -0.12957186
O       -3.95809902      -0.78577303      -1.02231968
C       -1.67794774      -0.04660409      -0.86944054
O       -1.83967966       0.81393233      -1.99358677
C       -0.55271484       0.50409324       0.01557046
O       -0.77537533       0.13047862       1.37407167
C        0.80557798      -0.04146125      -0.45172802
O        0.77261419      -1.40968983      -0.11673257
C        1.97229454       0.69590153       0.19872459
O        3.22407042       0.34315957      -0.37718815
P        4.10545387      -0.87004140       0.33666307
O        5.39229636      -0.98875391      -0.41293029
O        3.15658631      -2.02742949       0.59007988
O        4.41001833      -0.19390455       1.83205536
H       -2.93680452       1.59206786       1.17869389
H       -2.81697265      -0.89540443       0.71511755
H       -4.76725088      -0.25544507      -0.90119334
H       -1.36899015      -1.04158675      -1.20183094
H       -2.59482856       0.45823136      -2.48028982
H       -0.57668834       1.59519622      -0.02909851
H       -0.34596149      -0.74282734       1.42309078
H        0.87563855       0.09682568      -1.53858447
H        1.71843332      -1.70042958       0.13533690
H        1.96327912       0.51583141       1.27682859
H        1.85669865       1.76929970       0.03273974
H        5.31515165       0.13579373       1.79741683
28
Properties=species:S:1:pos:R:3 relative_energy_eV=0.034061883081449196 branch=left pbc="F F F"
O       -4.71472669       1.39471808       0.22827476
C       -3.57017347       1.04599103       0.46033050
C       -3.00505879      -0.21840162      -0.13134325
O       -3.95790980      -0.79335616      -1.00950216
C       -1.67703523      -0.04797998      -0.87519007
O       -1.83211256       0.81784543      -1.99485072
C       -0.55820955       0.50114965       0.01448133
O       -0.77665460       0.13112690       1.37404112
C        0.80256274      -0.03952335      -0.45239576
O        0.77657300      -1.41007938      -0.13051289
C        1.96930428       0.69282487       0.20048898
O        3.22348335       0.34263295      -0.37523656
P        4.10397023      -0.87215540       0.33934681
O        5.39219168      -0.98841493      -0.41011826
O        3.15461907      -2.03014172       0.59431456
O        4.40558938      -0.18936743       1.83477197
H       -2.92972069       1.62662801       1.14040049
H       -2.80404954      -0.88663919       0.71383083
H       -4.76547084      -0.26380178      -0.87743947
H       -1.35915552      -1.03821226      -1.21575365
H       -2.59232473       0.47548993      -2.47916885
H       -0.57855932       1.59097748      -0.02633410
H       -0.35249628      -0.74449237       1.42054262
H        0.87514164       0.09834712      -1.53737847
H        1.71855672      -1.70793148       0.13353360
H        1.96037110       0.51365201       1.27843065
H        1.85501831       1.76485978       0.03621327
H        5.31437789       0.13040274       1.79896086
28
Properties=species:S:1:pos:R:3 relative_energy_eV=0.04338263664249098 branch=left pbc="F F F"
O       -4.72791050       1.34932025       0.25519123
C       -3.56646066       1.04222831       0.45172903
C       -2.99965052      -0.22752770      -0.13201584
O       -3.96429881      -0.79410527      -1.00074367
C       -1.67437108      -0.04822072      -0.87611279
O       -1.83465970       0.83706343      -1.98243542
C       -0.55276758       0.49658655       0.01658974
O       -0.77480091       0.12583164       1.37641836
C        0.80307307      -0.04153031      -0.45447078
O        0.77353872      -1.41464578      -0.13805512
C        1.96623522       0.69183515       0.20227210
O        3.21526274       0.33451678      -0.37419963
P        4.09913690      -0.87277930       0.34416277
O        5.38822340      -0.98448875      -0.40327550
O        3.15606415      -2.03449549       0.59993489
O        4.40093073      -0.18479401       1.83515781
H       -2.91232331       1.67879167       1.06727606
H       -2.77625977      -0.89196584       0.71042364
H       -4.77280753      -0.26684115      -0.84581681
H       -1.35462850      -1.03537295      -1.22467560
H       -2.58669671       0.49692286      -2.48282315
H       -0.57593804       1.58699166      -0.03221313
H       -0.35513597      -0.75132460       1.43062447
H        0.87006035       0.11203504      -1.53958601
H        1.71317051      -1.70752662       0.12792847
H        1.95057977       0.51054453       1.28018778
H        1.85665862       1.76665428       0.04090339
H        5.31387736       0.12244524       1.80036191
28
Properties=species:S:1:pos:R:3 relative_energy_eV=0.0591462665470317 branch=left pbc="F F F"
O       -4.73487291       1.32314469       0.31614773
C       -3.55712820       1.03803232       0.44224715
C       -2.99614841      -0.23138613      -0.13103634
O       -3.96039553      -0.81266016      -0.99081686
C       -1.68321132      -0.03865202      -0.88325937
O       -1.82960489       0.85566903      -1.98595118
C       -0.56257343       0.49333592       0.01504306
O       -0.79124760       0.11987914       1.37243116
C        0.79423415      -0.03780501      -0.45261729
O        0.76866188      -1.40970270      -0.14087447
C        1.96164676       0.68872885       0.20346524
O        3.21135829       0.32903125      -0.37279061
P        4.10079760      -0.87518207       0.34981111
O        5.39008559      -0.98036435      -0.39972236
O        3.15772504      -2.03679484       0.60601771
O        4.40327535      -0.18410243       1.84165032
H       -2.87373368       1.70079279       0.98653121
H       -2.77390894      -0.88750519       0.72295565
H       -4.76440123      -0.28618862      -0.82874996
H       -1.39137109      -1.02645285      -1.24177187
H       -2.56756977       0.51450753      -2.50707472
H       -0.56875022       1.58224042      -0.02032531
H       -0.34834617      -0.74418165       1.44044634
H        0.86538189       0.11789043      -1.53541340
H        1.70788824      -1.70208837       0.11767750
H        1.94747699       0.50512487       1.28086651
H        1.85466093       1.76275360       0.04038707
H        5.31817275       0.11808464       1.80746423
28
Properties=species:S:1:pos:R:3 relative_energy_eV=0.07996403933066176 branch=left pbc="F F F"
O       -4.73564167       1.33812138       0.31869246
C       -3.55750821       1.04136882       0.44824286
C       -3.00738239      -0.24199868      -0.11952084
O       -3.95564956      -0.83439314      -0.98514270
C       -1.69119562      -0.04323633      -0.87280697
O       -1.85637606       0.87019122      -1.96069796
C       -0.56238470       0.49602381       0.02556641
O       -0.79124920       0.12382335       1.38581827
C        0.79414380      -0.03780547      -0.45261979
O        0.76698218      -1.41297088      -0.14907625
C        1.96495052       0.68704581       0.20212242
O        3.21202466       0.32444943      -0.37428916
P        4.10329294      -0.87547146       0.35077290
O        5.39315125      -0.98429400      -0.39559035
O        3.16078981      -2.03633671       0.60752202
O        4.40638964      -0.18602645       1.84127828
H       -2.82860095       1.70571961       0.94998741
H       -2.78256000      -0.90598373       0.71869899
H       -4.76858427      -0.29600720      -0.86704321
H       -1.39601291      -1.02346325      -1.26287486
H       -2.57132995       0.51593009      -2.50734411
H       -0.57954621       1.58995215      -0.01077103
H       -0.33250991      -0.72980407       1.45984103
H        0.85439819       0.12654951      -1.53712319
H        1.70630389      -1.70106428       0.10889222
H        1.95421664       0.50436879       1.28004284
H        1.85782673       1.76169810       0.03749951
H        5.32016341       0.11976267       1.81266108
28
Properties=species:S:1:pos:R:3 relative_energy_eV=0.09737000534369145 branch=left pbc="F F F"
O       -4.73611284       1.29215946       0.47185233
C       -3.54396855       1.06059244       0.44946323
C       -3.00772986      -0.20652329      -0.14737249
O       -3.97637805      -0.80913391      -0.99795741
C       -1.69450915      -0.02450611      -0.89898188
O       -1.85122201       0.90270863      -1.97510527
C       -0.56419799       0.48849525       0.00515094
O       -0.79157931       0.11441248       1.36107333
C        0.79656249      -0.05297802      -0.45652871
O        0.76825125      -1.42583952      -0.14034661
C        1.95603129       0.68240302       0.20909458
O        3.21636961       0.34295188      -0.35496912
P        4.10548871      -0.86771808       0.35670545
O        5.39269071      -0.97671196      -0.39552798
O        3.15852432      -2.02740380       0.60842950
O        4.41424760      -0.19213896       1.85382017
H       -2.83103652       1.76924165       0.89787378
H       -2.77580915      -0.85806169       0.70530638
H       -4.83379977      -0.39620151      -0.78326148
H       -1.40121891      -1.00390030      -1.28344406
H       -2.48167956       0.50292000      -2.58454158
H       -0.58422701       1.57826140      -0.02449766
H       -0.33819749      -0.74443589       1.42423045
H        0.86806707       0.09560904      -1.54087124
H        1.70773596      -1.71646979       0.13023317
H        1.93878910       0.49904479       1.28647630
H        1.83871587       1.75590526       0.05048104
H        5.32829433       0.11346690       1.82595287
28
Properties=species:S:1:pos:R:3 relative_energy_eV=0.1272056665911805 branch=left pbc="F F F"
O       -4.76927096       1.26615015       0.57670540
C       -3.57152447       1.07896471       0.46964062
C       -3.01536776      -0.18417877      -0.16376070
O       -3.98482318      -0.75961440      -1.01690670
C       -1.69899828      -0.00878396      -0.91732818
O       -1.83442447       0.91647455      -2.00039470
C       -0.56177931       0.48330725      -0.01087176
O       -0.78679165       0.09538033       1.34198751
C        0.80112140      -0.06431942      -0.46146179
O        0.76627273      -1.43205664      -0.12386756
C        1.94969192       0.68258072       0.21419451
O        3.21915997       0.35947173      -0.33951384
P        4.10310833      -0.86002233       0.36224055
O        5.38636091      -0.96711625      -0.39622342
O        3.15585507      -2.02088763       0.60861669
O        4.41801107      -0.19702213       1.86280137
H       -2.83757112       1.81019954       0.85548639
H       -2.77355606      -0.83761678       0.68539456
H       -4.84235880      -0.46622692      -0.66564170
H       -1.39367339      -0.98378536      -1.30018496
H       -2.40722422       0.48976666      -2.64748871
H       -0.56786127       1.57269565      -0.05876411
H       -0.34857975      -0.77612400       1.39140912
H        0.89447115       0.06536859      -1.54651191
H        1.70687050      -1.71885786       0.15032550
H        1.91712917       0.48952061       1.28971827
H        1.82118093       1.75641773       0.06122768
H        5.33267394       0.10646370       1.83190970
28
Properties=species:S:1:pos:R:3 relative_energy_eV=0.15364569523080718 branch=left pbc="F F F"
O       -4.76735288       1.22872293       0.61766805
C       -3.56875228       1.07937223       0.48021722
C       -3.00986977      -0.15251112      -0.16702024
O       -4.00020696      -0.71646173      -1.01823498
C       -1.69470637       0.00201964      -0.92558640
O       -1.81325693       0.91316719      -2.01712733
C       -0.55161605       0.48878632      -0.02354608
O       -0.79289120       0.09038727       1.32209384
C        0.80635149      -0.07189197      -0.46675402
O        0.76545554      -1.43489485      -0.10986586
C        1.94125559       0.68068128       0.21806229
O        3.21406851       0.36684547      -0.32695009
P        4.09910558      -0.85408472       0.36455603
O        5.38048938      -0.95688815      -0.39736070
O        3.15316472      -2.01662949       0.61078189
O        4.41876537      -0.20020042       1.86726898
H       -2.86855546       1.84181981       0.83620403
H       -2.78813617      -0.84155394       0.65699096
H       -4.84156860      -0.51273656      -0.57471525
H       -1.41937841      -0.98722173      -1.30286206
H       -2.36116422       0.48787006      -2.68597924
H       -0.53446370       1.57999354      -0.05537305
H       -0.35851450      -0.78503861       1.34796689
H        0.91508632       0.04576123      -1.55271931
H        1.70955208      -1.71694071       0.16310015
H        1.90268825       0.48316125       1.29156645
H        1.80851862       1.75389993       0.06756389
H        5.33403459       0.10071550       1.83279168
28
Properties=species:S:1:pos:R:3 relative_energy_eV=0.18015813545207493 branch=left pbc="F F F"
O       -4.77097867       1.18303743       0.65063404
C       -3.56910462       1.09300780       0.47940119
C       -3.00697446      -0.14792757      -0.18463608
O       -4.01071415      -0.70875890      -1.01283550
C       -1.69638640       0.00683643      -0.94564982
O       -1.77305891       0.91050366      -2.05178422
C       -0.55634578       0.49135892      -0.03629842
O       -0.80747191       0.08642226       1.30420586
C        0.80613462      -0.07407763      -0.46677780
O        0.76652125      -1.43549236      -0.10301711
C        1.93936427       0.67911685       0.22277158
O        3.21334354       0.36879673      -0.32346792
P        4.09918667      -0.85216192       0.36616299
O        5.37581073      -0.94940843      -0.39902856
O        3.15108328      -2.01674076       0.61181721
O        4.41873162      -0.20001832       1.86980334
H       -2.87586437       1.87631653       0.85425879
H       -2.77106615      -0.81904971       0.65267127
H       -4.83781017      -0.52952837      -0.53188205
H       -1.44616635      -1.00102298      -1.29034474
H       -2.34153166       0.49488151      -2.70817188
H       -0.52017734       1.58300231      -0.04521956
H       -0.37313011      -0.78894413       1.31998501
H        0.92242852       0.03499244      -1.55174239
H        1.71217495      -1.71985266       0.17037250
H        1.89544892       0.48273233       1.29806995
H        1.79932816       1.75065786       0.07042114
H        5.33532713       0.09747044       1.83301894
28
Properties=species:S:1:pos:R:3 relative_energy_eV=0.2950099202716956 branch=left pbc="F F F"
O       -4.78473108       1.14847881       0.74909205
C       -3.58475817       1.09530895       0.53620787
C       -3.00070156      -0.07499281      -0.20781331
O       -3.99956880      -0.74940994      -0.96917852
C       -1.68690359       0.01978328      -0.99477870
O       -1.65708924       0.84833080      -2.15709702
C       -0.56481157       0.48440763      -0.05330541
O       -0.84825631       0.05731124       1.27801849
C        0.80393442      -0.08198692      -0.45720088
O        0.76324482      -1.44288345      -0.08932952
C        1.93054089       0.67807751       0.23372164
O        3.20362366       0.36936713      -0.31409452
P        4.09634507      -0.85025588       0.36731591
O        5.37333042      -0.94334150      -0.40174291
O        3.15700371      -2.01989834       0.61185237
O        4.42042761      -0.19816646       1.87035799
H       -2.93236781       1.91360648       0.89387428
H       -2.65167623      -0.72395341       0.61107071
H       -4.82988007      -0.53865738      -0.51007376
H       -1.47782606      -1.02195970      -1.27152135
H       -2.33284954       0.53875619      -2.77210219
H       -0.55294696       1.57612377      -0.05893931
H       -0.41544083      -0.82143867       1.30127320
H        0.91738485       0.02629089      -1.54148541
H        1.70991585      -1.72587868       0.17798985
H        1.89627387       0.49123279       1.31075176
H        1.78708378       1.74810078       0.07396069
H        5.33880138       0.09379678       1.83591379
28
Properties=species:S:1:pos:R:3 relative_energy_eV=0.6734154866862809 branch=left pbc="F F F"
O       -4.76691777       1.00265124       0.85693714
C       -3.63324053       1.15208310       0.44708752
C       -3.00163016      -0.01684164      -0.24985049
O       -3.98735557      -0.76638775      -0.94375635
C       -1.68663895       0.00099040      -1.02697813
O       -1.59303288       0.80005988      -2.21439066
C       -0.58367395       0.47017662      -0.07366263
O       -0.90984093       0.02972863       1.25092648
C        0.79823485      -0.08589225      -0.45116663
O        0.75982369      -1.44611292      -0.08217445
C        1.92701887       0.68008867       0.23824423
O        3.20221139       0.37107842      -0.30947934
P        4.09736207      -0.85047872       0.36797162
O        5.37383619      -0.94256480      -0.40412463
O        3.16045257      -2.02178399       0.61103428
O        4.42124202      -0.19562583       1.86945334
H       -2.90077578       1.81891362       0.94691811
H       -2.64496336      -0.49464480       0.70910893
H       -4.80511280      -0.49683043      -0.49394340
H       -1.43865685      -1.03962640      -1.29395122
H       -2.32627092       0.56801099      -2.79464094
H       -0.57920448       1.56098656      -0.07448627
H       -0.45395496      -0.83323256       1.29223741
H        0.91997173       0.02352687      -1.53280225
H        1.70766275      -1.73066244       0.17906656
H        1.89404218       0.49601095       1.31551764
H        1.78650138       1.75049387       0.07500973
H        5.34101255       0.09203468       1.83863215
28
Properties=species:S:1:pos:R:3 relative_energy_eV=1.5427672793593956 branch=left pbc="F F F"
O       -4.76972318       0.89029614       0.88839762
C       -3.55854872       1.01376776       0.51231475
C       -3.01891984       0.02828194      -0.38993068
O       -3.98856821      -0.78878549      -0.95958116
C       -1.66146282      -0.03039243      -1.05781202
O       -1.58247352       0.80006941      -2.22193644
C       -0.59031065       0.46303959      -0.07427798
O       -0.93682571       0.02636972       1.23576202
C        0.80393850      -0.08742736      -0.44980454
O        0.75969812      -1.44275378      -0.07977611
C        1.92770572       0.68150962       0.23937346
O        3.19941753       0.37084703      -0.30913239
P        4.09687758      -0.84892856       0.36786179
O        5.37275489      -0.94396357      -0.40421872
O        3.16259904      -2.02033880       0.60925870
O        4.42207970      -0.19474541       1.86847635
H       -2.86200104       1.72979514       0.95123222
H       -2.78274546      -0.13903593       0.81621793
H       -4.78440260      -0.44592126      -0.46714409
H       -1.39527470      -1.07404838      -1.31548638
H       -2.32752647       0.57188546      -2.79030568
H       -0.58317612       1.54923174      -0.08061494
H       -0.47413727      -0.84220337       1.29047479
H        0.92517328       0.02223019      -1.53422813
H        1.70461837      -1.73206900       0.17655030
H        1.88868178       0.49621126       1.31666124
H        1.78838685       1.75169110       0.07378560
H        5.34226726       0.09153723       1.84062024
28
Properties=species:S:1:pos:R:3 relative_energy_eV=4.034943149104947 branch=ts pbc="F F F"
O       -4.73637563       0.88312734       0.87668779
C       -3.47721848       0.82939294       0.61882261
C       -2.99485174      -0.00939078      -0.42549122
O       -3.97514801      -0.76260642      -0.94369148
C       -1.66988503      -0.04267188      -1.05590085
O       -1.58183467       0.79934060      -2.22066326
C       -0.58513601       0.45598834      -0.07089238
O       -0.94375997       0.02002897       1.23247094
C        0.80158113      -0.08552923      -0.45114758
O        0.75887196      -1.44016137      -0.07994366
C        1.92525228       0.68231578       0.23976800
O        3.19933279       0.37000089      -0.30886886
P        4.09691855      -0.84622834       0.36865513
O        5.37245358      -0.94484204      -0.40422154
O        3.16349090      -2.02065505       0.60872926
O        4.42235102      -0.19504150       1.86741790
H       -2.87556416       1.68364408       0.93917779
H       -2.98154652       0.23286457       0.70079346
H       -4.78768884      -0.44275141      -0.46678954
H       -1.38932793      -1.07238319      -1.31865626
H       -2.32736917       0.57103078      -2.78805713
H       -0.58223647       1.54871379      -0.08362187
H       -0.48252894      -0.84157578       1.29340043
H        0.92658836       0.02154380      -1.53529379
H        1.70420717      -1.73292882       0.17605245
H        1.88789298       0.49573528       1.31683919
H        1.78889263       1.75160541       0.07322028
H        5.34263405       0.09142290       1.84120924
28
Properties=species:S:1:pos:R:3 relative_energy_eV=1.5290011230536038 branch=right pbc="F F F"
O       -4.68034640       0.87039462       0.88013867
C       -3.42440719       0.77508274       0.65217927
C       -2.98034230      -0.02020117      -0.39440674
O       -3.99811753      -0.78498812      -0.97456891
C       -1.66142881      -0.03750905      -1.05258322
O       -1.58417324       0.79484027      -2.21626121
C       -0.58666913       0.45470929      -0.07493994
O       -0.93907936       0.01996753       1.23441471
C        0.79970149      -0.08397605      -0.45003022
O        0.76004695      -1.44155956      -0.08031041
C        1.92511556       0.68201280       0.23949118
O        3.19936723       0.36973930      -0.30865570
P        4.09639106      -0.84609790       0.36864881
O        5.37248535      -0.94478762      -0.40413084
O        3.16436975      -2.02085599       0.60867932
O        4.42247808      -0.19505333       1.86733169
H       -2.88436788       1.68502699       0.94949965
H       -3.15553035       0.43689953       0.59684183
H       -4.78380052      -0.44572829      -0.47079587
H       -1.39328746      -1.06915024      -1.31890872
H       -2.32736145       0.56984152      -2.78735327
H       -0.58076498       1.54910771      -0.08448936
H       -0.48735363      -0.84159710       1.29567075
H        0.92661448       0.02155461      -1.53505144
H        1.70287262      -1.73240870       0.17589280
H        1.88810011       0.49556083       1.31646356
H        1.78870400       1.75148984       0.07326263
H        5.34267297       0.09151486       1.84124341
28
Properties=species:S:1:pos:R:3 relative_energy_eV=1.3002989775995957 branch=right pbc="F F F"
O       -4.65795200       0.84928976       0.92577243
C       -3.43482515       0.83014824       0.62079100
C       -2.97315525      -0.06517162      -0.37706194
O       -4.01222670      -0.79944949      -1.01372956
C       -1.64949011      -0.04091173      -1.04936210
O       -1.58800882       0.79187908      -2.21094130
C       -0.58288315       0.45434517      -0.07392637
O       -0.92312921       0.02654385       1.23783144
C        0.80086571      -0.08418784      -0.44986525
O        0.76108010      -1.44408494      -0.08239572
C        1.92547679       0.68148786       0.23918376
O        3.19816038       0.36997820      -0.30882744
P        4.09645833      -0.84749036       0.36824168
O        5.37242400      -0.94404119      -0.40399589
O        3.16544243      -2.02159712       0.60920519
O        4.42249990      -0.19468009       1.86799444
H       -2.86784647       1.70606619       0.99289035
H       -3.20928576       0.46362084       0.55983527
H       -4.77562515      -0.45821105      -0.48353114
H       -1.39808815      -1.06467095      -1.32055386
H       -2.32898671       0.56434532      -2.78310887
H       -0.57803555       1.54719233      -0.08709509
H       -0.49029560      -0.84560986       1.29728161
H        0.92595759       0.02230309      -1.53395592
H        1.70329172      -1.73156720       0.17631152
H        1.88916377       0.49533753       1.31581449
H        1.78823682       1.75124505       0.07347243
H        5.34266563       0.09172029       1.84099731
28
Properties=species:S:1:pos:R:3 relative_energy_eV=1.2097201134820352 branch=right pbc="F F F"
O       -4.65801358       0.85218407       0.99583037
C       -3.45438542       0.83866024       0.60542640
C       -2.99139255      -0.05441442      -0.38250653
O       -3.99884476      -0.79485777      -1.04366095
C       -1.65533955      -0.05339017      -1.03904608
O       -1.59758383       0.79017048      -2.19699218
C       -0.57467443       0.45171086      -0.06797598
O       -0.89124828       0.03968787       1.25491270
C        0.80704034      -0.08790424      -0.45114055
O        0.76485886      -1.44649592      -0.08791005
C        1.92801354       0.68017352       0.23900042
O        3.20067649       0.36847936      -0.30991211
P        4.09694684      -0.84752884       0.36856279
O        5.37285816      -0.94235010      -0.40414900
O        3.16737002      -2.02377759       0.61093540
O        4.42225843      -0.19450322       1.86822432
H       -2.85895999       1.72056738       1.02804257
H       -3.24167204       0.50906789       0.49916093
H       -4.77475432      -0.49759099      -0.51649958
H       -1.39292201      -1.07390023      -1.32962037
H       -2.33406034       0.54785537      -2.77014070
H       -0.57227930       1.54477107      -0.09299180
H       -0.49484118      -0.85127560       1.29741967
H        0.92634684       0.02384366      -1.53458144
H        1.70555953      -1.73189570       0.17734079
H        1.89135412       0.49427697       1.31546831
H        1.78717566       1.74999066       0.07392002
H        5.34240217       0.09227476       1.84015512
28
Properties=species:S:1:pos:R:3 relative_energy_eV=1.166173277204507 branch=right pbc="F F F"
O       -4.65329596       0.85634963       1.06220296
C       -3.46984584       0.85692222       0.62200581
C       -3.00629580      -0.01740113      -0.40450010
O       -3.98596188      -0.78862498      -1.07424378
C       -1.65550559      -0.06002603      -1.02772571
O       -1.60922638       0.78705132      -2.18215758
C       -0.56939258       0.44658249      -0.06034454
O       -0.85368053       0.05338663       1.27564482
C        0.81065822      -0.09053149      -0.45357780
O        0.77020830      -1.45084823      -0.09530734
C        1.93160958       0.67793334       0.23802419
O        3.20450606       0.36761551      -0.31110772
P        4.09904233      -0.84852871       0.36903307
O        5.37436253      -0.94082063      -0.40408676
O        3.17042267      -2.02553600       0.61325686
O        4.42223594      -0.19436117       1.86860638
H       -2.86423268       1.71288116       1.04595211
H       -3.27310805       0.56524684       0.44468552
H       -4.78361221      -0.55425039      -0.56136233
H       -1.39229443      -1.08181498      -1.33101490
H       -2.34047569       0.52564910      -2.75400161
H       -0.56608347       1.53897140      -0.10013213
H       -0.49956820      -0.85581683       1.29845729
H        0.92837281       0.02540688      -1.53729925
H        1.70963438      -1.73421036       0.17840846
H        1.89427351       0.49188271       1.31456730
H        1.78712839       1.74747865       0.07420176
H        5.34201412       0.09324245       1.83908745
28
Properties=species:S:1:pos:R:3 relative_energy_eV=1.1300501815640018 branch=right pbc="F F F"
O       -4.64115202       0.85551901       1.14445956
C       -3.49083934       0.88977565       0.63044070
C       -3.03010134       0.03659722      -0.42398871
O       -3.96747190      -0.77797581      -1.11995487
C       -1.65801469      -0.04252639      -1.01262396
O       -1.60845383       0.78136816      -2.18382508
C       -0.55655222       0.44316592      -0.05326440
O       -0.81479810       0.06160736       1.28891538
C        0.81600942      -0.09598513      -0.45864186
O        0.77819726      -1.45929401      -0.10801056
C        1.93534842       0.67314354       0.23483069
O        3.20999483       0.36681875      -0.31221334
P        4.10292832      -0.84957492       0.36982803
O        5.38093583      -0.94149990      -0.40323645
O        3.17681065      -2.02630015       0.61619341
O        4.42418926      -0.19487853       1.86915934
H       -2.86850236       1.70780825       1.06213649
H       -3.31994653       0.62492502       0.41617424
H       -4.80277464      -0.65095835      -0.63770732
H       -1.41661382      -1.07382576      -1.29834869
H       -2.34799143       0.49270484      -2.73247900
H       -0.55926341       1.53106345      -0.10554552
H       -0.49958361      -0.85917563       1.30744842
H        0.93149335       0.02685221      -1.54175342
H        1.71589341      -1.73967550       0.17678697
H        1.89885915       0.48487424       1.31023513
H        1.79085609       1.74306735       0.07370433
H        5.34243290       0.09620852       1.83855294
28
Properties=species:S:1:pos:R:3 relative_energy_eV=1.0969212619165774 branch=right pbc="F F F"
O       -4.64015673       0.85739641       1.16981365
C       -3.50170620       0.89729185       0.63498831
C       -3.04613011       0.06263588      -0.42312968
O       -3.95258971      -0.76621628      -1.14179219
C       -1.66870208      -0.01053074      -1.00471698
O       -1.59088777       0.77056659      -2.20497956
C       -0.55244238       0.44933027      -0.05607088
O       -0.82130809       0.05498060       1.27935283
C        0.81899898      -0.10052783      -0.46392556
O        0.78189782      -1.46455107      -0.11658791
C        1.93846975       0.66898508       0.23144105
O        3.21422663       0.36563125      -0.31351759
P        4.10761943      -0.84978357       0.36984453
O        5.38733787      -0.94462496      -0.40094229
O        3.18113458      -2.02552646       0.61667567
O        4.42766165      -0.19555647       1.86950523
H       -2.86532004       1.72322873       1.05457362
H       -3.33936792       0.61351129       0.44340691
H       -4.80577458      -0.70652166      -0.68376080
H       -1.45660131      -1.05201306      -1.24690674
H       -2.34729388       0.48013102      -2.72826307
H       -0.55256901       1.53698124      -0.09870317
H       -0.48828033      -0.85946712       1.31742624
H        0.93318314       0.02588301      -1.54567339
H        1.71909579      -1.74420363       0.17129580
H        1.90090260       0.47717791       1.30581909
H        1.79601849       1.73975940       0.07237968
H        5.34447307       0.09986170       1.83971961
28
Properties=species:S:1:pos:R:3 relative_energy_eV=1.0644777770867222 branch=right pbc="F F F"
O       -4.65012796       0.87781709       1.20275744
C       -3.51354191       0.89215231       0.65264050
C       -3.05588025       0.07588415      -0.42398869
O       -3.92900086      -0.75242742      -1.17735327
C       -1.68072233       0.00300626      -0.99597836
O       -1.58108310       0.74547107      -2.21179452
C       -0.55913964       0.46450698      -0.05501095
O       -0.84280696       0.04734100       1.27493621
C        0.81602585      -0.09870803      -0.46948172
O        0.78147225      -1.46395144      -0.12367517
C        1.94317910       0.66354622       0.22727884
O        3.22017362       0.36122411      -0.31813556
P        4.11451556      -0.85205367       0.37037978
O        5.39323688      -0.94736782      -0.39761563
O        3.18284362      -2.02644643       0.61562783
O        4.43226764      -0.19493055       1.87005153
H       -2.87592823       1.74573199       1.03365353
H       -3.35969236       0.58049424       0.47430708
H       -4.78073667      -0.73875815      -0.71499410
H       -1.49688225      -1.04831215      -1.20460218
H       -2.34119882       0.47851609      -2.74090449
H       -0.53013044       1.55900555      -0.07894666
H       -0.47004385      -0.85307206       1.31433332
H        0.93370222       0.02318691      -1.55238078
H        1.72063127      -1.74553948       0.16149610
H        1.90232932       0.46839768       1.30220181
H        1.80022524       1.73434028       0.07089613
H        5.34820274       0.10477463       1.84157435
28
Properties=species:S:1:pos:R:3 relative_energy_eV=1.0546107990885503 branch=right pbc="F F F"
O       -4.64516171       0.88476947       1.23365908
C       -3.52306126       0.89965892       0.65611648
C       -3.06181858       0.08327259      -0.42256496
O       -3.91900736      -0.74138201      -1.20222360
C       -1.68133196      -0.00184775      -0.98733938
O       -1.58304395       0.73623599      -2.20705571
C       -0.55663645       0.46797282      -0.04952125
O       -0.83798562       0.05036826       1.27964197
C        0.81468815      -0.09576384      -0.47068084
O        0.77968738      -1.46125553      -0.12553261
C        1.94450035       0.66098150       0.22529958
O        3.22091467       0.35768565      -0.32046020
P        4.11651347      -0.85400342       0.37088962
O        5.39660256      -0.94834051      -0.39633213
O        3.18386968      -2.02729342       0.61532932
O        4.43397044      -0.19439300       1.86995424
H       -2.89031498       1.74761157       1.02735237
H       -3.38502486       0.58523441       0.47404733
H       -4.76595628      -0.75683651      -0.73341107
H       -1.50529720      -1.05937005      -1.19597975
H       -2.33901684       0.47296537      -2.74479728
H       -0.51834242       1.56286731      -0.06992519
H       -0.46354337      -0.84878324       1.30674376
H        0.93146406       0.02383532      -1.55404566
H        1.71939910      -1.74311401       0.15618672
H        1.90422027       0.46441357       1.29969063
H        1.80215511       1.73144129       0.07051250
H        5.34944730       0.10689857       1.84171836
28
Properties=species:S:1:pos:R:3 relative_energy_eV=1.0465606183061027 branch=right pbc="F F F"
O       -4.64650302       0.87633498       1.24238825
C       -3.53167240       0.90127404       0.65186996
C       -3.06063460       0.08374135      -0.41368959
O       -3.91789958      -0.71687822      -1.21173636
C       -1.67864187      -0.00325072      -0.98129940
O       -1.57940622       0.73392559      -2.20480546
C       -0.55187265       0.46629253      -0.04852145
O       -0.82740181       0.05229224       1.28044356
C        0.81472493      -0.09294101      -0.46963030
O        0.77385804      -1.45618692      -0.12142505
C        1.94553199       0.66080611       0.22411940
O        3.21844771       0.35234124      -0.32365589
P        4.11752972      -0.85546874       0.36988379
O        5.39904405      -0.95093398      -0.39405605
O        3.18415026      -2.02772478       0.61422723
O        4.43443652      -0.19410135       1.86836052
H       -2.90343919       1.75636952       1.00712877
H       -3.39978036       0.57570898       0.48481530
H       -4.75992917      -0.76100476      -0.74084287
H       -1.50367791      -1.06346213      -1.18401750
H       -2.33232313       0.46475572      -2.74416282
H       -0.51657586       1.55703387      -0.06281752
H       -0.45446216      -0.84760716       1.29846297
H        0.92323192       0.02896630      -1.55181579
H        1.71269526      -1.73731597       0.15006716
H        1.90650464       0.46062177       1.29702398
H        1.80636590       1.73199511       0.07034173
H        5.34958884       0.10824564       1.84061571
28
Properties=species:S:1:pos:R:3 relative_energy_eV=1.0401531638854067 branch=right pbc="F F F"
O       -4.65502873       0.86448041       1.24834028
C       -3.53985171       0.89650103       0.65481325
C       -3.05929076       0.08454092      -0.41040740
O       -3.92085211      -0.69112464      -1.22776655
C       -1.67661396      -0.00298922      -0.97421192
O       -1.57487129       0.72892161      -2.19815959
C       -0.55102984       0.46750794      -0.04451241
O       -0.81378424       0.05101365       1.28528441
C        0.81308675      -0.08902183      -0.46936879
O        0.76828152      -1.45170717      -0.11877459
C        1.94845537       0.66087551       0.22260177
O        3.21869223       0.34691740      -0.32987331
P        4.11808466      -0.85826029       0.36893083
O        5.40151223      -0.95403218      -0.39199173
O        3.18366720      -2.02922028       0.61259962
O        4.43398379      -0.19309574       1.86616053
H       -2.92188243       1.77459132       0.97958815
H       -3.40489097       0.56309871       0.49778847
H       -4.75669271      -0.76172284      -0.74648927
H       -1.49900065      -1.06273949      -1.16935662
H       -2.32252213       0.45250573      -2.74022261
H       -0.51685878       1.55681458      -0.05869299
H       -0.44237826      -0.85086225       1.29229380
H        0.91441959       0.03510322      -1.55159073
H        1.70661202      -1.73417532       0.14559848
H        1.90938674       0.45698564       1.29545186
H        1.81212361       1.73343621       0.07082620
H        5.34913273       0.10948652       1.83841302
28
Properties=species:S:1:pos:R:3 relative_energy_eV=1.0279274580971105 branch=right pbc="F F F"
O       -4.65949253       0.83816483       1.26246650
C       -3.55334065       0.89461997       0.65482927
C       -3.06722138       0.08735040      -0.41354597
O       -3.93515992      -0.65649789      -1.26219828
C       -1.67550863      -0.00406011      -0.95480894
O       -1.56922180       0.72113038      -2.18094232
C       -0.54988502       0.47534506      -0.02607830
O       -0.78717698       0.04564774       1.30490019
C        0.81134879      -0.08143561      -0.47050162
O        0.76683716      -1.44780508      -0.12536812
C        1.95479671       0.66037469       0.21838372
O        3.22216512       0.34083048      -0.34095290
P        4.11810858      -0.86361124       0.36604679
O        5.40443165      -0.96005211      -0.39024898
O        3.18208510      -2.03388506       0.61021383
O        4.43016621      -0.19063994       1.86135765
H       -2.97257586       1.80713000       0.94300499
H       -3.40049673       0.55853815       0.50845691
H       -4.75606849      -0.76131969      -0.76220147
H       -1.48373631      -1.06068686      -1.14943520
H       -2.30590252       0.42286129      -2.72594418
H       -0.52189904       1.56851587      -0.05818713
H       -0.42295319      -0.86207309       1.28970044
H        0.90346330       0.04381211      -1.55470766
H        1.70214254      -1.73750396       0.14551898
H        1.91715854       0.45422757       1.29170096
H        1.82388478       1.73448046       0.07350892
H        5.34594054       0.11037062       1.83230386
28
Properties=species:S:1:pos:R:3 relative_energy_eV=1.0234469371280284 branch=right pbc="F F F"
O       -4.65488504       0.82780068       1.27226837
C       -3.56048654       0.89853372       0.64795580
C       -3.07152764       0.09159756      -0.41479013
O       -3.93589154      -0.64751460      -1.26946887
C       -1.67568142      -0.00374204      -0.94759202
O       -1.56743640       0.71830819      -2.17665013
C       -0.54815728       0.47829797      -0.01956307
O       -0.78498728       0.04406721       1.31031407
C        0.81306005      -0.08000798      -0.47112014
O        0.77062835      -1.44836146      -0.13370413
C        1.95723090       0.65965781       0.21601654
O        3.22346066       0.33955334      -0.34290268
P        4.11820348      -0.86474765       0.36420676
O        5.40518898      -0.96350186      -0.39040772
O        3.18233170      -2.03504615       0.60979554
O        4.42816945      -0.19044987       1.85889562
H       -2.99644104       1.81753785       0.93675158
H       -3.39895844       0.56049727       0.50908031
H       -4.75771432      -0.76390516      -0.77495604
H       -1.48300016      -1.06145483      -1.13884039
H       -2.30081166       0.41168604      -2.72185495
H       -0.52324584       1.57315520      -0.05204394
H       -0.41694568      -0.86200507       1.29239629
H        0.90203575       0.04569201      -1.55517698
H        1.70357875      -1.73987426       0.14648189
H        1.92167697       0.45392871       1.28827391
H        1.82864758       1.73363845       0.07398486
H        5.34384767       0.11048783       1.82992145
28
Properties=species:S:1:pos:R:3 relative_energy_eV=1.0157198147717281 branch=right pbc="F F F"
O       -4.65522447       0.79386190       1.28764167
C       -3.57406164       0.89972247       0.64400796
C       -3.06785488       0.09891971      -0.41392903
O       -3.92980344      -0.63240097      -1.27350982
C       -1.67087570      -0.00583237      -0.94023354
O       -1.56377594       0.71135139      -2.16890708
C       -0.54645186       0.47759867      -0.01345355
O       -0.79072323       0.04281547       1.31321885
C        0.81609137      -0.07745333      -0.47067892
O        0.77748352      -1.44920185      -0.14875895
C        1.96348936       0.66003845       0.21223407
O        3.22658658       0.33556138      -0.34981807
P        4.11826996      -0.86854766       0.35958520
O        5.40584872      -0.97366127      -0.39268222
O        3.18151465      -2.03694913       0.60881594
O        4.42325432      -0.19114305       1.85253669
H       -3.04900841       1.84788165       0.91362575
H       -3.39787382       0.56529828       0.50811920
H       -4.76155742      -0.75106231      -0.79596671
H       -1.48199859      -1.06779798      -1.11447630
H       -2.28676874       0.39178103      -2.72000178
H       -0.52614555       1.57097602      -0.02277660
H       -0.40467809      -0.85375901       1.30125202
H        0.89816694       0.05489224      -1.55289269
H        1.70778405      -1.73777774       0.14432150
H        1.93314846       0.45334831       1.28360123
H        1.83874562       1.73471477       0.07148829
H        5.33830835       0.11065365       1.82490850
28
Properties=species:S:1:pos:R:3 relative_energy_eV=1.0119257382830256 branch=right pbc="F F F"
O       -4.65800195       0.77425289       1.28963638
C       -3.57625597       0.89830924       0.64834641
C       -3.06459247       0.09970908      -0.41320017
O       -3.92586487      -0.63798469      -1.27187546
C       -1.66866790      -0.00694989      -0.94002941
O       -1.56094142       0.70792484      -2.16953628
C       -0.54762906       0.47564756      -0.01119968
O       -0.79669364       0.04030907       1.31406323
C        0.81632674      -0.07618379      -0.46994261
O        0.78041173      -1.44902550      -0.15153855
C        1.96608844       0.66109511       0.21198321
O        3.22842761       0.33454209      -0.35437642
P        4.11789342      -0.87112454       0.35732006
O        5.40516242      -0.97838168      -0.39529659
O        3.17948787      -2.03816541       0.60853750
O        4.42120127      -0.19186100       1.85016085
H       -3.06863660       1.86058100       0.90493026
H       -3.39601918       0.57382724       0.50332563
H       -4.76334449      -0.73286530      -0.79798100
H       -1.48022794      -1.06978935      -1.11056226
H       -2.28174587       0.38613260      -2.72205350
H       -0.52788745       1.56816540      -0.01117626
H       -0.40278739      -0.85201445       1.31102132
H        0.89828637       0.06145906      -1.55246106
H        1.71210712      -1.73547471       0.14221441
H        1.93820590       0.45493943       1.28482297
H        1.84157506       1.73605653       0.06882339
H        5.33601236       0.11069783       1.82331522
28
Properties=species:S:1:pos:R:3 relative_energy_eV=1.0083403620592435 branch=right pbc="F F F"
O       -4.65687222       0.75706000       1.29863948
C       -3.58301240       0.89898606       0.64736385
C       -3.06578292       0.10412583      -0.41461847
O       -3.91892376      -0.64807996      -1.26851268
C       -1.66821563      -0.00485104      -0.93880242
O       -1.55336878       0.70008314      -2.17654403
C       -0.54818118       0.47477072      -0.00493754
O       -0.79872679       0.03399244       1.31990396
C        0.81606094      -0.07322069      -0.46745326
O        0.78192799      -1.44457923      -0.14722616
C        1.96777530       0.66189890       0.21232953
O        3.22813238       0.33146128      -0.35807584
P        4.11766355      -0.87379724       0.35484617
O        5.40469657      -0.98348949      -0.39778131
O        3.17737726      -2.03940357       0.60740935
O        4.42146958      -0.19352906       1.84768710
H       -3.08523064       1.86804977       0.89915021
H       -3.39996428       0.58141205       0.49794698
H       -4.76279115      -0.71415126      -0.80198256
H       -1.48186721      -1.06720230      -1.11072250
H       -2.27835018       0.38015401      -2.72568545
H       -0.52705912       1.56821463      -0.00954306
H       -0.40254934      -0.85828685       1.32455343
H        0.89804596       0.07033824      -1.55111639
H        1.71692068      -1.73256187       0.13574865
H        1.94359240       0.45831620       1.28616311
H        1.84370289       1.73602573       0.06568442
H        5.33542021       0.11209215       1.82284700
28
Properties=species:S:1:pos:R:3 relative_energy_eV=1.0073387659795117 branch=right pbc="F F F"
O       -4.65466784       0.75157687       1.30378757
C       -3.58660716       0.89882196       0.64466149
C       -3.06500205       0.10846782      -0.41743494
O       -3.91661508      -0.64805393      -1.26601997
C       -1.66666825      -0.00408051      -0.93843246
O       -1.54930955       0.69630365      -2.17751389
C       -0.54821891       0.47523853      -0.00254516
O       -0.79935387       0.03267137       1.32154647
C        0.81575151      -0.07138605      -0.46408992
O        0.78223946      -1.44267070      -0.14615261
C        1.96883288       0.66281556       0.21233382
O        3.22738244       0.32895273      -0.35882186
P        4.11793501      -0.87502442       0.35381823
O        5.40473665      -0.98639861      -0.39867802
O        3.17778345      -2.04038615       0.60571778
O        4.42208047      -0.19458566       1.84601692
H       -3.09673181       1.87097352       0.89330783
H       -3.40202796       0.57701980       0.49905097
H       -4.76461084      -0.70750179      -0.80616884
H       -1.48403202      -1.06700748      -1.10669169
H       -2.27418501       0.37624374      -2.72669182
H       -0.52691572       1.56854160      -0.00696629
H       -0.40125890      -0.85896666       1.32546887
H        0.89510945       0.07333123      -1.54654196
H        1.71789757      -1.73135869       0.13218683
H        1.94660025       0.46047093       1.28551292
H        1.84638291       1.73688575       0.06485011
H        5.33536304       0.11293409       1.82176117
28
Properties=species:S:1:pos:R:3 relative_energy_eV=1.0069355085433926 branch=right pbc="F F F"
O       -4.65362820       0.74975977       1.30464615
C       -3.58559773       0.89760194       0.64464081
C       -3.06507511       0.10886770      -0.41987778
O       -3.91815027      -0.65144554      -1.26551851
C       -1.66601300      -0.00434437      -0.93908993
O       -1.54698078       0.69608840      -2.17761258
C       -0.54897118       0.47577091      -0.00184055
O       -0.79993103       0.03351130       1.32180477
C        0.81524440      -0.07067822      -0.46129036
O        0.78209512      -1.44249718      -0.14462400
C        1.96940035       0.66415422       0.21344391
O        3.22727394       0.32844122      -0.35895295
P        4.11811383      -0.87595009       0.35336677
O        5.40456937      -0.98715254      -0.39976570
O        3.17838887      -2.04190539       0.60429653
O        4.42273802      -0.19532844       1.84564705
H       -3.09879872       1.87131819       0.89150852
H       -3.40163137       0.57480942       0.49909979
H       -4.76755439      -0.70229160      -0.80609112
H       -1.48417193      -1.06770509      -1.10623684
H       -2.27133225       0.37522077      -2.72676352
H       -0.52808775       1.56894694      -0.00685052
H       -0.40264894      -0.85853352       1.32288847
H        0.89280085       0.07388840      -1.54311098
H        1.71847093      -1.73157045       0.13130408
H        1.94774083       0.46319488       1.28701893
H        1.84789115       1.73850216       0.06467794
H        5.33573507       0.11315467       1.82055321
28
Properties=species:S:1:pos:R:3 relative_energy_eV=1.006438204960432 branch=right pbc="F F F"
O       -4.65080132       0.74665076       1.30887277
C       -3.58567035       0.89642879       0.64452512
C       -3.06826290       0.10732369      -0.42113323
O       -3.92013630      -0.65584912      -1.26604985
C       -1.66719701      -0.00479690      -0.93865782
O       -1.54355543       0.69515883      -2.17802968
C       -0.55029024       0.47716823      -0.00043797
O       -0.80140884       0.03512945       1.32302582
C        0.81508590      -0.06956135      -0.45865173
O        0.78214197      -1.44130222      -0.14052815
C        1.97015008       0.66573496       0.21575003
O        3.22732231       0.32834897      -0.35810325
P        4.11847546      -0.87724615       0.35216205
O        5.40462971      -0.98731721      -0.40179423
O        3.17959032      -2.04431170       0.60216956
O        4.42411974      -0.19736893       1.84487749
H       -3.09667619       1.87087798       0.89040188
H       -3.40250577       0.57603954       0.49658331
H       -4.77123050      -0.69784771      -0.80940525
H       -1.48471146      -1.06863343      -1.10547349
H       -2.26706426       0.37379219      -2.72803289
H       -0.52983326       1.57051823      -0.00735341
H       -0.40672227      -0.85818088       1.31930393
H        0.89079345       0.07440194      -1.54116280
H        1.71945557      -1.73270759       0.13128981
H        1.94979961       0.46813809       1.29057880
H        1.84996496       1.73994344       0.06443169
H        5.33642712       0.11329653       1.81811317
28
Properties=species:S:1:pos:R:3 relative_energy_eV=1.00616433587129 branch=right pbc="F F F"
O       -4.64831860       0.74357686       1.31330797
C       -3.58687024       0.89579079       0.64430342
C       -3.06944279       0.10683386      -0.42091193
O       -3.92025487      -0.65463736      -1.26689522
C       -1.66798197      -0.00507116      -0.93724963
O       -1.54180082       0.69284816      -2.17702889
C       -0.55135619       0.47847109       0.00061473
O       -0.80320835       0.03574011       1.32364430
C        0.81490468      -0.06813858      -0.45735052
O        0.78202203      -1.43944927      -0.13753540
C        1.97078648       0.66651620       0.21675637
O        3.22740082       0.32789432      -0.35725344
P        4.11892192      -0.87820652       0.35093975
O        5.40491610      -0.98756957      -0.40339986
O        3.18046714      -2.04565075       0.60034425
O        4.42509731      -0.19953766       1.84370516
H       -3.09795170       1.87100475       0.88687745
H       -3.40354512       0.57606069       0.49571660
H       -4.77359214      -0.69646217      -0.81471714
H       -1.48552058      -1.06902059      -1.10193717
H       -2.26283314       0.37170248      -2.73021416
H       -0.53108184       1.57192917      -0.00576754
H       -0.40897302      -0.85780153       1.31794339
H        0.89013160       0.07493815      -1.54039396
H        1.71962732      -1.73283455       0.13177035
H        1.95189795       0.47118021       1.29203758
H        1.85185595       1.74043954       0.06421594
H        5.33659222       0.11328171       1.81574936
28
Properties=species:S:1:pos:R:3 relative_energy_eV=1.0058273848771933 branch=right pbc="F F F"
O       -4.64534341       0.74080804       1.31655318
C       -3.58562805       0.89387333       0.64460481
C       -3.06858976       0.10601467      -0.42126512
O       -3.92104834      -0.65168375      -1.26934671
C       -1.66771935      -0.00590590      -0.93616620
O       -1.54115680       0.69088297      -2.17533581
C       -0.55273539       0.47975653       0.00192696
O       -0.80588537       0.03575185       1.32419708
C        0.81411013      -0.06607921      -0.45484922
O        0.78053136      -1.43670785      -0.13242788
C        1.97126912       0.66815630       0.21732432
O        3.22735907       0.32779289      -0.35688268
P        4.11919767      -0.87949277       0.34909636
O        5.40471104      -0.98704629      -0.40644903
O        3.18070415      -2.04704657       0.59709183
O        4.42656176      -0.20351538       1.84262904
H       -3.10084044       1.87100732       0.88201574
H       -3.40222910       0.57353394       0.49629115
H       -4.77617322      -0.69308462      -0.81962524
H       -1.48430860      -1.06970568      -1.09761856
H       -2.25715362       0.36835403      -2.73408025
H       -0.53426206       1.57338348      -0.00433981
H       -0.41280654      -0.85855521       1.31900144
H        0.89126608       0.07499200      -1.53784888
H        1.71854900      -1.73049235       0.13436518
H        1.95345108       0.47412672       1.29254103
H        1.85327156       1.74199763       0.06385045
H        5.33678816       0.11271223       1.81201868
28
Properties=species:S:1:pos:R:3 relative_energy_eV=1.0055625937166042 branch=right pbc="F F F"
O       -4.64197700       0.73935039       1.31927172
C       -3.58369117       0.89240830       0.64476471
C       -3.06896001       0.10508113      -0.42259586
O       -3.92176580      -0.65131141      -1.27216944
C       -1.66747545      -0.00688313      -0.93658134
O       -1.54065757       0.69094295      -2.17569080
C       -0.55373698       0.48010395       0.00313618
O       -0.80844380       0.03643047       1.32542586
C        0.81372536      -0.06500886      -0.45194315
O        0.77913777      -1.43493423      -0.12708102
C        1.97143761       0.67015894       0.21817818
O        3.22706772       0.32867585      -0.35686397
P        4.11895550      -0.88025964       0.34712111
O        5.40378522      -0.98582734      -0.40992755
O        3.18049876      -2.04811880       0.59382171
O        4.42825570      -0.20783910       1.84210128
H       -3.10023785       1.87079564       0.88152737
H       -3.40078498       0.57244741       0.49562436
H       -4.77737592      -0.68986844      -0.82306327
H       -1.48225093      -1.07103064      -1.09635365
H       -2.25324410       0.36494542      -2.73692455
H       -0.53755186       1.57373420      -0.00430723
H       -0.41807594      -0.85923494       1.32122871
H        0.89331372       0.07431947      -1.53484232
H        1.71763977      -1.72768685       0.13800461
H        1.95373742       0.47653407       1.29335821
H        1.85332890       1.74399777       0.06331286
H        5.33723607       0.11190573       1.80873928
28
Properties=species:S:1:pos:R:3 relative_energy_eV=1.005240010075795 branch=right pbc="F F F"
O       -4.63757638       0.73626176       1.32385982
C       -3.58325968       0.89237766       0.64460239
C       -3.07027031       0.10625267      -0.42483977
O       -3.92059245      -0.64979875      -1.27580904
C       -1.66747563      -0.00745412      -0.93736498
O       -1.53874063       0.68989365      -2.17743524
C       -0.55524340       0.47998861       0.00454770
O       -0.81187640       0.03881506       1.32759274
C        0.81344228      -0.06478314      -0.44864307
O        0.77883453      -1.43397715      -0.12160892
C        1.97114009       0.67211504       0.21985991
O        3.22627759       0.33057646      -0.35652940
P        4.11820615      -0.88019301       0.34404926
O        5.40202621      -0.98467921      -0.41463664
O        3.18000596      -2.04844780       0.58998576
O        4.43025854      -0.21303716       1.84063244
H       -3.09857607       1.87125601       0.88256791
H       -3.40084753       0.57238413       0.49462567
H       -4.77663892      -0.68832693      -0.82881444
H       -1.48091272      -1.07202546      -1.09684585
H       -2.24953591       0.35890981      -2.73810635
H       -0.53980989       1.57318638      -0.00299680
H       -0.42373382      -0.85762298       1.32386608
H        0.89420751       0.07307330      -1.53179036
H        1.71796929      -1.72646219       0.14282035
H        1.95411585       0.47900758       1.29525577
H        1.85275208       1.74571234       0.06288018
H        5.33774377       0.11082570       1.80554700
28
Properties=species:S:1:pos:R:3 relative_energy_eV=1.0049406236503273 branch=right pbc="F F F"
O       -4.63383875       0.73150746       1.32687696
C       -3.58203349       0.89158942       0.64473120
C       -3.06930488       0.10836474      -0.42692561
O       -3.91919014      -0.64494626      -1.28003480
C       -1.66664355      -0.00771350      -0.93743864
O       -1.53625204       0.68673057      -2.17827685
C       -0.55712757       0.48056842       0.00604090
O       -0.81612919       0.04149623       1.32926516
C        0.81238517      -0.06465069      -0.44498824
O        0.77846188      -1.43309567      -0.11508972
C        1.97009846       0.67378645       0.22194342
O        3.22507660       0.33297183      -0.35552764
P        4.11727599      -0.87989646       0.34021178
O        5.39976603      -0.98362976      -0.42075119
O        3.17890065      -2.04826874       0.58547057
O        4.43210749      -0.21832518       1.83830604
H       -3.09904681       1.87138182       0.88069592
H       -3.39939656       0.57051961       0.49547380
H       -4.77552456      -0.68588132      -0.83405086
H       -1.47954027      -1.07176652      -1.09778533
H       -2.24479825       0.35145580      -2.73916266
H       -0.54160692       1.57350499      -0.00106846
H       -0.42843795      -0.85501232       1.32663749
H        0.89314199       0.07141166      -1.52854404
H        1.71872942      -1.72658618       0.14823841
H        1.95492704       0.48196392       1.29767182
H        1.85172808       1.74703863       0.06329375
H        5.33816216       0.10930920       1.80205911
28
Properties=species:S:1:pos:R:3 relative_energy_eV=1.0045490581906051 branch=right pbc="F F F"
O       -4.63021978       0.72606888       1.32754269
C       -3.57824498       0.88841232       0.64503865
C       -3.06598537       0.10903675      -0.42865635
O       -3.91881900      -0.63802839      -1.28566372
C       -1.66417458      -0.00780100      -0.93786467
O       -1.53355967       0.68356171      -2.17969588
C       -0.55790697       0.48231409       0.00753226
O       -0.82140957       0.04429480       1.33010977
C        0.81100225      -0.06536862      -0.43969848
O        0.77680637      -1.43264846      -0.10474361
C        1.96828220       0.67545811       0.22495705
O        3.22339199       0.33659128      -0.35329862
P        4.11585909      -0.87955438       0.33559105
O        5.39587023      -0.98169254      -0.42993581
O        3.17696656      -2.04808066       0.57964147
O        4.43394752      -0.22346633       1.83550376
H       -3.09988696       1.87006587       0.87853021
H       -3.39487307       0.56809419       0.49562196
H       -4.77416674      -0.68141468      -0.83694783
H       -1.47786721      -1.07145019      -1.09861226
H       -2.23922542       0.34364960      -2.74155792
H       -0.54269785       1.57575543      -0.00129130
H       -0.43325853      -0.85229206       1.33055514
H        0.89008119       0.06788995      -1.52375231
H        1.71940800      -1.72684635       0.15383978
H        1.95539192       0.48624333       1.30114678
H        1.84816393       1.74829958       0.06549398
H        5.33901444       0.10673587       1.79788668
28
Properties=species:S:1:pos:R:3 relative_energy_eV=1.0042770136860781 branch=right pbc="F F F"
O       -4.62661106       0.72168240       1.33003641
C       -3.57686071       0.88688701       0.64489900
C       -3.06516135       0.10951041      -0.43027519
O       -3.91815704      -0.63363868      -1.29033733
C       -1.66276625      -0.00753579      -0.93865152
O       -1.53136882       0.68223099      -2.18196655
C       -0.55774141       0.48345409       0.00853867
O       -0.82448634       0.04664588       1.33109793
C        0.81062927      -0.06650362      -0.43552454
O        0.77558541      -1.43277791      -0.09700748
C        1.96741284       0.67645305       0.22744387
O        3.22234317       0.33946336      -0.35169071
P        4.11464941      -0.87915414       0.33247137
O        5.39236870      -0.98028184      -0.43685934
O        3.17612713      -2.04827652       0.57567323
O        4.43522180      -0.22624758       1.83331397
H       -3.10052704       1.86983136       0.87964560
H       -3.39333494       0.56887787       0.49283478
H       -4.77263335      -0.68028245      -0.84054605
H       -1.47780197      -1.07222202      -1.09633599
H       -2.23563944       0.33864885      -2.74356819
H       -0.54149313       1.57720506      -0.00240400
H       -0.43581451      -0.84993590       1.33359505
H        0.88791168       0.06421580      -1.51991669
H        1.72002347      -1.72696685       0.15604173
H        1.95561438       0.48899229       1.30398196
H        1.84439227       1.74887070       0.06759899
H        5.34000781       0.10468219       1.79518367
28
Properties=species:S:1:pos:R:3 relative_energy_eV=1.0039061556672095 branch=right pbc="F F F"
O       -4.62023452       0.71240951       1.33574196
C       -3.57680161       0.88678157       0.64446433
C       -3.06601745       0.11375262      -0.43485676
O       -3.91652710      -0.62682371      -1.29782789
C       -1.66258443      -0.00729093      -0.93867030
O       -1.52746177       0.67844266      -2.18392865
C       -0.55944009       0.48434746       0.01019068
O       -0.82855190       0.05105562       1.33357644
C        0.80944173      -0.06762660      -0.42963060
O        0.77391394      -1.43222023      -0.08564032
C        1.96584610       0.67819735       0.23132486
O        3.22040793       0.34387438      -0.35016263
P        4.11284888      -0.87815915       0.32734731
O        5.38754600      -0.97843647      -0.44664447
O        3.17590650      -2.04873678       0.56970135
O        4.43757275      -0.23059470       1.82926990
H       -3.10328292       1.87117475       0.88138694
H       -3.39323739       0.57071779       0.48879908
H       -4.77049110      -0.68068385      -0.84910319
H       -1.47711165      -1.07322631      -1.08893315
H       -2.22889629       0.33171085      -2.74710504
H       -0.53871608       1.57752368      -0.00334872
H       -0.43831339      -0.84499878       1.33789432
H        0.88762716       0.05767682      -1.51446720
H        1.72071314      -1.72776741       0.15862995
H        1.95640829       0.49143799       1.30821570
H        1.83938465       1.74996579       0.07031442
H        5.34194060       0.10132390       1.79073461
28
Properties=species:S:1:pos:R:3 relative_energy_eV=1.0037065527358209 branch=right pbc="F F F"
O       -4.61811984       0.70712418       1.33603437
C       -3.57565867       0.88607041       0.64419493
C       -3.06577547       0.11681207      -0.43800786
O       -3.91671805      -0.62368212      -1.30098793
C       -1.66239883      -0.00754190      -0.93831786
O       -1.52488116       0.67562216      -2.18403689
C       -0.56066975       0.48489417       0.01066085
O       -0.83120602       0.05363163       1.33424157
C        0.80826322      -0.06848078      -0.42669096
O        0.77226088      -1.43202445      -0.07834531
C        1.96390343       0.67916892       0.23359614
O        3.21851166       0.34643289      -0.34915787
P        4.11187772      -0.87720916       0.32431431
O        5.38529191      -0.97673439      -0.45194930
O        3.17561253      -2.04853805       0.56621506
O        4.43899476      -0.23266675       1.82703491
H       -3.10423065       1.87091839       0.88197007
H       -3.39144233       0.57051919       0.48799884
H       -4.76999017      -0.67939690      -0.85084328
H       -1.47547666      -1.07334014      -1.08579456
H       -2.22493425       0.33016013      -2.74962584
H       -0.53802103       1.57776954      -0.00496285
H       -0.43922947      -0.84181466       1.34012921
H        0.88931217       0.05322732      -1.51175386
H        1.72051666      -1.72876429       0.16054393
H        1.95627571       0.49193652       1.31047201
H        1.83634729       1.75083946       0.07219663
H        5.34347442       0.09889431       1.78814457
28
Properties=species:S:1:pos:R:3 relative_energy_eV=1.0034698908639257 branch=right pbc="F F F"
O       -4.61816221       0.70345584       1.33450481
C       -3.57471036       0.88442160       0.64378453
C       -3.06506845       0.11841026      -0.44044218
O       -3.91826637      -0.62193878      -1.30239714
C       -1.66098919      -0.00824589      -0.93908624
O       -1.51995050       0.67328452      -2.18535070
C       -0.56052635       0.48595226       0.01011751
O       -0.83393876       0.05673826       1.33376120
C        0.80789545      -0.07033811      -0.42427741
O        0.76982167      -1.43287922      -0.07059683
C        1.96168068       0.67935079       0.23578441
O        3.21609515       0.34839928      -0.34796886
P        4.11118075      -0.87562023       0.32150259
O        5.38383866      -0.97328642      -0.45648949
O        3.17493244      -2.04734093       0.56232784
O        4.44061862      -0.23366986       1.82500256
H       -3.10375200       1.86915386       0.88380270
H       -3.38936879       0.57019652       0.48708524
H       -4.77004473      -0.67704092      -0.84844926
H       -1.47442185      -1.07444824      -1.08534874
H       -2.22168911       0.33218344      -2.75144414
H       -0.53927914       1.57927588      -0.00801083
H       -0.43973504      -0.83786526       1.34229566
H        0.89298794       0.04798275      -1.50954216
H        1.71938549      -1.73029266       0.16366610
H        1.95454779       0.49119918       1.31233201
H        1.83286862       1.75117911       0.07513146
H        5.34593956       0.09561062       1.78557845
28
Properties=species:S:1:pos:R:3 relative_energy_eV=1.0033319969661534 branch=right pbc="F F F"
O       -4.61660339       0.69953102       1.33706830
C       -3.57573772       0.88395322       0.64365922
C       -3.06534747       0.11957617      -0.44197922
O       -3.91859770      -0.61877070      -1.30510027
C       -1.66013304      -0.00867301      -0.93967605
O       -1.51507324       0.67078880      -2.18688285
C       -0.56083637       0.48685487       0.01025773
O       -0.83539393       0.05968873       1.33444541
C        0.80792811      -0.07106129      -0.42196616
O        0.76852768      -1.43288940      -0.06521685
C        1.96127604       0.67931346       0.23742121
O        3.21525459       0.34980476      -0.34773646
P        4.11085196      -0.87476468       0.31900255
O        5.38280821      -0.97071224      -0.46023930
O        3.17479654      -2.04690662       0.55864579
O        4.44216171      -0.23513402       1.82292287
H       -3.10647284       1.86949928       0.88427695
H       -3.39039456       0.57071316       0.48529169
H       -4.76977830      -0.67651245      -0.85061965
H       -1.47498610      -1.07576186      -1.08338654
H       -2.21805905       0.33129051      -2.75218447
H       -0.54036339       1.58037340      -0.00888825
H       -0.44039219      -0.83459892       1.34455933
H        0.89492614       0.04445688      -1.50731988
H        1.71859451      -1.73107091       0.16687055
H        1.95391166       0.49086928       1.31389823
H        1.83116329       1.75092789       0.07735550
H        5.34785876       0.09304225       1.78279377
28
Properties=species:S:1:pos:R:3 relative_energy_eV=1.0032559881583438 branch=right pbc="F F F"
O       -4.61486898       0.69607310       1.33973096
C       -3.57639807       0.88381630       0.64377966
C       -3.06575987       0.12086511      -0.44312605
O       -3.91848021      -0.61584991      -1.30794027
C       -1.66031174      -0.00885721      -0.93939003
O       -1.51240750       0.66822333      -2.18724187
C       -0.56174259       0.48711946       0.01072690
O       -0.83586250       0.06190173       1.33549623
C        0.80760203      -0.07092791      -0.42020127
O        0.76807844      -1.43219871      -0.06188245
C        1.96158095       0.67928219       0.23862390
O        3.21560443       0.35127046      -0.34773842
P        4.11103929      -0.87456209       0.31711480
O        5.38252035      -0.96919191      -0.46300708
O        3.17559303      -2.04737503       0.55602345
O        4.44336029      -0.23643152       1.82140735
H       -3.11097353       1.87099003       0.88336860
H       -3.39168683       0.57097129       0.48399778
H       -4.76965404      -0.67643330      -0.85406955
H       -1.47611267      -1.07601033      -1.08141005
H       -2.21527435       0.32952178      -2.75300019
H       -0.54068158       1.58033765      -0.00941788
H       -0.44112200      -0.83252714       1.34681038
H        0.89480083       0.04258915      -1.50558254
H        1.71812122      -1.73093712       0.16961443
H        1.95470884       0.49050243       1.31521502
H        1.83093693       1.75062338       0.07898537
H        5.34927980       0.09104241       1.78038597
