16
Properties=species:S:1:pos:R:3 relative_energy_eV=2.703059770807158 branch=ts pbc="F F F"
O        1.13462161       1.91941794       0.37410788
C        1.91137362       0.87062548       0.04731650
C        1.45003726      -0.30926248      -0.57343654
O        2.33558794      -1.26712784      -0.37949265
C        0.07426679      -0.57091127      -1.02834215
O       -0.72741199      -1.22281081      -0.02897529
P       -1.74454281      -0.30804369       0.91717964
O       -2.43851918      -1.25334530       1.84502117
O       -1.00657027       0.93330818       1.38034406
O       -2.83683504       0.23002821      -0.22595844
H        2.91237428       1.20195186      -0.25485320
H        2.59198757      -0.31807157       0.57002227
H        0.25507662       1.57759311       0.77321881
H       -0.39462477       0.36259350      -1.34712213
H        0.09156111      -1.25262325      -1.88359875
H       -3.56783796      -0.39778220      -0.20219972
