17
Properties=species:S:1:pos:R:3 relative_energy_eV=0.032723221273045056 branch=ts pbc="F F F"
C        0.49215665      -1.02445533       0.15388517
C       -0.10232454      -1.06734525       1.42975055
O        0.36994450      -0.71066323       2.52660022
P        0.62635528       2.12815852      -1.20767583
O        0.33461739       3.56057380      -1.46068376
O        1.41245007       1.84887100       0.16630038
O        1.66523951       1.51981535      -2.33515307
C       -1.58217355      -1.51335867       1.46666123
O       -2.51531999      -0.88339254       1.91524461
O       -1.75741169      -2.78156644       0.97477003
O       -0.61809628       1.14692167      -1.25065304
H        1.57830186      -0.97845401       0.12732588
H        0.08707391      -1.67382213      -0.61290793
H        1.85889923       2.24322882      -2.93939876
H       -2.70760054      -2.95684928       1.08415038
H       -0.38487313       0.28296798      -0.71636074
H        1.23096560       0.92777282       0.48472922
