32
Properties=species:S:1:pos:R:3 relative_energy_eV=0.026049146777950227 branch=ts pbc="F F F"
O        6.35032827       0.43143001      -2.04163496
P        4.93907509       0.43522147      -1.55882785
O        4.07609074       1.72337427      -1.56907426
O        4.84842418      -0.15302497      -0.03498304
O        4.10530751      -0.68989818      -2.42794371
C        2.76140751      -0.41943476      -2.82441310
C        1.71493386      -0.85743843      -1.82507033
O        1.41425490      -2.07802360      -1.65005645
C        0.74894959       0.13687754      -1.18959528
O       -0.44417892      -0.56052072      -0.89352861
C        1.70944438       0.23937857      -0.07524763
O        2.46077703       1.29561083       0.19680940
C       -2.32588217       0.60311014       1.71536042
O       -1.08916148       0.20067975       1.51361128
C       -3.47908114       0.22025450       0.88370604
O       -4.19376635      -0.83429146       1.55412415
P       -5.54121390      -0.42321666       2.48854748
O       -6.20836535      -1.73605368       2.77425934
O       -6.19187333       0.79605462       1.90509219
O       -4.79006321       0.09407309       3.89976623
H        4.02733205       0.20460252       0.36627280
H        2.63377615       0.63799355      -3.05120921
H        2.61467767      -1.00317017      -3.73844343
H        0.56270542       1.07238981      -1.71284272
H       -0.10921742      -1.49385359      -1.02437360
H        1.69037681      -0.60488812       0.60916435
H        3.15619837       1.60117369      -0.63807709
H       -2.50458012       1.06191859       2.67417320
H       -0.94250230      -0.13703557       0.57942101
H       -4.14199473       1.07446870       0.72778460
H       -3.14953803      -0.15110061      -0.08859359
H       -4.70817131      -0.69044598       4.45443376
