35
Properties=species:S:1:pos:R:3 relative_energy_eV=3.907012442461564 branch=ts pbc="F F F"
O       -1.11405518      -2.16329094      -1.02057195
P       -2.57838880      -1.54857018      -0.66630223
O       -3.61161812      -2.24140635      -1.51049946
O       -2.74800847      -1.42540696       0.85453822
O       -2.35314230       0.01044433      -1.18815928
C       -3.49849885       0.86972498      -1.09524303
C       -3.54995178       1.76042025       0.12470550
O       -3.03168849       1.22209706       1.17177486
C        0.37297559       1.04883648       2.16879909
O       -0.22842944       1.24926972       3.18470328
C        1.28101360       1.21004315       1.10702964
O        2.10302497       2.24598292       1.09888675
C        1.14956167       0.17564045       0.03161193
O        1.10009139      -1.11543943       0.61686814
C        2.23343536       0.21735314      -1.05329128
O        3.43918867      -0.36733949      -0.56927154
P        4.81060757       0.54838661      -0.39522692
O        5.91990967      -0.41269054      -0.11343426
O        4.47588032       1.74463714       0.47222734
O        4.99249965       1.16867782      -1.93237184
O       -5.14824226      -3.04942947       0.96856478
H       -2.78763402       0.21137471       1.11880675
H       -4.43402550       0.29272264      -1.12672048
H       -3.50536055       1.50449978      -1.98124114
H       -0.49607287      -1.97193361      -0.29425521
H       -0.21929455       1.75652776       0.97007910
H        1.61811193       0.17893935       2.33287940
H        3.07809542       1.99830933       0.81043440
H        0.18009256       0.37508346      -0.42808741
H        2.02482014      -1.39887815       0.66589366
H        1.89381800      -0.38118387      -1.90057983
H        2.39056573       1.23919194      -1.40329322
H        5.54285410       0.53289590      -2.40495075
H       -4.39357948      -2.48973411       1.23776270
H       -4.98169186      -3.05735128       0.01333138
