16
Properties=species:S:1:pos:R:3 relative_energy_eV=0.0 branch=left pbc="F F F"
O        2.13865010       1.19346704      -1.17819122
C        1.14460816       1.03233167      -0.48244930
C        1.14119811      -0.04355742       0.58650319
O        2.48038005      -0.47017182       0.81224806
C        0.26193984      -1.25776602       0.23923018
O       -1.10981725      -1.08503614       0.49874054
P       -1.98248696      -0.08444094      -0.53058818
O       -1.14496661       0.15846176      -1.75705383
O       -3.39772766      -0.56903864      -0.50177226
O       -1.91416192       1.34124361       0.36820789
H        0.25962579       1.66606645      -0.57043204
H        0.73905324       0.40822991       1.50152390
H        2.97684681      -0.08694777       0.06693952
H        0.60150208      -2.08227533       0.86865387
H        0.43923810      -1.52262188      -0.80392142
H       -2.72414832       1.35573173       0.88998384
16
Properties=species:S:1:pos:R:3 relative_energy_eV=5.7155044487444684e-05 branch=left pbc="F F F"
O        2.14276391       1.19743453      -1.17293442
C        1.14707037       1.03153368      -0.48055265
C        1.14406587      -0.04422002       0.58741383
O        2.48269202      -0.47271184       0.81180112
C        0.26153566      -1.25591617       0.23922134
O       -1.10907113      -1.07916413       0.50240782
P       -1.98536968      -0.08494465      -0.53171913
O       -1.15107393       0.15485570      -1.76071074
O       -3.39872483      -0.57439797      -0.49882978
O       -1.91877192       1.34502906       0.36014504
H        0.25934838       1.66112626      -0.57156445
H        0.74223259       0.40740181       1.50294135
H        2.97924342      -0.08708552       0.06788233
H        0.60099790      -2.08254646       0.86610709
H        0.43590172      -1.51901603      -0.80507489
H       -2.72310685       1.35629791       0.89108885
16
Properties=species:S:1:pos:R:3 relative_energy_eV=0.0002576666338427458 branch=left pbc="F F F"
O        2.14697166       1.20530337      -1.16414450
C        1.14920715       1.03266949      -0.47669892
C        1.14645098      -0.04611379       0.58849311
O        2.48485090      -0.47588604       0.81152525
C        0.26170257      -1.25513395       0.23727417
O       -1.10768986      -1.07439194       0.50161000
P       -1.98909491      -0.08561893      -0.53372649
O       -1.16174159       0.14862552      -1.76825503
O       -3.40289213      -0.57352660      -0.48525939
O       -1.91954459       1.34944704       0.34935855
H        0.25625682       1.65429767      -0.57455965
H        0.74544128       0.40383381       1.50531484
H        2.98315984      -0.08206119       0.07302990
H        0.59942742      -2.08448670       0.86181122
H        0.43532345      -1.51792918      -0.80734923
H       -2.71809550       1.35464750       0.88919894
16
Properties=species:S:1:pos:R:3 relative_energy_eV=0.0007013944450591225 branch=left pbc="F F F"
O        2.14753810       1.21192579      -1.15812239
C        1.15062680       1.03176320      -0.47180319
C        1.15072077      -0.04801626       0.58920894
O        2.48882545      -0.48053087       0.80750104
C        0.26075690      -1.25372085       0.23595691
O       -1.10851606      -1.07066297       0.49920291
P       -1.99441879      -0.08622382      -0.53835145
O       -1.17564362       0.13914433      -1.77992729
O       -3.40717290      -0.57553812      -0.47992226
O       -1.91917684       1.35324306       0.33862704
H        0.25414711       1.64806286      -0.57065608
H        0.75095165       0.39841246       1.50839542
H        2.98882076      -0.07185046       0.07784573
H        0.59482026      -2.08123993       0.86442059
H        0.43451822      -1.51580920      -0.80895673
H       -2.70706444       1.35471674       0.89420359
16
Properties=species:S:1:pos:R:3 relative_energy_eV=0.0017869727671495639 branch=left pbc="F F F"
O        2.15170272       1.23708235      -1.13763888
C        1.14859319       1.03444427      -0.46696399
C        1.15214144      -0.05492721       0.58679919
O        2.49032334      -0.49236294       0.79221363
C        0.25815952      -1.25616558       0.23679737
O       -1.10901668      -1.06123007       0.50151395
P       -2.00062575      -0.08909519      -0.54237669
O       -1.18623833       0.12262991      -1.78833021
O       -3.41355390      -0.57588652      -0.47430302
O       -1.91647049       1.36021688       0.31875735
H        0.24359901       1.63669791      -0.57204244
H        0.75922199       0.39052217       1.51007363
H        2.99220052      -0.05253946       0.08165268
H        0.58691143      -2.08869597       0.86266090
H        0.43510411      -1.52167780      -0.80624479
H       -2.68231899       1.36466315       0.90505404
16
Properties=species:S:1:pos:R:3 relative_energy_eV=0.003104601531958906 branch=left pbc="F F F"
O        2.15622209       1.25507226      -1.12448712
C        1.15089560       1.03821865      -0.46172792
C        1.15566014      -0.05486882       0.58602081
O        2.49122283      -0.50351078       0.78345228
C        0.25254192      -1.25127176       0.23972659
O       -1.11309745      -1.05296957       0.51307488
P       -2.00542230      -0.09366353      -0.54685703
O       -1.18992601       0.11377116      -1.79314420
O       -3.41578916      -0.58747294      -0.47802626
O       -1.92095019       1.36590953       0.29467327
H        0.23871385       1.62924528      -0.57613064
H        0.76705929       0.38989856       1.51215279
H        2.99682382      -0.05387959       0.08179785
H        0.58464250      -2.08252476       0.86488759
H        0.41658293      -1.51609849      -0.80612299
H       -2.65544696       1.35782075       0.91833277
16
Properties=species:S:1:pos:R:3 relative_energy_eV=0.003831931306194747 branch=left pbc="F F F"
O        2.16042827       1.26951293      -1.11028013
C        1.14806811       1.03965992      -0.46202044
C        1.15331321      -0.05839891       0.58183296
O        2.48959523      -0.50581735       0.77773025
C        0.24988551      -1.25452237       0.23872627
O       -1.11445813      -1.05320576       0.51157499
P       -2.00426176      -0.09311037      -0.54720869
O       -1.19158779       0.10763697      -1.79641636
O       -3.41416211      -0.58573311      -0.46701864
O       -1.91429601       1.36888248       0.29138142
H        0.23311837       1.62527043      -0.58038859
H        0.77191291       0.38574067       1.51105592
H        2.99647599      -0.04699984       0.08334042
H        0.58247813      -2.08542802       0.86455419
H        0.41165999      -1.52179661      -0.80608817
H       -2.64843713       1.36198491       0.91684723
16
Properties=species:S:1:pos:R:3 relative_energy_eV=0.006502789638034301 branch=left pbc="F F F"
O        2.16857292       1.29497187      -1.08634847
C        1.14744548       1.03959804      -0.46047805
C        1.15612931      -0.06241083       0.58012623
O        2.49360748      -0.51039223       0.76365407
C        0.24941052      -1.25614576       0.23967301
O       -1.11436323      -1.04941087       0.51785147
P       -2.00276825      -0.09232889      -0.54382132
O       -1.19088790       0.09175880      -1.79565765
O       -3.42097709      -0.56163034      -0.46189500
O       -1.90299794       1.36670239       0.29922058
H        0.22366152       1.60449224      -0.59829093
H        0.77279646       0.38206303       1.51063988
H        2.99675469      -0.03503427       0.07499536
H        0.57470211      -2.08846223       0.86595772
H        0.40769607      -1.52358930      -0.80667485
H       -2.64904928       1.35349442       0.90867062
16
Properties=species:S:1:pos:R:3 relative_energy_eV=0.011261835152254207 branch=left pbc="F F F"
O        2.19135764       1.31798010      -1.04907683
C        1.15579922       1.04251929      -0.45305800
C        1.15814328      -0.06192049       0.58166121
O        2.49203494      -0.51403455       0.76335497
C        0.25280155      -1.25686802       0.23264316
O       -1.11474997      -1.06815917       0.51046943
P       -2.01381283      -0.09607302      -0.53406477
O       -1.22879259       0.07697204      -1.80356248
O       -3.43397629      -0.55737735      -0.42624654
O       -1.88963612       1.36819485       0.30178846
H        0.21946282       1.58224945      -0.63860903
H        0.77297470       0.36994732       1.51329525
H        2.99863167      -0.02559137       0.08570691
H        0.59089787      -2.09440411       0.85066215
H        0.41615990      -1.51376053      -0.81532953
H       -2.65756305       1.38400158       0.88798826
16
Properties=species:S:1:pos:R:3 relative_energy_eV=0.025706346750666853 branch=left pbc="F F F"
O        2.21924643       1.38626186      -0.97996346
C        1.16636171       1.04531931      -0.45518578
C        1.15881212      -0.07856344       0.55768226
O        2.50156414      -0.50240275       0.77974220
C        0.25953653      -1.27565981       0.20958145
O       -1.10790709      -1.08295143       0.49531775
P       -2.03432463      -0.10476836      -0.52189912
O       -1.28670934       0.06778772      -1.81582206
O       -3.45652338      -0.54213469      -0.35765469
O       -1.87293760       1.36246788       0.30032600
H        0.22592746       1.55801491      -0.65725985
H        0.75081986       0.35153225       1.48232828
H        3.01642464      -0.02061836       0.10339446
H        0.60429088      -2.09713199       0.83931632
H        0.42135786      -1.55543156      -0.83052675
H       -2.65620705       1.44195444       0.85824548
16
Properties=species:S:1:pos:R:3 relative_energy_eV=0.03697190732054878 branch=left pbc="F F F"
O        2.24631550       1.42755533      -0.91209190
C        1.18051864       1.04358701      -0.44750868
C        1.15822898      -0.08248892       0.56067030
O        2.49004639      -0.51738355       0.79944529
C        0.27116975      -1.27373845       0.17189250
O       -1.08819131      -1.08557362       0.47854259
P       -2.04928622      -0.11736538      -0.49859294
O       -1.37655409       0.03848122      -1.83372749
O       -3.45592663      -0.56755120      -0.24910815
O       -1.83350251       1.35973261       0.30089326
H        0.22330739       1.49944809      -0.72235192
H        0.72246942       0.34213235       1.47745708
H        3.02549920       0.01509687       0.18054177
H        0.61239156      -2.11704078       0.77855726
H        0.42242347      -1.52582305      -0.88172628
H       -2.63917728       1.51460726       0.80472975
16
Properties=species:S:1:pos:R:3 relative_energy_eV=0.049627491520368494 branch=left pbc="F F F"
O        2.25972794       1.45049277      -0.87666705
C        1.19361996       1.04258214      -0.44334309
C        1.15987997      -0.09196516       0.56200039
O        2.48975413      -0.52486854       0.81574099
C        0.27529218      -1.27618215       0.14957002
O       -1.07994184      -1.08573636       0.47066153
P       -2.06260834      -0.12521152      -0.48247699
O       -1.41617542       0.00902091      -1.83074709
O       -3.45328316      -0.57247742      -0.19049405
O       -1.82171834       1.36385754       0.28683197
H        0.23635466       1.46326870      -0.76172424
H        0.70592252       0.34156313       1.46687662
H        3.02073445       0.04444801       0.23841719
H        0.61854519      -2.13466412       0.72739072
H        0.40559945      -1.49397195      -0.91016946
H       -2.62197119       1.54351961       0.78575507
16
Properties=species:S:1:pos:R:3 relative_energy_eV=0.07240799852661439 branch=left pbc="F F F"
O        2.34314286       1.46844463      -0.79538308
C        1.24781632       1.04660136      -0.44919309
C        1.14010188      -0.07616012       0.54494452
O        2.43495802      -0.54642721       0.87799680
C        0.27155525      -1.24410363       0.06624656
O       -1.06960331      -1.14786019       0.48188495
P       -2.10868917      -0.19292985      -0.42646597
O       -1.62379803      -0.19566437      -1.84972736
O       -3.49316382      -0.52122303       0.04620695
O       -1.73771305       1.33219489       0.22076157
H        0.30503814       1.46588988      -0.82606079
H        0.63163516       0.34282793       1.42370957
H        3.05177976       0.10259634       0.48708878
H        0.68186103      -2.14553224       0.51937836
H        0.36557208      -1.32651541      -1.01724157
H       -2.53076177       1.59153571       0.70347669
16
Properties=species:S:1:pos:R:3 relative_energy_eV=0.10313354275422171 branch=left pbc="F F F"
O        2.40373396       1.50461379      -0.71083952
C        1.30295872       1.04063539      -0.44942333
C        1.15353975      -0.08240723       0.54484778
O        2.43563769      -0.54158137       0.96474137
C        0.27471979      -1.22550477      -0.00100203
O       -1.05321298      -1.16141620       0.48256090
P       -2.15972449      -0.23874154      -0.39065083
O       -1.78576702      -0.32177744      -1.84370239
O       -3.51163620      -0.51052500       0.20322436
O       -1.69594937       1.30416231       0.15573234
H        0.37347854       1.41854470      -0.90621312
H        0.59938177       0.35376349       1.38656213
H        3.03487422       0.16331572       0.66560144
H        0.70605315      -2.17069836       0.34285776
H        0.28322783      -1.21070521      -1.09652192
H       -2.45158437       1.63199575       0.65984830
16
Properties=species:S:1:pos:R:3 relative_energy_eV=0.1265003697044449 branch=left pbc="F F F"
O        2.48823875       1.49638553      -0.65551223
C        1.37582368       1.05458490      -0.42616035
C        1.13726902      -0.05762176       0.54475669
O        2.37728442      -0.51894526       1.05295030
C        0.26258105      -1.17889269      -0.05951127
O       -1.04232813      -1.17046937       0.46898317
P       -2.20504940      -0.29154713      -0.36214399
O       -1.94278088      -0.46825775      -1.82575689
O       -3.50660456      -0.52316550       0.33780982
O       -1.68640537       1.27051875       0.04628902
H        0.47835360       1.43487276      -0.92447682
H        0.53941315       0.38520488       1.35465612
H        3.03160566       0.13286967       0.74708865
H        0.73175417      -2.12491798       0.20591046
H        0.22443248      -1.10073231      -1.14611540
H       -2.35385722       1.61378647       0.64885628
16
Properties=species:S:1:pos:R:3 relative_energy_eV=0.14737060236075195 branch=left pbc="F F F"
O        2.58167096       1.42355825      -0.62646901
C        1.43309311       1.07222517      -0.40946009
C        1.12430874      -0.00835481       0.57896765
O        2.32632951      -0.50108861       1.15311675
C        0.25430438      -1.10857005      -0.08349721
O       -1.03778905      -1.18901467       0.46504105
P       -2.24912636      -0.35988006      -0.35625165
O       -2.09500562      -0.58834050      -1.82905737
O       -3.49458649      -0.56822824       0.44597148
O       -1.70395045       1.22373015      -0.06559321
H        0.57222511       1.50670306      -0.94086154
H        0.49507474       0.44655820       1.35098461
H        3.02172536       0.04675882       0.75663787
H        0.74457174      -2.06380026       0.09148440
H        0.19930336      -0.94685011      -1.16407138
H       -2.26241925       1.56826604       0.64068148
16
Properties=species:S:1:pos:R:3 relative_energy_eV=0.1524862533515261 branch=left pbc="F F F"
O        2.61413580       1.41986437      -0.58519668
C        1.45759121       1.08047714      -0.39636366
C        1.10304623       0.00480495       0.57608038
O        2.28161400      -0.50209216       1.17928342
C        0.25155148      -1.09087425      -0.11365978
O       -1.03170709      -1.20297444       0.44301840
P       -2.26984674      -0.38187278      -0.34111698
O       -2.17430249      -0.65737255      -1.80997555
O       -3.47663191      -0.55639633       0.52927991
O       -1.70320902       1.20402073      -0.13130544
H        0.62229611       1.52404407      -0.95126210
H        0.45206430       0.46596782       1.32952961
H        2.99982478       0.03124717       0.79372271
H        0.77359851      -2.03546993       0.04019253
H        0.18985318      -0.89745990      -1.18824711
H       -2.18014887       1.54775806       0.63364435
16
Properties=species:S:1:pos:R:3 relative_energy_eV=0.154922579164122 branch=left pbc="F F F"
O        2.62461883       1.42375205      -0.57886336
C        1.46540818       1.08724264      -0.39677378
C        1.09963277       0.01093846       0.57326405
O        2.26751733      -0.50409394       1.19188963
C        0.25171780      -1.08531820      -0.12053637
O       -1.02999917      -1.21268201       0.43758888
P       -2.27363710      -0.38942050      -0.33821426
O       -2.19317170      -0.68044452      -1.80461428
O       -3.47419818      -0.54637798       0.54316615
O       -1.70818278       1.19977153      -0.14364325
H        0.63115700       1.54034745      -0.94804357
H        0.45205809       0.48316681       1.32242663
H        2.99209907       0.01086631       0.80038013
H        0.77942867      -2.02651532       0.03015422
H        0.19001502      -0.89583076      -1.19664399
H       -2.16473448       1.53826987       0.63608724
16
Properties=species:S:1:pos:R:3 relative_energy_eV=0.15887352428762824 branch=left pbc="F F F"
O        2.62534506       1.43474958      -0.55830056
C        1.46495531       1.09606516      -0.39299230
C        1.09195196       0.01513067       0.56627315
O        2.25090528      -0.50401358       1.19959417
C        0.25168972      -1.08351631      -0.13576222
O       -1.02811056      -1.22295651       0.42309827
P       -2.28186878      -0.39504935      -0.33438788
O       -2.24501943      -0.70844758      -1.79804884
O       -3.46247484      -0.52039120       0.58007120
O       -1.68438218       1.18469655      -0.16391081
H        0.63726743       1.54842509      -0.95667532
H        0.42874785       0.47792452       1.30752171
H        2.99203395       0.01473428       0.84117113
H        0.79512776      -2.01650462       0.01151947
H        0.18706365      -0.89488054      -1.21135552
H       -2.11350296       1.52770559       0.62980848
16
Properties=species:S:1:pos:R:3 relative_energy_eV=0.16491108470290783 branch=left pbc="F F F"
O        2.63128096       1.44229932      -0.55809797
C        1.46984538       1.10278695      -0.39318782
C        1.08650604       0.01222790       0.55909772
O        2.23892957      -0.49537953       1.20998082
C        0.25183835      -1.08978765      -0.14280510
O       -1.02676451      -1.23643306       0.41669372
P       -2.28020985      -0.40177369      -0.33021932
O       -2.27625214      -0.72015125      -1.79243907
O       -3.45223504      -0.50327999       0.59810678
O       -1.65808405       1.17087900      -0.18136136
H        0.64159669       1.57632724      -0.93565987
H        0.41314395       0.47489813       1.29037382
H        2.97516391       0.02783875       0.85169165
H        0.78461277      -2.02724695       0.01059067
H        0.18315577      -0.89083716      -1.21585173
H       -2.07279868       1.51130366       0.62071128
16
Properties=species:S:1:pos:R:3 relative_energy_eV=0.1735944641804963 branch=left pbc="F F F"
O        2.62240840       1.45720590      -0.50699556
C        1.46237189       1.09615246      -0.38765143
C        1.07329710       0.00261440       0.55427629
O        2.22798570      -0.49789747       1.20797726
C        0.24907006      -1.09943987      -0.16259304
O       -1.02928544      -1.26411083       0.39431702
P       -2.28581285      -0.40246018      -0.31845831
O       -2.32783663      -0.73750186      -1.77665341
O       -3.41729765      -0.47269719       0.66090007
O       -1.63461569       1.16146859      -0.21090026
H        0.64923973       1.54692038      -0.96917538
H        0.39050409       0.45790415       1.28110518
H        2.93925872       0.09783308       0.91160015
H        0.79578663      -2.03518421      -0.04141201
H        0.18739967      -0.88777397      -1.23398702
H       -1.99274467       1.53063822       0.60527491
16
Properties=species:S:1:pos:R:3 relative_energy_eV=0.17915719501615968 branch=left pbc="F F F"
O        2.61266699       1.47769961      -0.47366608
C        1.45732937       1.08984022      -0.39039635
C        1.06873730      -0.00607458       0.55079736
O        2.22229164      -0.50296418       1.20513890
C        0.25659086      -1.10301273      -0.17804546
O       -1.01735192      -1.27179670       0.38323099
P       -2.28362223      -0.40076253      -0.30476478
O       -2.35679484      -0.73984812      -1.76007986
O       -3.40531073      -0.46125881       0.68718141
O       -1.62924669       1.16769565      -0.22569167
H        0.65469370       1.51552563      -1.00834794
H        0.38342041       0.44871060       1.28009859
H        2.92791763       0.12174636       0.95574157
H        0.80159284      -2.04009073      -0.06452459
H        0.18413240      -0.88205991      -1.24678414
H       -1.96731764       1.54032178       0.59773660
16
Properties=species:S:1:pos:R:3 relative_energy_eV=0.19524622453172924 branch=left pbc="F F F"
O        2.59371519       1.55414302      -0.40258015
C        1.46797767       1.08477351      -0.40173042
C        1.07691984      -0.02237269       0.52023285
O        2.21239534      -0.52803058       1.19949527
C        0.25964759      -1.10668423      -0.20382431
O       -1.00582425      -1.25595387       0.38555341
P       -2.28146105      -0.39032443      -0.28348136
O       -2.39071756      -0.74740023      -1.73172831
O       -3.37244485      -0.44250059       0.73976180
O       -1.63355764       1.17349622      -0.23638576
H        0.67747862       1.43595858      -1.08385378
H        0.37181557       0.40802565       1.23678562
H        2.89209303       0.14744015       1.04408893
H        0.81776914      -2.03717805      -0.09313283
H        0.17023954      -0.88183974      -1.27087654
H       -1.94631699       1.56211883       0.58930012
16
Properties=species:S:1:pos:R:3 relative_energy_eV=0.22890340943195042 branch=left pbc="F F F"
O        2.53577414       1.67570363      -0.31387514
C        1.48578525       1.06976805      -0.42468617
C        1.08958044      -0.03529352       0.49345073
O        2.21650695      -0.55582693       1.18354495
C        0.26165128      -1.11369927      -0.22516966
O       -1.00067684      -1.27596534       0.37330303
P       -2.28795183      -0.38863409      -0.25751979
O       -2.43569443      -0.74486935      -1.70476462
O       -3.34392089      -0.42797016       0.80865810
O       -1.61131124       1.18084215      -0.23554936
H        0.73486961       1.33150282      -1.17661061
H        0.37432325       0.43878665       1.18080517
H        2.87708051       0.15531222       1.16289295
H        0.79415410      -2.05885899      -0.14268207
H        0.16848029      -0.87857617      -1.28970168
H       -1.94892134       1.58144995       0.57552877
16
Properties=species:S:1:pos:R:3 relative_energy_eV=0.2556166747053794 branch=left pbc="F F F"
O        2.49732222       1.74905498      -0.25948793
C        1.48786738       1.09197641      -0.44103179
C        1.08980456      -0.03678626       0.47288786
O        2.20426862      -0.57246147       1.17023284
C        0.26524681      -1.12532040      -0.23627308
O       -0.99505911      -1.29096494       0.35663045
P       -2.28302443      -0.39001087      -0.23942569
O       -2.48504872      -0.73540607      -1.68089158
O       -3.32618882      -0.41432449       0.83611921
O       -1.59594597       1.15728540      -0.21769951
H        0.80052309       1.28635341      -1.28417250
H        0.40935033       0.44195593       1.18821782
H        2.84531999       0.15086147       1.24356364
H        0.79039481      -2.08052599      -0.16840311
H        0.16197917      -0.87497967      -1.29358959
H       -1.95708070       1.59696432       0.56094761
16
Properties=species:S:1:pos:R:3 relative_energy_eV=0.2788153982182848 branch=left pbc="F F F"
O        2.45890068       1.78507634      -0.19633951
C        1.49671904       1.08637612      -0.45101564
C        1.08764848      -0.04335080       0.44435655
O        2.21222335      -0.59732378       1.12004367
C        0.25693898      -1.12355336      -0.24884852
O       -0.99771352      -1.29755699       0.36625597
P       -2.28956203      -0.39059552      -0.22124575
O       -2.50627236      -0.74093022      -1.66119285
O       -3.32733315      -0.40929237       0.86256418
O       -1.56068877       1.14904185      -0.19757699
H        0.88031298       1.28379471      -1.34575952
H        0.42189608       0.43627598       1.17032663
H        2.78263193       0.16566729       1.29311829
H        0.81132159      -2.05815594      -0.16197708
H        0.14695212      -0.90006958      -1.31318557
H       -1.96424617       1.60826815       0.54810077
16
Properties=species:S:1:pos:R:3 relative_energy_eV=0.31159110516819055 branch=left pbc="F F F"
O        2.45971063       1.81194514      -0.12590679
C        1.51624255       1.10928258      -0.45509904
C        1.07816948      -0.04004103       0.41045913
O        2.22000606      -0.59261707       1.05118561
C        0.25372123      -1.13561339      -0.26634280
O       -0.98755874      -1.29901723       0.37732324
P       -2.27870883      -0.39202164      -0.19969710
O       -2.49087771      -0.75332167      -1.63640719
O       -3.31912869      -0.39335441       0.88070042
O       -1.56671305       1.14915382      -0.19084570
H        0.93420411       1.27829366      -1.37372916
H        0.39411680       0.41757218       1.13443343
H        2.74231122       0.17397276       1.33168143
H        0.80882587      -2.06391534      -0.14551543
H        0.11202084      -0.94070224      -1.33181808
H       -1.96661252       1.62405581       0.54720257
16
Properties=species:S:1:pos:R:3 relative_energy_eV=0.4242739696856006 branch=left pbc="F F F"
O        2.41692559       1.87316737      -0.07459458
C        1.52541575       1.14296452      -0.44840323
C        1.10042461      -0.07019942       0.35673410
O        2.20430036      -0.59809687       1.07698277
C        0.25133480      -1.18150058      -0.28528487
O       -0.96216571      -1.25546527       0.43393236
P       -2.24927428      -0.37232728      -0.17738525
O       -2.41637780      -0.79225344      -1.60535738
O       -3.27502084      -0.37497104       0.91326195
O       -1.61007863       1.20361031      -0.21595796
H        1.00978213       1.38316144      -1.40305975
H        0.35062448       0.35372083       1.03230586
H        2.71406773       0.17695126       1.35094415
H        0.76116849      -2.14144638      -0.16174238
H        0.05899967      -1.03124046      -1.35367391
H       -1.97039704       1.63759695       0.56892267
16
Properties=species:S:1:pos:R:3 relative_energy_eV=0.7360478499394958 branch=left pbc="F F F"
O        2.33361452       1.84947472       0.09182933
C        1.57489391       1.10230052      -0.50497555
C        1.15308791      -0.10665525       0.26536440
O        2.14471443      -0.58357859       1.14484728
C        0.28067579      -1.21795078      -0.29714280
O       -0.91007362      -1.20635672       0.47662483
P       -2.22108813      -0.36812369      -0.15284106
O       -2.37132620      -0.79505368      -1.57869233
O       -3.26736525      -0.35508457       0.92388003
O       -1.62532008       1.23025009      -0.23105259
H        0.92132047       1.43239873      -1.34788598
H        0.43377088       0.44443950       0.85548674
H        2.68785219       0.19905365       1.31989564
H        0.70877204      -2.22393719      -0.18188640
H        0.03484987      -1.08328887      -1.35113301
H       -1.96864943       1.63578414       0.57530596
16
Properties=species:S:1:pos:R:3 relative_energy_eV=1.6295273174873728 branch=left pbc="F F F"
O        2.29520843       1.82780665       0.18186184
C        1.51280296       1.07945253      -0.35628906
C        1.25697560      -0.21285154       0.16401018
O        2.12803815      -0.58183897       1.18567286
C        0.27530327      -1.25322561      -0.30052161
O       -0.89052433      -1.18780242       0.51159184
P       -2.21243108      -0.35941555      -0.14694021
O       -2.35710533      -0.79300746      -1.56849878
O       -3.26699976      -0.34767780       0.91644960
O       -1.57507380       1.21082075      -0.20051163
H        0.82889862       1.39907474      -1.21540107
H        0.50722850       0.66499855       0.55184509
H        2.65361252       0.24417150       1.26128900
H        0.68253471      -2.28153396      -0.18790050
H        0.02669360      -1.10420730      -1.35765509
H       -1.95543275       1.64890787       0.56862194
16
Properties=species:S:1:pos:R:3 relative_energy_eV=4.058370292190375 branch=ts pbc="F F F"
O        2.29484220       1.82729340       0.20394448
C        1.33549327       1.07330355      -0.21059861
C        1.25642460      -0.28008019       0.18702119
O        2.11663962      -0.57605670       1.17049307
C        0.28722747      -1.26540852      -0.30253311
O       -0.87980460      -1.17505188       0.52130294
P       -2.20709708      -0.35625560      -0.14554953
O       -2.35847989      -0.79504396      -1.57007580
O       -3.26715892      -0.34753378       0.91253855
O       -1.53616064       1.19867365      -0.17887963
H        0.81926567       1.36847605      -1.13296663
H        0.76844649       0.76984822       0.20914140
H        2.64583655       0.26279246       1.24415919
H        0.66910686      -2.28309593      -0.19033371
H        0.02514917      -1.11050846      -1.35464961
H       -1.94540954       1.65851096       0.56559067
16
Properties=species:S:1:pos:R:3 relative_energy_eV=1.5190573498657614 branch=right pbc="F F F"
O        2.21831581       1.81035491       0.20633180
C        1.28677341       1.07705463      -0.20130577
C        1.21536964      -0.24626388       0.21114425
O        2.15657811      -0.61445587       1.20002848
C        0.26799386      -1.27145858      -0.29002432
O       -0.89753316      -1.18854456       0.51096253
P       -2.19240175      -0.36136787      -0.14028769
O       -2.36292877      -0.79257900      -1.56722376
O       -3.26877533      -0.34941151       0.90867228
O       -1.53580351       1.19895041      -0.17756217
H        0.81463498       1.38954911      -1.13504553
H        1.03130801       0.80826858       0.04710178
H        2.64317891       0.24819136       1.24716398
H        0.67109823      -2.27769671      -0.18933429
H        0.03200661      -1.10635972      -1.34787993
H       -1.94090195       1.66182328       0.56684369
16
Properties=species:S:1:pos:R:3 relative_energy_eV=1.289402157501172 branch=right pbc="F F F"
O        2.16541445       1.88943306       0.22804516
C        1.32837909       1.06290886      -0.24768846
C        1.19822973      -0.24559341       0.25300975
O        2.17386343      -0.65124781       1.19494867
C        0.24774625      -1.26798937      -0.26237301
O       -0.93919430      -1.24304782       0.50343628
P       -2.20242548      -0.36194214      -0.14012575
O       -2.36952169      -0.78561930      -1.56712143
O       -3.27315845      -0.35335136       0.90544150
O       -1.53803431       1.19775091      -0.17549265
H        0.78316010       1.43077284      -1.17844687
H        1.12957944       0.80555836       0.00102865
H        2.65017074       0.20764337       1.27070556
H        0.67708832      -2.26772862      -0.17943071
H        0.04319516      -1.09796831      -1.32732796
H       -1.93557941       1.66647532       0.57097657
16
Properties=species:S:1:pos:R:3 relative_energy_eV=1.163130059314426 branch=right pbc="F F F"
O        2.06779403       2.02559711       0.19858790
C        1.32862802       1.11297604      -0.26391284
C        1.22740947      -0.22099917       0.22187961
O        2.16647549      -0.69536557       1.17247707
C        0.23031217      -1.26212140      -0.22476066
O       -0.99263057      -1.31663766       0.48671523
P       -2.24532589      -0.37311905      -0.14355564
O       -2.39917379      -0.75709718      -1.58733448
O       -3.31027393      -0.35233846       0.90929931
O       -1.53656790       1.16758788      -0.15746274
H        0.80047281       1.42553104      -1.20084132
H        1.27675761       0.78637521      -0.08679083
H        2.69378071       0.09927674       1.35993079
H        0.69932530      -2.24147152      -0.13473743
H        0.05033570      -1.07521494      -1.27898017
H       -1.91840614       1.66307563       0.57907154
16
Properties=species:S:1:pos:R:3 relative_energy_eV=1.102688058905187 branch=right pbc="F F F"
O        2.01984146       2.07364723       0.17508926
C        1.33921765       1.11363495      -0.28557295
C        1.24515095      -0.20724566       0.21523515
O        2.15308407      -0.71895353       1.17996455
C        0.24515246      -1.24405188      -0.24380763
O       -0.96570308      -1.26477844       0.48795708
P       -2.24870621      -0.37668504      -0.14363088
O       -2.43375535      -0.74363751      -1.58423970
O       -3.32982542      -0.36048038       0.89555243
O       -1.53193349       1.14146890      -0.14045931
H        0.80493330       1.39312501      -1.22326226
H        1.28940749       0.80799991      -0.08088728
H        2.71775879       0.03384274       1.41552893
H        0.71162269      -2.22478461      -0.10565144
H        0.03157527      -1.08160121      -1.30169089
H       -1.90890747       1.64455434       0.58946024
16
Properties=species:S:1:pos:R:3 relative_energy_eV=1.0754321619642724 branch=right pbc="F F F"
O        1.99782648       2.09731059       0.15699040
C        1.33245706       1.11968825      -0.28970165
C        1.25800300      -0.20672436       0.20773404
O        2.13798077      -0.74151327       1.18686787
C        0.24638395      -1.22645289      -0.25197230
O       -0.95373871      -1.24162918       0.49867436
P       -2.24515448      -0.36695388      -0.14331086
O       -2.43645868      -0.75778121      -1.57810996
O       -3.32795529      -0.37973784       0.89542582
O       -1.52846275       1.16911099      -0.14388913
H        0.81608693       1.35778904      -1.26120888
H        1.28288303       0.82603097      -0.05295157
H        2.71276823      -0.00417200       1.43912415
H        0.70995504      -2.20020716      -0.11028849
H        0.04125661      -1.09371921      -1.31669361
H       -1.90491807       1.63501609       0.61289508
16
Properties=species:S:1:pos:R:3 relative_energy_eV=1.0590663977855002 branch=right pbc="F F F"
O        1.96028083       2.12553380       0.13405445
C        1.33477479       1.11637127      -0.30212754
C        1.24966582      -0.19638642       0.21064880
O        2.11738877      -0.75827992       1.17834397
C        0.24960292      -1.21951413      -0.25552579
O       -0.94633768      -1.22826800       0.49358268
P       -2.23832915      -0.36270638      -0.13997016
O       -2.41176264      -0.76492601      -1.57267875
O       -3.31096684      -0.38278796       0.90673798
O       -1.56754362       1.18509423      -0.14809474
H        0.85431790       1.31435690      -1.28744649
H        1.27333630       0.84537403      -0.03584821
H        2.69724309      -0.03951919       1.46236740
H        0.71156770      -2.19728258      -0.11973781
H        0.05374730      -1.08611799      -1.31824692
H       -1.88807232       1.63511338       0.64352637
16
Properties=species:S:1:pos:R:3 relative_energy_eV=1.0526911634478893 branch=right pbc="F F F"
O        1.94997309       2.13042827       0.13192854
C        1.33153526       1.11689965      -0.30233608
C        1.24668151      -0.19709257       0.21776491
O        2.11775839      -0.76068688       1.18293701
C        0.25344758      -1.22212157      -0.26114091
O       -0.94008715      -1.22959825       0.49643607
P       -2.24037192      -0.36443882      -0.13582957
O       -2.40118151      -0.75757300      -1.57421954
O       -3.30937576      -0.38352790       0.91696717
O       -1.58794738       1.19079311      -0.15406033
H        0.88075548       1.30255090      -1.31036111
H        1.26050091       0.84263590      -0.03776240
H        2.69039349      -0.03911149       1.47130315
H        0.71325184      -2.20257785      -0.12290387
H        0.04969560      -1.07290843      -1.32370997
H       -1.87611627       1.63238392       0.65457219
16
Properties=species:S:1:pos:R:3 relative_energy_eV=1.0384600746547221 branch=right pbc="F F F"
O        1.90529567       2.13392979       0.14475579
C        1.33863236       1.10510311      -0.32221880
C        1.25253850      -0.20071562       0.21161441
O        2.11498821      -0.74768871       1.19843444
C        0.24743691      -1.21719277      -0.26121293
O       -0.94362266      -1.23106590       0.50087726
P       -2.24514551      -0.36157187      -0.12469212
O       -2.40886135      -0.73506179      -1.56560016
O       -3.31337630      -0.41271916       0.92572602
O       -1.61471309       1.20028534      -0.16153403
H        0.97066389       1.27774825      -1.36249210
H        1.24319190       0.83514639      -0.06063835
H        2.68078805      -0.02697661       1.50787227
H        0.71455874      -2.19520626      -0.14351900
H        0.03352319      -1.05118707      -1.31910897
H       -1.83698542       1.61322777       0.68132169
16
Properties=species:S:1:pos:R:3 relative_energy_eV=1.029801052831317 branch=right pbc="F F F"
O        1.89015703       2.13759402       0.16022792
C        1.35622019       1.10226857      -0.32833939
C        1.25083187      -0.20032831       0.20641898
O        2.10372497      -0.73370308       1.20122385
C        0.24482749      -1.21465212      -0.26044691
O       -0.94181379      -1.22045713       0.50246462
P       -2.25309266      -0.36462662      -0.12670609
O       -2.42395243      -0.73564842      -1.56887482
O       -3.31426057      -0.42769493       0.93007785
O       -1.61543146       1.19219939      -0.15126417
H        1.01934637       1.26483288      -1.38181649
H        1.24281321       0.82994038      -0.07288852
H        2.66066599      -0.00719533       1.51200771
H        0.70762647      -2.19609754      -0.15797911
H        0.02394788      -1.04925273      -1.31293070
H       -1.81269749       1.60887582       0.69841078
16
Properties=species:S:1:pos:R:3 relative_energy_eV=1.0233953402130282 branch=right pbc="F F F"
O        1.89348237       2.13936039       0.17107478
C        1.35973184       1.10600694      -0.32821560
C        1.24789145      -0.20101855       0.20174026
O        2.09569993      -0.72882262       1.20957780
C        0.23930618      -1.21681773      -0.26741311
O       -0.94451685      -1.22534126       0.50385077
P       -2.25612840      -0.36959547      -0.12160323
O       -2.43227637      -0.74156540      -1.56281970
O       -3.32000532      -0.43179910       0.93219582
O       -1.60604059       1.18594984      -0.14563820
H        1.05160557       1.27024394      -1.39070844
H        1.25627631       0.83046018      -0.07902623
H        2.63331617       0.01937581       1.50327144
H        0.69696864      -2.20175638      -0.16048247
H        0.01888502      -1.04900829      -1.32290473
H       -1.79528289       1.60038251       0.70668637
16
Properties=species:S:1:pos:R:3 relative_energy_eV=1.02055489682607 branch=right pbc="F F F"
O        1.88952486       2.14467348       0.17129337
C        1.37208134       1.10774134      -0.33478677
C        1.24394382      -0.19803907       0.19377276
O        2.07736140      -0.72034195       1.21270638
C        0.23668244      -1.21562433      -0.27577474
O       -0.94367257      -1.23053533       0.49953767
P       -2.25926040      -0.37256693      -0.11577982
O       -2.43746366      -0.74606635      -1.55590147
O       -3.32308985      -0.42870775       0.93926611
O       -1.60267691       1.17808421      -0.14201484
H        1.07658894       1.27457144      -1.39866082
H        1.26380360       0.83225998      -0.08432909
H        2.61178150       0.02580415       1.51696355
H        0.69470349      -2.19821746      -0.16275840
H        0.01307026      -1.05199011      -1.33031554
H       -1.77446518       1.58500947       0.71636725
16
Properties=species:S:1:pos:R:3 relative_energy_eV=1.0170604408485815 branch=right pbc="F F F"
O        1.90773479       2.14062533       0.17069727
C        1.37790562       1.11384076      -0.34175141
C        1.23911672      -0.19237997       0.18612992
O        2.05083481      -0.71368563       1.22516936
C        0.23504391      -1.21415434      -0.28546415
O       -0.94307251      -1.23983365       0.49565631
P       -2.25996688      -0.37645986      -0.11245135
O       -2.44434957      -0.75766274      -1.55024319
O       -3.31380818      -0.41383042       0.95443148
O       -1.59523095       1.17162341      -0.14299674
H        1.08751738       1.28766285      -1.40610338
H        1.25634161       0.83813537      -0.09737270
H        2.57812857       0.03235971       1.54166923
H        0.70477554      -2.19116601      -0.17386604
H        0.00575391      -1.06173127      -1.34127413
H       -1.74781165       1.56271125       0.72735512
16
Properties=species:S:1:pos:R:3 relative_energy_eV=1.0143075828964356 branch=right pbc="F F F"
O        1.92398961       2.13400520       0.16747135
C        1.37470480       1.11543268      -0.34506151
C        1.22747173      -0.18815772       0.18660961
O        2.03227920      -0.70758780       1.23191737
C        0.23623937      -1.21701588      -0.29030230
O       -0.94010081      -1.24814385       0.49026421
P       -2.25364207      -0.37774732      -0.11055034
O       -2.46106572      -0.76203244      -1.54303483
O       -3.30082778      -0.41029305       0.96050233
O       -1.58383432       1.16737554      -0.14568412
H        1.08548203       1.29659348      -1.41045919
H        1.25671930       0.83898115      -0.10460457
H        2.54971827       0.04039845       1.55986300
H        0.71505979      -2.19188650      -0.18330539
H        0.00377090      -1.05693792      -1.34337310
H       -1.72705116       1.55307077       0.72933318
16
Properties=species:S:1:pos:R:3 relative_energy_eV=1.011106469482911 branch=right pbc="F F F"
O        1.92253855       2.13947774       0.15010494
C        1.38294666       1.11628246      -0.35853934
C        1.21757432      -0.18045820       0.18572931
O        1.99409593      -0.69859993       1.24891757
C        0.23883236      -1.21418205      -0.30344264
O       -0.93529874      -1.26393273       0.47887516
P       -2.25517864      -0.38326301      -0.10322130
O       -2.48845587      -0.76151407      -1.53401194
O       -3.28486966      -0.41539369       0.98589000
O       -1.56788948       1.15877145      -0.14598859
H        1.10425313       1.28921486      -1.42647258
H        1.26174509       0.84058207      -0.11756591
H        2.49229005       0.04712445       1.60745135
H        0.72713908      -2.18575698      -0.20342621
H        0.00308151      -1.03835853      -1.35276884
H       -1.67389118       1.53606103       0.73805487
16
Properties=species:S:1:pos:R:3 relative_energy_eV=1.0047374083078466 branch=right pbc="F F F"
O        1.94010085       2.13516385       0.11622754
C        1.38853911       1.10851420      -0.37525883
C        1.20566147      -0.17612970       0.18816672
O        1.92368575      -0.67539052       1.30008236
C        0.24158259      -1.20657235      -0.33298305
O       -0.93073460      -1.29905626       0.44572715
P       -2.25106133      -0.39438401      -0.08242752
O       -2.53310037      -0.75347874      -1.50851585
O       -3.24054538      -0.42395218       1.04264371
O       -1.53496216       1.13305212      -0.14780974
H        1.12129245       1.26327249      -1.44810711
H        1.25406372       0.84215675      -0.13097150
H        2.36470842       0.09096567       1.68781966
H        0.74246680      -2.17331226      -0.26501545
H        0.01268096      -0.99877908      -1.37924061
H       -1.56546530       1.51398507       0.73924884
16
Properties=species:S:1:pos:R:3 relative_energy_eV=1.0031476035364904 branch=right pbc="F F F"
O        1.94257711       2.13215054       0.11679874
C        1.39037604       1.10824061      -0.37880699
C        1.19826367      -0.17346012       0.18837940
O        1.90300978      -0.66099873       1.31236303
C        0.24370709      -1.20856623      -0.34139276
O       -0.92779691      -1.31290362       0.43633459
P       -2.24842406      -0.39714115      -0.07751766
O       -2.54467049      -0.75115974      -1.50178946
O       -3.23041951      -0.41670212       1.05447477
O       -1.52409208       1.12613699      -0.14702042
H        1.12285483       1.25925061      -1.45405827
H        1.26009092       0.84089523      -0.13554152
H        2.33676786       0.10729116       1.70570856
H        0.74578926      -2.17501053      -0.28478417
H        0.01139539      -0.99805914      -1.38548689
H       -1.54051598       1.50609127       0.74192551
16
Properties=species:S:1:pos:R:3 relative_energy_eV=1.002032874712313 branch=right pbc="F F F"
O        1.92637123       2.13715967       0.11413002
C        1.38751446       1.10520945      -0.38057913
C        1.19756687      -0.17541725       0.18951941
O        1.88757040      -0.65342257       1.32714469
C        0.24602226      -1.21271234      -0.34769768
O       -0.92545370      -1.31968268       0.43102215
P       -2.24519679      -0.39413865      -0.07488653
O       -2.54856102      -0.74497819      -1.49861140
O       -3.22115285      -0.41193358       1.06259762
O       -1.51657652       1.12875689      -0.14451169
H        1.13012452       1.24661330      -1.45843413
H        1.26036794       0.83788643      -0.13780465
H        2.32374574       0.11793028       1.71326266
H        0.75067088      -2.18007980      -0.30170450
H        0.01194675      -0.99717125      -1.39172699
H       -1.52604736       1.50203540       0.74786679
16
Properties=species:S:1:pos:R:3 relative_energy_eV=1.0008934747529565 branch=right pbc="F F F"
O        1.91342503       2.13925845       0.11161464
C        1.38279796       1.10333313      -0.38382355
C        1.19421093      -0.17808160       0.18813830
O        1.86491354      -0.64780158       1.34005764
C        0.24881930      -1.21675010      -0.35233814
O       -0.92330364      -1.32766445       0.42175268
P       -2.23743029      -0.39198781      -0.07363390
O       -2.55428412      -0.73988962      -1.49458527
O       -3.20686199      -0.40190673       1.06889663
O       -1.49941533       1.12408705      -0.13922462
H        1.13163952       1.24839137      -1.46296768
H        1.25745323       0.83260397      -0.14330603
H        2.30541034       0.12532329       1.71713822
H        0.75721018      -2.18154769      -0.30774516
H        0.01554083      -0.99708090      -1.39426842
H       -1.51121279       1.49576836       0.75388142
16
Properties=species:S:1:pos:R:3 relative_energy_eV=1.0001685065326456 branch=right pbc="F F F"
O        1.90253815       2.13801410       0.11534987
C        1.37837956       1.10258210      -0.38696106
C        1.19043444      -0.17721817       0.18590989
O        1.84864508      -0.64146570       1.34464892
C        0.25094432      -1.21873218      -0.35595654
O       -0.92212898      -1.33587540       0.41688735
P       -2.23338829      -0.39201099      -0.07143136
O       -2.55455551      -0.73258027      -1.49332116
O       -3.19758343      -0.39633778       1.07580825
O       -1.48511149       1.12128035      -0.13519905
H        1.13473173       1.24441646      -1.46869309
H        1.25248015       0.83202631      -0.14824509
H        2.29203620       0.13049470       1.71931968
H        0.75931035      -2.18292219      -0.30803332
H        0.02110493      -0.99753651      -1.39871629
H       -1.49892462       1.49192033       0.75821993
16
Properties=species:S:1:pos:R:3 relative_energy_eV=0.9993597099382896 branch=right pbc="F F F"
O        1.89650802       2.13603509       0.12046410
C        1.37113154       1.10226726      -0.38539286
C        1.18287169      -0.17783986       0.18469028
O        1.84578057      -0.63755198       1.34413947
C        0.25039560      -1.22463118      -0.35800663
O       -0.92326380      -1.33970113       0.41311780
P       -2.22735182      -0.38777957      -0.07086964
O       -2.55014498      -0.72156444      -1.49355240
O       -3.19063766      -0.39453310       1.07691067
O       -1.47127415       1.12062813      -0.13203778
H        1.13378054       1.24081052      -1.46859661
H        1.23433522       0.83290196      -0.14974351
H        2.28919635       0.13716841       1.71486760
H        0.76352116      -2.18643285      -0.30330308
H        0.02622719      -1.00746544      -1.40350701
H       -1.49216299       1.49374341       0.76040673
16
Properties=species:S:1:pos:R:3 relative_energy_eV=0.9980544431309681 branch=right pbc="F F F"
O        1.87755502       2.13946632       0.12139675
C        1.35782961       1.10371810      -0.38611200
C        1.17291372      -0.17546317       0.18423269
O        1.84254554      -0.63199381       1.34025808
C        0.25261777      -1.23399132      -0.35920561
O       -0.92794036      -1.35713540       0.40062756
P       -2.22118881      -0.38434693      -0.07134056
O       -2.55054229      -0.69859759      -1.49697755
O       -3.18261309      -0.38923191       1.07787717
O       -1.44567151       1.11729132      -0.12148113
H        1.13660564       1.24060147      -1.47235407
H        1.21285186       0.83751661      -0.14802701
H        2.27883741       0.14456700       1.71421218
H        0.77184977      -2.19145123      -0.29281349
H        0.03190942      -1.03257867      -1.40832238
H       -1.46864749       1.49768460       0.76761693
16
Properties=species:S:1:pos:R:3 relative_energy_eV=0.997782810627541 branch=right pbc="F F F"
O        1.87522518       2.13824144       0.12349683
C        1.35486893       1.10300263      -0.38521294
C        1.17557019      -0.17774731       0.18295298
O        1.84947767      -0.63280547       1.33801560
C        0.25318393      -1.23604786      -0.35717036
O       -0.92894776      -1.35738064       0.40181395
P       -2.22171485      -0.38333047      -0.07344147
O       -2.54911887      -0.69432353      -1.50055967
O       -3.18467511      -0.38660444       1.07464561
O       -1.44644420       1.11860325      -0.12133741
H        1.13132855       1.24008537      -1.47089291
H        1.20944765       0.83835603      -0.14494512
H        2.28430543       0.14633570       1.70903446
H        0.77265077      -2.19348397      -0.28871516
H        0.03388059      -1.03497896      -1.40662011
H       -1.47012591       1.49813372       0.76852331
16
Properties=species:S:1:pos:R:3 relative_energy_eV=0.9973431806902227 branch=right pbc="F F F"
O        1.86833819       2.13892888       0.12518434
C        1.35019594       1.10320797      -0.38511668
C        1.17402409      -0.17871226       0.18121588
O        1.85483430      -0.63006715       1.33288005
C        0.25390511      -1.24069759      -0.35610706
O       -0.93220447      -1.35905714       0.39689814
P       -2.22128029      -0.37890269      -0.07614969
O       -2.55106837      -0.68694198      -1.50279560
O       -3.18579378      -0.38052185       1.07044120
O       -1.43835232       1.11845131      -0.11794979
H        1.12521908       1.24063028      -1.47076378
H        1.20230939       0.83788932      -0.14528470
H        2.27776121       0.15371949       1.70769928
H        0.77497593      -2.19716736      -0.27999303
H        0.04044544      -1.04224219      -1.40707622
H       -1.45439743       1.48753863       0.77650539
16
Properties=species:S:1:pos:R:3 relative_energy_eV=0.9971439751170692 branch=right pbc="F F F"
O        1.86158998       2.14029491       0.12485969
C        1.34713285       1.10301970      -0.38563660
C        1.17494808      -0.17848722       0.18190724
O        1.86061661      -0.63076449       1.33056963
C        0.25421803      -1.23988773      -0.35466908
O       -0.93317787      -1.35674949       0.39675098
P       -2.22203275      -0.37735502      -0.07780255
O       -2.54887912      -0.68418168      -1.50554895
O       -3.18820260      -0.37925865       1.06759695
O       -1.43968275       1.12090739      -0.11638730
H        1.12451158       1.23878945      -1.47156415
H        1.20141846       0.83704568      -0.14666248
H        2.27972262       0.15379406       1.70783268
H        0.77234317      -2.19723806      -0.27608887
H        0.04333430      -1.04542968      -1.40701909
H       -1.44894854       1.48155654       0.78144966
16
Properties=species:S:1:pos:R:3 relative_energy_eV=0.9970392580762564 branch=right pbc="F F F"
O        1.85916838       2.14035584       0.12481762
C        1.34417371       1.10294502      -0.38515320
C        1.17464069      -0.17940939       0.18191155
O        1.86393661      -0.63047133       1.32937495
C        0.25332091      -1.24132666      -0.35308246
O       -0.93406872      -1.35585781       0.39835189
P       -2.22088995      -0.37629651      -0.07994447
O       -2.54460930      -0.68058357      -1.50907122
O       -3.18858753      -0.37925949       1.06396302
O       -1.43800786       1.12135939      -0.11506080
H        1.11805246       1.24065630      -1.47027764
H        1.20021165       0.83605903      -0.14603711
H        2.28499891       0.15424809       1.70484062
H        0.77034673      -2.19871617      -0.27209441
H        0.04416115      -1.04890710      -1.40640525
H       -1.44793588       1.48126009       0.78345468
16
Properties=species:S:1:pos:R:3 relative_energy_eV=0.9968994545888563 branch=right pbc="F F F"
O        1.85786918       2.14082677       0.12352055
C        1.34275142       1.10338032      -0.38649425
C        1.17553048      -0.17946847       0.18077065
O        1.86366847      -0.62870490       1.32947103
C        0.25292203      -1.24230544      -0.35139020
O       -0.93470304      -1.35381416       0.40037738
P       -2.22046408      -0.37518908      -0.08110355
O       -2.53670986      -0.67721914      -1.51243047
O       -3.19256950      -0.38292146       1.05902370
O       -1.43837962       1.12327663      -0.11208952
H        1.11483323       1.24141710      -1.47115454
H        1.19951297       0.83650569      -0.14709463
H        2.28695942       0.15571533       1.70276346
H        0.76716072      -2.20150103      -0.26908523
H        0.04103960      -1.05105837      -1.40417045
H       -1.44050950       1.47711594       0.78867388
16
Properties=species:S:1:pos:R:3 relative_energy_eV=0.9968282110894506 branch=right pbc="F F F"
O        1.85771806       2.14086386       0.12190385
C        1.34219278       1.10319281      -0.38714379
C        1.17541723      -0.17941302       0.18071076
O        1.86300367      -0.62869294       1.32977552
C        0.25287445      -1.24199969      -0.35039574
O       -0.93404370      -1.35334224       0.40290413
P       -2.21962824      -0.37515381      -0.08128728
O       -2.53241351      -0.67462383      -1.51389525
O       -3.19608390      -0.38471183       1.05496106
O       -1.43945651       1.12444262      -0.10975866
H        1.11323729       1.24013382      -1.47157648
H        1.19868493       0.83624388      -0.14809896
H        2.28808995       0.15586472       1.70067980
H        0.76736233      -2.20076422      -0.26820955
H        0.03973083      -1.05187059      -1.40297965
H       -1.43777372       1.47588623       0.79199810
16
Properties=species:S:1:pos:R:3 relative_energy_eV=0.9967518353587366 branch=right pbc="F F F"
O        1.85755951       2.14023347       0.11968958
C        1.34080400       1.10262892      -0.38820684
C        1.17374951      -0.17928202       0.18079511
O        1.86286806      -0.62721916       1.32908873
C        0.25187164      -1.24277700      -0.34917674
O       -0.93527146      -1.35337770       0.40416769
P       -2.21963274      -0.37412625      -0.08222398
O       -2.52693945      -0.67112694      -1.51653138
O       -3.20028804      -0.38546459       1.05030179
O       -1.43745652       1.12415299      -0.10516730
H        1.10989258       1.24007918      -1.47236184
H        1.19845591       0.83555275      -0.14877715
H        2.28911579       0.15740105       1.69841884
H        0.76913269      -2.19998084      -0.26555594
H        0.03928189      -1.05412176      -1.40230275
H       -1.43423144       1.47348367       0.79743010
16
Properties=species:S:1:pos:R:3 relative_energy_eV=0.9966993056004867 branch=right pbc="F F F"
O        1.85887194       2.13925807       0.11707041
C        1.34026313       1.10175542      -0.38924431
C        1.17350124      -0.17918582       0.18163156
O        1.86314855      -0.62645356       1.33026440
C        0.25192044      -1.24248289      -0.34852598
O       -0.93591426      -1.35367241       0.40363009
P       -2.21962774      -0.37379537      -0.08279214
O       -2.52351489      -0.66918351      -1.51829282
O       -3.20215460      -0.38659768       1.04828063
O       -1.43731963       1.12484344      -0.10211437
H        1.10874676       1.23765382      -1.47341544
H        1.19811326       0.83554538      -0.14906917
H        2.29085746       0.15843036       1.69753947
H        0.76941105      -2.19964732      -0.26517749
H        0.03876025      -1.05308647      -1.40127914
H       -1.43615103       1.47267431       0.80108211
16
Properties=species:S:1:pos:R:3 relative_energy_eV=0.9965997619947302 branch=right pbc="F F F"
O        1.86264576       2.13836749       0.11044365
C        1.34009343       1.10083099      -0.39151028
C        1.17194309      -0.17835320       0.18263117
O        1.86233010      -0.62267954       1.33162252
C        0.25152186      -1.24322940      -0.34718554
O       -0.93758847      -1.35594202       0.40276109
P       -2.21810110      -0.37289624      -0.08484022
O       -2.51846884      -0.66218976      -1.52225975
O       -3.20518337      -0.38867073       1.04191690
O       -1.43397713       1.12483421      -0.09381427
H        1.10526106       1.23421031      -1.47533844
H        1.19580632       0.83579850      -0.15027151
H        2.29120111       0.16284676       1.69628025
H        0.76842551      -2.20030554      -0.26210312
H        0.03915371      -1.05403821      -1.40031497
H       -1.43615114       1.46747225       0.81157017
