17
Properties=species:S:1:pos:R:3 relative_energy_eV=0.4854389956271916 branch=ts pbc="F F F"
C        0.74675479      -0.40990393      -1.81691004
C        0.83526446      -0.00728558      -0.54317746
O       -0.11252495       0.74622144       0.07093976
P       -2.13384380       0.81896960      -0.41325164
O       -2.46664160       1.94388728       0.52147512
O       -2.10026457       0.93647554      -1.90133874
O       -2.40425741      -0.60973665       0.17367196
C        2.02773509      -0.28028798       0.28769876
O        2.26836190       0.22723905       1.36168778
O        2.89937535      -1.17887522      -0.27295309
O       -1.00505317      -0.19000088       2.13584809
H       -0.12439274      -0.16056549      -2.39642138
H        1.54237402      -0.98569193      -2.26097178
H       -1.76614851      -0.55435246       1.25890969
H        3.61125908      -1.25753542       0.37980128
H       -0.31218429       0.34356763       1.09334822
H       -1.50579594       0.61789436       2.32161038
