17
Properties=species:S:1:pos:R:3 relative_energy_eV=1.3085252458622563 branch=ts pbc="F F F"
O       -2.71702649      -1.15014046      -0.59743390
C       -1.50926903      -1.25945212      -0.34610673
O       -0.90180269      -2.49535862      -0.47404391
C       -0.63880048      -0.21750390       0.05572943
O        0.56936148      -0.59656214       0.71044275
P        1.98738587       0.19352704       0.42475147
O        3.03078364      -0.37844161       1.31827271
O        1.70051020       1.71926918       0.44275750
O        2.28589817      -0.13522049      -1.16511558
C       -1.21715375       1.05525874       0.60682665
O       -0.55838701       2.03305205      -0.29759088
H       -1.63824728      -3.05948477      -0.74959410
H       -0.37193884       0.93622450      -0.91833036
H        2.60972665      -1.04317213      -1.22282525
H       -0.91818293       1.26658008       1.63138389
H       -2.29540958       1.13657310       0.49052314
H        0.58254515       1.99485510       0.09035944
