31
Properties=species:S:1:pos:R:3 relative_energy_eV=1.6688054214027943 branch=ts pbc="F F F"
O       -4.09587058      -2.42613423      -1.61569307
C       -3.03900289      -2.27024853      -1.03210426
C       -2.35920938      -0.93150336      -0.99001037
O       -3.20542933       0.05935623      -1.52731186
C       -1.03920234      -1.02213940      -1.78248917
O       -0.34054827      -2.19885942      -1.41542490
C       -0.20802921       0.26034270      -1.64373291
O        0.78357638       0.32231580      -2.66179084
C        0.44976927       0.34368562      -0.26994188
O        1.49950851      -0.62624788      -0.28569300
C        0.97300568       1.74402176       0.02051639
O        2.05653056       1.81909400       0.94179635
O       -0.12486473       1.13085696       2.50312749
P        2.13355471       1.02323310       2.35501431
O        1.99179519      -0.49234530       2.21162877
O        1.77864412       1.93657052       3.63177385
O        3.76730843       1.23040051       2.54925697
H       -2.52151405      -3.10534903      -0.53954587
H       -2.13052411      -0.70819392       0.06137039
H       -3.99129188      -0.42439800      -1.83341525
H       -1.32139746      -1.11469881      -2.83503366
H        0.44413264      -1.91123642      -0.89664133
H       -0.88030757       1.10473944      -1.79568152
H        1.52816544      -0.17543452      -2.28457174
H       -0.25410628       0.09263245       0.51854307
H        1.75479772      -0.72040776       0.69453143
H        0.15033213       2.35604125       0.38744410
H        1.37646563       2.17979007      -0.89156873
H       -0.12744583       0.19247987       2.70797725
H        0.76575059       1.87993125       3.54990158
H        4.18495370       0.45143541       2.16797176
