17
Properties=species:S:1:pos:R:3 relative_energy_eV=0.0 branch=left pbc="F F F"
O       -1.33120500       1.13145278       2.39196713
C       -1.04803890       0.99133293       1.21729220
O       -0.96483813       2.03130558       0.39622068
C       -0.82509548      -0.41693354       0.64777917
O       -0.97045332      -0.51970894      -0.76216352
C        0.43368082      -1.04615494       1.25569090
O        1.63029276      -0.37609590       0.96250572
P        0.15834114      -0.30534651      -1.96219637
O        1.46481069      -0.99529671      -1.62315733
O       -0.58917611      -0.48556498      -3.23238295
O        0.47058571       1.35121255      -1.75276317
H       -0.55158713       1.77540388      -0.47133817
H       -1.66445502      -0.98963733       1.05061704
H        1.80864176      -0.61280867       0.01902683
H        0.29461772      -1.03857457       2.33795946
H        0.46812823      -2.08917447       0.92252737
H        1.33610547       1.41619749      -1.32776229
17
Properties=species:S:1:pos:R:3 relative_energy_eV=4.9140795454150066e-05 branch=left pbc="F F F"
O       -1.33039960       1.13137901       2.39171771
C       -1.04905416       0.99142150       1.21655073
O       -0.96941041       2.03055484       0.39440304
C       -0.82469985      -0.41669888       0.64708169
O       -0.96957844      -0.52148121      -0.76287474
C        0.43458976      -1.04446975       1.25605687
O        1.63186009      -0.37655676       0.95977550
P        0.15880686      -0.30494977      -1.96289421
O        1.46372376      -0.99847808      -1.62568208
O       -0.58941884      -0.47976262      -3.23337688
O        0.47226699       1.35048581      -1.74826349
H       -0.55480153       1.77502381      -0.47277122
H       -1.66389506      -0.98964966       1.05038406
H        1.80890617      -0.61699796       0.01709077
H        0.29584735      -1.03332697       2.33846209
H        0.46861136      -2.08851427       0.92605990
H        1.33700073       1.41362961      -1.32189712
17
Properties=species:S:1:pos:R:3 relative_energy_eV=0.00011627513595158234 branch=left pbc="F F F"
O       -1.33030246       1.13036022       2.39103382
C       -1.05018274       0.99130869       1.21551920
O       -0.97332105       2.03078343       0.39342833
C       -0.82428401      -0.41652577       0.64696145
O       -0.96917115      -0.52240594      -0.76262116
C        0.43518646      -1.04301851       1.25589595
O        1.63277680      -0.37715377       0.95680046
P        0.15879007      -0.30496957      -1.96270078
O        1.46251330      -1.00157040      -1.62839782
O       -0.58865716      -0.47692766      -3.23392118
O        0.47430721       1.34951530      -1.74476810
H       -0.55728904       1.77636109      -0.47335529
H       -1.66317279      -0.98989422       1.05016641
H        1.80948576      -0.62030293       0.01477585
H        0.29802471      -1.02826975       2.33808364
H        0.46798598      -2.08766599       0.92850509
H        1.33766527       1.41198443      -1.31558330
17
Properties=species:S:1:pos:R:3 relative_energy_eV=0.0001918238958751317 branch=left pbc="F F F"
O       -1.32979506       1.13017984       2.39070840
C       -1.04961422       0.99132865       1.21518653
O       -0.97454552       2.03151567       0.39363687
C       -0.82377650      -0.41663579       0.64697322
O       -0.96910700      -0.52242124      -0.76249965
C        0.43494792      -1.04422107       1.25608048
O        1.63309663      -0.38010864       0.95618024
P        0.15955397      -0.30489574      -1.96217002
O        1.46441521      -1.00002069      -1.62868064
O       -0.58700824      -0.47859164      -3.23362453
O        0.47291584       1.35035168      -1.74502599
H       -0.55865050       1.77818055      -0.47349768
H       -1.66335075      -0.98843024       1.05073689
H        1.81018984      -0.62235965       0.01386324
H        0.29912339      -1.02700325       2.33837951
H        0.46548786      -2.08936148       0.92964764
H        1.33647230       1.41410166      -1.31607199
17
Properties=species:S:1:pos:R:3 relative_energy_eV=0.00031556104659102857 branch=left pbc="F F F"
O       -1.32919223       1.13085091       2.39098898
C       -1.04894081       0.99198782       1.21538995
O       -0.97621746       2.03127521       0.39282643
C       -0.82327858      -0.41622054       0.64695674
O       -0.96813261      -0.52286476      -0.76294693
C        0.43505524      -1.04611742       1.25673105
O        1.63468175      -0.38447345       0.95632678
P        0.16092836      -0.30411905      -1.96243191
O        1.46750255      -0.99632352      -1.62843625
O       -0.58636459      -0.47949111      -3.23344889
O        0.47060399       1.35205717      -1.74491910
H       -0.56010917       1.77838729      -0.47456939
H       -1.66420892      -0.98569893       1.05203746
H        1.80984926      -0.62503688       0.01310478
H        0.29903946      -1.02720712       2.33938708
H        0.46337002      -2.09273596       0.93236612
H        1.33576888       1.41733894      -1.31954043
17
Properties=species:S:1:pos:R:3 relative_energy_eV=0.0005741096611018293 branch=left pbc="F F F"
O       -1.32850796       1.13247524       2.39054717
C       -1.05000437       0.99296743       1.21467170
O       -0.97958951       2.03152448       0.39079226
C       -0.82205989      -0.41557281       0.64771737
O       -0.96501682      -0.52455698      -0.76198993
C        0.43520775      -1.04668769       1.25779719
O        1.63698371      -0.39049725       0.95580865
P        0.16146919      -0.30256746      -1.96262529
O        1.46940126      -0.99182103      -1.62897196
O       -0.58746279      -0.48032068      -3.23244300
O        0.47082789       1.35349835      -1.74528849
H       -0.56132666       1.77887806      -0.47542569
H       -1.66248848      -0.98613917       1.05226089
H        1.80751069      -0.62844797       0.01062518
H        0.29870398      -1.02867754       2.33992348
H        0.46001712      -2.09439616       0.93764766
H        1.33669002       1.42194975      -1.32122467
17
Properties=species:S:1:pos:R:3 relative_energy_eV=0.0009436014770471957 branch=left pbc="F F F"
O       -1.32849545       1.13497528       2.38887653
C       -1.04892624       0.99287092       1.21366150
O       -0.98059144       2.03177222       0.38945105
C       -0.81933068      -0.41664194       0.64854658
O       -0.96238614      -0.52567563      -0.76071901
C        0.43515814      -1.04889993       1.26147173
O        1.63902274      -0.39837887       0.95826118
P        0.16168777      -0.29987758      -1.96269693
O        1.47166964      -0.98668088      -1.63250806
O       -0.58937271      -0.48073735      -3.23038200
O        0.47016529       1.35763793      -1.75023465
H       -0.56274064       1.77931255      -0.47651279
H       -1.65948699      -0.98869580       1.05012520
H        1.80601335      -0.63177160       0.01105022
H        0.29708004      -1.02743840       2.34352245
H        0.45584848      -2.09631004       0.94167971
H        1.33503998       1.42614763      -1.32377019
17
Properties=species:S:1:pos:R:3 relative_energy_eV=0.00141242272729869 branch=left pbc="F F F"
O       -1.32924667       1.13620981       2.38879400
C       -1.04800379       0.99289411       1.21391842
O       -0.98200456       2.02895733       0.38639477
C       -0.81774012      -0.41652925       0.64947677
O       -0.95847629      -0.52397480      -0.76045324
C        0.43566563      -1.05115813       1.26516261
O        1.64165565      -0.40366861       0.96138862
P        0.16293386      -0.29701116      -1.96487034
O        1.47401906      -0.98280556      -1.63594174
O       -0.59313240      -0.47657562      -3.23002183
O        0.46900772       1.36060801      -1.75279737
H       -0.56360672       1.77678988      -0.48008866
H       -1.65845533      -0.98988413       1.04949171
H        1.80413504      -0.63469367       0.01333735
H        0.29591538      -1.02408700       2.34790508
H        0.45398864      -2.09989572       0.94486158
H        1.33370008       1.42643298      -1.32673523
17
Properties=species:S:1:pos:R:3 relative_energy_eV=0.0019418078190938104 branch=left pbc="F F F"
O       -1.32887740       1.13514459       2.38891438
C       -1.04865588       0.99200286       1.21379563
O       -0.98117174       2.02723069       0.38517708
C       -0.81747369      -0.41639649       0.65052705
O       -0.95453692      -0.52016870      -0.75934448
C        0.43437742      -1.05204470       1.26653693
O        1.64134614      -0.40685074       0.96364264
P        0.16334761      -0.29584563      -1.96700736
O        1.47565626      -0.97851082      -1.63660046
O       -0.59565811      -0.47550896      -3.23058138
O        0.46812694       1.36074394      -1.75672884
H       -0.56354401       1.77562961      -0.48237268
H       -1.65792249      -0.99115660       1.04969969
H        1.80579107      -0.63578545       0.01583040
H        0.29775301      -1.02259525       2.34898570
H        0.44999806      -2.10120909       0.94746969
H        1.33179889       1.42692916      -1.32812153
17
Properties=species:S:1:pos:R:3 relative_energy_eV=0.003705772975081345 branch=left pbc="F F F"
O       -1.32655306       1.13342712       2.38791768
C       -1.04423254       0.98949727       1.21367760
O       -0.96657773       2.02698788       0.38896964
C       -0.81619556      -0.41885092       0.64963112
O       -0.95323270      -0.52058336      -0.75961274
C        0.43115014      -1.05590962       1.27032936
O        1.64176700      -0.41584765       0.97514391
P        0.16074855      -0.29150330      -1.97152038
O        1.47873658      -0.96178141      -1.63975639
O       -0.59811979      -0.47867682      -3.23387100
O        0.46106496       1.36755243      -1.77342668
H       -0.56761888       1.76872288      -0.48419024
H       -1.66178699      -0.98656660       1.04668074
H        1.82089413      -0.63749461       0.02901511
H        0.29429050      -1.02573869       2.35148524
H        0.44309927      -2.10571245       0.95954138
H        1.32292139       1.43408623      -1.34019196
17
Properties=species:S:1:pos:R:3 relative_energy_eV=0.005857165942870779 branch=left pbc="F F F"
O       -1.32478653       1.13171775       2.38784575
C       -1.03844526       0.98948058       1.21380739
O       -0.96125640       2.02491091       0.38803580
C       -0.81595542      -0.41864719       0.64711326
O       -0.95580842      -0.52445917      -0.76379384
C        0.43283583      -1.05756613       1.27373976
O        1.64834599      -0.41783904       0.98429745
P        0.16035368      -0.28780713      -1.97481863
O        1.47993483      -0.95590978      -1.64445262
O       -0.60128444      -0.47475428      -3.23647537
O        0.45481071       1.37244795      -1.77656582
H       -0.56782944       1.76182838      -0.48694737
H       -1.66542035      -0.98149523       1.04529610
H        1.82642193      -0.63910060       0.03874484
H        0.28584004      -1.02842427       2.35491054
H        0.44387831      -2.11081298       0.96895236
H        1.31872021       1.43803862      -1.34986726
17
Properties=species:S:1:pos:R:3 relative_energy_eV=0.012266571706277318 branch=left pbc="F F F"
O       -1.30587148       1.13323136       2.39716983
C       -1.01983411       0.99285012       1.22371650
O       -0.91273039       2.03035514       0.40591800
C       -0.81434055      -0.41678200       0.64643317
O       -0.95012112      -0.52374288      -0.76399753
C        0.41888293      -1.07815681       1.27645003
O        1.64183397      -0.44228052       1.01962499
P        0.15862962      -0.28450280      -1.97679744
O        1.49381134      -0.90491027      -1.62278249
O       -0.58889240      -0.53426274      -3.23546247
O        0.40808150       1.38773926      -1.81174730
H       -0.55477976       1.76008624      -0.48160890
H       -1.67300909      -0.96831279       1.03554630
H        1.84524154      -0.63791236       0.07309519
H        0.24614250      -1.05206470       2.35585968
H        0.44112399      -2.12419497       0.94503483
H        1.28618678       1.48446909      -1.41663011
17
Properties=species:S:1:pos:R:3 relative_energy_eV=0.018918501296866452 branch=left pbc="F F F"
O       -1.29006081       1.13346251       2.40107750
C       -1.00074205       0.99170182       1.22734840
O       -0.87219714       2.03993919       0.42222772
C       -0.81317952      -0.41995285       0.64536790
O       -0.94816464      -0.51900967      -0.76211048
C        0.41008198      -1.09288764       1.27614974
O        1.63950518      -0.46103351       1.05283635
P        0.15896309      -0.28996030      -1.97608053
O        1.51116330      -0.86623082      -1.60557985
O       -0.57860752      -0.57705522      -3.23456324
O        0.36922848       1.39493423      -1.83809021
H       -0.54604054       1.77072925      -0.47944051
H       -1.67975196      -0.96155006       1.03146779
H        1.84654990      -0.63396802       0.10429449
H        0.21788145      -1.07867240       2.34966513
H        0.43782679      -2.13095331       0.92860574
H        1.25789934       1.52211513      -1.47335371
17
Properties=species:S:1:pos:R:3 relative_energy_eV=0.02514139996128506 branch=left pbc="F F F"
O       -1.26144135       1.12776280       2.40630676
C       -0.97593391       0.99164483       1.23045335
O       -0.83233121       2.04394366       0.43303599
C       -0.81525967      -0.41808703       0.64347915
O       -0.95111593      -0.50996147      -0.76435406
C        0.39935228      -1.10842242       1.27842676
O        1.63826364      -0.47948600       1.09779752
P        0.16502741      -0.29252745      -1.97165376
O        1.53333030      -0.81771972      -1.58521719
O       -0.56137830      -0.62791222      -3.22411782
O        0.31850081       1.39957377      -1.86809812
H       -0.51909531       1.78074842      -0.47682604
H       -1.68686448      -0.95463262       1.03049836
H        1.84501518      -0.62034846       0.14561524
H        0.18414668      -1.12701685       2.34576808
H        0.42102483      -2.13823751       0.90813356
H        1.21911438       1.57228666      -1.55942551
17
Properties=species:S:1:pos:R:3 relative_energy_eV=0.03173036884982139 branch=left pbc="F F F"
O       -1.22382106       1.12432220       2.41348221
C       -0.95476310       0.99453197       1.23484139
O       -0.80324667       2.04087147       0.43516755
C       -0.81818000      -0.41336345       0.64656109
O       -0.95132468      -0.50510323      -0.76422696
C        0.38189153      -1.12902335       1.28473916
O        1.62658617      -0.49887215       1.13981951
P        0.17143210      -0.28718826      -1.96320857
O        1.55128359      -0.76402372      -1.55943830
O       -0.53568151      -0.67999416      -3.20894587
O        0.26975772       1.40754184      -1.89763444
H       -0.48003102       1.78039501      -0.47171030
H       -1.69396158      -0.94346944       1.03162926
H        1.84843599      -0.59367782       0.18499662
H        0.15517059      -1.18934611       2.35116792
H        0.39508442      -2.14730909       0.88055809
H        1.18172292       1.62531668      -1.66797598
17
Properties=species:S:1:pos:R:3 relative_energy_eV=0.036736116224346915 branch=left pbc="F F F"
O       -1.20280675       1.13065051       2.42183745
C       -0.93682470       0.99745795       1.24305568
O       -0.77142483       2.04740604       0.44713557
C       -0.81753854      -0.41264664       0.65466168
O       -0.94416879      -0.50121749      -0.75584858
C        0.36536274      -1.15365475       1.28688917
O        1.60861323      -0.52034549       1.16618744
P        0.17628158      -0.28552656      -1.95623958
O        1.56517964      -0.71306356      -1.53127970
O       -0.50395716      -0.73277396      -3.19869223
O        0.23346997       1.41628759      -1.93398936
H       -0.46227806       1.78484156      -0.46235225
H       -1.70327290      -0.92683078       1.03196160
H        1.84607239      -0.56734212       0.21124464
H        0.14116725      -1.24585950       2.35231708
H        0.37614942      -2.15815308       0.85149213
H        1.15033102       1.66237866      -1.75855834
17
Properties=species:S:1:pos:R:3 relative_energy_eV=0.04005238788158749 branch=left pbc="F F F"
O       -1.19885852       1.13910475       2.42918214
C       -0.92330982       1.00030779       1.25244432
O       -0.74994734       2.05334268       0.45892373
C       -0.81837014      -0.41265721       0.66046389
O       -0.93875003      -0.49901122      -0.75178316
C        0.36107431      -1.16854083       1.28490074
O        1.60466781      -0.53224790       1.18199706
P        0.18208813      -0.28559490      -1.95464604
O        1.57534081      -0.68288618      -1.51423428
O       -0.48437327      -0.76444012      -3.19367554
O        0.21358364       1.41914754      -1.95899332
H       -0.45987596       1.79094188      -0.45641065
H       -1.71526112      -0.91515783       1.03325169
H        1.83511173      -0.55508708       0.22460967
H        0.13647838      -1.27654665       2.34681722
H        0.36855644      -2.16792777       0.83343175
H        1.13220053       1.67886134      -1.80645684
17
Properties=species:S:1:pos:R:3 relative_energy_eV=0.042244713000400225 branch=left pbc="F F F"
O       -1.19415200       1.14617952       2.43569639
C       -0.91968425       1.00295170       1.26013393
O       -0.74451689       2.04809852       0.45935347
C       -0.82044613      -0.41047666       0.66527968
O       -0.93764538      -0.49391078      -0.75002700
C        0.35867567      -1.17522255       1.28445754
O        1.60384562      -0.53974062       1.18876008
P        0.18772020      -0.28142702      -1.95039767
O        1.58447970      -0.66240135      -1.50636697
O       -0.47274705      -0.77672980      -3.18542823
O        0.20534863       1.41948949      -1.96555057
H       -0.45668204       1.78117398      -0.45518642
H       -1.72435834      -0.90435120       1.03552152
H        1.82429497      -0.55055213       0.22845400
H        0.13192153      -1.29563491       2.34440940
H        0.36905287      -2.16967615       0.82131569
H        1.12524850       1.68383824      -1.84060243
17
Properties=species:S:1:pos:R:3 relative_energy_eV=0.04335245872789528 branch=left pbc="F F F"
O       -1.19270736       1.14733562       2.43803074
C       -0.91940872       1.00362068       1.26243856
O       -0.73950156       2.04716665       0.46069465
C       -0.82045357      -0.40845183       0.66674538
O       -0.93793392      -0.48748485      -0.74804171
C        0.35582100      -1.17737061       1.28441819
O        1.60125698      -0.54425635       1.18888333
P        0.18989411      -0.28083078      -1.94704318
O        1.58968892      -0.65218635      -1.50351981
O       -0.46668230      -0.78411731      -3.18047173
O        0.20115800       1.41897739      -1.96887297
H       -0.45782672       1.77614665      -0.45404531
H       -1.72513008      -0.89879229       1.03556222
H        1.82086186      -0.54985300       0.22785579
H        0.12876959      -1.30474140       2.34404186
H        0.37086056      -2.16816185       0.81645433
H        1.12168886       1.68460787      -1.85330791
17
Properties=species:S:1:pos:R:3 relative_energy_eV=0.044806341280491324 branch=left pbc="F F F"
O       -1.19531446       1.14514773       2.43853116
C       -0.91510170       1.00359022       1.26340275
O       -0.72613173       2.05196544       0.46736448
C       -0.82026400      -0.40575061       0.66765083
O       -0.93679349      -0.47652260      -0.74545141
C        0.35344309      -1.17865619       1.28318534
O        1.59792012      -0.54519338       1.18657849
P        0.19182906      -0.28178126      -1.94466781
O        1.59454632      -0.64105310      -1.49926092
O       -0.46004099      -0.80030066      -3.17472313
O        0.19501194       1.41884060      -1.97595688
H       -0.46554015       1.77722663      -0.45196875
H       -1.72384699      -0.89795179       1.03491255
H        1.82071108      -0.55266628       0.22541423
H        0.12476515      -1.31298462       2.34235817
H        0.36870678      -2.16747233       0.81127051
H        1.11645563       1.68517034      -1.85881721
17
Properties=species:S:1:pos:R:3 relative_energy_eV=0.04707398764367099 branch=left pbc="F F F"
O       -1.19550616       1.14633598       2.44134367
C       -0.91226928       1.00338962       1.26790262
O       -0.71932015       2.04814054       0.46980368
C       -0.82172000      -0.40512297       0.66991730
O       -0.93527585      -0.46799379      -0.74464385
C        0.35353253      -1.17788898       1.27991426
O        1.59624498      -0.53944469       1.18408657
P        0.19386913      -0.27783863      -1.94302429
O        1.59686335      -0.63005327      -1.49447419
O       -0.45549551      -0.81799092      -3.16504562
O        0.19351842       1.42218468      -1.97957657
H       -0.46723585       1.77314904      -0.45214536
H       -1.72602289      -0.90193017       1.03499898
H        1.82355679      -0.55929775       0.22386468
H        0.12259776      -1.31547868       2.33787870
H        0.35846432      -2.16557276       0.80295050
H        1.11455403       1.68702086      -1.86392865
17
Properties=species:S:1:pos:R:3 relative_energy_eV=0.05135080746549647 branch=left pbc="F F F"
O       -1.19445467       1.14958767       2.45008345
C       -0.91940890       1.00198614       1.27540060
O       -0.70948265       2.04330907       0.47525421
C       -0.82725912      -0.40296726       0.66834540
O       -0.94150012      -0.46421592      -0.74441442
C        0.34911920      -1.17445087       1.27241746
O        1.59350233      -0.54323257       1.18178031
P        0.19590358      -0.27835107      -1.93887785
O        1.60264898      -0.61843691      -1.49195719
O       -0.45061003      -0.83852587      -3.15260065
O        0.19324177       1.42245919      -1.99555381
H       -0.46545982       1.77346313      -0.44904748
H       -1.72565096      -0.90640503       1.03102544
H        1.82976491      -0.56615527       0.22504271
H        0.12836023      -1.31038400       2.33068378
H        0.34994344      -2.15917796       0.79282558
H        1.11169747       1.69310561      -1.86058508
17
Properties=species:S:1:pos:R:3 relative_energy_eV=0.05917462614888791 branch=left pbc="F F F"
O       -1.19659232       1.14389720       2.45162871
C       -0.91983465       1.00483134       1.27575119
O       -0.69715749       2.05797768       0.49043344
C       -0.83676419      -0.39683074       0.66670729
O       -0.94592210      -0.45495157      -0.74748692
C        0.34697060      -1.17216159       1.26845065
O        1.59955717      -0.55583603       1.17934398
P        0.20018341      -0.28479989      -1.94096724
O        1.60914327      -0.60969943      -1.48845531
O       -0.44730645      -0.86175513      -3.14738535
O        0.19137647       1.41489645      -2.02080634
H       -0.46706455       1.77740102      -0.43435073
H       -1.73358346      -0.91285931       1.02835727
H        1.83941556      -0.56841506       0.22255930
H        0.13044603      -1.30327075       2.32937436
H        0.34854890      -2.15482343       0.78219554
H        1.09893944       1.69800731      -1.84552742
17
Properties=species:S:1:pos:R:3 relative_energy_eV=0.07138709296123125 branch=left pbc="F F F"
O       -1.19396287       1.14297010       2.45322846
C       -0.92112662       1.00566340       1.27988180
O       -0.71255758       2.05540962       0.48920678
C       -0.83661872      -0.39672513       0.66648704
O       -0.94170275      -0.43915837      -0.74933516
C        0.35181376      -1.17044927       1.26780082
O        1.61102454      -0.56145398       1.17674622
P        0.20212741      -0.28445224      -1.94729142
O        1.60832871      -0.60566221      -1.48502701
O       -0.44478730      -0.87824332      -3.14593850
O        0.18934787       1.41089558      -2.03172059
H       -0.44851663       1.76120772      -0.41385827
H       -1.74540274      -0.90593354       1.02655056
H        1.84886888      -0.56877927       0.21783328
H        0.12273229      -1.29533781       2.32861105
H        0.34270926      -2.14698928       0.77187154
H        1.08807813       1.69864610      -1.83522407
17
Properties=species:S:1:pos:R:3 relative_energy_eV=0.10718928677670192 branch=left pbc="F F F"
O       -1.22341755       1.12927972       2.46879713
C       -0.91818409       1.00237631       1.29915679
O       -0.70856152       2.06445159       0.51479415
C       -0.80642460      -0.37876970       0.65109836
O       -0.93438885      -0.40207158      -0.75552412
C        0.35943349      -1.16866652       1.25711736
O        1.62266332      -0.57165388       1.17684244
P        0.20030908      -0.29582059      -1.96652903
O        1.60144955      -0.61086450      -1.48628873
O       -0.42319630      -0.93510581      -3.15452537
O        0.16491211       1.39714485      -2.07768502
H       -0.42703678       1.78156933      -0.38370134
H       -1.71709126      -0.86219387       1.00420653
H        1.84946598      -0.57102485       0.21551517
H        0.10628478      -1.29406797       2.31092084
H        0.33723264      -2.15159138       0.77712857
H        1.03690560       1.68861699      -1.78150124
17
Properties=species:S:1:pos:R:3 relative_energy_eV=0.1440719511010684 branch=left pbc="F F F"
O       -1.25908272       1.11084145       2.45468472
C       -0.90368523       1.01620633       1.30046015
O       -0.64892552       2.10005085       0.56648562
C       -0.79331625      -0.36305596       0.64259489
O       -0.93673531      -0.39482335      -0.76898458
C        0.35858513      -1.17392004       1.25177192
O        1.62318911      -0.58124220       1.17936990
P        0.20108170      -0.31187115      -1.97947218
O        1.60318758      -0.61527013      -1.48644361
O       -0.41077101      -0.96908359      -3.16009933
O        0.15497989       1.38202678      -2.11713044
H       -0.46291594       1.84337073      -0.37927204
H       -1.69484354      -0.86013593       0.99576238
H        1.84178656      -0.57141264       0.21715632
H        0.10713854      -1.30291437       2.30448094
H        0.34645860      -2.16940696       0.79050000
H        0.99422401       1.68224816      -1.74204252
17
Properties=species:S:1:pos:R:3 relative_energy_eV=0.34057591906093876 branch=left pbc="F F F"
O       -1.32098907       1.08993638       2.42449826
C       -0.88150913       1.02118792       1.28888836
O       -0.47788395       2.16852106       0.60645190
C       -0.80205170      -0.37728305       0.62155191
O       -0.94097343      -0.41652908      -0.78143996
C        0.36324504      -1.18839327       1.25520989
O        1.62385929      -0.59337688       1.18256836
P        0.21307627      -0.32029344      -1.99149589
O        1.60781998      -0.61862374      -1.47938848
O       -0.40597755      -0.99485099      -3.16238800
O        0.15788102       1.35483722      -2.16395927
H       -0.58587747       1.98863758      -0.36662081
H       -1.68866135      -0.89512231       1.00524249
H        1.83251092      -0.56875625       0.21708134
H        0.11845708      -1.31739992       2.31384501
H        0.36434734      -2.19042666       0.80488056
H        0.94308236       1.67954307      -1.70510426
17
Properties=species:S:1:pos:R:3 relative_energy_eV=0.5723405314383854 branch=left pbc="F F F"
O       -1.35306383       1.12638871       2.36616375
C       -0.87997370       1.00615693       1.25176997
O       -0.35754060       2.12906528       0.64193162
C       -0.80262224      -0.39507159       0.61893666
O       -0.93624545      -0.43934679      -0.77846971
C        0.36979946      -1.19652188       1.26113430
O        1.62564919      -0.59665152       1.18342685
P        0.21620359      -0.32757096      -1.99190832
O        1.61049343      -0.61798484      -1.46862333
O       -0.40480147      -1.00201943      -3.16368083
O        0.16110021       1.34119499      -2.19267657
H       -0.67858591       2.11064857      -0.33005124
H       -1.68819996      -0.91272472       1.01348455
H        1.82821740      -0.56576409       0.21461903
H        0.12480949      -1.32313012       2.32060325
H        0.37175318      -2.19747620       0.80821008
H        0.91336307       1.68241497      -1.68504924
17
Properties=species:S:1:pos:R:3 relative_energy_eV=0.8054295152360282 branch=left pbc="F F F"
O       -1.39519006       1.18348254       2.28726837
C       -0.87574223       0.99083893       1.22037198
O       -0.24889603       2.02927660       0.61030398
C       -0.79721152      -0.41783948       0.62659313
O       -0.92799361      -0.47185286      -0.77153605
C        0.37728276      -1.20437605       1.26672699
O        1.62912628      -0.59568498       1.18398535
P        0.21856830      -0.33006409      -1.98898193
O        1.60984343      -0.61838306      -1.45513663
O       -0.40139166      -1.00454619      -3.16190039
O        0.16755914       1.32963060      -2.22263711
H       -0.75509659       2.26088488      -0.22353000
H       -1.68836046      -0.92615373       1.02033420
H        1.82456148      -0.56227741       0.21072596
H        0.12966518      -1.32570667       2.32562149
H        0.37594765      -2.20041715       0.80869380
H        0.87768421       1.68479522      -1.66708268
17
Properties=species:S:1:pos:R:3 relative_energy_eV=0.861763103865087 branch=left pbc="F F F"
O       -1.43249346       1.21138571       2.25635834
C       -0.86953525       0.97359565       1.21577288
O       -0.19316993       1.96849183       0.53063650
C       -0.79450438      -0.43100748       0.63219121
O       -0.92227515      -0.49706166      -0.76721112
C        0.38254060      -1.20663973       1.26887634
O        1.63151858      -0.59327024       1.18443640
P        0.21941944      -0.32422182      -1.98758154
O        1.60725847      -0.62113655      -1.44785857
O       -0.39683382      -1.00393364      -3.15715199
O        0.17186586       1.32420217      -2.23894964
H       -0.78281143       2.35431007      -0.12634584
H       -1.68713421      -0.93034812       1.02240040
H        1.82330446      -0.56064441       0.20820690
H        0.13127698      -1.32566306       2.32747596
H        0.37637491      -2.20080327       0.80767671
H        0.85555472       1.68435164      -1.65911237
17
Properties=species:S:1:pos:R:3 relative_energy_eV=0.8823504872379999 branch=ts pbc="F F F"
O       -1.43744994       1.21445957       2.25369794
C       -0.86923983       0.97330600       1.21544053
O       -0.18251242       1.95448254       0.52450036
C       -0.79237955      -0.43133933       0.63233226
O       -0.92152022      -0.50128826      -0.76641567
C        0.38320274      -1.20667665       1.26925438
O        1.63170987      -0.59268209       1.18429710
P        0.21941574      -0.32188630      -1.98756781
O        1.60697373      -0.62197287      -1.44687202
O       -0.39629951      -1.00414234      -3.15644642
O        0.17110617       1.32291932      -2.24077452
H       -0.80092786       2.45966653      -0.01753904
H       -1.68595920      -0.92752029       1.02381176
H        1.82205476      -0.55901936       0.20711223
H        0.13168436      -1.32628095       2.32793984
H        0.37624010      -2.20060000       0.80729522
H        0.83540805       1.68823311      -1.64179466
17
Properties=species:S:1:pos:R:3 relative_energy_eV=0.8674742296352633 branch=right pbc="F F F"
O       -1.44155558       1.21742016       2.25089016
C       -0.86855841       0.97534077       1.21430080
O       -0.18425033       1.94619212       0.51154703
C       -0.78984038      -0.43111862       0.63222623
O       -0.92076168      -0.50524089      -0.76541721
C        0.38374833      -1.20668945       1.26963564
O        1.63181968      -0.59207098       1.18406577
P        0.21956768      -0.31978133      -1.98780807
O        1.60660018      -0.62263464      -1.44594050
O       -0.39593060      -1.00441040      -3.15580161
O        0.17029023       1.32253665      -2.24150031
H       -0.80790521       2.55507877       0.09842648
H       -1.68472006      -0.92434770       1.02518953
H        1.82079476      -0.55742336       0.20606761
H        0.13204407      -1.32703259       2.32839807
H        0.37618585      -2.20027501       0.80710484
H        0.81512894       1.69216665      -1.62466206
17
Properties=species:S:1:pos:R:3 relative_energy_eV=0.8476782494835788 branch=right pbc="F F F"
O       -1.45678594       1.24377163       2.22769350
C       -0.87113102       0.97442127       1.20208419
O       -0.18336736       1.87854648       0.45805861
C       -0.78345800      -0.43250107       0.63542505
O       -0.91399972      -0.52306356      -0.76301443
C        0.38626622      -1.20575235       1.27179938
O        1.63342822      -0.58901319       1.18418320
P        0.21963298      -0.31490763      -1.98765916
O        1.60432669      -0.62180480      -1.44221288
O       -0.39429183      -1.00369892      -3.15357985
O        0.16622387       1.32590209      -2.24302048
H       -0.79595553       2.59227279       0.16426397
H       -1.68006373      -0.91850319       1.02618248
H        1.81987205      -0.55664325       0.20465264
H        0.13284566      -1.32840055       2.32987713
H        0.37734896      -2.19908900       0.80859747
H        0.80176598       1.69617341      -1.61660836
17
Properties=species:S:1:pos:R:3 relative_energy_eV=0.7278500856591563 branch=right pbc="F F F"
O       -1.48793752       1.31718869       2.14964859
C       -0.87472597       0.94934877       1.16264713
O       -0.23303652       1.82256986       0.33036986
C       -0.77878902      -0.46526408       0.64076838
O       -0.90327434      -0.56503063      -0.75516792
C        0.39560262      -1.21008022       1.28201526
O        1.63753213      -0.58269243       1.18486778
P        0.21898783      -0.31490016      -1.98474497
O        1.60641756      -0.61477132      -1.43734815
O       -0.39140183      -1.00127708      -3.15477665
O        0.16112091       1.32347192      -2.24895440
H       -0.70992272       2.65473424       0.34706833
H       -1.68222447      -0.92229094       1.03640085
H        1.81831597      -0.55324204       0.20160348
H        0.13895238      -1.33172125       2.33847358
H        0.38406883      -2.19749387       0.81346095
H        0.76297209       1.70916046      -1.59960921
17
Properties=species:S:1:pos:R:3 relative_energy_eV=0.6487750102860446 branch=right pbc="F F F"
O       -1.49784800       1.35057076       2.08480024
C       -0.88303975       0.96408577       1.10984189
O       -0.29311532       1.82147829       0.27059108
C       -0.78258168      -0.47926606       0.64044825
O       -0.90075143      -0.59624974      -0.75564231
C        0.39954526      -1.21902846       1.29052417
O        1.63578929      -0.57745717       1.18478744
P        0.22303331      -0.32279046      -1.98626302
O        1.61279155      -0.61057899      -1.43849477
O       -0.38957407      -1.00223639      -3.15792971
O        0.16360101       1.30597865      -2.25839037
H       -0.62502950       2.70027880       0.49382305
H       -1.69083749      -0.94365343       1.04882675
H        1.81700585      -0.54988797       0.20136504
H        0.14963956      -1.33571546       2.35064793
H        0.39761783      -2.20768421       0.82013648
H        0.72641187       1.71986578      -1.59234888
17
Properties=species:S:1:pos:R:3 relative_energy_eV=0.6036644084488216 branch=right pbc="F F F"
O       -1.50108514       1.33290645       2.08422171
C       -0.91809134       0.97952886       1.07643571
O       -0.30851582       1.88592308       0.26819944
C       -0.79939746      -0.46949404       0.61898042
O       -0.90273563      -0.61522727      -0.77175865
C        0.39028189      -1.21633299       1.28843891
O        1.62232583      -0.57173418       1.18556485
P        0.23411511      -0.34474360      -1.99608929
O        1.62479069      -0.62353552      -1.44589254
O       -0.38559231      -1.02101714      -3.16689914
O        0.17077536       1.27921240      -2.28064651
H       -0.56498181       2.74793977       0.59688789
H       -1.68279504      -0.95863248       1.04876499
H        1.81359744      -0.54817876       0.20578822
H        0.16491844      -1.33940024       2.35689621
H        0.41662341      -2.22205373       0.83701829
H        0.68842491       1.72254897      -1.59918703
17
Properties=species:S:1:pos:R:3 relative_energy_eV=0.5492954581677623 branch=right pbc="F F F"
O       -1.51153096       1.28751320       2.12269285
C       -0.91812537       0.98564936       1.10463560
O       -0.30860071       1.91079943       0.31908784
C       -0.78951634      -0.45462008       0.58788863
O       -0.89814373      -0.62019288      -0.80028553
C        0.38345041      -1.19155689       1.27538179
O        1.61436643      -0.54895159       1.18499490
P        0.24784258      -0.36851871      -2.02030292
O        1.62529156      -0.66450332      -1.45466041
O       -0.36591833      -1.07131444      -3.18245940
O        0.16912231       1.25829864      -2.31627435
H       -0.53854624       2.78902326       0.67985923
H       -1.67136404      -0.93110171       1.01494030
H        1.80978087      -0.54935478       0.20943121
H        0.15446414      -1.32377829       2.33494039
H        0.41394994      -2.20079209       0.85629529
H        0.64613609       1.71111045      -1.60944197
17
Properties=species:S:1:pos:R:3 relative_energy_eV=0.5056244849147333 branch=right pbc="F F F"
O       -1.50785449       1.23994658       2.14290473
C       -0.90502979       0.98237565       1.12034218
O       -0.31107124       1.94802862       0.38288729
C       -0.78413602      -0.43748834       0.57451778
O       -0.89067838      -0.59547218      -0.81591474
C        0.38583050      -1.16825861       1.27028039
O        1.61821217      -0.51574284       1.17844711
P        0.25438538      -0.40717164      -2.04435515
O        1.62835458      -0.70286078      -1.46744872
O       -0.33314512      -1.12655244      -3.20704008
O        0.17294811       1.21664347      -2.35226711
H       -0.51261761       2.80744365       0.79303928
H       -1.68605059      -0.90993531       0.97306632
H        1.81921168      -0.54392290       0.20256511
H        0.11924187      -1.28026887       2.32663710
H        0.40922797      -2.18062701       0.84830648
H        0.58582965       1.69157243      -1.61924450
17
Properties=species:S:1:pos:R:3 relative_energy_eV=0.485881873886683 branch=right pbc="F F F"
O       -1.49931513       1.23575358       2.14464146
C       -0.90757990       0.98410003       1.11147821
O       -0.30515092       1.96300476       0.38303206
C       -0.79120733      -0.43478058       0.56747523
O       -0.89074745      -0.57300770      -0.82186237
C        0.38123070      -1.16158778       1.26792134
O        1.61283497      -0.51041855       1.17038887
P        0.26329101      -0.42108010      -2.04520977
O        1.63676528      -0.71429269      -1.46680489
O       -0.31891356      -1.14570621      -3.20805050
O        0.17747337       1.19443991      -2.36966032
H       -0.49922504       2.78483906       0.86938942
H       -1.69523330      -0.90870330       0.96271986
H        1.82939676      -0.53528154       0.19619700
H        0.10803528      -1.24771703       2.32849960
H        0.41390812      -2.16795043       0.83460749
H        0.54709594       1.67609795      -1.61803906
17
Properties=species:S:1:pos:R:3 relative_energy_eV=0.47813204411068 branch=right pbc="F F F"
O       -1.48987726       1.23919254       2.15135046
C       -0.90855181       0.97981653       1.11403634
O       -0.30517453       1.95529933       0.39189336
C       -0.79685546      -0.42772787       0.55710849
O       -0.89499636      -0.56543588      -0.83173966
C        0.37534132      -1.15071141       1.25718677
O        1.60875678      -0.50576319       1.16833690
P        0.27136301      -0.42329293      -2.04692268
O        1.64140051      -0.72023464      -1.46038853
O       -0.31392109      -1.16023329      -3.19921420
O        0.18376240       1.19256158      -2.37955274
H       -0.49389171       2.76771208       0.89161996
H       -1.69280368      -0.90653240       0.95873782
H        1.82750179      -0.53306935       0.19634748
H        0.11070401      -1.23453735       2.31678334
H        0.41165832      -2.15985053       0.83520488
H        0.52824258       1.67051613      -1.61406434
17
Properties=species:S:1:pos:R:3 relative_energy_eV=0.47415291515062563 branch=right pbc="F F F"
O       -1.48030226       1.23693925       2.15662193
C       -0.91227899       0.97905376       1.11241251
O       -0.31130019       1.95681600       0.39122999
C       -0.80355485      -0.42889532       0.55277166
O       -0.90197003      -0.55974862      -0.83672087
C        0.37695737      -1.14518353       1.25058473
O        1.60681795      -0.49228203       1.16488377
P        0.27345610      -0.42757779      -2.04547280
O        1.64241418      -0.71817690      -1.45462061
O       -0.30731571      -1.17689339      -3.19276908
O        0.20118453       1.18784361      -2.38483377
H       -0.47219167       2.76169653       0.90976722
H       -1.69761284      -0.91538240       0.95532580
H        1.82524439      -0.53014278       0.19307330
H        0.11008069      -1.22645407       2.30760975
H        0.40671282      -2.15900413       0.83529514
H        0.50631737       1.67510113      -1.60843498
17
Properties=species:S:1:pos:R:3 relative_energy_eV=0.4710869167429337 branch=right pbc="F F F"
O       -1.47243836       1.23247102       2.16635820
C       -0.91438635       0.97561304       1.11630626
O       -0.31653794       1.95031677       0.38069910
C       -0.80845270      -0.43122481       0.55372259
O       -0.90738611      -0.55259508      -0.83702213
C        0.37383372      -1.14338044       1.24860866
O        1.59965133      -0.48583878       1.15754221
P        0.27441851      -0.42605434      -2.03945223
O        1.64171977      -0.71675236      -1.44511798
O       -0.29988451      -1.18381872      -3.18410294
O        0.21542147       1.18793925      -2.38805253
H       -0.45042346       2.75648710       0.90455791
H       -1.70026908      -0.92383723       0.95145732
H        1.82527791      -0.52292696       0.18486781
H        0.10582261      -1.22324557       2.30681158
H        0.40748231      -2.15535031       0.83174379
H        0.48880971       1.67990674      -1.60220384
17
Properties=species:S:1:pos:R:3 relative_energy_eV=0.46943299222766655 branch=right pbc="F F F"
O       -1.46550701       1.22679465       2.17479340
C       -0.91577659       0.97357160       1.12021653
O       -0.32342745       1.94561721       0.38171843
C       -0.81110145      -0.42941689       0.55241854
O       -0.90569480      -0.54641286      -0.83854465
C        0.37091615      -1.14162161       1.24837982
O        1.59572510      -0.48208470       1.15625609
P        0.27887930      -0.42675335      -2.03837683
O        1.64352916      -0.72299759      -1.43959785
O       -0.29402111      -1.18467620      -3.18304468
O        0.21735083       1.18617129      -2.39214603
H       -0.43481798       2.75892936       0.90059768
H       -1.70210645      -0.92473875       0.94726429
H        1.81875848      -0.51801210       0.18187229
H        0.10258050      -1.22345612       2.30731022
H        0.41215580      -2.15252138       0.82957234
H        0.47521632       1.67931675      -1.60196579
17
Properties=species:S:1:pos:R:3 relative_energy_eV=0.4685318118717987 branch=right pbc="F F F"
O       -1.45718586       1.22741696       2.18037314
C       -0.91648112       0.97330001       1.12144640
O       -0.32750783       1.94490246       0.37719659
C       -0.81335379      -0.43083358       0.55263670
O       -0.90405419      -0.54078069      -0.83918809
C        0.37116543      -1.14157350       1.24844475
O        1.59308020      -0.47656334       1.15854733
P        0.28276376      -0.42857483      -2.03831332
O        1.64618114      -0.72607674      -1.43684838
O       -0.28918167      -1.18455051      -3.18502307
O        0.21985099       1.18258040      -2.39432938
H       -0.42379603       2.75535711       0.90218451
H       -1.70706525      -0.92589057       0.94504069
H        1.80991699      -0.51428099       0.18304857
H        0.10173981      -1.22457334       2.30576233
H        0.41525653      -2.15159108       0.82738660
H        0.46132968       1.67944155      -1.60164157
17
Properties=species:S:1:pos:R:3 relative_energy_eV=0.4678409588195791 branch=right pbc="F F F"
O       -1.44879949       1.23176003       2.18316987
C       -0.91282363       0.97372500       1.12249575
O       -0.33113698       1.94487123       0.37023148
C       -0.81337783      -0.43168390       0.55427131
O       -0.90300039      -0.54321558      -0.83843242
C        0.36864448      -1.14357457       1.25040011
O        1.58712341      -0.47247744       1.16158455
P        0.28348323      -0.42897410      -2.03944706
O        1.64617674      -0.72691615      -1.43727783
O       -0.28531423      -1.18351579      -3.18898857
O        0.22259508       1.18218594      -2.39607643
H       -0.41859073       2.75206280       0.90142394
H       -1.70924186      -0.92402115       0.94294414
H        1.80608795      -0.50971894       0.18675278
H        0.10143612      -1.23292329       2.30773387
H        0.41842532      -2.15193732       0.82721130
H        0.45097165       1.68206251      -1.60127285
17
Properties=species:S:1:pos:R:3 relative_energy_eV=0.4674780666900915 branch=right pbc="F F F"
O       -1.44034895       1.23143413       2.18546079
C       -0.91078213       0.97384893       1.12179823
O       -0.33334987       1.94551018       0.37048368
C       -0.81407604      -0.43124524       0.55272471
O       -0.90200590      -0.54533307      -0.83986464
C        0.36668935      -1.14431080       1.25134319
O        1.58408783      -0.46964875       1.16376817
P        0.28488311      -0.42927017      -2.04078667
O        1.64625722      -0.72857622      -1.43678926
O       -0.28322153      -1.18476449      -3.18997101
O        0.22344196       1.18232465      -2.39859840
H       -0.41629093       2.75220423       0.90211488
H       -1.71102623      -0.92086301       0.94184505
H        1.80661765      -0.50609239       0.18970194
H        0.09910765      -1.23817376       2.30917442
H        0.41959683      -2.15199633       0.82634493
H        0.44307880       1.68266140      -1.60202601
17
Properties=species:S:1:pos:R:3 relative_energy_eV=0.4670557885656308 branch=right pbc="F F F"
O       -1.42687106       1.22822339       2.18972507
C       -0.90714097       0.97284573       1.12071453
O       -0.33333481       1.94595937       0.36638266
C       -0.81553869      -0.43234076       0.55115261
O       -0.90185956      -0.54566648      -0.84103082
C        0.36560971      -1.14532296       1.25065890
O        1.58234046      -0.46769274       1.16829025
P        0.28697395      -0.42926099      -2.04030897
O        1.64743932      -0.72732629      -1.43375130
O       -0.28186788      -1.18651060      -3.18799235
O        0.22404783       1.18156399      -2.40081992
H       -0.41589711       2.75169311       0.89998437
H       -1.71574785      -0.91708014       0.94174055
H        1.80860594      -0.50156761       0.19526399
H        0.09410618      -1.24243466       2.30695857
H        0.41912866      -2.15120948       0.82214838
H        0.43266468       1.68383648      -1.60239244
17
Properties=species:S:1:pos:R:3 relative_energy_eV=0.46664918442547787 branch=right pbc="F F F"
O       -1.41462955       1.22644550       2.19293919
C       -0.89987284       0.97252121       1.12115869
O       -0.33362198       1.94576862       0.36149238
C       -0.81459094      -0.43165882       0.55115283
O       -0.90204417      -0.54805146      -0.84022219
C        0.36295875      -1.14839574       1.24961259
O        1.58037034      -0.47095233       1.17574279
P        0.28678669      -0.42913641      -2.03898265
O        1.64809144      -0.72249608      -1.43217057
O       -0.28178097      -1.18574642      -3.18738407
O        0.22080367       1.18109840      -2.40071060
H       -0.42165376       2.75460375       0.89034405
H       -1.71667985      -0.91218472       0.94176061
H        1.81033904      -0.49922365       0.20443768
H        0.09001429      -1.24962306       2.30425278
H        0.41972793      -2.15177939       0.81709182
H        0.42844070       1.68652001      -1.60379111
17
Properties=species:S:1:pos:R:3 relative_energy_eV=0.4662857913317566 branch=right pbc="F F F"
O       -1.40148515       1.22698923       2.19855834
C       -0.89573745       0.97375855       1.12258448
O       -0.33752561       1.94786162       0.35993602
C       -0.81406688      -0.43013219       0.54921119
O       -0.90393657      -0.54507553      -0.84190489
C        0.36068904      -1.15157506       1.24784695
O        1.57827872      -0.47362739       1.18126752
P        0.28746605      -0.42996499      -2.03814669
O        1.64854543      -0.71798716      -1.42860526
O       -0.27682705      -1.19149126      -3.18550933
O        0.21848590       1.17930128      -2.40249756
H       -0.42187990       2.75790433       0.88738192
H       -1.71524878      -0.91106128       0.93978985
H        1.81079313      -0.49815405       0.21100821
H        0.08474512      -1.25391216       2.30194593
H        0.42064663      -2.15292943       0.80982818
H        0.41971619       1.68780499      -1.60597048
17
Properties=species:S:1:pos:R:3 relative_energy_eV=0.4658615708722209 branch=right pbc="F F F"
O       -1.38537981       1.23039694       2.20507225
C       -0.89127671       0.97594265       1.12394093
O       -0.34216153       1.95165186       0.35403001
C       -0.81340053      -0.42944064       0.54898216
O       -0.90523544      -0.54063153      -0.84253478
C        0.35998941      -1.15588277       1.24668819
O        1.57853280      -0.47855742       1.18772780
P        0.28851667      -0.42847067      -2.03728029
O        1.64831727      -0.71076297      -1.42244651
O       -0.26912427      -1.19907477      -3.18180882
O        0.21364788       1.17961431      -2.40683347
H       -0.42446331       2.76052674       0.88355742
H       -1.71539300      -0.91017391       0.93927430
H        1.81275381      -0.49784220       0.21774966
H        0.07753937      -1.26390214       2.29870070
H        0.41935187      -2.15422768       0.80151642
H        0.41044435       1.68854378      -1.60961133
17
Properties=species:S:1:pos:R:3 relative_energy_eV=0.4655023658342543 branch=right pbc="F F F"
O       -1.37661823       1.23222231       2.20834946
C       -0.88713090       0.97796847       1.12496621
O       -0.34648944       1.95396828       0.35008868
C       -0.81200537      -0.42688366       0.55093597
O       -0.90420312      -0.53857446      -0.84049975
C        0.35890418      -1.15874467       1.24627544
O        1.58051649      -0.48642019       1.19255449
P        0.28857707      -0.42682547      -2.03581744
O        1.64851894      -0.70255638      -1.41830250
O       -0.26374752      -1.20238438      -3.17948230
O        0.20715055       1.17999547      -2.41148143
H       -0.43056032       2.76420526       0.87762138
H       -1.71514644      -0.90645383       0.94060971
H        1.81471050      -0.49976894       0.22233839
H        0.07481792      -1.27688345       2.29617629
H        0.41647828      -2.15489776       0.79779385
H        0.40888625       1.68974309      -1.61540161
17
Properties=species:S:1:pos:R:3 relative_energy_eV=0.46505381643146393 branch=right pbc="F F F"
O       -1.35741332       1.23051225       2.21798889
C       -0.88195518       0.97964135       1.12785032
O       -0.35640513       1.95740624       0.34646057
C       -0.81185119      -0.42315857       0.55114972
O       -0.90429544      -0.53165144      -0.84051700
C        0.35529146      -1.16296344       1.24466853
O        1.57866354      -0.49326612       1.19818593
P        0.29217255      -0.42769423      -2.03276642
O        1.65271481      -0.68933181      -1.41061694
O       -0.25216685      -1.21319162      -3.17360140
O        0.20457934       1.17506447      -2.42069066
H       -0.43015710       2.76679036       0.87654016
H       -1.71748108      -0.89775393       0.94014890
H        1.81530782      -0.49986713       0.22829007
H        0.07141648      -1.29141310       2.29338950
H        0.41101886      -2.15516966       0.78787935
H        0.39321937       1.69375617      -1.62763427
17
Properties=species:S:1:pos:R:3 relative_energy_eV=0.46476276587418397 branch=right pbc="F F F"
O       -1.34912436       1.23051606       2.22283940
C       -0.87945168       0.98030421       1.12994668
O       -0.36128355       1.95997177       0.34400954
C       -0.81153386      -0.42292490       0.55226168
O       -0.90325408      -0.52913127      -0.83990038
C        0.35404580      -1.16719588       1.24448078
O        1.57758886      -0.49758130       1.20031730
P        0.29530719      -0.42648965      -2.03133606
O        1.65644768      -0.68115824      -1.40763794
O       -0.24631461      -1.22056309      -3.16742056
O        0.20319504       1.17424287      -2.42731487
H       -0.43055492       2.76734929       0.87735707
H       -1.72019535      -0.89261545       0.94078746
H        1.81468490      -0.50097976       0.23045984
H        0.07067297      -1.29667304       2.29336115
H        0.40643036      -2.15696361       0.78079177
H        0.38599864       1.69760181      -1.63627736
17
Properties=species:S:1:pos:R:3 relative_energy_eV=0.464624529973662 branch=right pbc="F F F"
O       -1.34802390       1.23135758       2.22350463
C       -0.87779317       0.98085126       1.13088568
O       -0.36190616       1.96028083       0.34388025
C       -0.81079541      -0.42249066       0.55381722
O       -0.90032835      -0.53013696      -0.83803232
C        0.35299321      -1.16932767       1.24483383
O        1.57764904      -0.50179012       1.20137349
P        0.29592819      -0.42505695      -2.03093990
O        1.65819313      -0.67729183      -1.40872853
O       -0.24561799      -1.22236073      -3.16475223
O        0.20013005       1.17569780      -2.42986715
H       -0.43351111       2.76898515       0.87519155
H       -1.72063533      -0.89131135       0.94114398
H        1.81359737      -0.50243206       0.23136393
H        0.07029194      -1.29905957       2.29355548
H        0.40504762      -2.15863295       0.77980620
H        0.38743992       1.70042809      -1.64031053
17
Properties=species:S:1:pos:R:3 relative_energy_eV=0.46450505539542064 branch=right pbc="F F F"
O       -1.33823470       1.23165890       2.22802717
C       -0.87512882       0.98115194       1.13243859
O       -0.36312444       1.96046299       0.34314090
C       -0.81100020      -0.42184671       0.55402535
O       -0.89795394      -0.52742620      -0.83769430
C        0.35063411      -1.17128076       1.24496258
O        1.57601932      -0.50509480       1.20331928
P        0.29819600      -0.42465461      -2.03023239
O        1.66166837      -0.67019014      -1.40817238
O       -0.24169533      -1.22769832      -3.16090681
O        0.19774763       1.17455892      -2.43377049
H       -0.43349290       2.76934309       0.87437834
H       -1.72210704      -0.89032264       0.93899613
H        1.81212249      -0.50174741       0.23320664
H        0.06578892      -1.30356663       2.29271602
H        0.40299044      -2.15964778       0.77861574
H        0.38022926       1.70401013      -1.64632466
17
Properties=species:S:1:pos:R:3 relative_energy_eV=0.46443682758763316 branch=right pbc="F F F"
O       -1.33916854       1.23166473       2.22776224
C       -0.87475824       0.98058492       1.13281885
O       -0.36072330       1.95995669       0.34387789
C       -0.81080742      -0.42273865       0.55403933
O       -0.89770796      -0.52689487      -0.83794383
C        0.35060548      -1.17164024       1.24615148
O        1.57594058      -0.50542613       1.20214731
P        0.29895816      -0.42371688      -2.03045577
O        1.66348540      -0.66709789      -1.40943254
O       -0.24174533      -1.22790903      -3.15983848
O        0.19636385       1.17486059      -2.43502491
H       -0.43338727       2.76850204       0.87539558
H       -1.72219561      -0.89143965       0.93791427
H        1.81104181      -0.50242662       0.23151373
H        0.06521055      -1.30191012       2.29431784
H        0.40110206      -2.16116392       0.78177574
H        0.38044497       1.70450506      -1.64829304
17
Properties=species:S:1:pos:R:3 relative_energy_eV=0.464338415858947 branch=right pbc="F F F"
O       -1.33634538       1.23112226       2.22809561
C       -0.87166409       0.98015916       1.13316127
O       -0.35871383       1.95918942       0.34377118
C       -0.80987391      -0.42288330       0.55424994
O       -0.89663473      -0.52651700      -0.83779829
C        0.34932576      -1.17387848       1.24751187
O        1.57540963      -0.50904929       1.20357807
P        0.29926345      -0.42164232      -2.03083925
O        1.66436993      -0.65934924      -1.40867914
O       -0.23893358      -1.22867204      -3.15936787
O        0.19129952       1.17609799      -2.43858092
H       -0.43412819       2.76918758       0.87307215
H       -1.72203679      -0.89068235       0.93703737
H        1.80949746      -0.50362548       0.23269628
H        0.06447222      -1.30261715       2.29605260
H        0.39833695      -2.16469747       0.78501820
H        0.37901487       1.70556775      -1.65225335
17
Properties=species:S:1:pos:R:3 relative_energy_eV=0.46424015492448234 branch=right pbc="F F F"
O       -1.32692994       1.23007753       2.23077345
C       -0.86839583       0.97964863       1.13332259
O       -0.35815170       1.95880336       0.34235674
C       -0.80988153      -0.42325722       0.55381506
O       -0.89530485      -0.52515331      -0.83828729
C        0.34716245      -1.17659641       1.24821354
O        1.57411106      -0.51367068       1.20634095
P        0.30032284      -0.41987037      -2.03127787
O        1.66483373      -0.64952047      -1.40552577
O       -0.23182276      -1.23310250      -3.15828110
O        0.18679761       1.17634964      -2.44321562
H       -0.43110764       2.76864091       0.87221625
H       -1.72389824      -0.88864298       0.93576843
H        1.80772533      -0.50303287       0.23540620
H        0.06155586      -1.30359075       2.29648935
H        0.39572961      -2.16763805       0.78627571
H        0.36991344       1.70826558      -1.65766476
17
Properties=species:S:1:pos:R:3 relative_energy_eV=0.4641340054295142 branch=right pbc="F F F"
O       -1.32565432       1.23020459       2.22980574
C       -0.86748549       0.97908582       1.13227595
O       -0.35546967       1.95806411       0.34151900
C       -0.80989101      -0.42445646       0.55321562
O       -0.89572884      -0.52843609      -0.83901444
C        0.34679573      -1.17788755       1.24981205
O        1.57569131      -0.51878920       1.20689071
P        0.30064899      -0.41800781      -2.03143378
O        1.66559544      -0.64188537      -1.40455987
O       -0.22639410      -1.23430879      -3.15856922
O        0.18134305       1.17734321      -2.44480010
H       -0.42612881       2.76668405       0.87335382
H       -1.72495183      -0.88778074       0.93567204
H        1.80621622      -0.50336695       0.23492508
H        0.05931774      -1.30047523       2.29820070
H        0.39371904      -2.17031968       0.79090892
H        0.36503623       1.71204205      -1.66147633
17
Properties=species:S:1:pos:R:3 relative_energy_eV=0.4640560786210699 branch=right pbc="F F F"
O       -1.32458462       1.23109019       2.22871227
C       -0.86560439       0.97929510       1.13157091
O       -0.35467271       1.95757838       0.34039011
C       -0.80883466      -0.42430248       0.55323372
O       -0.89527571      -0.53156058      -0.83873722
C        0.34612913      -1.17950236       1.25079617
O        1.57651509      -0.52306338       1.20840035
P        0.30097878      -0.41655577      -2.03082659
O        1.66679211      -0.63542102      -1.40365802
O       -0.22304090      -1.23406271      -3.15847554
O        0.17467011       1.17808334      -2.44576468
H       -0.42423952       2.76682578       0.87152881
H       -1.72394892      -0.88649826       0.93614367
H        1.80587095      -0.50492198       0.23611987
H        0.05741839      -1.30147293       2.29901397
H        0.39149384      -2.17271119       0.79295068
H        0.36299284       1.71490988      -1.66467254
17
Properties=species:S:1:pos:R:3 relative_energy_eV=0.4639926643576473 branch=right pbc="F F F"
O       -1.32120069       1.23122903       2.22851855
C       -0.86423752       0.97936570       1.13060955
O       -0.35412572       1.95777056       0.33887743
C       -0.80830690      -0.42448349       0.55290700
O       -0.89349741      -0.53321480      -0.83861011
C        0.34475911      -1.18057854       1.25106675
O        1.57541132      -0.52485913       1.20970196
P        0.30222567      -0.41554293      -2.03038096
O        1.66831303      -0.62900449      -1.40207008
O       -0.21828868      -1.23609883      -3.15742365
O        0.16880942       1.17787723      -2.44698584
H       -0.41895593       2.76586653       0.87210786
H       -1.72364963      -0.88577225       0.93609551
H        1.80609152      -0.50609580       0.23772900
H        0.05477294      -1.30185419       2.29885972
H        0.38841726      -2.17395642       0.79316147
H        0.35612222       1.71706192      -1.66743809
