16
Properties=species:S:1:pos:R:3 relative_energy_eV=4.28290304129041 branch=ts pbc="F F F"
O        3.69129275       0.78662621       0.32450771
C        2.43282112       0.78326235       0.09079291
C        1.47098475      -0.21937646       0.22152990
O        1.71239353      -1.27661200       1.03520573
C        0.20441270      -0.19159877      -0.53755421
O       -0.77836826      -0.36801914       0.46953545
P       -2.39502711      -0.46456554      -0.07598132
O       -2.35958872      -1.14776881      -1.40731776
O       -3.20905365      -0.88114775       1.11363896
O       -2.67358906       1.16507666      -0.34013421
H        2.12961077       1.51438594      -0.68255970
H        1.84200762       0.79233625       0.57900570
H        0.84076227      -1.65634627       1.23391163
H        0.16698083      -1.01999472      -1.24835128
H        0.02845948       0.72875744      -1.10798252
H       -3.19669725       1.46666548       0.41291417
