17
Properties=species:S:1:pos:R:3 relative_energy_eV=0.0 branch=left pbc="F F F"
O       -2.79868233      -2.23793261       0.11713185
C       -1.58766033      -2.11749656       0.18095375
O       -0.77107635      -3.19986096       0.13429081
C       -0.84012354      -0.84397656       0.30795496
O        0.49135354      -1.01395174       0.41866330
P        1.65165872       0.23308941       0.35948832
O        2.94472096      -0.49812738       0.49824528
O        1.18981130       1.37888927       1.21245585
O        1.46167229       0.70509036      -1.22697626
C       -1.53331664       0.30125326       0.31014435
O        0.83296263       3.65403925      -0.40011102
H       -1.37565889      -3.95229176       0.04523197
H        0.94652463       3.09221481      -1.17351591
H        2.06392466       0.15267609      -1.73880493
H       -1.03693646       1.24701869       0.42013759
H       -2.60613417       0.25980217       0.21379859
H        0.96408267       2.98955200       0.30914505
17
Properties=species:S:1:pos:R:3 relative_energy_eV=0.00045207428411231376 branch=left pbc="F F F"
O       -2.79745172      -2.23151781       0.09314606
C       -1.58649092      -2.11213915       0.16870711
O       -0.76879282      -3.19439108       0.12416911
C       -0.83872497      -0.83970434       0.31312286
O        0.49251209      -1.01174952       0.42794653
P        1.65542713       0.23249566       0.36661182
O        2.94745975      -0.50120951       0.50502205
O        1.19837103       1.38249236       1.21688554
O        1.46481732       0.70034529      -1.22151103
C       -1.53150078       0.30571427       0.32456047
O        0.81352749       3.64451279      -0.41838749
H       -1.37378539      -3.94627514       0.03744983
H        0.94051576       3.07597195      -1.18550431
H        2.05778331       0.13709990      -1.73264938
H       -1.03493140       1.25041038       0.44253874
H       -2.60415950       0.26581037       0.22703306
H        0.96254635       2.99212132       0.29909251
17
Properties=species:S:1:pos:R:3 relative_energy_eV=0.0019925780179619323 branch=left pbc="F F F"
O       -2.79061756      -2.22512242       0.06539965
C       -1.58155870      -2.10417183       0.15480810
O       -0.76333224      -3.18477499       0.10437446
C       -0.83805082      -0.83283556       0.32030059
O        0.49342422      -1.00347590       0.42589889
P        1.66229047       0.23591111       0.37188518
O        2.94590795      -0.50811343       0.52757560
O        1.20179625       1.39185468       1.21255685
O        1.49047178       0.70659911      -1.21635672
C       -1.53541089       0.30900481       0.36277287
O        0.78215048       3.62072725      -0.44120663
H       -1.36498620      -3.93719536       0.00195045
H        0.94724904       3.06875392      -1.21145144
H        2.06982558       0.13095129      -1.72954186
H       -1.04212728       1.25538130       0.47997892
H       -2.60931942       0.26317483       0.28696690
H        0.92940993       2.96331932       0.27232152
17
Properties=species:S:1:pos:R:3 relative_energy_eV=0.003787382105656434 branch=left pbc="F F F"
O       -2.78030037      -2.19516508      -0.00326021
C       -1.57395648      -2.08702595       0.13743365
O       -0.76454138      -3.17432151       0.10174492
C       -0.82508439      -0.82447012       0.34500972
O        0.50414627      -1.00204253       0.47821385
P        1.67642146       0.23554211       0.39062482
O        2.96111726      -0.50635401       0.54415204
O        1.22609912       1.40366727       1.21975152
O        1.48456254       0.68247046      -1.20194102
C       -1.51703337       0.32042162       0.39499745
O        0.74003800       3.59630399      -0.47745270
H       -1.36686992      -3.91801936      -0.05705656
H        0.89740279       3.03074081      -1.24095605
H        2.04154661       0.08861609      -1.71894243
H       -1.01965087       1.26134904       0.54050484
H       -2.58949656       0.28581321       0.29024864
H        0.90272144       2.95246182       0.24516065
17
Properties=species:S:1:pos:R:3 relative_energy_eV=0.0075947640725644305 branch=left pbc="F F F"
O       -2.76216602      -2.18894941      -0.05888541
C       -1.56001887      -2.08722342       0.11706891
O       -0.75306026      -3.17656952       0.08979422
C       -0.81688377      -0.82940689       0.36522582
O        0.51115882      -1.00282135       0.51835105
P        1.66712027       0.24584636       0.39194769
O        2.96803388      -0.46960960       0.53391528
O        1.21252381       1.41520190       1.21526964
O        1.43424726       0.66287264      -1.20335525
C       -1.51342861       0.31266335       0.42710225
O        0.74274902       3.59483789      -0.48667396
H       -1.35484290      -3.91903368      -0.06780876
H        0.93686236       3.05197574      -1.25675226
H        1.98993534       0.06811998      -1.72117382
H       -1.02488118       1.25074766       0.60909811
H       -2.58078691       0.28014706       0.28741558
H        0.90055979       2.94118961       0.22769394
17
Properties=species:S:1:pos:R:3 relative_energy_eV=0.009647861872508656 branch=left pbc="F F F"
O       -2.75256865      -2.18850665      -0.08816466
C       -1.55516648      -2.08335815       0.11407336
O       -0.74619500      -3.17241486       0.11173146
C       -0.81993321      -0.82471389       0.37713305
O        0.50605251      -0.99822771       0.54580214
P        1.66493054       0.24216976       0.39273504
O        2.96303922      -0.48258798       0.51772308
O        1.23056433       1.42414695       1.21157278
O        1.41571464       0.65068009      -1.20241271
C       -1.51626646       0.31693130       0.43405645
O        0.72980348       3.58764398      -0.49710492
H       -1.34586566      -3.90905060      -0.08521478
H        0.95586320       3.04400302      -1.25781164
H        1.97196315       0.05893023      -1.72180799
H       -1.02711390       1.25079022       0.63614311
H       -2.58122875       0.28565031       0.27193758
H        0.90352895       2.94790214       0.22784157
17
Properties=species:S:1:pos:R:3 relative_energy_eV=0.018380448418611195 branch=left pbc="F F F"
O       -2.71571690      -2.20975510      -0.15615823
C       -1.53136853      -2.08731919       0.09998583
O       -0.71026660      -3.16650370       0.15494942
C       -0.82445096      -0.81880334       0.37466267
O        0.49467668      -0.98251359       0.59035273
P        1.65106474       0.25062680       0.38669591
O        2.94403031      -0.48599368       0.47815420
O        1.24732446       1.43382212       1.21702997
O        1.34766618       0.65113207      -1.19990406
C       -1.52960034       0.31650787       0.40055397
O        0.81201643       3.61899255      -0.46075151
H       -1.29410385      -3.91122840      -0.05065402
H        0.99273538       3.04833376      -1.21494030
H        1.79090600      -0.02055581      -1.73245472
H       -1.04373162       1.25458323       0.60268063
H       -2.59228438       0.27729359       0.22720067
H        0.95822484       2.98136911       0.27083009
17
Properties=species:S:1:pos:R:3 relative_energy_eV=0.024617901504825568 branch=left pbc="F F F"
O       -2.69540303      -2.18214902      -0.24838670
C       -1.52305674      -2.07264843       0.06694348
O       -0.70407600      -3.15428081       0.13230051
C       -0.82135920      -0.81199165       0.40706248
O        0.49643925      -0.97696726       0.63885748
P        1.66266096       0.24252715       0.39467171
O        2.95450945      -0.49264059       0.51520098
O        1.26764686       1.46094833       1.17720478
O        1.36412104       0.58189892      -1.20646457
C       -1.52593383       0.32393913       0.46688613
O        0.77637679       3.64216643      -0.49885593
H       -1.26905687      -3.89978483      -0.11903355
H        0.93009512       3.04861006      -1.23971276
H        1.77950328      -0.12923226      -1.70911822
H       -1.03926344       1.25845561       0.67573541
H       -2.58923673       0.29528298       0.29538767
H        0.93315460       3.01585409       0.23955422
17
Properties=species:S:1:pos:R:3 relative_energy_eV=0.03040677150056581 branch=left pbc="F F F"
O       -2.67114833      -2.14833464      -0.29186511
C       -1.50330767      -2.04574085       0.04170103
O       -0.68532071      -3.12869540       0.09031682
C       -0.80973905      -0.79560245       0.42729790
O        0.50144842      -0.96711493       0.68991547
P        1.68499882       0.22888238       0.41589045
O        2.96492242      -0.51847709       0.57316054
O        1.30064312       1.47634185       1.15477224
O        1.38632712       0.53722259      -1.18784771
C       -1.51249661       0.33973350       0.49989742
O        0.72927781       3.62419086      -0.50684250
H       -1.24484484      -3.86806864      -0.18927986
H        0.74669684       3.03770569      -1.26932314
H        1.73793631      -0.19995806      -1.69923119
H       -1.02318136       1.26618816       0.73882469
H       -2.56953793       0.32373177       0.29568835
H        0.96444605       2.98798290       0.20515768
17
Properties=species:S:1:pos:R:3 relative_energy_eV=0.04672395029410836 branch=left pbc="F F F"
O       -2.63565309      -1.99370067      -0.39057683
C       -1.47650322      -1.94444212      -0.01650380
O       -0.70162545      -3.05957027      -0.00897513
C       -0.76836161      -0.74015645       0.46629688
O        0.52970633      -0.94528034       0.76966494
P        1.74224622       0.20708708       0.45604960
O        3.00410407      -0.56000424       0.68294597
O        1.37051043       1.50617181       1.11662445
O        1.48024462       0.40994703      -1.17644682
C       -1.46350548       0.39674265       0.58855000
O        0.53356226       3.50883127      -0.60396754
H       -1.30133643      -3.74644943      -0.34073832
H        0.44707135       2.85713760      -1.31636272
H        1.85338629      -0.37046761      -1.60849807
H       -0.98473382       1.30794902       0.90698354
H       -2.51408255       0.38345359       0.34728037
H        0.88208923       2.93273623       0.11590591
17
Properties=species:S:1:pos:R:3 relative_energy_eV=0.05746486004136386 branch=left pbc="F F F"
O       -2.62026246      -1.93904245      -0.41772499
C       -1.46661586      -1.90860914      -0.02296404
O       -0.69376191      -3.02347981      -0.04053233
C       -0.75826074      -0.71662811       0.50186253
O        0.52539519      -0.93296896       0.85742597
P        1.76048127       0.18746404       0.48277591
O        3.02157131      -0.58684155       0.67005968
O        1.43925473       1.49911856       1.13993673
O        1.44122358       0.36680497      -1.13863096
C       -1.43720529       0.43461741       0.56817384
O        0.48059057       3.43842663      -0.60916580
H       -1.27770138      -3.70895406      -0.40169974
H        0.27429980       2.75705438      -1.26096360
H        1.84755144      -0.39074035      -1.57911424
H       -0.96177670       1.35662366       0.84835412
H       -2.48115089       0.42697696       0.29993481
H        0.90348512       2.89016201       0.09050434
17
Properties=species:S:1:pos:R:3 relative_energy_eV=0.07570891050272621 branch=left pbc="F F F"
O       -2.60400708      -1.90202937      -0.43759608
C       -1.44981978      -1.88430534      -0.04493266
O       -0.67841962      -3.00020011      -0.08812895
C       -0.74141548      -0.70709667       0.50745990
O        0.53781046      -0.93660567       0.86912745
P        1.77777932       0.18343747       0.50920735
O        3.02868992      -0.59522945       0.73538803
O        1.42981138       1.50179460       1.13897432
O        1.49082848       0.35050786      -1.11488778
C       -1.40545191       0.45082645       0.59449284
O        0.48375717       3.40491541      -0.68420681
H       -1.25617640      -3.66891440      -0.48724682
H        0.02201228       2.72829945      -1.20190335
H        1.81615322      -0.45005502      -1.54506250
H       -0.90344076       1.34037281       0.93485913
H       -2.43974251       0.49162527       0.28931586
H        0.88874779       2.84264085       0.01337234
17
Properties=species:S:1:pos:R:3 relative_energy_eV=0.09134214698860887 branch=left pbc="F F F"
O       -2.59096727      -1.82289879      -0.49814743
C       -1.44597760      -1.83791249      -0.07849110
O       -0.69123394      -2.96464521      -0.14418247
C       -0.72735138      -0.69089781       0.52717101
O        0.54570424      -0.93672118       0.90001901
P        1.80069914       0.16869113       0.53450271
O        3.03174111      -0.61927833       0.82868796
O        1.47103009       1.52349675       1.09516333
O        1.55361872       0.28511303      -1.09826946
C       -1.37401253       0.47260278       0.66434121
O        0.36687186       3.34119703      -0.78595252
H       -1.26206318      -3.59623892      -0.60734405
H       -0.18694371       2.65499117      -1.17845187
H        1.91168863      -0.52230284      -1.48554183
H       -0.86273630       1.33594111       1.06043615
H       -2.41011563       0.53581939       0.36821089
H        0.86716324       2.82302657      -0.11391967
17
Properties=species:S:1:pos:R:3 relative_energy_eV=0.10435102291376097 branch=left pbc="F F F"
O       -2.58150558      -1.69237026      -0.55120374
C       -1.44110961      -1.73457508      -0.12562394
O       -0.68667662      -2.85677086      -0.24631617
C       -0.72621766      -0.62581466       0.55206950
O        0.53879560      -0.90860414       0.93056417
P        1.82999378       0.14533514       0.53939634
O        3.04539574      -0.62303614       0.93898619
O        1.50088501       1.53858947       0.99604557
O        1.64611551       0.14172666      -1.11070859
C       -1.35371265       0.53814297       0.74472789
O        0.19008471       3.17817366      -0.83527777
H       -1.25958958      -3.49240784      -0.70215961
H       -0.37208356       2.44138022      -1.12595375
H        2.10651902      -0.64001156      -1.44191127
H       -0.83159912       1.36135108       1.19474526
H       -2.36948045       0.66138621       0.41164654
H        0.76129963       2.71748560      -0.18079562
17
Properties=species:S:1:pos:R:3 relative_energy_eV=0.11557195930799935 branch=left pbc="F F F"
O       -2.56216619      -1.63557547      -0.58637455
C       -1.41764212      -1.69387508      -0.17123878
O       -0.66444667      -2.80667636      -0.34907638
C       -0.70772814      -0.61696579       0.55988170
O        0.55947884      -0.89619720       0.92561307
P        1.85136302       0.15851288       0.53731539
O        3.05683848      -0.57621581       1.01592012
O        1.48754557       1.56114996       0.92969393
O        1.73127301       0.08476099      -1.11141723
C       -1.36639685       0.51588384       0.82513162
O        0.15755723       3.12668209      -0.93658691
H       -1.26879551      -3.43057656      -0.78045786
H       -0.53702788       2.45900151      -0.99340433
H        2.15695675      -0.73410928      -1.39210019
H       -0.86022525       1.33314947       1.30768578
H       -2.39510811       0.61260968       0.51747647
H        0.77563742       2.68842272      -0.30983100
17
Properties=species:S:1:pos:R:3 relative_energy_eV=0.1199317597092886 branch=left pbc="F F F"
O       -2.54192293      -1.58429818      -0.60967334
C       -1.40128573      -1.65419191      -0.18557702
O       -0.64170675      -2.75438415      -0.40490066
C       -0.69959841      -0.60237390       0.59440781
O        0.56781661      -0.88190221       0.96264022
P        1.86505654       0.14513447       0.53535808
O        3.06368455      -0.58107574       1.04598412
O        1.50384140       1.56628657       0.86119522
O        1.76147396      -0.00111010      -1.10897870
C       -1.36897404       0.51611355       0.89238593
O        0.08396481       3.07654601      -0.98420482
H       -1.21822793      -3.34117733      -0.91902912
H       -0.66959643       2.47837216      -0.96223067
H        2.26346106      -0.79099168      -1.34349452
H       -0.86659111       1.33781007       1.37244238
H       -2.40822365       0.60127962       0.61360201
H        0.70394072       2.61994438      -0.37169642
17
Properties=species:S:1:pos:R:3 relative_energy_eV=0.12326010074684746 branch=left pbc="F F F"
O       -2.53222789      -1.52313980      -0.63362256
C       -1.39807692      -1.61705244      -0.19660191
O       -0.64773132      -2.72266331      -0.42334770
C       -0.69954989      -0.58267317       0.60754394
O        0.56573349      -0.86830888       0.97643761
P        1.87799295       0.13576775       0.53564494
O        3.06904345      -0.57650143       1.08409230
O        1.51400050       1.56590107       0.81668094
O        1.79805832      -0.06614054      -1.10538447
C       -1.36265578       0.53327097       0.92716087
O        0.01204021       3.02605341      -1.00083443
H       -1.21268136      -3.27746782      -0.98344899
H       -0.72877715       2.41019510      -0.96714507
H        2.34369648      -0.83273504      -1.31889554
H       -0.85132049       1.34456357       1.41701453
H       -2.40261957       0.62641869       0.65729721
H        0.65218728       2.57449249      -0.40436149
17
Properties=species:S:1:pos:R:3 relative_energy_eV=0.12503973899947596 branch=left pbc="F F F"
O       -2.52524845      -1.48991123      -0.64900871
C       -1.39467045      -1.58942752      -0.20401273
O       -0.64297886      -2.69067126      -0.44167043
C       -0.69730658      -0.57234912       0.62056491
O        0.56624135      -0.87269906       0.98702188
P        1.87883355       0.12273144       0.53252926
O        3.06703000      -0.57493521       1.10467039
O        1.51424420       1.55775112       0.78339462
O        1.81477507      -0.10658890      -1.10596602
C       -1.35628078       0.54153610       0.95418214
O       -0.03386571       2.99795178      -1.00422948
H       -1.20383790      -3.23762346      -1.01288445
H       -0.76584949       2.37211523      -0.98080588
H        2.39415765      -0.85371344      -1.29787397
H       -0.83952660       1.35127051       1.43845643
H       -2.39396831       0.64740332       0.68020066
H        0.61536325       2.54713958      -0.41633867
17
Properties=species:S:1:pos:R:3 relative_energy_eV=0.12595139788390952 branch=left pbc="F F F"
O       -2.52311329      -1.47329394      -0.65509802
C       -1.39263276      -1.57610845      -0.21099420
O       -0.64077884      -2.67577832      -0.45719687
C       -0.69522832      -0.56603862       0.62422693
O        0.56707187      -0.86953065       0.99215573
P        1.87907546       0.11906443       0.53383114
O        3.06535791      -0.57856249       1.11039926
O        1.51382490       1.55724245       0.77095793
O        1.82040213      -0.12904200      -1.10168031
C       -1.35087603       0.54755610       0.96405450
O       -0.05306509       2.98819203      -1.00762560
H       -1.20376748      -3.23030775      -1.01940886
H       -0.78000461       2.35605767      -0.99893012
H        2.41682737      -0.86439227      -1.28714263
H       -0.82988897       1.35151772       1.45426350
H       -2.38914927       0.65556184       0.69251595
H        0.59305691       2.53784172      -0.41609850
17
Properties=species:S:1:pos:R:3 relative_energy_eV=0.12707834837419796 branch=left pbc="F F F"
O       -2.52173678      -1.46380870      -0.65655023
C       -1.39025129      -1.56913120      -0.21543673
O       -0.63980581      -2.66915617      -0.46434479
C       -0.69408298      -0.56175363       0.62150319
O        0.56756796      -0.86804618       0.99332485
P        1.88613697       0.11492209       0.53603994
O        3.07291628      -0.58134863       1.11493126
O        1.52492337       1.55581751       0.76537792
O        1.82964371      -0.14126998      -1.09914904
C       -1.35141135       0.54855899       0.97092494
O       -0.06902189       2.98292852      -1.01077688
H       -1.21070270      -3.21927397      -1.02230776
H       -0.79095878       2.34636653      -1.02140173
H        2.43127363      -0.87343021      -1.28031957
H       -0.83112289       1.34650287       1.47281244
H       -2.38848973       0.66683209       0.69558437
H        0.57223420       2.53526931      -0.41198236
17
Properties=species:S:1:pos:R:3 relative_energy_eV=0.12970606951057562 branch=left pbc="F F F"
O       -2.52069806      -1.44028357      -0.66141480
C       -1.39138684      -1.55690397      -0.21644836
O       -0.65296114      -2.66530179      -0.46425092
C       -0.68787826      -0.55675476       0.62525849
O        0.57484008      -0.86519972       0.99016359
P        1.89648582       0.11353926       0.53518517
O        3.07261101      -0.58410787       1.13405250
O        1.53106325       1.55440319       0.75452875
O        1.85685628      -0.14862976      -1.10240742
C       -1.34482784       0.55058088       0.98475845
O       -0.09556228       2.98714020      -0.99981770
H       -1.22760844      -3.20445857      -1.02935328
H       -0.79242739       2.32711136      -1.08203278
H        2.44949340      -0.89150633      -1.27131618
H       -0.83731182       1.34193422       1.51086770
H       -2.37820500       0.66938772       0.69798932
H        0.54462929       2.51902834      -0.41753274
17
Properties=species:S:1:pos:R:3 relative_energy_eV=0.13244709986975067 branch=left pbc="F F F"
O       -2.51969232      -1.40248190      -0.67420548
C       -1.39740498      -1.54172244      -0.21854979
O       -0.67652811      -2.66340746      -0.45755461
C       -0.68369638      -0.55320590       0.62682006
O        0.58052771      -0.86949443       0.97683187
P        1.90334318       0.11486557       0.53353544
O        3.07448786      -0.57348345       1.15179334
O        1.52650004       1.55450598       0.73391509
O        1.88269240      -0.15696185      -1.09892060
C       -1.33898049       0.55123737       0.99672669
O       -0.11982325       2.97595833      -1.00691414
H       -1.24527743      -3.19955734      -1.03151592
H       -0.78209381       2.28267550      -1.11479520
H        2.46415400      -0.91092430      -1.25478379
H       -0.82781841       1.33368249       1.52853354
H       -2.37033680       0.67455136       0.70630276
H        0.52705909       2.53374073      -0.40898948
17
Properties=species:S:1:pos:R:3 relative_energy_eV=0.13893534144153818 branch=left pbc="F F F"
O       -2.51022722      -1.37454027      -0.70842504
C       -1.40024098      -1.53362012      -0.22960419
O       -0.69781990      -2.66983984      -0.45516155
C       -0.68425787      -0.56224357       0.63032362
O        0.58398904      -0.88348935       0.96888910
P        1.89251287       0.12054734       0.53025283
O        3.07468320      -0.52646282       1.16998927
O        1.49646727       1.55783066       0.71153367
O        1.89692090      -0.18701291      -1.09805706
C       -1.32700728       0.53977251       1.02473962
O       -0.13676994       2.98993805      -1.00972585
H       -1.27096701      -3.18714293      -1.04172879
H       -0.74601611       2.26622010      -1.18951309
H        2.48251644      -0.94365463      -1.22758313
H       -0.78591395       1.31760742       1.53244505
H       -2.36695333       0.66995651       0.77324879
H        0.49619673       2.55611140      -0.39339343
17
Properties=species:S:1:pos:R:3 relative_energy_eV=0.14886401311741793 branch=left pbc="F F F"
O       -2.49876446      -1.34692878      -0.73120420
C       -1.39846855      -1.52799147      -0.24071931
O       -0.71633382      -2.67951647      -0.46932292
C       -0.68552837      -0.55648448       0.62451252
O        0.58274132      -0.86837995       0.97538261
P        1.89063932       0.12163430       0.53857909
O        3.06753714      -0.52750378       1.19024541
O        1.50554428       1.56671181       0.69334735
O        1.91220612      -0.18807100      -1.09043788
C       -1.32002603       0.54529725       1.03029180
O       -0.17575969       2.97002765      -1.00903698
H       -1.31775959      -3.19587953      -1.03176917
H       -0.73051117       2.20456477      -1.19900637
H        2.49658974      -0.94802025      -1.20203175
H       -0.76306923       1.31556407       1.53823221
H       -2.36169009       0.70009228       0.79899467
H        0.50976609       2.56486047      -0.42782736
17
Properties=species:S:1:pos:R:3 relative_energy_eV=0.16904282017276273 branch=left pbc="F F F"
O       -2.50315927      -1.30877970      -0.75398920
C       -1.40706779      -1.50712350      -0.25698599
O       -0.74035612      -2.66933334      -0.45782535
C       -0.67740615      -0.56030647       0.61813031
O        0.58688786      -0.88473525       0.97321272
P        1.90005180       0.12668677       0.55676798
O        3.05697869      -0.54942599       1.21983177
O        1.52873066       1.57766919       0.71111778
O        1.90623962      -0.19978684      -1.07582946
C       -1.30970382       0.53893587       1.03313968
O       -0.21497182       2.96749163      -1.05167057
H       -1.34088409      -3.19331036      -1.00987823
H       -0.72791429       2.15488438      -1.17445952
H        2.51154423      -0.94358610      -1.19040502
H       -0.73925475       1.29591943       1.54469893
H       -2.35596260       0.69615876       0.81084623
H        0.52336099       2.60861805      -0.50847249
17
Properties=species:S:1:pos:R:3 relative_energy_eV=0.19765345421910752 branch=left pbc="F F F"
O       -2.48744693      -1.26384228      -0.78686338
C       -1.40986042      -1.48182003      -0.26109163
O       -0.78265356      -2.67327081      -0.41446078
C       -0.66989970      -0.54303708       0.61793266
O        0.58546454      -0.91279314       0.94931509
P        1.92197488       0.09269557       0.57444459
O        3.07305676      -0.59355262       1.23579679
O        1.53485963       1.53100122       0.75872549
O        1.97222411      -0.17798915      -1.06234845
C       -1.29093699       0.56512996       1.02410855
O       -0.29030487       2.91433708      -1.14691478
H       -1.37431689      -3.17473638      -0.99686231
H       -0.73299430       2.05453205      -1.06633236
H        2.53192322      -0.95249233      -1.19790726
H       -0.75261892       1.31257533       1.58401148
H       -2.33546915       0.70489062       0.78122219
H        0.50411192       2.74834823      -0.60454662
17
Properties=species:S:1:pos:R:3 relative_energy_eV=0.22353008407299058 branch=left pbc="F F F"
O       -2.46771452      -1.25327209      -0.80283915
C       -1.40860500      -1.49768970      -0.25069095
O       -0.79681052      -2.69417949      -0.41061045
C       -0.67123124      -0.56354649       0.63742890
O        0.58763594      -0.90715155       0.95334298
P        1.93641630       0.08902480       0.57421030
O        3.06862856      -0.63400891       1.22065303
O        1.55279843       1.51871325       0.78554548
O        2.00544526      -0.15788541      -1.06085517
C       -1.30121477       0.53638162       1.05679825
O       -0.32801855       2.91837908      -1.19310573
H       -1.38574727      -3.17829489      -1.00923326
H       -0.72749666       2.06243473      -1.00691567
H        2.53784687      -0.95258501      -1.19311759
H       -0.76103080       1.29627016       1.58205575
H       -2.31937144       0.71238538       0.76168894
H        0.47558259       2.85500142      -0.65612642
17
Properties=species:S:1:pos:R:3 relative_energy_eV=0.34104613869203604 branch=left pbc="F F F"
O       -2.53795423      -1.23312662      -0.78949641
C       -1.45756582      -1.44984075      -0.26623839
O       -0.83035618      -2.63584505      -0.43206819
C       -0.68028140      -0.49363537       0.57116108
O        0.58904053      -0.79656056       0.90636629
P        1.97243210       0.17431214       0.52763891
O        3.05490506      -0.56439620       1.24592566
O        1.69266358       1.64224140       0.65205621
O        2.06009050      -0.17610503      -1.08480977
C       -1.30461867       0.61603750       0.95584532
O       -0.35320838       2.65678658      -1.03402980
H       -1.47502814      -3.16200407      -0.93086107
H       -0.63546066       1.73032872      -0.91614335
H        2.56063066      -1.00046121      -1.15274774
H       -0.80397163       1.31643238       1.59342688
H       -2.29238295       0.85637237       0.60573454
H        0.43817923       2.66943692      -0.46353095
17
Properties=species:S:1:pos:R:3 relative_energy_eV=0.8789697545289528 branch=left pbc="F F F"
O       -2.57012404      -1.18760869      -0.71989811
C       -1.45453292      -1.37168572      -0.29353159
O       -0.85347105      -2.60188719      -0.45251777
C       -0.67377219      -0.37106028       0.47451695
O        0.59899901      -0.67316060       0.81365818
P        1.95844735       0.20825859       0.47860862
O        3.03159142      -0.43881966       1.30654199
O        1.74775046       1.70728129       0.53360244
O        2.08096189      -0.21683559      -1.13093483
C       -1.30190907       0.72875272       0.86716261
O       -0.34555232       2.43904402      -0.88593306
H       -1.54757030      -3.16916999      -0.86158636
H       -0.48608575       1.44677724      -0.86498328
H        2.57400469      -1.04685882      -1.12964200
H       -0.85383125       1.40307438       1.61540589
H       -2.29081823       1.00469932       0.49082692
H        0.38302652       2.28916765      -0.25306735
17
Properties=species:S:1:pos:R:3 relative_energy_eV=1.5020698038933915 branch=left pbc="F F F"
O       -2.64316138      -1.15817755      -0.69967172
C       -1.47105283      -1.27536787      -0.33811006
O       -0.84350004      -2.49661244      -0.43719728
C       -0.71790714      -0.33101963       0.42505567
O        0.59325233      -0.59490189       0.83958092
P        1.96366263       0.19957024       0.44807620
O        3.05487748      -0.36386594       1.30384050
O        1.70245837       1.72499490       0.42153560
O        2.22545897      -0.20275790      -1.13837439
C       -1.25202021       0.86315860       0.69545758
O       -0.51133666       2.15448057      -0.59695409
H       -1.56948866      -3.05975699      -0.74746187
H       -0.41421859       1.21862224      -1.00389046
H        2.58515270      -1.09708256      -1.15176701
H       -0.89348617       1.40007364       1.55940620
H       -2.27359017       1.11444889       0.43901057
H        0.46201416       2.05415837      -0.03030706
17
Properties=species:S:1:pos:R:3 relative_energy_eV=2.010583415387373 branch=ts pbc="F F F"
O       -2.64284533      -1.14461078      -0.68346676
C       -1.45925564      -1.26419426      -0.32830416
O       -0.85065916      -2.50335164      -0.41433355
C       -0.63399306      -0.23217372       0.16813879
O        0.57014441      -0.56862791       0.82800723
P        1.99216801       0.20812995       0.44735906
O        3.05406066      -0.38035584       1.31339109
O        1.71177388       1.71907080       0.41187122
O        2.22337353      -0.20934933      -1.13787025
C       -1.22881229       1.05129241       0.60557366
O       -0.58396094       1.99369244      -0.41957778
H       -1.56779498      -3.06166979      -0.74687409
H       -0.37761135       0.91086760      -0.89545453
H        2.59384309      -1.10141858      -1.15199181
H       -0.91153884       1.39539192       1.58454212
H       -2.30042020       1.12604128       0.46271262
H        0.41155602       2.06127110      -0.04368298
17
Properties=species:S:1:pos:R:3 relative_energy_eV=1.5214158894123102 branch=right pbc="F F F"
O       -2.61912215      -1.13748276      -0.67194668
C       -1.48112219      -1.29113063      -0.33085664
O       -0.85621577      -2.49295038      -0.40904651
C       -0.56288015      -0.17548537       0.08060825
O        0.54696672      -0.58176478       0.82546538
P        2.01436813       0.24247003       0.44701618
O        3.05012182      -0.38883413       1.31775792
O        1.74271280       1.69039963       0.42510185
O        2.22377834      -0.21583613      -1.13307201
C       -1.24208130       1.11945095       0.60152042
O       -0.62777315       2.03507661      -0.35599693
H       -1.56737938      -3.06489975      -0.74942899
H       -0.35581971       0.65979668      -0.87230398
H        2.59380856      -1.10061280      -1.15147885
H       -0.91893079       1.38498590       1.59063351
H       -2.30506257       1.12806383       0.47605076
H        0.36757160       2.03879993      -0.07817334
17
Properties=species:S:1:pos:R:3 relative_energy_eV=1.2484798860132287 branch=right pbc="F F F"
O       -2.62366339      -1.13680555      -0.66915025
C       -1.48087773      -1.29533831      -0.34085037
O       -0.86022158      -2.49656891      -0.40756016
C       -0.54617364      -0.15590906       0.07085280
O        0.54539975      -0.58113448       0.81480669
P        2.02236583       0.24053618       0.44733059
O        3.05432856      -0.39801304       1.32319798
O        1.75710386       1.69574002       0.43162484
O        2.22522644      -0.21752689      -1.13196002
C       -1.23665295       1.14952500       0.59079226
O       -0.65124481       2.06366285      -0.33043027
H       -1.56566304      -3.06902207      -0.74987743
H       -0.34860179       0.60616811      -0.87443941
H        2.59417733      -1.10227562      -1.15071190
H       -0.92128672       1.38010711       1.59563202
H       -2.30654464       1.12652660       0.47829445
H        0.34526933       2.04037487      -0.08570156
17
Properties=species:S:1:pos:R:3 relative_energy_eV=0.5481070835667197 branch=right pbc="F F F"
O       -2.65154079      -1.14911483      -0.66432821
C       -1.46105017      -1.25656105      -0.37829256
O       -0.87305207      -2.50635671      -0.40662773
C       -0.56507422      -0.12685782       0.07303804
O        0.58017104      -0.55473665       0.76542025
P        2.03544709       0.22004195       0.46161353
O        3.07106705      -0.43798764       1.33630453
O        1.80511200       1.71929869       0.44746562
O        2.23850170      -0.21812887      -1.13243485
C       -1.21259898       1.19384704       0.56764526
O       -0.70813693       2.17553665      -0.29118573
H       -1.56303329      -3.09376014      -0.75205471
H       -0.32079901       0.43260609      -0.87103331
H        2.59839559      -1.11483154      -1.14675713
H       -0.93613245       1.36319027       1.61415517
H       -2.29939609       1.11886036       0.48170136
H        0.26506025       2.08500086      -0.09277962
17
Properties=species:S:1:pos:R:3 relative_energy_eV=0.13838695394224487 branch=right pbc="F F F"
O       -2.63989169      -1.13024113      -0.66486372
C       -1.48309152      -1.26735182      -0.34035948
O       -0.87622969      -2.47111674      -0.41375265
C       -0.55624455      -0.11233811       0.03269421
O        0.57214638      -0.53987252       0.75357860
P        2.06252064       0.22231101       0.46733065
O        3.05883221      -0.47285530       1.33138188
O        1.84143449       1.71115346       0.45248025
O        2.26225790      -0.21841870      -1.12849054
C       -1.22689843       1.18379881       0.57523327
O       -0.76465857       2.29182910      -0.20134096
H       -1.55316448      -3.08822072      -0.74259857
H       -0.25861599       0.22177169      -0.95738632
H        2.60233889      -1.12095999      -1.13976549
H       -0.95289346       1.34907735       1.61903561
H       -2.30117680       1.11882834       0.48288326
H        0.21627528       2.17265177      -0.11421034
17
Properties=species:S:1:pos:R:3 relative_energy_eV=0.06124306449055439 branch=right pbc="F F F"
O       -2.65204657      -1.11611126      -0.65335995
C       -1.48600387      -1.24946660      -0.32224133
O       -0.86458745      -2.46029213      -0.40458633
C       -0.54658437      -0.11413367       0.01230054
O        0.56876333      -0.53536512       0.76943596
P        2.04923791       0.21530888       0.46459986
O        3.04510593      -0.49400339       1.32556268
O        1.83950920       1.71155077       0.43890562
O        2.27629822      -0.21721129      -1.13249397
C       -1.21967109       1.17508362       0.56284437
O       -0.77860209       2.29415348      -0.16120594
H       -1.54635648      -3.06771019      -0.73183718
H       -0.22334287       0.15693310      -1.01009125
H        2.60694803      -1.12384939      -1.13213025
H       -0.96396022       1.31405026       1.61993878
H       -2.30912161       1.11301597       0.47690274
H        0.20735458       2.24809341      -0.11069481
17
Properties=species:S:1:pos:R:3 relative_energy_eV=0.011648719140794128 branch=right pbc="F F F"
O       -2.65464417      -1.10776368      -0.61085538
C       -1.47591139      -1.23356224      -0.33296061
O       -0.86529764      -2.44161497      -0.37538145
C       -0.53452782      -0.10894934      -0.01162464
O        0.55878027      -0.53571660       0.77338173
P        2.03354770       0.21203677       0.45782783
O        3.02053893      -0.50749640       1.31917876
O        1.81518816       1.70642603       0.41206271
O        2.27328133      -0.22348908      -1.13596442
C       -1.20905789       1.16153030       0.54328659
O       -0.77837491       2.29963065      -0.17144382
H       -1.54291194      -3.04305274      -0.71649337
H       -0.19357362       0.15531387      -1.01694858
H        2.61610909      -1.12521259      -1.12157803
H       -0.97156889       1.23448125       1.61379056
H       -2.29399798       1.09643513       0.45563016
H        0.20536130       2.31105006      -0.07005851
17
Properties=species:S:1:pos:R:3 relative_energy_eV=-0.008906013470550533 branch=right pbc="F F F"
O       -2.65614877      -1.10419361      -0.58744317
C       -1.47944313      -1.23172891      -0.31540891
O       -0.86584896      -2.43800494      -0.36699453
C       -0.52797830      -0.10061935      -0.02827863
O        0.55808133      -0.53804626       0.75391830
P        2.03237043       0.21249351       0.45090422
O        3.00872301      -0.50782794       1.32199750
O        1.81197048       1.70368497       0.40463782
O        2.26025884      -0.23734516      -1.13756335
C       -1.20781624       1.16489719       0.52766482
O       -0.78803359       2.32755337      -0.15235123
H       -1.54696185      -3.04086917      -0.70118145
H       -0.16347868       0.16308731      -1.02964831
H        2.62657226      -1.12883640      -1.11474301
H       -0.96843419       1.19303870       1.59467511
H       -2.28320227       1.08210026       0.42603224
H        0.19231014       2.33066281      -0.03436793
17
Properties=species:S:1:pos:R:3 relative_energy_eV=-0.01755208873510128 branch=right pbc="F F F"
O       -2.66269614      -1.10578667      -0.57294118
C       -1.47953118      -1.22936292      -0.31306438
O       -0.86759538      -2.43995822      -0.36513618
C       -0.52351417      -0.09796137      -0.04271367
O        0.56183465      -0.53838565       0.74543278
P        2.03051561       0.21075915       0.44810281
O        3.00816932      -0.50317415       1.32506444
O        1.81530538       1.70585736       0.40396592
O        2.25359606      -0.24728076      -1.14153082
C       -1.20873082       1.16214984       0.51949971
O       -0.79065212       2.33872058      -0.12939116
H       -1.55170246      -3.04468564      -0.68880232
H       -0.15244295       0.17521967      -1.04110054
H        2.63484817      -1.13308742      -1.11114383
H       -0.96682402       1.18364993       1.58534043
H       -2.28671043       1.07488227       0.40406310
H        0.18907092       2.33849034      -0.01379564
17
Properties=species:S:1:pos:R:3 relative_energy_eV=-0.026174592723691603 branch=right pbc="F F F"
O       -2.66801208      -1.11109140      -0.55134751
C       -1.47682565      -1.22903094      -0.33025490
O       -0.87156718      -2.44055523      -0.36535682
C       -0.52111021      -0.09478082      -0.06242232
O        0.55884242      -0.53386032       0.73756939
P        2.03293806       0.21116578       0.44477424
O        3.01422961      -0.49292425       1.32502847
O        1.82050428       1.70629755       0.40128296
O        2.25308142      -0.25832963      -1.14353782
C       -1.21388651       1.15503533       0.51648254
O       -0.78478703       2.34669036      -0.10504375
H       -1.56049824      -3.05149752      -0.66729044
H       -0.15198604       0.18907254      -1.05720419
H        2.64681759      -1.13847264      -1.10754901
H       -0.97888642       1.17734578       1.58502611
H       -2.29166040       1.07010337       0.37994989
H        0.19574675       2.34487839       0.01174260
17
Properties=species:S:1:pos:R:3 relative_energy_eV=-0.03808354258944746 branch=right pbc="F F F"
O       -2.67478918      -1.12052452      -0.52633177
C       -1.47958566      -1.23182583      -0.34083278
O       -0.86981524      -2.44079865      -0.38382303
C       -0.52496637      -0.08383628      -0.08523055
O        0.55426732      -0.52072636       0.71453252
P        2.04035990       0.21460425       0.43576252
O        3.02555077      -0.47904356       1.31921032
O        1.83055110       1.70690973       0.38760292
O        2.26804837      -0.27222745      -1.14199166
C       -1.22050819       1.15878936       0.51250754
O       -0.76872925       2.35921761      -0.07585256
H       -1.57854502      -3.06230328      -0.61740685
H       -0.16077844       0.20048399      -1.08576507
H        2.67062842      -1.14745438      -1.10033884
H       -1.03088881       1.14711175       1.59258639
H       -2.28872461       1.07253118       0.34591112
H        0.21086516       2.34913886       0.06130915
17
Properties=species:S:1:pos:R:3 relative_energy_eV=-0.05047060825381777 branch=right pbc="F F F"
O       -2.68508549      -1.13090722      -0.51224059
C       -1.48445231      -1.23149460      -0.33170392
O       -0.86809189      -2.43837169      -0.41314537
C       -0.52821049      -0.07851913      -0.09504851
O        0.56440313      -0.51266700       0.69297104
P        2.04796997       0.21880584       0.42161254
O        3.02783528      -0.47184121       1.31573682
O        1.84381202       1.71495011       0.36880713
O        2.29329976      -0.27988406      -1.15109700
C       -1.22698521       1.15869236       0.50396758
O       -0.75028774       2.36515686      -0.03991354
H       -1.59054246      -3.06840251      -0.56286757
H       -0.18078063       0.21338523      -1.10019721
H        2.69598500      -1.15525171      -1.09081080
H       -1.08916808       1.11367066       1.59166605
H       -2.29401413       1.08989662       0.30644491
H        0.22725338       2.34282794       0.10766774
17
Properties=species:S:1:pos:R:3 relative_energy_eV=-0.059386130451457575 branch=right pbc="F F F"
O       -2.68980078      -1.13287433      -0.49058395
C       -1.48602132      -1.22885114      -0.33570019
O       -0.86753851      -2.43001853      -0.42263952
C       -0.53131809      -0.07829306      -0.09910076
O        0.56963148      -0.50777494       0.67773887
P        2.05766144       0.22432913       0.40449011
O        3.01597545      -0.47322152       1.31536344
O        1.85941400       1.71999688       0.34581423
O        2.31961061      -0.28075549      -1.16446338
C       -1.24110730       1.15232772       0.49825400
O       -0.73881581       2.37215215       0.00472040
H       -1.59194032      -3.06680395      -0.52220748
H       -0.19686531       0.21279777      -1.10242909
H        2.71687731      -1.15709526      -1.08287353
H       -1.13067858       1.08168118       1.58608099
H       -2.30268298       1.10944429       0.25920979
H        0.24053867       2.33300560       0.14017537
17
Properties=species:S:1:pos:R:3 relative_energy_eV=-0.062689271675481 branch=right pbc="F F F"
O       -2.69094281      -1.13181001      -0.47573742
C       -1.48701256      -1.22809762      -0.33749817
O       -0.86588773      -2.42856212      -0.41882576
C       -0.53522139      -0.07340032      -0.10480811
O        0.56577910      -0.50154475       0.66915343
P        2.05896078       0.22523818       0.39825240
O        3.00932310      -0.47443159       1.31485283
O        1.86835048       1.71981294       0.33136069
O        2.33066348      -0.28099454      -1.16666368
C       -1.24804109       1.15328061       0.49852882
O       -0.73401031       2.37543241       0.02672452
H       -1.59073510      -3.06629356      -0.50765545
H       -0.19890844       0.21481955      -1.10911729
H        2.72695797      -1.15679475      -1.08245874
H       -1.15083937       1.06471491       1.58667064
H       -2.30157248       1.11362551       0.23306201
H        0.24607630       2.32505173       0.15600856
17
Properties=species:S:1:pos:R:3 relative_energy_eV=-0.06733115142924362 branch=right pbc="F F F"
O       -2.69607144      -1.13568184      -0.45615253
C       -1.48922874      -1.22569260      -0.32596325
O       -0.86308548      -2.42532165      -0.40675359
C       -0.54081480      -0.06237124      -0.11535394
O        0.56234951      -0.48583158       0.65802358
P        2.05874864       0.22467876       0.39083747
O        2.99712285      -0.47932405       1.31718171
O        1.88469764       1.72186479       0.30388047
O        2.34842711      -0.28018879      -1.17037825
C       -1.25636514       1.15287333       0.49797885
O       -0.72051049       2.37633213       0.06365335
H       -1.58477526      -3.06958786      -0.49316079
H       -0.20733659       0.23300525      -1.12190029
H        2.74458382      -1.15624509      -1.08951074
H       -1.19540786       1.04297208       1.59062598
H       -2.29925971       1.12077827       0.19073412
H        0.25986575       2.29778676       0.17810712
17
Properties=species:S:1:pos:R:3 relative_energy_eV=-0.07012122073501814 branch=right pbc="F F F"
O       -2.69586835      -1.13935752      -0.46075197
C       -1.48965013      -1.22515011      -0.32094247
O       -0.86231304      -2.42275407      -0.39327464
C       -0.53935708      -0.06275829      -0.11051685
O        0.56509833      -0.48196243       0.66303056
P        2.06300170       0.22461802       0.39160427
O        2.99314218      -0.48484433       1.32196664
O        1.88530221       1.72182612       0.30439055
O        2.34590918      -0.27932393      -1.17243720
C       -1.25677615       1.15294564       0.49765959
O       -0.71682367       2.37650172       0.06419450
H       -1.57584619      -3.06849629      -0.50982580
H       -0.21363913       0.23303333      -1.11800528
H        2.74281720      -1.15545001      -1.09870030
H       -1.20508301       1.04903015       1.58966616
H       -2.30196101       1.12256475       0.19765785
H        0.26498679       2.28962398       0.16613369
17
Properties=species:S:1:pos:R:3 relative_energy_eV=-0.07140928934313706 branch=right pbc="F F F"
O       -2.69583681      -1.14326793      -0.45334734
C       -1.48958187      -1.22597183      -0.31757317
O       -0.85784480      -2.42234949      -0.38132368
C       -0.54289430      -0.05836632      -0.11218748
O        0.56378055      -0.47655037       0.65751590
P        2.06507866       0.22368490       0.38764263
O        2.99148279      -0.48395848       1.32295443
O        1.89326254       1.72083750       0.29987459
O        2.34653859      -0.28511145      -1.17561410
C       -1.26242266       1.15686773       0.49615122
O       -0.71003648       2.38029171       0.07959834
H       -1.57038002      -3.06736005      -0.51050559
H       -0.21888265       0.23549104      -1.12184366
H        2.74980511      -1.15846473      -1.10495277
H       -1.22804973       1.03935736       1.58688841
H       -2.30394087       1.12695919       0.18310532
H        0.27286171       2.28795801       0.17546623
17
Properties=species:S:1:pos:R:3 relative_energy_eV=-0.07238621161741321 branch=right pbc="F F F"
O       -2.69350864      -1.14776897      -0.45473393
C       -1.48743118      -1.22726188      -0.31175622
O       -0.85351738      -2.42269854      -0.37406734
C       -0.54577943      -0.05752746      -0.11040002
O        0.56184648      -0.47558367       0.65829317
P        2.06369464       0.22140826       0.38574187
O        2.99499594      -0.48190079       1.31917171
O        1.89906083       1.71977865       0.30033092
O        2.34211749      -0.29071464      -1.17760665
C       -1.26511988       1.15779486       0.49501864
O       -0.70799663       2.38045091       0.08475607
H       -1.56432041      -3.06639213      -0.51630976
H       -0.22408182       0.23639892      -1.11970876
H        2.75108545      -1.16175983      -1.10866831
H       -1.23782341       1.03932148       1.58601900
H       -2.30464342       1.13642945       0.17320792
H        0.27436106       2.29007221       0.18256099
17
Properties=species:S:1:pos:R:3 relative_energy_eV=-0.07305597287268029 branch=right pbc="F F F"
O       -2.69182142      -1.15147587      -0.45860559
C       -1.48623898      -1.22831273      -0.30956236
O       -0.85043085      -2.42235146      -0.36803142
C       -0.54572896      -0.05823395      -0.10733267
O        0.56126335      -0.47357152       0.66416454
P        2.06429400       0.22026897       0.38522700
O        2.99864425      -0.48408105       1.31480722
O        1.89961988       1.71868308       0.29999542
O        2.33544713      -0.29425944      -1.17849651
C       -1.26576454       1.15850979       0.49503554
O       -0.70821075       2.38195179       0.08437437
H       -1.55796088      -3.06634366      -0.52421702
H       -0.22672893       0.23427823      -1.11748189
H        2.74874014      -1.16334225      -1.11023613
H       -1.24160287       1.04324240       1.58720202
H       -2.30359927       1.14373260       0.16816327
H        0.27301839       2.29135193       0.18684350
17
Properties=species:S:1:pos:R:3 relative_energy_eV=-0.07398932809519465 branch=right pbc="F F F"
O       -2.69073841      -1.15634454      -0.45918352
C       -1.48566072      -1.22975323      -0.30778653
O       -0.84497178      -2.42200411      -0.36031525
C       -0.54628651      -0.05547788      -0.10415180
O        0.56045869      -0.46534127       0.67075980
P        2.06620608       0.21970066       0.38180637
O        3.00232124      -0.48988440       1.30652613
O        1.90079747       1.71740330       0.29246418
O        2.32596678      -0.30101647      -1.18158296
C       -1.26955571       1.16322893       0.49431387
O       -0.70464786       2.38607493       0.09365724
H       -1.54790097      -3.06841885      -0.52778073
H       -0.22707488       0.23272844      -1.11759930
H        2.74759976      -1.16557966      -1.10969051
H       -1.25723056       1.04341256       1.58625644
H       -2.30194883       1.15002090       0.15179371
H        0.27560584       2.29129756       0.20236215
17
Properties=species:S:1:pos:R:3 relative_energy_eV=-0.07517235157502 branch=right pbc="F F F"
O       -2.68691011      -1.16054235      -0.46282171
C       -1.48239968      -1.23058193      -0.30414464
O       -0.83676354      -2.42078108      -0.35693144
C       -0.54842410      -0.05162045      -0.09811980
O        0.55721604      -0.45491216       0.68076845
P        2.06399091       0.21858802       0.37533950
O        3.00606151      -0.49539275       1.29088704
O        1.90629514       1.71713026       0.28353938
O        2.31139406      -0.31009381      -1.18728229
C       -1.27509584       1.16774343       0.49106108
O       -0.69697020       2.38883991       0.10845324
H       -1.53403944      -3.07269518      -0.52798965
H       -0.22335922       0.23246040      -1.11011987
H        2.74306779      -1.16893178      -1.10646888
H       -1.28176719       1.04696878       1.58160654
H       -2.30259336       1.15356188       0.13279751
H        0.28323678       2.29030569       0.22127483
17
Properties=species:S:1:pos:R:3 relative_energy_eV=-0.07613298547948943 branch=right pbc="F F F"
O       -2.68062406      -1.16162320      -0.47111606
C       -1.47703628      -1.23030943      -0.30402840
O       -0.82901690      -2.41855932      -0.35441884
C       -0.54752058      -0.05209004      -0.09083952
O        0.55408739      -0.45127434       0.69572394
P        2.06024295       0.21717820       0.37308271
O        3.00883145      -0.49825086       1.27938136
O        1.91144629       1.71709020       0.28382096
O        2.29238759      -0.31647567      -1.19022163
C       -1.27676650       1.16825364       0.49083697
O       -0.69484911       2.38996090       0.10810111
H       -1.52176428      -3.07221801      -0.53481599
H       -0.21582309       0.23209082      -1.09907332
H        2.73179537      -1.17146720      -1.10753045
H       -1.29433977       1.05467413       1.58271668
H       -2.30294612       1.15613966       0.12891663
H        0.28483521       2.28692739       0.22131316
17
Properties=species:S:1:pos:R:3 relative_energy_eV=-0.07743541440868285 branch=right pbc="F F F"
O       -2.67224690      -1.16304045      -0.47748114
C       -1.46929151      -1.22860101      -0.30597236
O       -0.81631988      -2.41446682      -0.35362655
C       -0.54439491      -0.04828372      -0.08305333
O        0.55286718      -0.44371494       0.71266538
P        2.05933857       0.21546037       0.37192919
O        3.01463961      -0.50262532       1.26942785
O        1.91722298       1.71605311       0.28228894
O        2.26167211      -0.32829269      -1.19344502
C       -1.28221358       1.17120687       0.49270628
O       -0.69410408       2.39030744       0.11269668
H       -1.50784886      -3.06907817      -0.53563646
H       -0.19983034       0.23572975      -1.09004141
H        2.71527983      -1.17585619      -1.11201796
H       -1.31434690       1.05520630       1.58510097
H       -2.30274438       1.15964604       0.11531756
H        0.28526065       2.28039622       0.22099069
17
Properties=species:S:1:pos:R:3 relative_energy_eV=-0.07800260352451005 branch=right pbc="F F F"
O       -2.67002651      -1.16471524      -0.47602341
C       -1.46656572      -1.22719177      -0.30550379
O       -0.81192255      -2.41197905      -0.35656728
C       -0.54396621      -0.04467468      -0.08275426
O        0.55304559      -0.43766285       0.71446228
P        2.06108302       0.21444511       0.37111748
O        3.01789076      -0.50416138       1.26746395
O        1.91948680       1.71483433       0.27786380
O        2.25496741      -0.33294001      -1.19388354
C       -1.28609785       1.17129717       0.49150227
O       -0.69301407       2.39028433       0.12345791
H       -1.50497946      -3.06807764      -0.52788221
H       -0.19635248       0.23837048      -1.08883735
H        2.71190970      -1.17860757      -1.11439777
H       -1.32634571       1.04930182       1.58285243
H       -2.30309888       1.16223325       0.10322044
H        0.28692571       2.27929048       0.22575836
17
Properties=species:S:1:pos:R:3 relative_energy_eV=-0.07849501011151006 branch=right pbc="F F F"
O       -2.66608390      -1.16723146      -0.47558308
C       -1.46233834      -1.22627787      -0.30511762
O       -0.80540087      -2.40900458      -0.35741990
C       -0.54354519      -0.04223499      -0.08142753
O        0.55081472      -0.43022106       0.72221766
P        2.06153354       0.21235656       0.37020358
O        3.02195084      -0.50620255       1.26247023
O        1.92315297       1.71283944       0.27235854
O        2.24804802      -0.33807458      -1.19382494
C       -1.28922799       1.17120555       0.48859329
O       -0.69173872       2.39367730       0.13635872
H       -1.49833509      -3.06656011      -0.52227970
H       -0.19498190       0.24090634      -1.08535936
H        2.70549628      -1.18387856      -1.11961841
H       -1.34246147       1.04430833       1.57834309
H       -2.30226281       1.16629007       0.09015388
H        0.28831944       2.27814893       0.23178087
17
Properties=species:S:1:pos:R:3 relative_energy_eV=-0.07863601731514791 branch=right pbc="F F F"
O       -2.66530848      -1.16730705      -0.47441691
C       -1.46140755      -1.22613482      -0.30573420
O       -0.80372176      -2.40886428      -0.35799910
C       -0.54287193      -0.04136176      -0.08134357
O        0.55052957      -0.43001388       0.72405665
P        2.06150179       0.21212667       0.37013860
O        3.02171980      -0.50606500       1.26283088
O        1.92327004       1.71256043       0.27123138
O        2.24873858      -0.33850132      -1.19432441
C       -1.28956844       1.17255970       0.48824076
O       -0.69211627       2.39561742       0.13882679
H       -1.49719927      -3.06657440      -0.52012114
H       -0.19411546       0.24220036      -1.08627950
H        2.70234859      -1.18654945      -1.12151391
H       -1.34515691       1.04212460       1.57718072
H       -2.30136346       1.16624471       0.08757266
H        0.28766070       2.27798485       0.23350357
17
Properties=species:S:1:pos:R:3 relative_energy_eV=-0.07885253158019623 branch=right pbc="F F F"
O       -2.66335461      -1.16789424      -0.47405061
C       -1.45934983      -1.22591005      -0.30606978
O       -0.80087272      -2.40854989      -0.36018979
C       -0.54183700      -0.04007652      -0.08087344
O        0.55145478      -0.43040944       0.72369900
P        2.06207739       0.21176025       0.36953034
O        3.02015045      -0.50517201       1.26547014
O        1.92180192       1.71196176       0.27015182
O        2.25214042      -0.33730922      -1.19605357
C       -1.29014295       1.17348789       0.48846635
O       -0.69250611       2.39658911       0.14116779
H       -1.49367146      -3.06840168      -0.51768577
H       -0.19204446       0.24417598      -1.08546936
H        2.69090472      -1.19352670      -1.12447051
H       -1.34825081       1.04305307       1.57737064
H       -2.30085500       1.16665596       0.08450254
H        0.28729477       2.27961264       0.23635349
17
Properties=species:S:1:pos:R:3 relative_energy_eV=-0.07898448450578144 branch=right pbc="F F F"
O       -2.66152974      -1.16903364      -0.47599276
C       -1.45775840      -1.22627746      -0.30637668
O       -0.79786233      -2.40781938      -0.35937368
C       -0.54152330      -0.04055027      -0.07978934
O        0.55167586      -0.42996661       0.72462734
P        2.06224597       0.21139648       0.36990667
O        3.02035446      -0.50542793       1.26555581
O        1.92191136       1.71146658       0.26965739
O        2.25067147      -0.33669596      -1.19528973
C       -1.29004559       1.17306804       0.48883217
O       -0.69246352       2.39672170       0.14037631
H       -1.48883582      -3.06832501      -0.52034365
H       -0.19076248       0.24495044      -1.08263327
H        2.68014381      -1.19770168      -1.12634812
H       -1.35011425       1.04648653       1.57830403
H       -2.30048187       1.16725764       0.08435632
H        0.28731384       2.28049756       0.23638044
17
Properties=species:S:1:pos:R:3 relative_energy_eV=-0.07907200018235017 branch=right pbc="F F F"
O       -2.66138899      -1.17024289      -0.47639833
C       -1.45757439      -1.22644625      -0.30671546
O       -0.79638554      -2.40723925      -0.35897008
C       -0.54148073      -0.04063588      -0.07990030
O        0.55197387      -0.43038722       0.72420970
P        2.06268491       0.21196450       0.37051130
O        3.02078896      -0.50551534       1.26571610
O        1.92340960       1.71205137       0.26880036
O        2.25012160      -0.33589264      -1.19421664
C       -1.28985363       1.17314018       0.48881843
O       -0.69224338       2.39685857       0.14022169
H       -1.48689110      -3.06767173      -0.52136885
H       -0.19104268       0.24543719      -1.08284171
H        2.67392140      -1.19969007      -1.12558628
H       -1.35024465       1.04676454       1.57821568
H       -2.30032751       1.16676510       0.08445934
H        0.28747169       2.28078688       0.23689427
17
Properties=species:S:1:pos:R:3 relative_energy_eV=-0.07915017833511229 branch=right pbc="F F F"
O       -2.66125197      -1.17150458      -0.47560194
C       -1.45718656      -1.22610676      -0.30695024
O       -0.79537778      -2.40656378      -0.36042134
C       -0.54114750      -0.03971407      -0.08087948
O        0.55256837      -0.43034711       0.72288206
P        2.06360766       0.21300593       0.37054261
O        3.02043715      -0.50460907       1.26719942
O        1.92535462       1.71313339       0.26828508
O        2.25209132      -0.33452128      -1.19452489
C       -1.28982058       1.17319438       0.48853140
O       -0.69208561       2.39680922       0.14163513
H       -1.48601782      -3.06768550      -0.52013550
H       -0.19199962       0.24619633      -1.08472576
H        2.66609699      -1.20293761      -1.12341949
H       -1.34971094       1.04461962       1.57752598
H       -2.30026608       1.16596549       0.08378508
H        0.28764771       2.28111255       0.23812111
17
Properties=species:S:1:pos:R:3 relative_energy_eV=-0.0792065275090863 branch=right pbc="F F F"
O       -2.66049958      -1.17171780      -0.47559401
C       -1.45646978      -1.22628495      -0.30687290
O       -0.79460002      -2.40663182      -0.36035368
C       -0.54109864      -0.03950081      -0.08135825
O        0.55251579      -0.42767397       0.72321221
P        2.06390693       0.21382117       0.37014035
O        3.02013984      -0.50410176       1.26700765
O        1.92638351       1.71398597       0.26921431
O        2.25185893      -0.33439835      -1.19477088
C       -1.28970706       1.17266066       0.48847460
O       -0.69174397       2.39643414       0.14181326
H       -1.48485861      -3.06777368      -0.52155153
H       -0.19270498       0.24623007      -1.08522143
H        2.66085510      -1.20506577      -1.12157413
H       -1.34894705       1.04321499       1.57752250
H       -2.30011801       1.16628693       0.08393130
H        0.28802693       2.28056212       0.23782989
