17
Properties=species:S:1:pos:R:3 relative_energy_eV=0.0 branch=left pbc="F F F"
C        0.94303337      -0.03889117      -1.89539629
C        0.99630333       0.16672839      -0.57058266
O        0.20053359       1.05750432       0.04938932
P       -2.43614342       0.37056582      -0.44136626
O       -2.87986244       1.50097308       0.45742662
O       -2.38210323       0.52634433      -1.93203299
O       -2.11765444      -0.95945332       0.20978957
C        1.96920059      -0.55142872       0.28604391
O        2.07393104      -0.42204758       1.48754632
O        2.79560120      -1.40022043      -0.40017871
O       -1.09022701       0.39750666       2.42084809
H        0.18332623       0.42882635      -2.49910915
H        1.63759476      -0.71007868      -2.37230781
H       -1.39425196      -0.36900228       1.89068076
H        3.35532368      -1.78802624       0.28906713
H        0.00327413       0.78630061       0.98652732
H       -1.73217555       1.06344971       2.10954629
17
Properties=species:S:1:pos:R:3 relative_energy_eV=0.0002414639966445975 branch=left pbc="F F F"
C        0.94193366      -0.04829247      -1.89615916
C        0.99797293       0.16181322      -0.57198191
O        0.19853426       1.04958587       0.04785818
P       -2.43930734       0.37888902      -0.44000815
O       -2.87813873       1.50977903       0.46002231
O       -2.38130076       0.54217547      -1.92974881
O       -2.13334012      -0.95508601       0.20976442
C        1.97561604      -0.54954803       0.28552286
O        2.07651706      -0.42038879       1.48746654
O        2.81025736      -1.39125254      -0.39996529
O       -1.09393959       0.39067051       2.42049901
H        0.17594870       0.41100902      -2.49791852
H        1.64426393      -0.70984003      -2.37527089
H       -1.40586760      -0.37052353       1.88685811
H        3.36967804      -1.77954683       0.28929669
H       -0.00183454       0.77540439       0.98351929
H       -1.73128953       1.06420265       2.11613658
17
Properties=species:S:1:pos:R:3 relative_energy_eV=0.0005696200278180186 branch=left pbc="F F F"
C        0.94502283      -0.05339504      -1.89746303
C        1.00049538       0.15671276      -0.57305695
O        0.19625026       1.04067966       0.04586632
P       -2.44705480       0.38848912      -0.43738355
O       -2.87727385       1.51951902       0.46716302
O       -2.38485501       0.55127370      -1.92690533
O       -2.15141293      -0.95029973       0.20735735
C        1.98183229      -0.54889286       0.28533149
O        2.07698372      -0.42402426       1.48812221
O        2.82535096      -1.38203746      -0.39972727
O       -1.09421954       0.38578734       2.41646404
H        0.16889688       0.39251082      -2.49696252
H        1.65332187      -0.70693907      -2.37875502
H       -1.41771997      -0.37130370       1.88382760
H        3.38163426      -1.77085328       0.29215807
H       -0.00369890       0.76620453       0.98156584
H       -1.72784978       1.06561956       2.11828881
17
Properties=species:S:1:pos:R:3 relative_energy_eV=0.0009220643696608022 branch=left pbc="F F F"
C        0.94853408      -0.04666466      -1.89889992
C        0.99979670       0.15705059      -0.57354059
O        0.19787301       1.04084298       0.04784341
P       -2.44829487       0.37849768      -0.43539338
O       -2.88870751       1.50937632       0.46392849
O       -2.38553971       0.53726308      -1.92539309
O       -2.14018526      -0.95349609       0.21573163
C        1.97517933      -0.55664174       0.28440641
O        2.06584558      -0.44048085       1.48847281
O        2.82127867      -1.38511065      -0.40270550
O       -1.09397620       0.39997806       2.41826809
H        0.17180556       0.39903577      -2.49630948
H        1.66587630      -0.68777932      -2.38341014
H       -1.41522948      -0.35999256       1.88884685
H        3.37384081      -1.77873440       0.28868316
H        0.00103317       0.76683042       0.98434037
H       -1.72342652       1.07907650       2.11102186
17
Properties=species:S:1:pos:R:3 relative_energy_eV=0.0013035792144364677 branch=left pbc="F F F"
C        0.95026237      -0.05335441      -1.89896483
C        0.99901664       0.15242773      -0.57395361
O        0.18971776       1.03108367       0.04482642
P       -2.45409373       0.38794669      -0.43573695
O       -2.88241661       1.52037808       0.46776049
O       -2.39331187       0.55249821      -1.92518713
O       -2.15961395      -0.95084558       0.20979896
C        1.97801945      -0.55475822       0.28395990
O        2.06696475      -0.43763845       1.48801396
O        2.82841017      -1.38022544      -0.40131401
O       -1.09071521       0.39026017       2.41810056
H        0.16771168       0.38363919      -2.49657102
H        1.67397546      -0.69010753      -2.38003274
H       -1.42020946      -0.36466471       1.88638392
H        3.38546562      -1.76304276       0.29309973
H        0.00082857       0.75991049       0.98356419
H       -1.71430800       1.07554408       2.11214312
17
Properties=species:S:1:pos:R:3 relative_energy_eV=0.002424732218059944 branch=left pbc="F F F"
C        0.94255983      -0.08143326      -1.89567878
C        0.99242525       0.13575044      -0.57230777
O        0.17746406       1.00989133       0.04475714
P       -2.46567124       0.42212327      -0.43978783
O       -2.88259552       1.54954589       0.47498440
O       -2.40087956       0.59707056      -1.92837105
O       -2.18631934      -0.92545432       0.19399164
C        1.99091078      -0.54416980       0.28793962
O        2.09106534      -0.40218425       1.48842884
O        2.84515295      -1.36913348      -0.39378490
O       -1.09174114       0.35372820       2.41465459
H        0.15500035       0.33825059      -2.49846647
H        1.67986733      -0.70587555      -2.37155942
H       -1.43452645      -0.38250303       1.86389284
H        3.42356585      -1.73298937       0.29288075
H       -0.00874972       0.73663942       0.98391018
H       -1.70182524       1.05979476       2.13040734
17
Properties=species:S:1:pos:R:3 relative_energy_eV=0.003945919819670962 branch=left pbc="F F F"
C        0.94516807      -0.09971899      -1.89373301
C        0.99584749       0.12656651      -0.57080308
O        0.17136375       0.99471435       0.04245071
P       -2.47662578       0.44445377      -0.44165319
O       -2.88383941       1.56512371       0.48355361
O       -2.41612735       0.63721639      -1.92721968
O       -2.20722065      -0.91131560       0.17754202
C        2.00338555      -0.53802698       0.29154047
O        2.11340038      -0.38640840       1.49008670
O        2.85648567      -1.36351660      -0.39032071
O       -1.09083553       0.33505227       2.41364363
H        0.15516719       0.30740949      -2.50317219
H        1.67998032      -0.72476974      -2.37311927
H       -1.44773186      -0.39023156       1.85852057
H        3.44947413      -1.70450102       0.29551098
H       -0.02178417       0.72165827       0.98104494
H       -1.70040430       1.04534564       2.14201865
17
Properties=species:S:1:pos:R:3 relative_energy_eV=0.007309946635359665 branch=left pbc="F F F"
C        0.94610381      -0.15165765      -1.89218183
C        0.99449746       0.09903321      -0.57410345
O        0.15533658       0.96124943       0.02613477
P       -2.49749188       0.49909776      -0.43174919
O       -2.84509126       1.60845318       0.53594677
O       -2.45894598       0.72864169      -1.91471736
O       -2.26493970      -0.88375370       0.14573076
C        2.02704364      -0.52095334       0.29285978
O        2.13669801      -0.34910741       1.48823624
O        2.90645423      -1.32867970      -0.37746761
O       -1.09638402       0.29083200       2.39306004
H        0.15718927       0.25537274      -2.50148158
H        1.67963898      -0.78664519      -2.36165995
H       -1.47256169      -0.42592696       1.83932537
H        3.51080904      -1.63329757       0.31630017
H       -0.06069895       0.67618204       0.95772754
H       -1.69195423       1.02021139       2.13393090
17
Properties=species:S:1:pos:R:3 relative_energy_eV=0.009160670113487868 branch=left pbc="F F F"
C        0.96319558      -0.15146357      -1.89913025
C        1.00322414       0.09299671      -0.58031140
O        0.15069671       0.94554215       0.01306894
P       -2.51746559       0.50725373      -0.42486693
O       -2.84207876       1.62751426       0.53433816
O       -2.49791876       0.72185137      -1.90801440
O       -2.29131807      -0.87184780       0.15988859
C        2.03362528      -0.52228355       0.29264205
O        2.13143713      -0.34824840       1.48876984
O        2.92304015      -1.32419631      -0.37310318
O       -1.09088767       0.28263685       2.38875271
H        0.17746698       0.26265136      -2.50956524
H        1.69878991      -0.78811904      -2.36210348
H       -1.48312823      -0.42321555       1.83119289
H        3.52170443      -1.63372958       0.32331205
H       -0.06463708       0.66486518       0.94574388
H       -1.69004288       1.01684412       2.15527702
17
Properties=species:S:1:pos:R:3 relative_energy_eV=0.01023119369710912 branch=left pbc="F F F"
C        0.95710723      -0.17222059      -1.89708292
C        1.00309013       0.08368555      -0.58095213
O        0.15186196       0.93836940       0.01086676
P       -2.52351728       0.52304587      -0.42200084
O       -2.82569363       1.63089587       0.56161248
O       -2.51108126       0.76765781      -1.90187854
O       -2.31340385      -0.86950563       0.13741980
C        2.04338419      -0.51370791       0.29462025
O        2.13441708      -0.33653145       1.49020642
O        2.94597945      -1.30203532      -0.36847809
O       -1.09999815       0.27210490       2.38310301
H        0.17398365       0.24127987      -2.51073115
H        1.68720461      -0.81871056      -2.35413608
H       -1.49206497      -0.43676417       1.83196054
H        3.54519333      -1.61414388       0.32652031
H       -0.05820087       0.65997481       0.94534148
H       -1.69255845       1.00565751       2.12950009
17
Properties=species:S:1:pos:R:3 relative_energy_eV=0.011623648064414738 branch=left pbc="F F F"
C        0.95179263      -0.19682601      -1.89157988
C        1.00548310       0.08029752      -0.57960951
O        0.14600442       0.92743591       0.01184664
P       -2.53151527       0.54799171      -0.42427807
O       -2.80774303       1.65733149       0.56424703
O       -2.51304445       0.79716692      -1.90291355
O       -2.35563698      -0.85389949       0.12390303
C        2.05742799      -0.49657836       0.29401770
O        2.15538402      -0.30600441       1.48748573
O        2.95991666      -1.28689586      -0.36698104
O       -1.10464899       0.23400666       2.37635264
H        0.16407205       0.20596249      -2.50591685
H        1.68151806      -0.84491763      -2.34815034
H       -1.50573137      -0.45515088       1.80589890
H        3.56052391      -1.59019333       0.33090072
H       -0.04742461       0.65814033       0.95216520
H       -1.69067502       0.98118508       2.14850310
17
Properties=species:S:1:pos:R:3 relative_energy_eV=0.013063945047179004 branch=left pbc="F F F"
C        0.94269897      -0.21261668      -1.88450906
C        1.00190405       0.07219652      -0.57458058
O        0.14982702       0.92706989       0.01513122
P       -2.53428240       0.56758835      -0.42568427
O       -2.79080928       1.67145220       0.57358148
O       -2.51341888       0.82949791      -1.90225695
O       -2.38103508      -0.83849107       0.11765903
C        2.06545862      -0.48824122       0.29652631
O        2.17479803      -0.28946069       1.48762349
O        2.97215106      -1.27134827      -0.36527257
O       -1.10767004       0.20885001       2.36291759
H        0.14699803       0.17326543      -2.49971240
H        1.67037572      -0.86674187      -2.33455732
H       -1.50829747      -0.47565070       1.78543358
H        3.57448804      -1.56409760       0.33506917
H       -0.04958236       0.65469302       0.95360658
H       -1.68790098       0.96108703       2.13491628
17
Properties=species:S:1:pos:R:3 relative_energy_eV=0.015348815959441708 branch=left pbc="F F F"
C        0.92077840      -0.24779160      -1.86834762
C        1.00000445       0.06755767      -0.56627821
O        0.15287500       0.93191155       0.01810816
P       -2.53407178       0.59802150      -0.42973341
O       -2.76545338       1.68685063       0.59298530
O       -2.49886468       0.88964248      -1.90060028
O       -2.42283905      -0.82481451       0.07959034
C        2.07835803      -0.47681841       0.29935743
O        2.20270597      -0.25811937       1.48597487
O        2.98369163      -1.26483879      -0.36231948
O       -1.10713401       0.17555242       2.34393036
H        0.11624260       0.12117330      -2.48381170
H        1.65360667      -0.90149912      -2.31057086
H       -1.51719360      -0.50567575       1.77142261
H        3.61351017      -1.51729630       0.33017132
H       -0.05956723       0.65688828       0.95312558
H       -1.69094619       0.92830844       2.12288740
17
Properties=species:S:1:pos:R:3 relative_energy_eV=0.016737656893383246 branch=left pbc="F F F"
C        0.92345478      -0.24850869      -1.86363686
C        1.00348797       0.07092563      -0.56286303
O        0.15812746       0.93876583       0.01896340
P       -2.54131589       0.59581775      -0.42466427
O       -2.76288953       1.68503464       0.60004789
O       -2.51438399       0.88922475      -1.89445071
O       -2.42701297      -0.82658454       0.08153004
C        2.07796825      -0.47846905       0.30396764
O        2.19129870      -0.27522030       1.49339281
O        2.98648108      -1.25962766      -0.36115455
O       -1.10478989       0.18655855       2.33436552
H        0.12091351       0.12308828      -2.47811428
H        1.65263605      -0.90170523      -2.31246431
H       -1.50285636      -0.51242223       1.77449650
H        3.61910195      -1.52012675       0.32535679
H       -0.06453116       0.66056997       0.95233525
H       -1.68998693       0.93173149       2.08878394
17
Properties=species:S:1:pos:R:3 relative_energy_eV=0.018968278127431404 branch=left pbc="F F F"
C        0.91078310      -0.27927409      -1.85119853
C        1.00252615       0.05708375      -0.55529959
O        0.15247365       0.92627151       0.01815411
P       -2.53446126       0.62342808      -0.43433967
O       -2.75672455       1.69166064       0.61249388
O       -2.48957658       0.94906751      -1.89770107
O       -2.44380279      -0.81037308       0.04524686
C        2.08973879      -0.46336699       0.31042029
O        2.22219171      -0.23013256       1.49310121
O        2.99307544      -1.24510194      -0.36062031
O       -1.10936533       0.15797608       2.32853929
H        0.09062890       0.08207389      -2.44869134
H        1.63231123      -0.93863917      -2.30466591
H       -1.51153282      -0.53079448       1.76105352
H        3.64310555      -1.48965201       0.31404225
H       -0.07104747       0.65174478       0.95077967
H       -1.69462067       0.90708059       2.09457732
17
Properties=species:S:1:pos:R:3 relative_energy_eV=0.022535084830451524 branch=left pbc="F F F"
C        0.88666776      -0.31112054      -1.83795275
C        0.99481537       0.04440956      -0.54882366
O        0.14225556       0.91118220       0.02604805
P       -2.53225745       0.65092489      -0.44097568
O       -2.76201763       1.69699255       0.62583048
O       -2.46827226       1.00672035      -1.89602561
O       -2.43837554      -0.78981484       0.01238507
C        2.10974276      -0.44296014       0.30590356
O        2.25746229      -0.19505442       1.48348623
O        3.01647164      -1.22657039      -0.35957761
O       -1.11782979       0.13690693       2.32508697
H        0.06382512       0.04618761      -2.43338588
H        1.60567581      -0.97187999      -2.29284612
H       -1.51414754      -0.54383072       1.74152049
H        3.66165769      -1.47081778       0.32146909
H       -0.08040031       0.62995580       0.95822891
H       -1.69957056       0.88782150       2.08552078
17
Properties=species:S:1:pos:R:3 relative_energy_eV=0.0246723945310805 branch=left pbc="F F F"
C        0.87585920      -0.32730572      -1.83235554
C        0.99816359       0.03952132      -0.54721836
O        0.14564062       0.90231266       0.03365092
P       -2.52613519       0.66642442      -0.44542182
O       -2.77049823       1.69371269       0.63769275
O       -2.45795385       1.04868775      -1.89432843
O       -2.43973794      -0.78318392      -0.01779123
C        2.12129687      -0.43645699       0.30141754
O        2.27653037      -0.17051659       1.47441017
O        3.02801201      -1.22159358      -0.36192916
O       -1.12996950       0.12751126       2.32237610
H        0.04891040       0.02075255      -2.42976388
H        1.58994992      -0.99697853      -2.28128245
H       -1.52068565      -0.55330091       1.73948116
H        3.67484262      -1.45313691       0.32190599
H       -0.07910219       0.62032028       0.96439868
H       -1.70942015       0.88228285       2.09065003
17
Properties=species:S:1:pos:R:3 relative_energy_eV=0.027526925601705443 branch=left pbc="F F F"
C        0.87089718      -0.34607386      -1.82687069
C        0.99604414       0.03379374      -0.54610351
O        0.15534254       0.90446035       0.04204474
P       -2.52117384       0.68392625      -0.44526456
O       -2.77488412       1.70051944       0.64424750
O       -2.44103461       1.07875012      -1.88916083
O       -2.43306649      -0.76901267      -0.03104492
C        2.12797248      -0.42473342       0.29529422
O        2.29330642      -0.13475933       1.46094559
O        3.02683215      -1.22363335      -0.36159395
O       -1.14327232       0.10366871       2.31925882
H        0.03811981      -0.01171593      -2.42145119
H        1.58163696      -1.02298473      -2.27241778
H       -1.54754797      -0.55660660       1.71738798
H        3.69080772      -1.43049452       0.31367935
H       -0.07370953       0.60765898       0.96865285
H       -1.72056760       0.86628952       2.10828904
17
Properties=species:S:1:pos:R:3 relative_energy_eV=0.029848868729459355 branch=left pbc="F F F"
C        0.86542494      -0.36053935      -1.82125820
C        1.00009287       0.03466015      -0.54617085
O        0.15106744       0.90018974       0.03810623
P       -2.51655265       0.69771895      -0.44662439
O       -2.77933532       1.70638179       0.64875748
O       -2.42843615       1.09917529      -1.88929339
O       -2.43410108      -0.75845428      -0.03876829
C        2.13564955      -0.41854153       0.29642290
O        2.31703115      -0.11104990       1.45540141
O        3.02322832      -1.23015731      -0.35969277
O       -1.15657787       0.08154552       2.31398600
H        0.02814464      -0.03451630      -2.41581231
H        1.57790126      -1.03810679      -2.26223448
H       -1.56996197      -0.55951260       1.69987581
H        3.70575060      -1.41319745       0.30326850
H       -0.06563411       0.60934984       0.96660899
H       -1.72798869       0.85410696       2.13332015
17
Properties=species:S:1:pos:R:3 relative_energy_eV=0.032221668705460615 branch=left pbc="F F F"
C        0.86054066      -0.37096123      -1.81597954
C        0.99726461       0.02552645      -0.54165932
O        0.14582453       0.89196623       0.03716652
P       -2.51573189       0.70950838      -0.44853357
O       -2.77534061       1.72436039       0.64014278
O       -2.40977231       1.10615402      -1.89025196
O       -2.44419827      -0.74720550      -0.03934060
C        2.14342770      -0.40943516       0.29431700
O        2.33587246      -0.08327577       1.44654483
O        3.02183779      -1.23451058      -0.35783724
O       -1.16039087       0.05307915       2.31429104
H        0.01755954      -0.05410123      -2.40759202
H        1.57725357      -1.04329045      -2.25635144
H       -1.58098613      -0.55975182       1.67008810
H        3.71497322      -1.40277447       0.29780154
H       -0.07754359       0.61691242       0.96925545
H       -1.72488749       0.83685193       2.16383128
17
Properties=species:S:1:pos:R:3 relative_energy_eV=0.03625370694862795 branch=left pbc="F F F"
C        0.85650097      -0.38712067      -1.80450937
C        0.99112673       0.01732923      -0.53199649
O        0.14371125       0.89259762       0.04295769
P       -2.51870348       0.72110638      -0.45525238
O       -2.78242210       1.73270337       0.63572668
O       -2.40466705       1.11355035      -1.89911508
O       -2.46679546      -0.73608610      -0.04132305
C        2.14742898      -0.41152018       0.29542966
O        2.36077601      -0.06020784       1.43606325
O        3.02746694      -1.23369207      -0.36127641
O       -1.15860488       0.03855770       2.30502020
H        0.01710403      -0.06852960      -2.39845900
H        1.58274068      -1.04512886      -2.25394618
H       -1.57964477      -0.55369090       1.64662988
H        3.72503417      -1.40252164       0.28997094
H       -0.08349381       0.62198436       0.97455602
H       -1.73185531       0.81972158       2.19541653
17
Properties=species:S:1:pos:R:3 relative_energy_eV=0.04270378200453706 branch=left pbc="F F F"
C        0.84450976      -0.40084594      -1.79278651
C        0.99079297       0.01196450      -0.52490218
O        0.14327658       0.88237776       0.05204751
P       -2.52581506       0.74259221      -0.46655919
O       -2.78093061       1.77318472       0.60527002
O       -2.38866304       1.10722030      -1.91478836
O       -2.49764403      -0.70943758      -0.03173009
C        2.16171262      -0.38574666       0.29367572
O        2.38547123      -0.02230053       1.42887524
O        3.01987283      -1.23339156      -0.35596693
O       -1.13805950       0.00391226       2.28924540
H       -0.00208019      -0.09427788      -2.38289493
H        1.58216193      -1.03966075      -2.24607339
H       -1.57701762      -0.55567280       1.60585977
H        3.72192173      -1.39620257       0.29061452
H       -0.09038100       0.59431941       0.97863826
H       -1.72342581       0.78101766       2.24736807
17
Properties=species:S:1:pos:R:3 relative_energy_eV=0.05064446001051692 branch=left pbc="F F F"
C        0.84801282      -0.39455783      -1.79293143
C        0.99727311       0.02587346      -0.52640893
O        0.13611417       0.87714129       0.06164315
P       -2.53230091       0.76061447      -0.47075613
O       -2.79553507       1.81720097       0.57335398
O       -2.38930013       1.10096379      -1.92494586
O       -2.52069924      -0.69046717      -0.02364808
C        2.17037478      -0.37641382       0.29492184
O        2.41159796       0.00316165       1.42116913
O        3.02196856      -1.23507916      -0.35003979
O       -1.12972138      -0.02835638       2.27664887
H       -0.02562210      -0.11960966      -2.36276566
H        1.58300533      -1.04733936      -2.23754892
H       -1.57220693      -0.55651765       1.57502160
H        3.72671007      -1.39816491       0.29443060
H       -0.09188956       0.57225478       0.98378825
H       -1.71207880       0.74834798       2.28396035
17
Properties=species:S:1:pos:R:3 relative_energy_eV=0.06137037696680636 branch=left pbc="F F F"
C        0.84131969      -0.39719031      -1.78500577
C        1.00302981       0.03066551      -0.52573052
O        0.13524698       0.87859571       0.06144894
P       -2.53423789       0.78650264      -0.48128771
O       -2.79971813       1.86354181       0.53833988
O       -2.37656179       1.08298854      -1.94350843
O       -2.52482132      -0.65115135       0.00553414
C        2.18196808      -0.35759424       0.28579705
O        2.41705455       0.04021310       1.40646253
O        3.02625712      -1.23953771      -0.33900432
O       -1.12647776      -0.09272270       2.28088780
H       -0.04409312      -0.14571417      -2.33945036
H        1.56869347      -1.04091128      -2.24571761
H       -1.59633137      -0.57141642       1.55376020
H        3.72582296      -1.39479823       0.31378678
H       -0.09862483       0.55992079       0.97764879
H       -1.67282391       0.70766064       2.31193163
17
Properties=species:S:1:pos:R:3 relative_energy_eV=0.06916923716562451 branch=left pbc="F F F"
C        0.82694625      -0.41332523      -1.78743463
C        0.99834588       0.02528171      -0.52998773
O        0.14046493       0.88220576       0.06153848
P       -2.52085467       0.79930102      -0.48415902
O       -2.79689104       1.89173637       0.51558708
O       -2.36752912       1.07386312      -1.95107020
O       -2.52595428      -0.63538510       0.01023293
C        2.17980239      -0.35044108       0.28967366
O        2.42468117       0.06403489       1.40272003
O        3.02642049      -1.23158657      -0.32878052
O       -1.12199200      -0.12640301       2.27508622
H       -0.06436134      -0.14628880      -2.33375556
H        1.57079505      -1.03705101      -2.26049034
H       -1.62166805      -0.59345916       1.56485336
H        3.72025594      -1.38997228       0.32943296
H       -0.09979061       0.55906224       0.97284446
H       -1.64296846       0.68747944       2.32960188
17
Properties=species:S:1:pos:R:3 relative_energy_eV=0.08326153253437951 branch=left pbc="F F F"
C        0.81578552      -0.41024534      -1.78516061
C        0.98396317       0.01478196      -0.52790432
O        0.12601778       0.87763318       0.05329729
P       -2.50717594       0.79894586      -0.49075136
O       -2.75880404       1.91386248       0.49138816
O       -2.33311650       1.07732556      -1.95438589
O       -2.53109268      -0.64006465       0.00088108
C        2.16847054      -0.34577056       0.28860223
O        2.41226381       0.09225909       1.39302849
O        3.02191090      -1.22729634      -0.31968413
O       -1.10194801      -0.14515602       2.27146909
H       -0.07282360      -0.15431269      -2.33212646
H        1.55059429      -1.02352785      -2.27143112
H       -1.64345206      -0.61846275       1.59041820
H        3.70901175      -1.37382785       0.34841240
H       -0.10160836       0.54900277       0.96534167
H       -1.61229409       0.67390551       2.35449833
17
Properties=species:S:1:pos:R:3 relative_energy_eV=0.12041300634882646 branch=left pbc="F F F"
C        0.79653784      -0.40506559      -1.81022366
C        0.96517157       0.02797003      -0.54927763
O        0.09383895       0.85474483       0.05839222
P       -2.45800890       0.80109391      -0.52259109
O       -2.67295678       1.89882149       0.47875185
O       -2.25489931       1.07816279      -1.98491676
O       -2.56690850      -0.62276177      -0.01318270
C        2.14416064      -0.32560695       0.27657149
O        2.37381820       0.13071021       1.37790071
O        2.99932309      -1.23025840      -0.29110790
O       -1.07036316      -0.17841568       2.29158678
H       -0.11346906      -0.15711589      -2.33492513
H        1.54195053      -1.02412334      -2.28927154
H       -1.65285882      -0.63739472       1.64314313
H        3.69352815      -1.33510458       0.37899151
H       -0.13712006       0.53199464       0.97148578
H       -1.55604190       0.65140145       2.39456592
17
Properties=species:S:1:pos:R:3 relative_energy_eV=0.16728327527744113 branch=left pbc="F F F"
C        0.77778169      -0.40607922      -1.81364397
C        0.94708108       0.02440033      -0.55882250
O        0.07932865       0.86569137       0.04266770
P       -2.42218256       0.79803171      -0.51881180
O       -2.60195803       1.90801415       0.48723749
O       -2.19395991       1.05614196      -1.98564316
O       -2.58280299      -0.63435282      -0.02789480
C        2.12008525      -0.31725528       0.28353056
O        2.35127822       0.15856060       1.37318365
O        2.97267892      -1.22301054      -0.27915885
O       -1.09032447      -0.21049161       2.33732091
H       -0.12211747      -0.16272067      -2.34854892
H        1.52595263      -1.00975298      -2.29055150
H       -1.62369894      -0.62214765       1.62513020
H        3.67084384      -1.30430963       0.38806309
H       -0.16238411       0.48608892       0.94593986
H       -1.51989937       0.65224384       2.41589502
17
Properties=species:S:1:pos:R:3 relative_energy_eV=0.2595634886820335 branch=left pbc="F F F"
C        0.75935807      -0.40756577      -1.81067188
C        0.90383913       0.01603378      -0.54643620
O        0.02850435       0.82128360       0.07473818
P       -2.36022658       0.79098513      -0.48457811
O       -2.51765135       1.91968111       0.48887395
O       -2.13170917       1.01713310      -1.94268375
O       -2.52287733      -0.62946619       0.02836265
C        2.08410017      -0.29615135       0.27943724
O        2.31237233       0.18918645       1.36972773
O        2.93679528      -1.20758045      -0.27333185
O       -1.08396393      -0.22125809       2.29263045
H       -0.12624866      -0.16421392      -2.37218080
H        1.52761441      -1.00000239      -2.28688811
H       -1.62480601      -0.58129789       1.53384815
H        3.64397008      -1.28001658       0.38586046
H       -0.20617292       0.44599875       0.93582447
H       -1.49719550       0.64630331       2.40336051
17
Properties=species:S:1:pos:R:3 relative_energy_eV=0.4338063507566403 branch=left pbc="F F F"
C        0.74530353      -0.41166836      -1.81791917
C        0.84885200      -0.00658221      -0.54789287
O       -0.08033509       0.76331970       0.06160463
P       -2.18875952       0.80215735      -0.42159015
O       -2.45854453       1.94495039       0.51664620
O       -2.09035777       0.95207591      -1.90675439
O       -2.41299041      -0.60940779       0.15480727
C        2.03447748      -0.28286102       0.28841568
O        2.27083931       0.22545121       1.36264244
O        2.90112313      -1.18069508      -0.27287193
O       -1.01908342      -0.19566212       2.15843812
H       -0.12856273      -0.15948008      -2.39258217
H        1.53901053      -0.98613268      -2.26375622
H       -1.68453926      -0.54292243       1.37584487
H        3.61354524      -1.26007032       0.37816460
H       -0.27879662       0.37686290       1.04683249
H       -1.48547959       0.62971733       2.35586375
17
Properties=species:S:1:pos:R:3 relative_energy_eV=0.4854389956271916 branch=ts pbc="F F F"
C        0.74675479      -0.40990393      -1.81691004
C        0.83526446      -0.00728558      -0.54317746
O       -0.11252495       0.74622144       0.07093976
P       -2.13384380       0.81896960      -0.41325164
O       -2.46664160       1.94388728       0.52147512
O       -2.10026457       0.93647554      -1.90133874
O       -2.40425741      -0.60973665       0.17367196
C        2.02773509      -0.28028798       0.28769876
O        2.26836190       0.22723905       1.36168778
O        2.89937535      -1.17887522      -0.27295309
O       -1.00505317      -0.19000088       2.13584809
H       -0.12439274      -0.16056549      -2.39642138
H        1.54237402      -0.98569193      -2.26097178
H       -1.76614851      -0.55435246       1.25890969
H        3.61125908      -1.25753542       0.37980128
H       -0.31218429       0.34356763       1.09334822
H       -1.50579594       0.61789436       2.32161038
17
Properties=species:S:1:pos:R:3 relative_energy_eV=0.38908818052732386 branch=right pbc="F F F"
C        0.74977061      -0.41212688      -1.81700259
C        0.82272637      -0.00306027      -0.54637256
O       -0.13245407       0.74183130       0.04697596
P       -2.07531870       0.85165228      -0.41474238
O       -2.47966549       1.94265966       0.52859060
O       -2.11340669       0.91893308      -1.90263532
O       -2.40201234      -0.61016844       0.17585955
C        2.01807496      -0.27818063       0.28775462
O        2.26787363       0.22810380       1.36131416
O        2.89803705      -1.17742183      -0.27222715
O       -0.97606589      -0.17006887       2.11424450
H       -0.12112478      -0.16176352      -2.39976005
H        1.54510715      -0.98586010      -2.25995460
H       -1.83961420      -0.58172656       1.15817321
H        3.60954435      -1.25535252       0.38153708
H       -0.36959361       0.28893630       1.19056098
H       -1.52754522       0.60459931       2.29172472
17
Properties=species:S:1:pos:R:3 relative_energy_eV=0.03204068318154896 branch=right pbc="F F F"
C        0.75225570      -0.42632564      -1.84178817
C        0.80077913       0.00275863      -0.57877981
O       -0.17503280       0.78940218      -0.04931653
P       -1.96118967       0.88488332      -0.41495554
O       -2.47118351       1.93452643       0.52795198
O       -2.12598094       0.89328678      -1.89798288
O       -2.36416406      -0.58441781       0.19233706
C        2.00004401      -0.27013536       0.28747490
O        2.25810948       0.23242878       1.36214327
O        2.88256854      -1.16942653      -0.27055181
O       -0.92035719      -0.13548055       2.14124297
H       -0.11870064      -0.16726395      -2.41064001
H        1.55392545      -0.99223994      -2.26383637
H       -1.87715905      -0.62587277       1.09425496
H        3.59878221      -1.24835271       0.38072553
H       -0.43238879       0.22500971       1.37933983
H       -1.52597476       0.59820560       2.28642144
17
Properties=species:S:1:pos:R:3 relative_energy_eV=-0.11260042372305179 branch=right pbc="F F F"
C        0.75087809      -0.43086012      -1.85107268
C        0.79427538       0.00963808      -0.59062158
O       -0.16487650       0.81272905      -0.05815396
P       -1.97421048       0.86269813      -0.42068232
O       -2.44497220       1.93406065       0.52074318
O       -2.11636001       0.89897337      -1.89593163
O       -2.35474780      -0.58391825       0.18409174
C        1.99434557      -0.26393806       0.28445121
O        2.24903255       0.23426200       1.36069328
O        2.87465533      -1.16688327      -0.27088729
O       -0.92366866      -0.14683397       2.20475109
H       -0.12071446      -0.17132009      -2.42340717
H        1.56046228      -0.99882936      -2.26928179
H       -1.89331603      -0.63700568       1.06837355
H        3.59110227      -1.24417209       0.37918775
H       -0.42192353       0.22738829       1.40856980
H       -1.52562865       0.60499751       2.29321763
17
Properties=species:S:1:pos:R:3 relative_energy_eV=-0.41460867515706923 branch=right pbc="F F F"
C        0.74390015      -0.44570938      -1.88359973
C        0.77806818       0.04813530      -0.63532415
O       -0.12963620       0.86605968      -0.08156620
P       -1.92568143       0.87369249      -0.45404772
O       -2.35905092       1.93196844       0.51759885
O       -2.10310623       0.89232580      -1.93042647
O       -2.34312565      -0.61570131       0.09774724
C        1.95395374      -0.24004324       0.25952144
O        2.19513838       0.24879542       1.34415342
O        2.83482224      -1.15237789      -0.27580885
O       -0.89584025      -0.10803318       2.38660195
H       -0.11919819      -0.20029396      -2.48661273
H        1.57032562      -1.01886968      -2.28479744
H       -1.95493084      -0.72251143       1.00863076
H        3.55141047      -1.22262293       0.37431052
H       -0.38614991       0.18500566       1.61477618
H       -1.53656602       0.62116649       2.35288378
17
Properties=species:S:1:pos:R:3 relative_energy_eV=-0.5553532142657787 branch=right pbc="F F F"
C        0.73454214      -0.44493879      -1.91915031
C        0.78059442       0.08236001      -0.68635177
O       -0.12071938       0.89238344      -0.11604323
P       -1.85577009       0.88125838      -0.48109621
O       -2.26709583       1.91854152       0.51472480
O       -2.07964574       0.89439054      -1.96182013
O       -2.29163528      -0.64432248       0.00416707
C        1.92204038      -0.21533015       0.22025011
O        2.11350238       0.27078275       1.31453625
O        2.79314081      -1.13861542      -0.29050089
O       -0.91591944      -0.06087400       2.57956039
H       -0.10841009      -0.24652051      -2.56208719
H        1.55799777      -1.03384520      -2.29233840
H       -2.03369290      -0.81195691       0.93007910
H        3.49572496      -1.19453931       0.37192858
H       -0.29261678       0.14182123       1.85282655
H       -1.55770416       0.65039128       2.44535619
17
Properties=species:S:1:pos:R:3 relative_energy_eV=-0.6229433255393815 branch=right pbc="F F F"
C        0.74059661      -0.42819398      -1.93735976
C        0.77777202       0.06335257      -0.69553208
O       -0.14118889       0.84250719      -0.12344800
P       -1.84446598       0.87533842      -0.46934858
O       -2.29994360       1.89930698       0.52518385
O       -2.05548450       0.91959896      -1.94390687
O       -2.24046315      -0.64433038      -0.01079313
C        1.92419861      -0.21582173       0.20019309
O        2.09585337       0.27359510       1.29940064
O        2.80939957      -1.13248784      -0.30023632
O       -0.96058535      -0.07413064       2.55004166
H       -0.11242369      -0.25440593      -2.56127788
H        1.54404222      -1.03792398      -2.28838320
H       -2.03706712      -0.79150886       0.93308606
H        3.49071734      -1.19741817       0.38405242
H       -0.25886223       0.16027225       1.91187966
H       -1.55776200       0.68323639       2.45048938
17
Properties=species:S:1:pos:R:3 relative_energy_eV=-0.6592489997201483 branch=right pbc="F F F"
C        0.74231894      -0.42707905      -1.95639613
C        0.76749714       0.05092729      -0.70581616
O       -0.13886999       0.82349604      -0.10265975
P       -1.84621045       0.87022345      -0.46383599
O       -2.32355258       1.87870079       0.54012758
O       -2.03435301       0.94932842      -1.94396127
O       -2.21017517      -0.66870174      -0.01931394
C        1.92103190      -0.21982943       0.18654355
O        2.08506453       0.27352172       1.28642924
O        2.82560540      -1.12123487      -0.30640891
O       -0.99820374      -0.08469599       2.52874499
H       -0.12567181      -0.25468458      -2.56738266
H        1.54858987      -1.05133871      -2.29879064
H       -2.03362399      -0.76700326       0.93969306
H        3.48845427      -1.20124007       0.39498207
H       -0.24412778       0.17997810       1.96917316
H       -1.54944031       0.71061824       2.44291272
17
Properties=species:S:1:pos:R:3 relative_energy_eV=-0.690012754399504 branch=right pbc="F F F"
C        0.72510686      -0.45110955      -1.97622877
C        0.76471299       0.05952375      -0.73241448
O       -0.11826485       0.85505344      -0.11522704
P       -1.81495739       0.85720377      -0.47510919
O       -2.30144566       1.83152259       0.55642389
O       -2.00915655       0.97973982      -1.95303041
O       -2.18069872      -0.69571222      -0.05196665
C        1.90486633      -0.21703648       0.16847812
O        2.04907436       0.27401972       1.27037286
O        2.82598301      -1.10296852      -0.31876048
O       -1.03329262      -0.06298849       2.60402520
H       -0.13022896      -0.26660711      -2.60891098
H        1.54714865      -1.06203005      -2.32812711
H       -2.04913269      -0.77664158       0.91032923
H        3.46610132      -1.19107823       0.40236140
H       -0.22015107       0.16772328       2.12736028
H       -1.55133177       0.74237224       2.44446500
17
Properties=species:S:1:pos:R:3 relative_energy_eV=-0.7178759712878673 branch=right pbc="F F F"
C        0.70941885      -0.47156482      -1.96786731
C        0.77461990       0.04862069      -0.73538672
O       -0.10395564       0.86922598      -0.15134226
P       -1.81066536       0.85031678      -0.47160192
O       -2.32499584       1.77911956       0.58994838
O       -2.00050056       1.00076214      -1.94397463
O       -2.16671193      -0.69350067      -0.04328572
C        1.91484286      -0.22378559       0.16873461
O        2.04886986       0.25347382       1.27786878
O        2.84658850      -1.09484543      -0.32518348
O       -1.06810588      -0.04367893       2.59866572
H       -0.12893197      -0.26133719      -2.60719089
H        1.52636708      -1.05160001      -2.35239342
H       -2.02137251      -0.74986487       0.92185870
H        3.47157578      -1.19042279       0.40769987
H       -0.22792363       0.15583128       2.17228099
H       -1.56478627       0.76423640       2.38521015
17
Properties=species:S:1:pos:R:3 relative_energy_eV=-0.741970187638799 branch=right pbc="F F F"
C        0.71690646      -0.46559926      -1.97656779
C        0.77299871       0.04862506      -0.73804395
O       -0.10275866       0.88405099      -0.16383746
P       -1.81375786       0.85882976      -0.46470349
O       -2.32872899       1.76347899       0.62291078
O       -2.01502108       1.00663597      -1.93909645
O       -2.14065793      -0.70108312      -0.03991195
C        1.91947330      -0.22691940       0.17226241
O        2.05051432       0.22508949       1.29238636
O        2.85871955      -1.09112423      -0.32550677
O       -1.09666675      -0.01424853       2.60253651
H       -0.14447577      -0.25853536      -2.59052432
H        1.52244862      -1.06558174      -2.36905066
H       -1.99588035      -0.74754620       0.93002672
H        3.48908183      -1.19134422       0.40511642
H       -0.22759394       0.13408991       2.18909876
H       -1.59026824       0.78216824       2.31694568
17
Properties=species:S:1:pos:R:3 relative_energy_eV=-0.7591543884482235 branch=right pbc="F F F"
C        0.72304476      -0.45636155      -1.98155387
C        0.78070630       0.06148622      -0.74233103
O       -0.09607435       0.90238185      -0.17200233
P       -1.80955451       0.85561876      -0.45721283
O       -2.31019414       1.75975984       0.63681818
O       -2.04135074       1.00835709      -1.92539489
O       -2.11351571      -0.70424473      -0.04198934
C        1.91473627      -0.23469878       0.17872450
O        2.04250439       0.20257992       1.30557758
O        2.86123936      -1.08718982      -0.32894581
O       -1.11683600       0.01781850       2.62222497
H       -0.15601402      -0.26119216      -2.57934020
H        1.51751380      -1.07801577      -2.37703869
H       -1.97770292      -0.76359773       0.92571510
H        3.49956072      -1.18778296       0.39515611
H       -0.24235201       0.11598798       2.20796656
H       -1.60137806       0.79007973       2.25766678
17
Properties=species:S:1:pos:R:3 relative_energy_eV=-0.7816631626556045 branch=right pbc="F F F"
C        0.71998681      -0.44994441      -1.98574479
C        0.80101617       0.06925007      -0.75242968
O       -0.07321367       0.91051406      -0.18159763
P       -1.78759577       0.84396775      -0.43940054
O       -2.29638338       1.72808144       0.66926571
O       -2.07454901       1.03501946      -1.89060907
O       -2.04426823      -0.72670512      -0.04619541
C        1.91212760      -0.25076930       0.17830072
O        2.00978393       0.15941845       1.31715026
O        2.87608183      -1.07082194      -0.34559847
O       -1.18380423       0.06481205       2.61468400
H       -0.16806615      -0.26688047      -2.56725902
H        1.49158218      -1.08487368      -2.38652901
H       -1.93936532      -0.77645759       0.92702315
H        3.50777162      -1.18071340       0.38113860
H       -0.27881608       0.11229028       2.28084469
H       -1.59795514       0.82479875       2.15099724
17
Properties=species:S:1:pos:R:3 relative_energy_eV=-0.7889441720399191 branch=right pbc="F F F"
C        0.71334286      -0.45536639      -1.98180446
C        0.79507061       0.06648585      -0.75012734
O       -0.07260178       0.91539818      -0.18121095
P       -1.78200477       0.84291389      -0.43772137
O       -2.28555665       1.72265862       0.67705825
O       -2.07159041       1.03513035      -1.88917075
O       -2.03600090      -0.73254451      -0.04492667
C        1.91388700      -0.24523156       0.17314710
O        2.00360671       0.14719239       1.31846386
O        2.87628037      -1.06689282      -0.35001185
O       -1.19629899       0.06219383       2.59838853
H       -0.16758338      -0.26437500      -2.57147265
H        1.49197178      -1.08184133      -2.38241379
H       -1.93493431      -0.78541998       0.92978913
H        3.50622569      -1.17968921       0.37770540
H       -0.28318326       0.12136839       2.29303061
H       -1.59629739       0.83900569       2.14531771
17
Properties=species:S:1:pos:R:3 relative_energy_eV=-0.7934722895370214 branch=right pbc="F F F"
C        0.71079159      -0.45552507      -1.97374923
C        0.79252508       0.07102180      -0.74334743
O       -0.07400582       0.92405624      -0.18130018
P       -1.78363907       0.84054721      -0.43121045
O       -2.26883767       1.73347311       0.68194597
O       -2.07703713       1.02055764      -1.88394869
O       -2.03794162      -0.73081278      -0.03791716
C        1.91006965      -0.25031543       0.18023777
O        2.00772169       0.13190074       1.32908327
O        2.87537298      -1.06242050      -0.35658841
O       -1.20219403       0.06116508       2.57495752
H       -0.16726521      -0.25935744      -2.56760981
H        1.49493178      -1.07896228      -2.37026054
H       -1.92284952      -0.79867124       0.93447726
H        3.50946948      -1.17929672       0.36723159
H       -0.28723108       0.12709120       2.26768585
H       -1.60554795       0.84653484       2.13435346
17
Properties=species:S:1:pos:R:3 relative_energy_eV=-0.794698312820401 branch=right pbc="F F F"
C        0.71162855      -0.45405166      -1.97303749
C        0.79267402       0.06877959      -0.74151883
O       -0.07185350       0.92260592      -0.17755461
P       -1.78191659       0.84053939      -0.42867744
O       -2.27372442       1.73618328       0.67996472
O       -2.07433438       1.01683043      -1.88145266
O       -2.04130868      -0.73203121      -0.03579703
C        1.90783570      -0.25499118       0.18216103
O        2.00613889       0.12709086       1.33110407
O        2.87612529      -1.05706492      -0.36097797
O       -1.20093724       0.05841317       2.56720574
H       -0.16500283      -0.25904456      -2.56840001
H        1.49504272      -1.07905407      -2.36559104
H       -1.91695511      -0.79302948       0.93639151
H        3.50812472      -1.17951672       0.36277182
H       -0.28629976       0.13278410       2.26105691
H       -1.61090424       0.84654348       2.13639204
17
Properties=species:S:1:pos:R:3 relative_energy_eV=-0.7958880189471529 branch=right pbc="F F F"
C        0.71330381      -0.45208897      -1.97221412
C        0.79045748       0.06681362      -0.73841139
O       -0.07075951       0.92331078      -0.17269322
P       -1.78066201       0.84047283      -0.42737700
O       -2.27793710       1.73715141       0.67773880
O       -2.07051827       1.01274259      -1.88094381
O       -2.04201321      -0.73080446      -0.03199040
C        1.90661946      -0.25608406       0.18217395
O        1.99947025       0.11354668       1.33557833
O        2.87705002      -1.05052897      -0.36753938
O       -1.20001715       0.05865082       2.56360616
H       -0.16184212      -0.25894990      -2.57056854
H        1.49552664      -1.08171627      -2.36114719
H       -1.90715996      -0.78707899       0.93933214
H        3.50823099      -1.17943275       0.35532050
H       -0.28681224       0.14100822       2.25619880
H       -1.61860395       0.84397385       2.13697704
17
Properties=species:S:1:pos:R:3 relative_energy_eV=-0.7983906451845542 branch=right pbc="F F F"
C        0.71381615      -0.45122116      -1.96981787
C        0.78822029       0.07222429      -0.73732250
O       -0.07251653       0.92795609      -0.16936599
P       -1.77971605       0.83985982      -0.42819517
O       -2.27903276       1.73593554       0.67651219
O       -2.06344998       1.00719601      -1.88388992
O       -2.03116047      -0.72720814      -0.02339130
C        1.90061543      -0.26183764       0.18266220
O        1.97919901       0.07192312       1.34798788
O        2.88175062      -1.03310851      -0.38381368
O       -1.20454458       0.06682603       2.56921784
H       -0.15519558      -0.25805662      -2.57627381
H        1.49419134      -1.08821962      -2.35228438
H       -1.88324133      -0.78285801       0.94637324
H        3.51222342      -1.17766853       0.33652450
H       -0.29232227       0.16005968       2.25921715
H       -1.63450352       0.83918409       2.12990009
17
Properties=species:S:1:pos:R:3 relative_energy_eV=-0.7995688101073029 branch=right pbc="F F F"
C        0.71177637      -0.45247694      -1.97063894
C        0.78907802       0.07450799      -0.74050520
O       -0.07319791       0.92891132      -0.17393704
P       -1.77957321       0.84015787      -0.43030254
O       -2.28201850       1.73654557       0.67314331
O       -2.06019494       1.00797174      -1.88682428
O       -2.02482486      -0.72979110      -0.02137538
C        1.89666500      -0.26932346       0.18322049
O        1.97174215       0.05392944       1.35173381
O        2.88674115      -1.02390481      -0.38912319
O       -1.20620202       0.06862832       2.57495192
H       -0.15428058      -0.25530034      -2.57947897
H        1.49350423      -1.08891009      -2.34809433
H       -1.87795622      -0.78258074       0.94965473
H        3.51482065      -1.17608673       0.33169228
H       -0.29424129       0.16987196       2.26674520
H       -1.63750483       0.83883644       2.13317850
17
Properties=species:S:1:pos:R:3 relative_energy_eV=-0.8005644568038406 branch=right pbc="F F F"
C        0.71136176      -0.45078552      -1.97316303
C        0.78860536       0.07167358      -0.74106836
O       -0.06919992       0.93576122      -0.18133802
P       -1.77802496       0.83910189      -0.43151538
O       -2.28461955       1.73776839       0.66742186
O       -2.06375261       1.00577683      -1.88686636
O       -2.01811331      -0.73224118      -0.02015547
C        1.89536092      -0.27600940       0.18375178
O        1.96221105       0.02858636       1.35805720
O        2.89440340      -1.01491031      -0.39449639
O       -1.20853725       0.07433232       2.57983148
H       -0.15577750      -0.25033424      -2.58119968
H        1.49259261      -1.09063056      -2.34634427
H       -1.87372844      -0.78485503       0.95122058
H        3.51989050      -1.17205372       0.32768165
H       -0.29599937       0.17795742       2.27459362
H       -1.64233946       0.84184845       2.13762904
17
Properties=species:S:1:pos:R:3 relative_energy_eV=-0.8010865435790038 branch=right pbc="F F F"
C        0.71231540      -0.44963016      -1.97378787
C        0.78919604       0.07174690      -0.74098828
O       -0.06724249       0.93909194      -0.18293219
P       -1.77795046       0.83832849      -0.43225586
O       -2.28424255       1.73716246       0.66645205
O       -2.06822973       1.00201848      -1.88716817
O       -2.01354651      -0.73118555      -0.02001924
C        1.89488181      -0.27955933       0.18372856
O        1.95514057       0.01264488       1.36131386
O        2.89912424      -1.01033751      -0.39697780
O       -1.21047752       0.07927892       2.58228876
H       -0.15511950      -0.24786468      -2.58101829
H        1.49066007      -1.09242921      -2.34922698
H       -1.87168766      -0.78646923       0.95091224
H        3.52377400      -1.16873144       0.32588903
H       -0.29702323       0.18111694       2.27839410
H       -1.64523920       0.84580457       2.13943627
17
Properties=species:S:1:pos:R:3 relative_energy_eV=-0.8017321329716651 branch=right pbc="F F F"
C        0.71369199      -0.44940261      -1.97461289
C        0.79170604       0.07265126      -0.74232791
O       -0.06672808       0.93695984      -0.18199029
P       -1.77924880       0.83787128      -0.43313635
O       -2.28601976       1.73741170       0.66519701
O       -2.07136539       0.99583038      -1.88871915
O       -2.01186134      -0.73151739      -0.02036831
C        1.89357751      -0.28622097       0.18386155
O        1.94692672      -0.00436787       1.36427118
O        2.90583001      -1.00400277      -0.39856443
O       -1.21035003       0.08164500       2.58287182
H       -0.15244654      -0.24378052      -2.58086495
H        1.48793654      -1.09343799      -2.35555888
H       -1.87258072      -0.78395315       0.95067339
H        3.52826915      -1.16383488       0.32604599
H       -0.29751547       0.18652380       2.27917648
H       -1.64548855       0.85261134       2.14808584
17
Properties=species:S:1:pos:R:3 relative_energy_eV=-0.8022027412407624 branch=right pbc="F F F"
C        0.71469506      -0.44877441      -1.97696987
C        0.79296497       0.07082087      -0.74354552
O       -0.06787082       0.93175122      -0.18226694
P       -1.77936100       0.83564456      -0.43283013
O       -2.28421200       1.73891473       0.66338141
O       -2.06987615       0.99133597      -1.88873001
O       -2.01734370      -0.73453686      -0.01906291
C        1.89293114      -0.28855133       0.18568176
O        1.94135103      -0.01469947       1.36864936
O        2.90904229      -0.99879299      -0.39829647
O       -1.20858963       0.08379706       2.58458793
H       -0.15167742      -0.23923325      -2.58211572
H        1.48779644      -1.09253188      -2.36074858
H       -1.87566937      -0.78002426       0.95219529
H        3.53085429      -1.15921030       0.32667481
H       -0.29821681       0.18803977       2.27349177
H       -1.64248499       0.85703703       2.15394390
17
Properties=species:S:1:pos:R:3 relative_energy_eV=-0.8028309911242104 branch=right pbc="F F F"
C        0.71681115      -0.44586066      -1.98133015
C        0.79285870       0.06596882      -0.74417764
O       -0.06843011       0.92592145      -0.18248667
P       -1.77825136       0.83111190      -0.43283544
O       -2.27704382       1.73845754       0.66229583
O       -2.06974770       0.98576846      -1.88861391
O       -2.02191872      -0.73535519      -0.01360817
C        1.89068311      -0.29289418       0.18802020
O        1.92870625      -0.03436247       1.37443476
O        2.91519474      -0.98862152      -0.39850469
O       -1.20868209       0.09352757       2.58916299
H       -0.15097498      -0.23245627      -2.58418680
H        1.48778045      -1.09088511      -2.36882798
H       -1.87942177      -0.77959661       0.95751929
H        3.53637922      -1.15121030       0.32656807
H       -0.29995168       0.18601300       2.26741816
H       -1.63965793       0.86546005       2.15319218
17
Properties=species:S:1:pos:R:3 relative_energy_eV=-0.8033313302839815 branch=right pbc="F F F"
C        0.71823449      -0.44383083      -1.98439434
C        0.79159163       0.06043097      -0.74427922
O       -0.06887517       0.91909319      -0.17975733
P       -1.77818426       0.82888334      -0.43287772
O       -2.27547729       1.73966871       0.65986591
O       -2.06799255       0.98168603      -1.88961422
O       -2.02547223      -0.73485918      -0.00676822
C        1.88750233      -0.30029000       0.18819597
O        1.91741729      -0.04941546       1.37623138
O        2.92236215      -0.97878385      -0.39948801
O       -1.20682659       0.09966719       2.58999446
H       -0.14849602      -0.22691812      -2.58705748
H        1.48907227      -1.08786458      -2.37327506
H       -1.88390590      -0.77875001       0.96469313
H        3.54070515      -1.14493071       0.32729630
H       -0.29990289       0.18538737       2.26158683
H       -1.63741889       0.87181243       2.15368757
17
Properties=species:S:1:pos:R:3 relative_energy_eV=-0.8039163222892967 branch=right pbc="F F F"
C        0.71868013      -0.44416131      -1.98636988
C        0.79012900       0.05513756      -0.74455420
O       -0.07041676       0.91062204      -0.17537210
P       -1.77995869       0.82800155      -0.43059931
O       -2.27811226       1.74664944       0.65544535
O       -2.06504645       0.97497124      -1.88889485
O       -2.03238994      -0.73571102       0.00037581
C        1.88526076      -0.30784127       0.18705947
O        1.90737912      -0.06364669       1.37721421
O        2.93009024      -0.97075644      -0.40039173
O       -1.20194726       0.10346411       2.58943875
H       -0.14372615      -0.22110689      -2.59226789
H        1.49327620      -1.08216199      -2.37674762
H       -1.89280921      -0.77564771       0.97242403
H        3.54435577      -1.13745479       0.32986595
H       -0.29826997       0.18414918       2.25220825
H       -1.63216089       0.87647951       2.15520563
17
Properties=species:S:1:pos:R:3 relative_energy_eV=-0.8042707516433438 branch=right pbc="F F F"
C        0.71907134      -0.44436348      -1.98756401
C        0.78953859       0.05428579      -0.74500574
O       -0.07101832       0.90929932      -0.17455925
P       -1.78069144       0.82694083      -0.42839994
O       -2.27701259       1.75010590       0.65478889
O       -2.06669938       0.96941990      -1.88658093
O       -2.03460647      -0.73501420       0.00380613
C        1.88470826      -0.30965675       0.18687855
O        1.90175121      -0.07665182       1.37914346
O        2.93302350      -0.96737490      -0.40117936
O       -1.20174502       0.10936296       2.59189627
H       -0.14114312      -0.21904629      -2.59641459
H        1.49666865      -1.07889113      -2.37912521
H       -1.89856031      -0.77599406       0.97594996
H        3.54678235      -1.13153427       0.33036559
H       -0.29780841       0.18035446       2.25127569
H       -1.62792512       0.87974428       2.14876431
17
Properties=species:S:1:pos:R:3 relative_energy_eV=-0.8046117456506181 branch=right pbc="F F F"
C        0.72212683      -0.44065396      -1.99080115
C        0.78902316       0.05336942      -0.74588400
O       -0.07198213       0.90681052      -0.17411630
P       -1.78185218       0.82486871      -0.42880054
O       -2.27703789       1.75029494       0.65289062
O       -2.06819978       0.96193371      -1.88756773
O       -2.03834409      -0.73392543       0.00971766
C        1.88137775      -0.31635965       0.18776919
O        1.89318426      -0.10102334       1.38337682
O        2.93677893      -0.95754355      -0.40435640
O       -1.20144025       0.11543553       2.59310863
H       -0.13703363      -0.21735584      -2.60246167
H        1.50112103      -1.07552697      -2.37938553
H       -1.90456181      -0.77232762       0.98233381
H        3.54967178      -1.12345026       0.32744156
H       -0.29599818       0.18045248       2.25533108
H       -1.62249998       0.88598788       2.14544375
17
Properties=species:S:1:pos:R:3 relative_energy_eV=-0.804760616949352 branch=right pbc="F F F"
C        0.72425442      -0.43870797      -1.99185130
C        0.78863128       0.05261885      -0.74590328
O       -0.07371930       0.90393952      -0.17371696
P       -1.78377807       0.82376985      -0.42924778
O       -2.27773413       1.75147733       0.65105554
O       -2.06828024       0.95904856      -1.88860163
O       -2.04342028      -0.73469345       0.01217998
C        1.88016116      -0.31900666       0.18792446
O        1.89118378      -0.10649793       1.38426806
O        2.93781254      -0.95509043      -0.40505440
O       -1.19918127       0.11570394       2.59220632
H       -0.13449895      -0.21708046      -2.60435037
H        1.50430227      -1.07256734      -2.37913717
H       -1.91026491      -0.76863987       0.98518984
H        3.55011641      -1.12063921       0.32721763
H       -0.29366131       0.17890964       2.25552004
H       -1.61758957       0.88844221       2.14634085
17
Properties=species:S:1:pos:R:3 relative_energy_eV=-0.8049134173306811 branch=right pbc="F F F"
C        0.72612926      -0.43820280      -1.99044466
C        0.78817141       0.05331584      -0.74472463
O       -0.07605023       0.90354124      -0.17426984
P       -1.78614164       0.82299255      -0.42991301
O       -2.27691400       1.75234000       0.65040499
O       -2.07064930       0.95911631      -1.88912379
O       -2.04730512      -0.73520196       0.01225552
C        1.88052236      -0.31698580       0.18805940
O        1.89309810      -0.10009596       1.38362994
O        2.93584820      -0.95873882      -0.40471243
O       -1.19767204       0.11450537       2.59093381
H       -0.13316684      -0.21844082      -2.60220379
H        1.50761279      -1.06987385      -2.37812467
H       -1.91454333      -0.76687816       0.98543895
H        3.54965426      -1.12237633       0.32674649
H       -0.29129699       0.17346808       2.25586187
H       -1.61296307       0.88850169       2.14422577
17
Properties=species:S:1:pos:R:3 relative_energy_eV=-0.8049827223476314 branch=right pbc="F F F"
C        0.72691028      -0.43850771      -1.99017710
C        0.78806811       0.05291198      -0.74432099
O       -0.07658707       0.90307469      -0.17430941
P       -1.78670755       0.82257790      -0.43051156
O       -2.27733835       1.75283435       0.64901131
O       -2.07285064       0.95668833      -1.88962798
O       -2.04786557      -0.73445971       0.01378168
C        1.87964415      -0.31775594       0.18912812
O        1.89005624      -0.10511187       1.38532392
O        2.93605288      -0.95600559      -0.40546538
O       -1.19778811       0.11610373       2.59112926
H       -0.13205808      -0.21702247      -2.60202855
H        1.51011350      -1.06827025      -2.37808747
H       -1.91496633      -0.76586852       0.98701497
H        3.55130574      -1.12268225       0.32398254
H       -0.29078992       0.17214892       2.25657455
H       -1.61086541       0.89033103       2.14262203
