17
Properties=species:S:1:pos:R:3 relative_energy_eV=0.0 branch=left pbc="F F F"
C        0.61175303      -1.07732393       0.31990203
C       -0.12996140      -1.03015539       1.52299487
O        0.24142975      -0.64534467       2.64326093
P        0.64098078       2.06553145      -1.22919602
O        0.17866828       3.47621683      -1.19121618
O        1.60111124       1.61968939      -0.03098390
O        1.56756764       1.80227955      -2.56582975
C       -1.62616615      -1.42082422       1.42982970
O       -2.57226610      -0.74359373       1.76627071
O       -1.79799235      -2.70005553       0.96771638
O       -0.50236086       0.96113302      -1.34210347
H        1.68512792      -1.20028725       0.44805632
H        0.22973338      -1.71264261      -0.47165468
H        1.59190909       2.64962498      -3.02070242
H       -2.75930652      -2.84286462       0.99460600
H       -0.29007174       0.16453581      -0.73220064
H        1.34939484       0.69440224       0.29808002
17
Properties=species:S:1:pos:R:3 relative_energy_eV=2.8442093025660142e-05 branch=left pbc="F F F"
C        0.61149447      -1.07688010       0.31947104
C       -0.12994696      -1.03071186       1.52270692
O        0.24096227      -0.64539104       2.64289805
P        0.64125778       2.06612983      -1.22924418
O        0.17896880       3.47688855      -1.19206368
O        1.60131910       1.62010055      -0.03083046
O        1.56765595       1.80181553      -2.56588417
C       -1.62615852      -1.42140221       1.42993500
O       -2.57223999      -0.74478120       1.76763455
O       -1.79834729      -2.70059788       0.96824931
O       -0.50253344       0.96227458      -1.34205738
H        1.68477017      -1.20002611       0.44744087
H        0.22995992      -1.71305777      -0.47140667
H        1.59291577       2.64906755      -3.02090963
H       -2.75969300      -2.84357039       0.99489548
H       -0.29000790       0.16544933      -0.73272993
H        1.34917368       0.69501402       0.29872481
17
Properties=species:S:1:pos:R:3 relative_energy_eV=7.149658267735504e-05 branch=left pbc="F F F"
C        0.61184814      -1.07654432       0.31986757
C       -0.13008957      -1.03066545       1.52299354
O        0.24013699      -0.64521131       2.64333453
P        0.64203204       2.06611831      -1.22941371
O        0.17801863       3.47608909      -1.19169665
O        1.60279544       1.61942105      -0.03185366
O        1.56681203       1.80340620      -2.56713210
C       -1.62667829      -1.42148158       1.42948629
O       -2.57252523      -0.74500083       1.76813800
O       -1.79914275      -2.70109525       0.96859137
O       -0.50158683       0.96233365      -1.34192438
H        1.68486181      -1.20087426       0.44838992
H        0.23073426      -1.71369324      -0.47059546
H        1.59262201       2.65083618      -3.02174367
H       -2.76059505      -2.84364579       0.99485990
H       -0.28900784       0.16553320      -0.73300960
H        1.34931502       0.69479572       0.29853805
17
Properties=species:S:1:pos:R:3 relative_energy_eV=0.0003366854325577151 branch=left pbc="F F F"
C        0.60990268      -1.07339266       0.32024414
C       -0.13209629      -1.03217064       1.52417133
O        0.24015663      -0.65343567       2.64621818
P        0.64374312       2.06802355      -1.23212909
O        0.18183877       3.47838245      -1.19570028
O        1.60358040       1.62251945      -0.03367816
O        1.56670990       1.80167838      -2.57028701
C       -1.62811036      -1.42660759       1.43317626
O       -2.57327570      -0.74973113       1.77285075
O       -1.80116433      -2.70616140       0.97108889
O       -0.50192223       0.96642606      -1.34033798
H        1.68369754      -1.19532076       0.44830466
H        0.23049505      -1.71032274      -0.47191139
H        1.59795538       2.64979668      -3.02314708
H       -2.76318680      -2.84600126       0.99518693
H       -0.28625840       0.16736871      -0.73521484
H        1.34748558       0.69926999       0.29799463
17
Properties=species:S:1:pos:R:3 relative_energy_eV=0.0005892686458537355 branch=left pbc="F F F"
C        0.60745986      -1.07081351       0.31919799
C       -0.13250595      -1.03568721       1.52449278
O        0.24076354      -0.66029044       2.64729084
P        0.64363948       2.07033588      -1.23386512
O        0.18731790       3.48293778      -1.20069673
O        1.60159929       1.62694830      -0.03280756
O        1.56799620       1.79659389      -2.57036949
C       -1.62808237      -1.43043370       1.43613553
O       -2.57354160      -0.75480274       1.77755538
O       -1.80156015      -2.70938091       0.97389384
O       -0.50423176       0.97063437      -1.33988194
H        1.68175398      -1.18937451       0.44579185
H        0.22928879      -1.70655236      -0.47410864
H        1.60391962       2.64479185      -3.02294455
H       -2.76383983      -2.84851768       0.99551311
H       -0.28632442       0.16990189      -0.73723040
H        1.34589840       0.70403055       0.29886307
17
Properties=species:S:1:pos:R:3 relative_energy_eV=0.0007860644873289857 branch=left pbc="F F F"
C        0.60607221      -1.06899816       0.31909044
C       -0.13216171      -1.03942836       1.52545356
O        0.24134128      -0.66491574       2.64838784
P        0.64340536       2.07177198      -1.23489022
O        0.19056618       3.48590727      -1.20409502
O        1.60110318       1.62878666      -0.03313505
O        1.56797434       1.79478320      -2.57060069
C       -1.62832720      -1.43201560       1.43689047
O       -2.57413337      -0.75758187       1.78001410
O       -1.80164047      -2.71079604       0.97529944
O       -0.50491385       0.97222948      -1.34079539
H        1.68018391      -1.18621735       0.44574792
H        0.22829471      -1.70371031      -0.47487756
H        1.60729401       2.64271282      -3.02351638
H       -2.76390121      -2.85015158       0.99584434
H       -0.28712638       0.17164281      -0.73756354
H        1.34552003       0.70630227       0.29957570
17
Properties=species:S:1:pos:R:3 relative_energy_eV=0.001143280795076862 branch=left pbc="F F F"
C        0.60451979      -1.06686441       0.32188691
C       -0.13319699      -1.04337330       1.52859236
O        0.24244866      -0.67331597       2.65227521
P        0.64460176       2.07243331      -1.23753967
O        0.19242036       3.48672233      -1.20643102
O        1.60463200       1.62768412      -0.03818500
O        1.56535629       1.79853748      -2.57499766
C       -1.63009584      -1.43362015       1.43728140
O       -2.57559210      -0.75874030       1.78059095
O       -1.80277340      -2.71215739       0.97434845
O       -0.50189136       0.97109169      -1.34427237
H        1.67828698      -1.18301755       0.45121219
H        0.22775768      -1.70101786      -0.47328093
H        1.60909483       2.64680654      -3.02655292
H       -2.76476304      -2.85223529       0.99703706
H       -0.28806163       0.17377605      -0.73504517
H        1.34680704       0.70761226       0.29991017
17
Properties=species:S:1:pos:R:3 relative_energy_eV=0.001810207948437892 branch=left pbc="F F F"
C        0.60085617      -1.06407310       0.32478655
C       -0.13570903      -1.04490656       1.53178429
O        0.24461322      -0.68798297       2.65837115
P        0.64751970       2.07261922      -1.24285457
O        0.19495101       3.48629844      -1.20964570
O        1.60756309       1.62896202      -0.04296119
O        1.56488848       1.79978633      -2.58230805
C       -1.63095148      -1.43681551       1.43943887
O       -2.57590017      -0.76081736       1.78136721
O       -1.80392023      -2.71376003       0.97094313
O       -0.49877684       0.97175601      -1.34925393
H        1.67503870      -1.17782104       0.45545135
H        0.22666136      -1.69889855      -0.47152957
H        1.61283980       2.65025117      -3.02913903
H       -2.76531282      -2.85727670       1.00009107
H       -0.29269394       0.18078537      -0.72959151
H        1.34788405       0.71221498       0.30187994
17
Properties=species:S:1:pos:R:3 relative_energy_eV=0.002222175848146435 branch=left pbc="F F F"
C        0.59804037      -1.06073609       0.32245076
C       -0.13458652      -1.04694162       1.53183531
O        0.24665518      -0.69659348       2.66027838
P        0.64819695       2.07410921      -1.24503132
O        0.19885556       3.48918425      -1.21688014
O        1.60307334       1.63522957      -0.03905191
O        1.56985556       1.79166321      -2.58111646
C       -1.62941021      -1.43907911       1.44053942
O       -2.57493564      -0.76527624       1.78506218
O       -1.80241217      -2.71522486       0.97042354
O       -0.50226852       0.97750297      -1.34950336
H        1.67232835      -1.17436202       0.45011236
H        0.22312225      -1.69522548      -0.47370046
H        1.62001231       2.64237252      -3.02783449
H       -2.76336307      -2.86216616       1.00234343
H       -0.29907476       0.18834281      -0.72693855
H        1.34546214       0.71752226       0.30384134
17
Properties=species:S:1:pos:R:3 relative_energy_eV=0.0030034159499336965 branch=left pbc="F F F"
C        0.59448661      -1.05285423       0.31768490
C       -0.13193594      -1.05304747       1.53158701
O        0.25104886      -0.71032986       2.66152621
P        0.64838016       2.07798566      -1.24670527
O        0.20448245       3.49529543      -1.23629834
O        1.59359505       1.64656450      -0.03050606
O        1.58075335       1.77734141      -2.57278259
C       -1.62809443      -1.44329096       1.44126438
O       -2.57409340      -0.77348889       1.79284265
O       -1.79832403      -2.71892359       0.96935688
O       -0.51044660       0.98903583      -1.34466698
H        1.66911004      -1.16969637       0.43662065
H        0.21366804      -1.68362773      -0.47869762
H        1.63625714       2.62445628      -3.02616044
H       -2.75819039      -2.87032492       1.00729139
H       -0.30936280       0.20003807      -0.72055022
H        1.33821710       0.72518854       0.30502353
17
Properties=species:S:1:pos:R:3 relative_energy_eV=0.004094285723112989 branch=left pbc="F F F"
C        0.59252198      -1.04763852       0.31674531
C       -0.13319026      -1.05579909       1.53096930
O        0.25303562      -0.72069534       2.66170539
P        0.64849340       2.08029831      -1.24738917
O        0.20657441       3.49740314      -1.25109358
O        1.58975455       1.65134101      -0.02807063
O        1.58685334       1.77259447      -2.56578556
C       -1.62859206      -1.44662816       1.44236184
O       -2.57396247      -0.77766305       1.79734138
O       -1.79567265      -2.72118295       0.96675153
O       -0.51359860       0.99423605      -1.33874716
H        1.66873793      -1.16656304       0.42523025
H        0.20753514      -1.67358888      -0.48072344
H        1.64809181       2.61440529      -3.02713747
H       -2.75440913      -2.87522325       1.01209012
H       -0.31446065       0.20520142      -0.71324486
H        1.33183893       0.72982426       0.30582679
17
Properties=species:S:1:pos:R:3 relative_energy_eV=0.00541650531522464 branch=left pbc="F F F"
C        0.59086889      -1.04417238       0.31437750
C       -0.13047273      -1.05452315       1.53019750
O        0.25585600      -0.73233367       2.66501455
P        0.64750009       2.08527862      -1.24721745
O        0.21183771       3.50447296      -1.26819924
O        1.58122867       1.65620504      -0.02231602
O        1.59141818       1.76302859      -2.55692870
C       -1.62504751      -1.44944730       1.44382460
O       -2.57238970      -0.78527938       1.80209644
O       -1.79209064      -2.72365958       0.96700531
O       -0.51788054       1.00231565      -1.33424615
H        1.66747274      -1.16514292       0.41442662
H        0.19874557      -1.65919384      -0.48790553
H        1.66223319       2.59822490      -3.02861315
H       -2.75051732      -2.88186362       1.01452959
H       -0.32191843       0.21271638      -0.70998872
H        1.32270721       0.73369539       0.31077292
17
Properties=species:S:1:pos:R:3 relative_energy_eV=0.007474057347280905 branch=left pbc="F F F"
C        0.58508208      -1.03713420       0.30381683
C       -0.12237336      -1.05736668       1.52782341
O        0.27104186      -0.74253071       2.66299974
P        0.64595584       2.09414181      -1.24523304
O        0.22364883       3.51743702      -1.29663178
O        1.55854929       1.67198041      -0.00141677
O        1.60106686       1.73512547      -2.53928161
C       -1.61823059      -1.45677345       1.44640669
O       -2.56777046      -0.79938030       1.81135300
O       -1.78519180      -2.73103643       0.96825020
O       -0.53205760       1.02406828      -1.32705221
H        1.66081275      -1.15991048       0.39938714
H        0.18060765      -1.63808671      -0.50483524
H        1.68733543       2.56063074      -3.02561229
H       -2.74347483      -2.89276116       1.01762910
H       -0.33286533       0.22988756      -0.71204253
H        1.30741495       0.74203045       0.32126946
17
Properties=species:S:1:pos:R:3 relative_energy_eV=0.01017596352903638 branch=left pbc="F F F"
C        0.57717292      -1.02855167       0.29356899
C       -0.11811497      -1.06383514       1.52456711
O        0.29064979      -0.74872023       2.65419534
P        0.64528280       2.10083353      -1.24294403
O        0.23568472       3.52626530      -1.32265538
O        1.53517170       1.68945900       0.02118714
O        1.61060653       1.70629893      -2.52183884
C       -1.61337063      -1.46668826       1.45072165
O       -2.56257639      -0.81087425       1.82001364
O       -1.77767861      -2.73944169       0.96697133
O       -0.54767421       1.04678153      -1.31881705
H        1.65319038      -1.15337675       0.38340111
H        0.16378205      -1.61774830      -0.51997318
H        1.71246199       2.52194668      -3.02168476
H       -2.73515921      -2.90207772       1.02204366
H       -0.34075125       0.24751897      -0.71503756
H        1.29087413       0.75253164       0.33311095
17
Properties=species:S:1:pos:R:3 relative_energy_eV=0.012163207949924981 branch=left pbc="F F F"
C        0.57389614      -1.02258907       0.29226838
C       -0.11892508      -1.06780761       1.52350355
O        0.29971786      -0.75435737       2.64960944
P        0.64587964       2.10260138      -1.24277252
O        0.24494825       3.52895869      -1.33143055
O        1.52343209       1.69662282       0.03059592
O        1.61220131       1.69312022      -2.51580018
C       -1.61100216      -1.47248014       1.45515202
O       -2.55949962      -0.81474849       1.82281377
O       -1.77192485      -2.74323491       0.96640528
O       -0.55497186       1.05760330      -1.31777459
H        1.65020061      -1.15456007       0.37543331
H        0.15805396      -1.60254604      -0.52437518
H        1.72417063       2.50333218      -3.02225351
H       -2.72879455      -2.90593060       1.02271970
H       -0.34611593       0.25759344      -0.71859207
H        1.27828533       0.75874385       0.34132744
17
Properties=species:S:1:pos:R:3 relative_energy_eV=0.015810269502253504 branch=left pbc="F F F"
C        0.57156312      -1.00719741       0.28574982
C       -0.11272863      -1.06857024       1.52037912
O        0.30938445      -0.77376001       2.65014174
P        0.64544385       2.11035942      -1.24053688
O        0.28076069       3.54404457      -1.34833670
O        1.49392223       1.71228704       0.05079075
O        1.61269297       1.66118258      -2.49575834
C       -1.60086500      -1.47943386       1.46234723
O       -2.55166451      -0.82728691       1.83301640
O       -1.75700586      -2.75044261       0.97441905
O       -0.57189670       1.08330807      -1.32530629
H        1.64668214      -1.15351225       0.35362055
H        0.14785680      -1.57896095      -0.53015778
H        1.74620260       2.45607538      -3.01973339
H       -2.71405732      -2.91660343       1.01675157
H       -0.37599159       0.27828949      -0.73411047
H        1.24925271       0.77054274       0.35355392
17
Properties=species:S:1:pos:R:3 relative_energy_eV=0.017225945426616818 branch=left pbc="F F F"
C        0.56889878      -1.00127222       0.27764081
C       -0.10781725      -1.06769942       1.51764621
O        0.31457380      -0.77766137       2.64883241
P        0.64397864       2.11487299      -1.23785023
O        0.29442954       3.55198437      -1.35869101
O        1.48175393       1.72114856       0.06180397
O        1.61635702       1.64557910      -2.48281935
C       -1.59706171      -1.48170943       1.46279772
O       -2.54834011      -0.83379284       1.83979196
O       -1.75261470      -2.75433152       0.97732524
O       -0.58034646       1.09435897      -1.32552096
H        1.64427024      -1.14547805       0.34146114
H        0.14207191      -1.57819203      -0.53489775
H        1.75603551       2.43415114      -3.01453906
H       -2.70992232      -2.92159334       1.01616493
H       -0.38784638       0.28412184      -0.73888517
H        1.24113163       0.77583486       0.35656946
17
Properties=species:S:1:pos:R:3 relative_energy_eV=0.01816433700878406 branch=left pbc="F F F"
C        0.56519290      -0.99810804       0.27175051
C       -0.10551906      -1.06773548       1.51642973
O        0.31984666      -0.77860967       2.64686984
P        0.64334274       2.11777095      -1.23551435
O        0.30290129       3.55705717      -1.36654112
O        1.47331660       1.72540760       0.07008117
O        1.62071973       1.63413241      -2.47337977
C       -1.59545894      -1.48325108       1.46184248
O       -2.54610824      -0.83743307       1.84467282
O       -1.74922472      -2.75729166       0.97761914
O       -0.58716186       1.10327315      -1.32335693
H        1.64253967      -1.13276808       0.33131057
H        0.13790004      -1.58163543      -0.53801744
H        1.76262393       2.41917580      -3.00984545
H       -2.70648347      -2.92432462       1.01711552
H       -0.39441758       0.28761730      -0.74195082
H        1.23554243       0.77704434       0.35774441
17
Properties=species:S:1:pos:R:3 relative_energy_eV=0.01968177363232826 branch=left pbc="F F F"
C        0.56050680      -0.99854970       0.26904102
C       -0.10553383      -1.06919498       1.51545103
O        0.32396371      -0.78121734       2.64465585
P        0.64437891       2.11938484      -1.23368480
O        0.31256007       3.55970142      -1.37341064
O        1.46280367       1.72531339       0.07806388
O        1.62399018       1.62304826      -2.46507974
C       -1.59327444      -1.48436368       1.46235043
O       -2.54392589      -0.84030976       1.84847721
O       -1.74343515      -2.75817300       0.97708170
O       -0.59406916       1.11498943      -1.32023549
H        1.64119371      -1.11283220       0.31829925
H        0.13471621      -1.58448743      -0.53926354
H        1.76931955       2.40404008      -3.00645034
H       -2.69999105      -2.92606581       1.01826091
H       -0.40051032       0.29410353      -0.74705106
H        1.22685917       0.77493457       0.36032466
17
Properties=species:S:1:pos:R:3 relative_energy_eV=0.020654409538110485 branch=left pbc="F F F"
C        0.55734612      -1.00065308       0.26496538
C       -0.10511973      -1.07000477       1.51162459
O        0.32494723      -0.78043206       2.64035641
P        0.64420227       2.11949083      -1.23217191
O        0.31669530       3.55913235      -1.37851508
O        1.45659086       1.72837422       0.08366790
O        1.62535570       1.61698196      -2.45790118
C       -1.59121788      -1.48546634       1.46475090
O       -2.54249212      -0.84311226       1.85142716
O       -1.74160007      -2.75742199       0.97662595
O       -0.59748668       1.12042910      -1.31700279
H        1.63888777      -1.10192089       0.30775399
H        0.13315963      -1.58712025      -0.54199265
H        1.77515792       2.39379333      -3.00373671
H       -2.69740855      -2.92752899       1.02052619
H       -0.40180055       0.29772879      -0.74822963
H        1.22433491       0.77805162       0.36468182
17
Properties=species:S:1:pos:R:3 relative_energy_eV=0.022716711511748144 branch=left pbc="F F F"
C        0.54776938      -0.99163688       0.24999944
C       -0.09941737      -1.06810065       1.50470605
O        0.33589762      -0.77392787       2.63071975
P        0.64170656       2.11777388      -1.22745048
O        0.32610656       3.55836654      -1.38674874
O        1.45155112       1.73466971       0.09339609
O        1.63086990       1.60378445      -2.44153602
C       -1.58719445      -1.49004628       1.46860032
O       -2.53946024      -0.84850905       1.85456528
O       -1.74215936      -2.75748156       0.97049664
O       -0.60562668       1.12594952      -1.30827788
H        1.62915165      -1.07991308       0.28863062
H        0.12966348      -1.59616949      -0.54660370
H        1.78637854       2.37365433      -2.99650802
H       -2.69692138      -2.93369553       1.02726668
H       -0.40169738       0.29689078      -0.74729483
H        1.21293427       0.78871267       0.37286918
17
Properties=species:S:1:pos:R:3 relative_energy_eV=0.024498960650817025 branch=left pbc="F F F"
C        0.53979562      -0.98666268       0.23849707
C       -0.09901591      -1.06556870       1.49848070
O        0.34644473      -0.76632561       2.61892385
P        0.63960657       2.11883727      -1.22477521
O        0.32993603       3.56022120      -1.39392702
O        1.44689729       1.74402559       0.10109215
O        1.63665380       1.59092552      -2.42819430
C       -1.58645622      -1.49344373       1.46583329
O       -2.53530422      -0.85262157       1.86118717
O       -1.74352782      -2.76123865       0.96680119
O       -0.60916946       1.12934019      -1.30036860
H        1.62261485      -1.06573457       0.27158676
H        0.12621292      -1.60383191      -0.55220490
H        1.79559837       2.35635580      -2.98791963
H       -2.69753395      -2.93772442       1.03378939
H       -0.40132675       0.29300818      -0.74399194
H        1.20812647       0.80075950       0.38202044
17
Properties=species:S:1:pos:R:3 relative_energy_eV=0.026643163349945098 branch=left pbc="F F F"
C        0.53466939      -0.98791121       0.23079713
C       -0.10071559      -1.06298403       1.49004551
O        0.35339069      -0.76077669       2.60623257
P        0.64025026       2.11913498      -1.22335177
O        0.33192561       3.56080360      -1.39611057
O        1.44456474       1.75132298       0.10730216
O        1.63833369       1.57789601      -2.42071087
C       -1.58584162      -1.49410472       1.46064724
O       -2.53128052      -0.85629348       1.86862844
O       -1.74348425      -2.76359094       0.96486358
O       -0.60703730       1.13023856      -1.29457421
H        1.61953884      -1.05105512       0.25418924
H        0.12053487      -1.60700586      -0.55640894
H        1.80369335       2.34099836      -2.98130717
H       -2.69665409      -2.94089210       1.03981707
H       -0.40147176       0.28923109      -0.74103955
H        1.19913606       0.81530995       0.39781065
17
Properties=species:S:1:pos:R:3 relative_energy_eV=0.028486068818892818 branch=left pbc="F F F"
C        0.52849745      -0.99634232       0.21190169
C       -0.10027281      -1.06235052       1.47180188
O        0.35575720      -0.74927001       2.58535876
P        0.63772195       2.11996256      -1.21885220
O        0.33256714       3.55961156      -1.40867124
O        1.43585750       1.77304686       0.12370181
O        1.64133528       1.55949473      -2.40110220
C       -1.58376965      -1.49681036       1.46061853
O       -2.52661001      -0.86463209       1.88353765
O       -1.74483254      -2.76525100       0.96476832
O       -0.60827750       1.13346161      -1.28499189
H        1.61433583      -1.03313555       0.22333068
H        0.11164159      -1.61633051      -0.57135541
H        1.82161497       2.31335291      -2.96996723
H       -2.69664915      -2.94526071       1.05050441
H       -0.39944870       0.28926044      -0.73458841
H        1.20008388       0.84151358       0.42083540
17
Properties=species:S:1:pos:R:3 relative_energy_eV=0.029658724408363923 branch=left pbc="F F F"
C        0.52361058      -1.00190141       0.19459898
C       -0.09869075      -1.06336633       1.45874191
O        0.35564714      -0.73906173       2.57071662
P        0.63341003       2.12161675      -1.21431158
O        0.33228415       3.55881697      -1.42314537
O        1.42674622       1.79313534       0.13851800
O        1.64558946       1.54747919      -2.38246663
C       -1.58253311      -1.50049975       1.46392372
O       -2.52383141      -0.87126330       1.89548785
O       -1.74680967      -2.76693347       0.96522786
O       -0.61335042       1.13747845      -1.27752174
H        1.60999831      -1.02354015       0.20048822
H        0.10630409      -1.62660589      -0.58632591
H        1.83655450       2.29181209      -2.96060630
H       -2.69764462      -2.94803966       1.05871490
H       -0.39677049       0.29106597      -0.72878168
H        1.20903845       0.86012792       0.43357166
17
Properties=species:S:1:pos:R:3 relative_energy_eV=0.030021038230188424 branch=left pbc="F F F"
C        0.52112220      -1.00264647       0.18977636
C       -0.09933455      -1.06387056       1.45657521
O        0.35582119      -0.73557135       2.56708286
P        0.63113468       2.12276444      -1.21338327
O        0.33196115       3.55951674      -1.42846718
O        1.42286739       1.79928517       0.14272612
O        1.64799400       1.54418299      -2.37622600
C       -1.58254661      -1.50211290       1.46467607
O       -2.52265463      -0.87285591       1.89933889
O       -1.74736695      -2.76816416       0.96532418
O       -0.61612951       1.13921457      -1.27506551
H        1.60823091      -1.02253237       0.19321190
H        0.10656241      -1.63029816      -0.59204712
H        1.84109960       2.28559887      -2.95766553
H       -2.69797921      -2.94841101       1.06116726
H       -0.39543292       0.29164231      -0.72673896
H        1.21420334       0.86457873       0.43654522
17
Properties=species:S:1:pos:R:3 relative_energy_eV=0.030342945603479166 branch=left pbc="F F F"
C        0.51860513      -1.00363840       0.18770646
C       -0.10054001      -1.06378986       1.45510738
O        0.35648371      -0.73323798       2.56424626
P        0.62942088       2.12383789      -1.21347597
O        0.33152559       3.56076986      -1.43230428
O        1.41909529       1.80331420       0.14467633
O        1.65015233       1.54197427      -2.37149279
C       -1.58230645      -1.50313027       1.46451400
O       -2.52127560      -0.87413101       1.90197780
O       -1.74785875      -2.76926192       0.96558618
O       -0.61759571       1.14072086      -1.27262907
H        1.60587693      -1.02271394       0.18798937
H        0.10830515      -1.63223970      -0.59518181
H        1.84393093       2.28140910      -2.95522366
H       -2.69848227      -2.94864647       1.06273389
H       -0.39461621       0.29204658      -0.72551149
H        1.21883156       0.86703765       0.43811185
17
Properties=species:S:1:pos:R:3 relative_energy_eV=0.03059913016113569 branch=left pbc="F F F"
C        0.51729854      -1.00503305       0.18590479
C       -0.10060291      -1.06341988       1.45245423
O        0.35779123      -0.73147329       2.56085486
P        0.62849118       2.12508640      -1.21321973
O        0.33092631       3.56155409      -1.43615637
O        1.41593823       1.80732307       0.14649150
O        1.65206288       1.54036525      -2.36672411
C       -1.58193487      -1.50402345       1.46454274
O       -2.52037648      -0.87568946       1.90384786
O       -1.74891933      -2.77026776       0.96607451
O       -0.61817103       1.14235110      -1.27010462
H        1.60385949      -1.02266394       0.18573029
H        0.10870083      -1.63395898      -0.59578740
H        1.84573638       2.27812733      -2.95246779
H       -2.69971202      -2.94920171       1.06371384
H       -0.39480785       0.29239258      -0.72483550
H        1.22327192       0.86885251       0.43651130
17
Properties=species:S:1:pos:R:3 relative_energy_eV=0.031010767321276944 branch=left pbc="F F F"
C        0.51728571      -1.00578519       0.18206744
C       -0.09985236      -1.06338799       1.44908633
O        0.36015391      -0.72913950       2.55601969
P        0.62782381       2.12690059      -1.21156852
O        0.33001185       3.56187845      -1.44184518
O        1.41331886       1.81339926       0.15032928
O        1.65448909       1.53839720      -2.36034994
C       -1.58224976      -1.50565768       1.46506802
O       -2.51999172      -0.87762765       1.90602262
O       -1.75070341      -2.77184036       0.96665453
O       -0.61935876       1.14456465      -1.26742500
H        1.60362280      -1.02176095       0.18561319
H        0.10604492      -1.63774225      -0.59617180
H        1.84767713       2.27440349      -2.94871713
H       -2.70171489      -2.95001383       1.06473406
H       -0.39579941       0.29259832      -0.72399661
H        1.22879479       0.87113417       0.43130934
17
Properties=species:S:1:pos:R:3 relative_energy_eV=0.03116631675584358 branch=left pbc="F F F"
C        0.51721850      -1.00538284       0.18106987
C       -0.10016872      -1.06361436       1.44925560
O        0.36072734      -0.72866763       2.55512086
P        0.62757326       2.12712658      -1.21123670
O        0.32984427       3.56198238      -1.44289513
O        1.41330260       1.81461523       0.15143987
O        1.65500279       1.53815367      -2.35945244
C       -1.58245827      -1.50591594       1.46508860
O       -2.51996350      -0.87790299       1.90640843
O       -1.75100566      -2.77224711       0.96670399
O       -0.61973561       1.14485243      -1.26708345
H        1.60466443      -1.02148410       0.18584799
H        0.10500745      -1.63886685      -0.59663268
H        1.84796162       2.27372539      -2.94802106
H       -2.70202222      -2.95009924       1.06490707
H       -0.39603262       0.29262927      -0.72385316
H        1.22963691       0.87141681       0.43016263
17
Properties=species:S:1:pos:R:3 relative_energy_eV=0.032723221273045056 branch=ts pbc="F F F"
C        0.49215665      -1.02445533       0.15388517
C       -0.10232454      -1.06734525       1.42975055
O        0.36994450      -0.71066323       2.52660022
P        0.62635528       2.12815852      -1.20767583
O        0.33461739       3.56057380      -1.46068376
O        1.41245007       1.84887100       0.16630038
O        1.66523951       1.51981535      -2.33515307
C       -1.58217355      -1.51335867       1.46666123
O       -2.51531999      -0.88339254       1.91524461
O       -1.75741169      -2.78156644       0.97477003
O       -0.61809628       1.14692167      -1.25065304
H        1.57830186      -0.97845401       0.12732588
H        0.08707391      -1.67382213      -0.61290793
H        1.85889923       2.24322882      -2.93939876
H       -2.70760054      -2.95684928       1.08415038
H       -0.38487313       0.28296798      -0.71636074
H        1.23096560       0.92777282       0.48472922
17
Properties=species:S:1:pos:R:3 relative_energy_eV=0.02977835712590604 branch=right pbc="F F F"
C        0.46783209      -1.04397739       0.12552783
C       -0.10474704      -1.07082583       1.40812436
O        0.37949975      -0.69021083       2.49375537
P        0.62653837       2.12913600      -1.20296785
O        0.34071155       3.55853991      -1.47963379
O        1.41028688       1.88376359       0.18205723
O        1.67648881       1.50097987      -2.30985631
C       -1.58122207      -1.52141137       1.46859185
O       -2.50966284      -0.88941828       1.92489052
O       -1.76369130      -2.79163542       0.98425414
O       -0.61554496       1.14920618      -1.23210079
H        1.54684304      -0.93608389       0.06751723
H        0.07040095      -1.70804249      -0.62946020
H        1.86868644       2.21142505      -2.93040278
H       -2.71316093      -2.96371746       1.10332457
H       -0.37259337       0.27287919      -0.70882967
H        1.23019059       0.98587867       0.54154710
17
Properties=species:S:1:pos:R:3 relative_energy_eV=0.027144293602759717 branch=right pbc="F F F"
C        0.45523905      -1.05404632       0.09611347
C       -0.10719064      -1.06499249       1.38720029
O        0.38399078      -0.65201832       2.45896536
P        0.63303767       2.13131283      -1.19340325
O        0.36035445       3.55774922      -1.49836381
O        1.40509375       1.89973714       0.20308994
O        1.69315136       1.49064597      -2.28464605
C       -1.57758660      -1.53044186       1.47450164
O       -2.50241763      -0.89901421       1.93916032
O       -1.76226248      -2.80424707       0.99930633
O       -0.61208596       1.15655401      -1.21373200
H        1.53426877      -0.92909481       0.04157898
H        0.06031625      -1.72784062      -0.65686789
H        1.85771504       2.18932031      -2.92709933
H       -2.71443361      -2.96821047       1.10802031
H       -0.35849154       0.26603972      -0.70664582
H        1.20815685       1.01503286       0.57916046
17
Properties=species:S:1:pos:R:3 relative_energy_eV=-0.0033237279058084823 branch=right pbc="F F F"
C        0.42260836      -1.13497906       0.00093767
C       -0.10878128      -1.05102563       1.29880625
O        0.38711844      -0.50964207       2.31646404
P        0.65731973       2.14606528      -1.15635377
O        0.43385751       3.55931446      -1.55903343
O        1.38949868       1.97135844       0.26763600
O        1.75480547       1.45888246      -2.17639463
C       -1.56448720      -1.55888907       1.49192458
O       -2.48250372      -0.94625686       1.99653238
O       -1.75742095      -2.84302434       1.04584515
O       -0.59752406       1.18242822      -1.15552285
H        1.47300297      -0.88552446      -0.10528160
H        0.00835152      -1.81509274      -0.73815984
H        1.82840714       2.07847530      -2.90971208
H       -2.71362531      -2.99495108       1.14466236
H       -0.31560034       0.25663597      -0.71251953
H        1.14182703       1.16271241       0.75650873
17
Properties=species:S:1:pos:R:3 relative_energy_eV=-0.10138455820560921 branch=right pbc="F F F"
C        0.35145278      -1.24799241      -0.11620325
C       -0.12586348      -1.02996530       1.17389011
O        0.38865851      -0.25561566       2.02670770
P        0.72438944       2.16344148      -1.07257198
O        0.49172927       3.53240143      -1.59346061
O        1.39211987       2.09983605       0.38754029
O        1.83495483       1.40311457      -2.02641516
C       -1.53308483      -1.60146271       1.49445702
O       -2.41943258      -1.00776611       2.07326986
O       -1.74226545      -2.89186909       1.05728372
O       -0.54268823       1.21565900      -1.08354436
H        1.34026890      -0.86548471      -0.37853300
H       -0.07580494      -1.96266811      -0.80470795
H        1.82665997       1.87610981      -2.86267862
H       -2.68401152      -3.04911250       1.24669113
H       -0.29472613       0.26547902      -0.74064177
H        1.02449521       1.43238476       1.02525683
17
Properties=species:S:1:pos:R:3 relative_energy_eV=-0.1845870977958839 branch=right pbc="F F F"
C        0.33330656      -1.27001493      -0.15145712
C       -0.13341379      -0.96213381       1.11274448
O        0.35118318      -0.13673341       1.96073403
P        0.71907956       2.16774964      -1.05237986
O        0.45409215       3.55231122      -1.52524976
O        1.39964418       2.08336351       0.39007220
O        1.86104383       1.39161965      -1.95824989
C       -1.50344867      -1.56987506       1.46136918
O       -2.37377572      -1.01007657       2.09430115
O       -1.71453806      -2.85082651       0.99923575
O       -0.55486160       1.22480069      -1.06956196
H        1.33650986      -0.95875950      -0.41859531
H       -0.12965746      -2.03018599      -0.75956251
H        1.88849610       1.84168088      -2.81633454
H       -2.61167441      -3.06052392       1.30977036
H       -0.35137763       0.26151654      -0.75596969
H        0.98624331       1.40257718       0.98547339
17
Properties=species:S:1:pos:R:3 relative_energy_eV=-0.27531660228487453 branch=right pbc="F F F"
C        0.32140916      -1.34439628      -0.21592081
C       -0.16577407      -0.87125774       0.97900051
O        0.28655099       0.08945912       1.68770160
P        0.72426715       2.18236097      -0.97015316
O        0.47966134       3.53693443      -1.51865005
O        1.33454243       2.08006843       0.48096749
O        1.88109328       1.39594269      -1.83921739
C       -1.48387436      -1.51299898       1.46383365
O       -2.32310354      -1.03154677       2.19602301
O       -1.65570582      -2.79232119       0.98466291
O       -0.58045516       1.25687370      -1.03468253
H        1.30601689      -1.08324315      -0.56288170
H       -0.18548826      -2.14231411      -0.73899855
H        1.95512325       1.76242498      -2.72121270
H       -2.49056929      -3.07519654       1.39141364
H       -0.36123243       0.30470349      -0.81042643
H        0.91438848       1.32099770       1.03488032
17
Properties=species:S:1:pos:R:3 relative_energy_eV=-0.32753119727931335 branch=right pbc="F F F"
C        0.34808079      -1.36404862      -0.18391290
C       -0.16474239      -0.87757856       0.99280061
O        0.28865003       0.08466962       1.70898967
P        0.73316010       2.18780241      -0.97578275
O        0.48982563       3.54873024      -1.51899545
O        1.28235452       2.05866365       0.48766371
O        1.86207562       1.36212815      -1.86037538
C       -1.47708970      -1.50816575       1.47318371
O       -2.30029328      -0.99831657       2.20212446
O       -1.66509856      -2.79084384       1.00255192
O       -0.57471811       1.27221844      -1.09597463
H        1.32928974      -1.05882858      -0.52425515
H       -0.14912022      -2.13921976      -0.75263476
H        1.92747285       1.82010001      -2.70364835
H       -2.51387239      -3.06737971       1.38260070
H       -0.37402421       0.33430019      -0.83651916
H        0.91489994       1.21225921       1.00852351
17
Properties=species:S:1:pos:R:3 relative_energy_eV=-0.35844854132665205 branch=right pbc="F F F"
C        0.37722495      -1.38444845      -0.17765824
C       -0.14924304      -0.88927235       0.97902641
O        0.28944127       0.08634808       1.69554105
P        0.71959429       2.18124758      -0.96909605
O        0.54389619       3.56439584      -1.48725346
O        1.24951410       2.00381584       0.48836820
O        1.85317369       1.36726782      -1.85486359
C       -1.44953272      -1.50412784       1.47078349
O       -2.24322559      -0.97379325       2.21580556
O       -1.68425698      -2.77711330       1.00356988
O       -0.61418703       1.28972031      -1.17625633
H        1.33479977      -1.03091640      -0.52759497
H       -0.10072254      -2.18242659      -0.72198058
H        1.94908319       1.85429298      -2.68037538
H       -2.51889387      -3.03109009       1.42360455
H       -0.43976518       0.35971352      -0.88689894
H        0.83994996       1.14287671       1.01161803
17
Properties=species:S:1:pos:R:3 relative_energy_eV=-0.37163038047219743 branch=right pbc="F F F"
C        0.39173681      -1.38588208      -0.18522232
C       -0.14245712      -0.89548088       0.97053519
O        0.28474499       0.08307181       1.69238515
P        0.73159061       2.18090760      -0.96942870
O        0.55923750       3.56593181      -1.48385235
O        1.20737182       1.97631142       0.49239104
O        1.85523010       1.35931316      -1.86787709
C       -1.43899010      -1.49945148       1.47813788
O       -2.21796975      -0.96824843       2.23885686
O       -1.69141155      -2.76759445       1.01247495
O       -0.61702484       1.31704334      -1.19708584
H        1.33905501      -1.01319469      -0.54876283
H       -0.05365557      -2.21548036      -0.71059392
H        1.96994838       1.87393646      -2.67270473
H       -2.52832572      -3.00553291       1.44396960
H       -0.47901078       0.38443518      -0.91831545
H        0.78678062       1.08640489       1.03143217
17
Properties=species:S:1:pos:R:3 relative_energy_eV=-0.38763933732843725 branch=right pbc="F F F"
C        0.41129276      -1.38305916      -0.16926267
C       -0.15997289      -0.89304652       0.95817161
O        0.26965609       0.08969618       1.71276444
P        0.73652018       2.20216014      -0.96500040
O        0.57508469       3.57204655      -1.54599040
O        1.19175857       1.95558632       0.47624059
O        1.84775488       1.35005807      -1.89666735
C       -1.42007233      -1.50523178       1.49019076
O       -2.13731787      -0.97023682       2.30454371
O       -1.71289868      -2.75640767       1.00051714
O       -0.66238043       1.37891501      -1.22517619
H        1.29885111      -0.94626164      -0.63947997
H        0.05097414      -2.28939815      -0.63095928
H        2.08797529       1.90454567      -2.65639893
H       -2.53696725      -2.97618431       1.45584418
H       -0.55420498       0.44714192      -0.96373341
H        0.67079685       0.89616621       1.10073588
17
Properties=species:S:1:pos:R:3 relative_energy_eV=-0.43387897200591397 branch=right pbc="F F F"
C        0.41077753      -1.37675596      -0.16328021
C       -0.14612670      -0.91989059       0.97964953
O        0.26749556       0.08007912       1.72667944
P        0.74588582       2.21419678      -0.98867704
O        0.58722533       3.57294543      -1.59163423
O        1.20652397       1.99210775       0.45033092
O        1.83400035       1.34017555      -1.90975301
C       -1.41612155      -1.52118473       1.50392107
O       -2.14554243      -0.98429323       2.30480702
O       -1.71656401      -2.76341756       1.00246892
O       -0.64998652       1.37988298      -1.22593408
H        1.26604181      -0.89387630      -0.61784252
H        0.04493263      -2.27650726      -0.63163109
H        2.06900486       1.90870373      -2.65125522
H       -2.55992749      -2.99447945       1.42413000
H       -0.52987727       0.45452662      -0.95073743
H        0.68910820       0.86427701       1.14509765
17
Properties=species:S:1:pos:R:3 relative_energy_eV=-0.4473415757784096 branch=right pbc="F F F"
C        0.40355902      -1.36846081      -0.13442436
C       -0.14630276      -0.93077045       1.01729016
O        0.25795199       0.07263873       1.76692666
P        0.75561849       2.21199784      -1.01159859
O        0.61136104       3.58006170      -1.60087871
O        1.20539642       1.97526802       0.42853190
O        1.83633317       1.33622332      -1.95177125
C       -1.41170473      -1.53874470       1.51231768
O       -2.15421177      -1.03113721       2.32213041
O       -1.70880535      -2.75945532       0.96592301
O       -0.65204490       1.39417700      -1.26545404
H        1.24164181      -0.84940709      -0.58309868
H        0.04171568      -2.26365745      -0.61447527
H        2.07722507       1.91782148      -2.68220836
H       -2.54093097      -2.98134644       1.40915418
H       -0.55602881       0.47576963      -0.96000022
H        0.69607689       0.83551139       1.18797521
17
Properties=species:S:1:pos:R:3 relative_energy_eV=-0.4872959989552328 branch=right pbc="F F F"
C        0.40811655      -1.29939311      -0.05624102
C       -0.16052613      -0.90771958       1.10036902
O        0.24809854       0.07839351       1.88183533
P        0.79145192       2.17592189      -1.07246012
O        0.72990438       3.58875842      -1.55711608
O        1.18478094       1.81626842       0.35472333
O        1.85261230       1.34249256      -2.05163546
C       -1.41618505      -1.57376231       1.56938179
O       -2.15608303      -1.16281290       2.43488066
O       -1.70179252      -2.74673384       0.91639553
O       -0.63475084       1.43412856      -1.45262953
H        1.24412103      -0.76964746      -0.48313435
H        0.05005564      -2.17009493      -0.57992290
H        2.04642082       1.94316768      -2.77930853
H       -2.52711134      -3.05016558       1.33130120
H       -0.67391489       0.56600624      -1.02507589
H        0.67165259       0.81168154       1.27497652
17
Properties=species:S:1:pos:R:3 relative_energy_eV=-0.5048090127056639 branch=right pbc="F F F"
C        0.37102384      -1.27016474      -0.05577046
C       -0.19556342      -0.89014065       1.10566463
O        0.17813635       0.11492434       1.88150704
P        0.81686220       2.17768341      -1.08441476
O        0.74087633       3.59235371      -1.57140052
O        1.22637711       1.80128753       0.33739941
O        1.87989492       1.33412949      -2.06438612
C       -1.41088959      -1.59776766       1.59673256
O       -2.13064309      -1.22503046       2.49551557
O       -1.68255048      -2.74584940       0.89815253
O       -0.62749094       1.45583267      -1.45026055
H        1.22699418      -0.75510590      -0.46846277
H        0.01699804      -2.14723201      -0.57005555
H        2.06296159       1.91653608      -2.81321866
H       -2.49674482      -3.09209095       1.29169254
H       -0.67857469       0.58679830      -1.01733744
H        0.65918316       0.82032543       1.29498205
17
Properties=species:S:1:pos:R:3 relative_energy_eV=-0.5356971079818322 branch=right pbc="F F F"
C        0.34495561      -1.23294928      -0.02944520
C       -0.26768835      -0.86923057       1.11466934
O       -0.01137298       0.20027466       1.84823740
P        0.89168798       2.16513347      -1.10336047
O        0.87043777       3.59746898      -1.52497688
O        1.28163172       1.73727269       0.30653762
O        1.91288110       1.31479336      -2.12054807
C       -1.39153150      -1.67437737       1.65413436
O       -2.01570422      -1.41937098       2.66280207
O       -1.67872535      -2.77796567       0.89055814
O       -0.56503223       1.51294441      -1.51664299
H        1.18889832      -0.67498772      -0.40377022
H       -0.00058933      -2.08439732      -0.59343559
H        2.05447104       1.88448470      -2.88339837
H       -2.47652809      -3.14282588       1.30288904
H       -0.70129262       0.67423058      -1.05887983
H        0.52035130       0.86599162       1.26096877
17
Properties=species:S:1:pos:R:3 relative_energy_eV=-0.5516606108722044 branch=right pbc="F F F"
C        0.32697328      -1.22297357      -0.04302984
C       -0.29103051      -0.86293306       1.09874455
O       -0.06206583       0.23316538       1.80669360
P        0.90780052       2.18847826      -1.10380166
O        0.89807861       3.61680730      -1.54994920
O        1.30362876       1.75824626       0.30495349
O        1.92052404       1.31603660      -2.10670791
C       -1.38899349      -1.69810317       1.66198715
O       -1.98901101      -1.46958415       2.68953723
O       -1.70842138      -2.78819008       0.89247010
O       -0.57035011       1.53229626      -1.47058129
H        1.17602296      -0.67781063      -0.42458597
H        0.00091223      -2.09013106      -0.58969471
H        2.07508426       1.86944592      -2.87995036
H       -2.47627043      -3.17741113       1.34115050
H       -0.65692870       0.66515810      -1.04101934
H        0.49089659       0.88399272       1.22012273
17
Properties=species:S:1:pos:R:3 relative_energy_eV=-0.5605843347620976 branch=right pbc="F F F"
C        0.32216336      -1.23578578      -0.03162605
C       -0.32117850      -0.85956637       1.09130743
O       -0.12407994       0.25281655       1.77963693
P        0.92388773       2.19609321      -1.11208723
O        0.95656069       3.62872757      -1.53502258
O        1.28362197       1.73859452       0.29767386
O        1.92118592       1.31292959      -2.12548399
C       -1.39152739      -1.71509692       1.67308267
O       -1.93130682      -1.53015344       2.74146167
O       -1.75304119      -2.77246179       0.87847652
O       -0.55905463       1.58302605      -1.50465779
H        1.15367386      -0.66738863      -0.42072873
H        0.02137713      -2.12592220      -0.55815697
H        2.10438523       1.88254412      -2.88181740
H       -2.44166428      -3.21964908       1.39604271
H       -0.66435240       0.71794868      -1.08321193
H        0.45619897       0.88983396       1.20144963
17
Properties=species:S:1:pos:R:3 relative_energy_eV=-0.5645608859449567 branch=right pbc="F F F"
C        0.30706632      -1.24892591      -0.03375562
C       -0.33570029      -0.86467784       1.08598634
O       -0.13676797       0.25182619       1.76787422
P        0.93383675       2.20937840      -1.11677821
O        0.98098545       3.63991940      -1.54978839
O        1.29078873       1.75717681       0.29502096
O        1.92008680       1.31516579      -2.12981820
C       -1.39639127      -1.72012314       1.68263800
O       -1.90766371      -1.55089700       2.76570829
O       -1.76525160      -2.77389539       0.88806564
O       -0.55595524       1.60520192      -1.51034864
H        1.13177034      -0.67317408      -0.42482719
H        0.04169416      -2.15865465      -0.54483353
H        2.12572565       1.89740012      -2.87021346
H       -2.43875609      -3.23728659       1.40959264
H       -0.67532313       0.73657966      -1.09997653
H        0.43670470       0.89147644       1.19179234
17
Properties=species:S:1:pos:R:3 relative_energy_eV=-0.5682104998268187 branch=right pbc="F F F"
C        0.31680581      -1.28079800      -0.02532119
C       -0.32528957      -0.88010446       1.08896485
O       -0.10986312       0.23837519       1.76384347
P        0.92506059       2.22102167      -1.12431715
O        0.98519785       3.65245177      -1.55297629
O        1.26514744       1.76729876       0.29032987
O        1.92173450       1.33360978      -2.12831348
C       -1.39378100      -1.72450347       1.69153457
O       -1.92199983      -1.53097709       2.76492701
O       -1.76798609      -2.78168186       0.90260915
O       -0.56495571       1.62404707      -1.53210042
H        1.13636268      -0.70778700      -0.43277539
H        0.04714380      -2.19731985      -0.52294639
H        2.14589302       1.93429712      -2.84839351
H       -2.45316781      -3.23134803       1.42013722
H       -0.70140611       0.75948733      -1.12003050
H        0.45195326       0.88042117       1.17116672
17
Properties=species:S:1:pos:R:3 relative_energy_eV=-0.5719569323846372 branch=right pbc="F F F"
C        0.31335526      -1.30809362      -0.00738677
C       -0.33681900      -0.89487638       1.09722065
O       -0.16060855       0.24900817       1.73679765
P        0.94056826       2.24010616      -1.13902956
O        1.02115532       3.67656826      -1.54840277
O        1.25496604       1.74792195       0.26952882
O        1.93232036       1.35208851      -2.14860651
C       -1.38448498      -1.75053346       1.71564337
O       -1.88069779      -1.57825962       2.80578264
O       -1.77289711      -2.80074380       0.92560515
O       -0.55440612       1.67674733      -1.57398943
H        1.11410417      -0.72153587      -0.42970865
H        0.05042414      -2.23433730      -0.49124392
H        2.19204594       1.96125485      -2.84861181
H       -2.46025465      -3.24395910       1.44632048
H       -0.72533974       0.82618527      -1.14913200
H        0.41341802       0.87894879       1.14555082
17
Properties=species:S:1:pos:R:3 relative_energy_eV=-0.5743395782228617 branch=right pbc="F F F"
C        0.30305093      -1.33539968       0.00419390
C       -0.35250405      -0.91331788       1.10178564
O       -0.19364626       0.24586151       1.72303957
P        0.95103188       2.26031839      -1.16606607
O        1.06118444       3.70692651      -1.52709871
O        1.23022593       1.72899273       0.23437734
O        1.93865649       1.37936050      -2.18532626
C       -1.37927266      -1.77646867       1.74270137
O       -1.85420921      -1.60826127       2.84345888
O       -1.78280615      -2.82186846       0.95440417
O       -0.54259304       1.71874363      -1.63589177
H        1.08989371      -0.73988780      -0.43128881
H        0.07446288      -2.28487947      -0.45142846
H        2.24577101       2.00422387      -2.85144653
H       -2.46929405      -3.26188732       1.47897412
H       -0.73872307       0.90416009      -1.15617993
H        0.37562081       0.86987318       1.12812943
17
Properties=species:S:1:pos:R:3 relative_energy_eV=-0.5759846783330431 branch=right pbc="F F F"
C        0.29568327      -1.36771726       0.01422041
C       -0.37343306      -0.92915849       1.09692783
O       -0.23928669       0.25001113       1.68807943
P        0.96750487       2.28129320      -1.18212958
O        1.09839454       3.73461171      -1.51177853
O        1.21551095       1.71241853       0.21037856
O        1.95221856       1.41312759      -2.21174297
C       -1.38283721      -1.79558576       1.76264850
O       -1.82365973      -1.63047322       2.87771187
O       -1.80013241      -2.84480174       0.98509459
O       -0.52107355       1.75685636      -1.68842489
H        1.05800656      -0.76211112      -0.44902516
H        0.09257613      -2.34149270      -0.40246112
H        2.29762521       2.05141275      -2.84320703
H       -2.46248207      -3.29416218       1.53095828
H       -0.76283341       0.98183367      -1.16559202
H        0.34506758       0.86042713       1.09467928
17
Properties=species:S:1:pos:R:3 relative_energy_eV=-0.5795177706131653 branch=right pbc="F F F"
C        0.27561485      -1.35895077       0.00377714
C       -0.39527812      -0.92280226       1.08618144
O       -0.28155183       0.26447025       1.66391405
P        0.98970785       2.26618203      -1.18161630
O        1.11120853       3.72402896      -1.49021353
O        1.23625387       1.68774581       0.20606380
O        1.99327663       1.42638313      -2.21669408
C       -1.38435282      -1.79934765       1.76652792
O       -1.83095833      -1.62618343       2.87735805
O       -1.78394982      -2.86724871       1.00780831
O       -0.49317237       1.73524399      -1.70177794
H        1.03068445      -0.74570285      -0.46224703
H        0.08829121      -2.33798284      -0.40629175
H        2.28692906       2.07738176      -2.86384690
H       -2.43910759      -3.31806217       1.56264162
H       -0.77760054       1.01084966      -1.13134412
H        0.33085448       0.86048447       1.08609664
17
Properties=species:S:1:pos:R:3 relative_energy_eV=-0.5817207128930022 branch=right pbc="F F F"
C        0.27017976      -1.34971494      -0.01898979
C       -0.37732857      -0.91641659       1.07914903
O       -0.22203307       0.25202042       1.68525066
P        0.97813876       2.25488219      -1.16676193
O        1.04925048       3.71101200      -1.50184574
O        1.26063138       1.70115873       0.22526147
O        2.00140823       1.43155092      -2.19274823
C       -1.39989173      -1.76956190       1.73871930
O       -1.91605577      -1.54371005       2.81020624
O       -1.74497413      -2.87880863       1.01248332
O       -0.49058002       1.66644783      -1.66405323
H        1.03038234      -0.74742810      -0.49092244
H        0.06551090      -2.32016547      -0.43992302
H        2.25375777       2.07567113      -2.86365635
H       -2.42854618      -3.30523627       1.55207526
H       -0.75743928       0.96008404      -1.06279284
H        0.38443880       0.85470377       1.10488604
17
Properties=species:S:1:pos:R:3 relative_energy_eV=-0.5825542559614405 branch=right pbc="F F F"
C        0.26672827      -1.35138425      -0.01569892
C       -0.37893730      -0.91657408       1.08253575
O       -0.21330728       0.25066800       1.68824165
P        0.98220136       2.25239267      -1.16983434
O        1.04452550       3.71178972      -1.49238334
O        1.26893859       1.69234968       0.21914694
O        2.00661069       1.44054721      -2.20455859
C       -1.40803467      -1.76598540       1.73840237
O       -1.94199906      -1.53164539       2.79907746
O       -1.73200067      -2.88784364       1.02123297
O       -0.48410476       1.65803427      -1.66719768
H        1.02246421      -0.74534312      -0.48942031
H        0.05098315      -2.31890322      -0.43874788
H        2.25845178       2.08879541      -2.87150823
H       -2.41406544      -3.32010197       1.55718758
H       -0.75989375       0.96884825      -1.05090563
H        0.38828911       0.85084470       1.10076804
17
Properties=species:S:1:pos:R:3 relative_energy_eV=-0.5843715364244417 branch=right pbc="F F F"
C        0.25488222      -1.35757717      -0.02026259
C       -0.38847638      -0.91935325       1.07875305
O       -0.23541113       0.25577352       1.67034349
P        0.99073293       2.25237536      -1.16692449
O        1.06720369       3.71519364      -1.47010406
O        1.28485047       1.66300084       0.20815499
O        1.99497673       1.44936625      -2.22734783
C       -1.41726388      -1.76220982       1.74001171
O       -1.97992261      -1.49843776       2.77785224
O       -1.70251459      -2.91367647       1.05571300
O       -0.48609366       1.68192708      -1.65665630
H        1.02693005      -0.76008275      -0.47906849
H        0.02724836      -2.31413392      -0.46229377
H        2.27125258       2.11831746      -2.86386884
H       -2.37561876      -3.35092218       1.59918735
H       -0.75258939       0.96852151      -1.06288647
H        0.37666282       0.84840618       1.08573487
17
Properties=species:S:1:pos:R:3 relative_energy_eV=-0.5858393891285232 branch=right pbc="F F F"
C        0.24898739      -1.35792857      -0.02516993
C       -0.39903018      -0.91776887       1.06992162
O       -0.23679176       0.25444345       1.66858254
P        0.99422187       2.25227945      -1.16932381
O        1.07409936       3.71820556      -1.45693818
O        1.29686432       1.65523357       0.20085220
O        1.98825142       1.45591745      -2.24600424
C       -1.42597151      -1.76119414       1.73563187
O       -2.01236144      -1.47803180       2.75613503
O       -1.67944536      -2.93844856       1.08145173
O       -0.49007181       1.69074872      -1.65072310
H        1.02215841      -0.76515713      -0.48681735
H        0.01716432      -2.31582673      -0.46105329
H        2.28508396       2.13663590      -2.86024195
H       -2.35973407      -3.36535952       1.62457828
H       -0.74925323       0.96982149      -1.06420896
H        0.38267765       0.84291788       1.08966551
17
Properties=species:S:1:pos:R:3 relative_energy_eV=-0.5863150339064305 branch=right pbc="F F F"
C        0.24146645      -1.35871211      -0.03115560
C       -0.40031428      -0.91656505       1.06711826
O       -0.23737953       0.25679206       1.66035591
P        0.99718349       2.24998750      -1.16428005
O        1.07566145       3.71766513      -1.44310109
O        1.30633550       1.64472128       0.20145812
O        1.98649375       1.46179526      -2.25026104
C       -1.43167627      -1.75702907       1.73078224
O       -2.04005272      -1.45932162       2.73371073
O       -1.66073064      -2.95163960       1.10058358
O       -0.48614137       1.69152335      -1.64885867
H        1.01752124      -0.76843984      -0.49290207
H        0.00771113      -2.31849985      -0.46205139
H        2.28432539       2.14816399      -2.85729080
H       -2.34260765      -3.37359312       1.64494908
H       -0.75061580       0.96994479      -1.06465743
H        0.38966914       0.83969488       1.08193819
17
Properties=species:S:1:pos:R:3 relative_energy_eV=-0.5869794417158118 branch=right pbc="F F F"
C        0.23161710      -1.36141129      -0.03493093
C       -0.40953882      -0.91789734       1.06333912
O       -0.24864358       0.25877787       1.65133676
P        1.00537866       2.25216523      -1.16123600
O        1.09855698       3.72220715      -1.42056916
O        1.31255568       1.62232427       0.19319763
O        1.98356178       1.46627285      -2.25888457
C       -1.43699018      -1.75756917       1.73320903
O       -2.06986484      -1.44295898       2.71554230
O       -1.63196098      -2.97274413       1.13220690
O       -0.48654337       1.71762934      -1.64597532
H        0.99228935      -0.76218966      -0.50898011
H        0.01188755      -2.32887311      -0.45594493
H        2.28817491       2.15612318      -2.85822978
H       -2.32007051      -3.39124022       1.67226490
H       -0.74810687       0.97891480      -1.08255238
H        0.38454632       0.83695691       1.07254463
17
Properties=species:S:1:pos:R:3 relative_energy_eV=-0.5872721062296478 branch=right pbc="F F F"
C        0.22841169      -1.36057118      -0.03446770
C       -0.41489185      -0.91579185       1.06205354
O       -0.26358481       0.26492955       1.64300008
P        1.00913772       2.25618520      -1.15919549
O        1.11284354       3.72527215      -1.42010741
O        1.30979380       1.62875032       0.19825703
O        1.98275981       1.45902571      -2.25369115
C       -1.43270489      -1.76219062       1.73779809
O       -2.05197050      -1.45774435       2.73215198
O       -1.63664555      -2.97109155       1.12563724
O       -0.48692182       1.73262644      -1.64491790
H        0.98375677      -0.75857169      -0.51401997
H        0.01939836      -2.33463140      -0.44525861
H        2.28647892       2.14140875      -2.86226078
H       -2.31876397      -3.39498307       1.66838277
H       -0.74431344       0.98259327      -1.09428133
H        0.37406536       0.84127217       1.06725764
