17
Properties=species:S:1:pos:R:3 relative_energy_eV=0.0 branch=left pbc="F F F"
O       -3.02976666       0.86966996      -0.09433395
C       -2.16076376       0.16497413       0.38889713
O       -2.31676617      -0.42921411       1.59733527
C       -0.81569462      -0.11807951      -0.25877851
O       -0.24863610      -1.29586689       0.19186503
C        0.06291170       1.13341205      -0.02777360
O        1.28666873       1.12623016      -0.76472075
P        2.32237475      -0.14523898      -0.55651413
O        1.70080689      -1.27667717      -1.52956768
O        3.70118337       0.26683148      -0.89395305
O        2.00907237      -0.66229547       0.90391697
H       -3.20428705      -0.16555472       1.88672012
H       -1.04176114      -0.14425514      -1.33894026
H        0.85528875      -1.54180896      -1.03324282
H        0.27968145       1.22216527       1.03912935
H       -0.46502838       2.03038845      -0.35099487
H        0.95828090      -1.01413382       0.76467828
17
Properties=species:S:1:pos:R:3 relative_energy_eV=2.6490950403967872e-05 branch=left pbc="F F F"
O       -3.02967941       0.86970073      -0.09441190
C       -2.16069438       0.16520493       0.38905000
O       -2.31707979      -0.42875902       1.59749094
C       -0.81550277      -0.11802373      -0.25820214
O       -0.24884867      -1.29604554       0.19257817
C        0.06305801       1.13360625      -0.02751075
O        1.28668295       1.12625121      -0.76460769
P        2.32250272      -0.14510530      -0.55648091
O        1.70109499      -1.27653999      -1.52980117
O        3.70119894       0.26732980      -0.89433829
O        2.00888002      -0.66243604       0.90349271
H       -3.20505514      -0.16602934       1.88639063
H       -1.04141335      -0.14438191      -1.33828113
H        0.85578930      -1.54277418      -1.03389002
H        0.28029499       1.22250976       1.03938610
H       -0.46506847       2.03035535      -0.35149272
H        0.95740504      -1.01431624       0.76435069
17
Properties=species:S:1:pos:R:3 relative_energy_eV=4.196118607069366e-05 branch=left pbc="F F F"
O       -3.02958737       0.86966655      -0.09459536
C       -2.16058243       0.16554681       0.38929527
O       -2.31732604      -0.42852178       1.59763885
C       -0.81542540      -0.11795947      -0.25768360
O       -0.24916586      -1.29619701       0.19325386
C        0.06312843       1.13380878      -0.02724420
O        1.28673795       1.12631321      -0.76436800
P        2.32262954      -0.14498302      -0.55642302
O        1.70132094      -1.27638008      -1.53003163
O        3.70119523       0.26773069      -0.89479247
O        2.00859387      -0.66255266       0.90316856
H       -3.20562099      -0.16646546       1.88609168
H       -1.04101697      -0.14457093      -1.33777905
H        0.85626635      -1.54357812      -1.03440730
H        0.28098814       1.22279629       1.03962369
H       -0.46512419       2.03036865      -0.35205796
H        0.95655371      -1.01447572       0.76403318
17
Properties=species:S:1:pos:R:3 relative_energy_eV=6.769614992663264e-05 branch=left pbc="F F F"
O       -3.02949042       0.86960789      -0.09487579
C       -2.16047495       0.16592814       0.38961730
O       -2.31748016      -0.42849390       1.59780794
C       -0.81544314      -0.11788486      -0.25723100
O       -0.24951764      -1.29627080       0.19387098
C        0.06315883       1.13399571      -0.02699867
O        1.28682540       1.12643082      -0.76406058
P        2.32268929      -0.14488443      -0.55636180
O        1.70147428      -1.27626918      -1.53027530
O        3.70110319       0.26800175      -0.89522914
O        2.00827503      -0.66265060       0.90298902
H       -3.20600417      -0.16682682       1.88582070
H       -1.04061205      -0.14479955      -1.33744663
H        0.85675456      -1.54415107      -1.03479313
H        0.28166339       1.22303098       1.03980196
H       -0.46516332       2.03037134      -0.35259541
H        0.95580678      -1.01458867       0.76368205
17
Properties=species:S:1:pos:R:3 relative_energy_eV=8.9317123638466e-05 branch=left pbc="F F F"
O       -3.02939057       0.86955257      -0.09518429
C       -2.16040019       0.16622812       0.38992268
O       -2.31756677      -0.42861473       1.59798519
C       -0.81548531      -0.11778379      -0.25686129
O       -0.24982752      -1.29623940       0.19443559
C        0.06321154       1.13415228      -0.02680711
O        1.28693997       1.12661024      -0.76375346
P        2.32263154      -0.14481488      -0.55629955
O        1.70154217      -1.27622588      -1.53052654
O        3.70088506       0.26810561      -0.89559861
O        2.00798724      -0.66272776       0.90295916
H       -3.20620634      -0.16710821       1.88559316
H       -1.04022666      -0.14504542      -1.33724977
H        0.85726005      -1.54445274      -1.03504557
H        0.28221536       1.22324283       1.03988736
H       -0.46515483       2.03031626      -0.35300858
H        0.95515010      -1.01464834       0.76327414
17
Properties=species:S:1:pos:R:3 relative_energy_eV=0.0001155860627477523 branch=left pbc="F F F"
O       -3.02928296       0.86950671      -0.09549148
C       -2.16036778       0.16638336       0.39016283
O       -2.31759074      -0.42883539       1.59812655
C       -0.81545441      -0.11763166      -0.25650599
O       -0.25009607      -1.29609078       0.19512733
C        0.06338186       1.13429472      -0.02666901
O        1.28712158       1.12689631      -0.76344221
P        2.32242156      -0.14475557      -0.55617972
O        1.70154104      -1.27617408      -1.53083291
O        3.70046988       0.26803879      -0.89603530
O        2.00767706      -0.66280664       0.90304730
H       -3.20633823      -0.16738479       1.88540569
H       -1.03978290      -0.14533192      -1.33708846
H        0.85791362      -1.54453774      -1.03521564
H        0.28270060       1.22354361       1.03986434
H       -0.46505850       2.03014171      -0.35330923
H        0.95430920      -1.01470991       0.76275840
17
Properties=species:S:1:pos:R:3 relative_energy_eV=0.00017683381520328112 branch=left pbc="F F F"
O       -3.02915785       0.86942725      -0.09573332
C       -2.16034845       0.16627821       0.39019186
O       -2.31763871      -0.42914867       1.59811722
C       -0.81517725      -0.11736561      -0.25606366
O       -0.25030384      -1.29581770       0.19634130
C        0.06385873       1.13446445      -0.02661000
O        1.28747937       1.12739506      -0.76313453
P        2.32206302      -0.14469108      -0.55583834
O        1.70142522      -1.27586319      -1.53127509
O        3.69980062       0.26770769      -0.89689886
O        2.00723869      -0.66289309       0.90320423
H       -3.20642268      -0.16782796       1.88526231
H       -1.03904654      -0.14575255      -1.33678800
H        0.85889684      -1.54446520      -1.03532590
H        0.28318999       1.22421170       1.03970296
H       -0.46481142       2.02978857      -0.35347728
H        0.95251906      -1.01490113       0.76204757
17
Properties=species:S:1:pos:R:3 relative_energy_eV=0.0002582992528914474 branch=left pbc="F F F"
O       -3.02903834       0.86925175      -0.09580572
C       -2.16030163       0.16588922       0.38990820
O       -2.31767539      -0.42955345       1.59774535
C       -0.81457453      -0.11703509      -0.25552983
O       -0.25035386      -1.29555980       0.19814210
C        0.06465314       1.13470888      -0.02666242
O        1.28801219       1.12803847      -0.76297378
P        2.32185675      -0.14463818      -0.55518154
O        1.70110991      -1.27502994      -1.53177376
O        3.69922774       0.26711545      -0.89836981
O        2.00671870      -0.66292528       0.90326369
H       -3.20650540      -0.16846709       1.88522863
H       -1.03790402      -0.14632875      -1.33623060
H        0.85995366      -1.54442958      -1.03536281
H        0.28358810       1.22538578       1.03949208
H       -0.46448823       2.02943667      -0.35344799
H        0.94928599      -1.01531231       0.76128066
17
Properties=species:S:1:pos:R:3 relative_energy_eV=0.00035581326301326044 branch=left pbc="F F F"
O       -3.02894411       0.86898330      -0.09574685
C       -2.16016901       0.16546146       0.38945534
O       -2.31778221      -0.42998799       1.59715700
C       -0.81389586      -0.11674829      -0.25501458
O       -0.25022713      -1.29547308       0.20000314
C        0.06544462       1.13502381      -0.02676627
O        1.28853604       1.12859431      -0.76302249
P        2.32205228      -0.14462490      -0.55442229
O        1.70063472      -1.27388027      -1.53215198
O        3.69915642       0.26647705      -0.90001737
O        2.00628913      -0.66285913       0.90312445
H       -3.20646099      -0.16914860       1.88525399
H       -1.03660316      -0.14695760      -1.33554187
H        0.86060330      -1.54460669      -1.03534761
H        0.28378826       1.22673312       1.03940422
H       -0.46427974       2.02935741      -0.35329002
H        0.94542220      -1.01579716       0.76064559
17
Properties=species:S:1:pos:R:3 relative_energy_eV=0.0004471223510336131 branch=left pbc="F F F"
O       -3.02885908       0.86868873      -0.09570770
C       -2.16002588       0.16522352       0.38911535
O       -2.31780289      -0.43046289       1.59656120
C       -0.81337458      -0.11658926      -0.25457756
O       -0.24998398      -1.29553470       0.20147446
C        0.06597546       1.13537519      -0.02683523
O        1.28890904       1.12894423      -0.76319647
P        2.32259245      -0.14464561      -0.55380282
O        1.70010673      -1.27281272      -1.53234927
O        3.69957551       0.26597081      -0.90136297
O        2.00599668      -0.66273294       0.90284918
H       -3.20637667      -0.16966794       1.88528671
H       -1.03543867      -0.14753363      -1.33493507
H        0.86072379      -1.54497444      -1.03532590
H        0.28381265       1.22787310       1.03949199
H       -0.46426272       2.02959344      -0.35312891
H        0.94199690      -1.01616818       0.76016535
17
Properties=species:S:1:pos:R:3 relative_energy_eV=0.0005430534183687996 branch=left pbc="F F F"
O       -3.02876772       0.86838800      -0.09584611
C       -2.15976544       0.16514256       0.38897004
O       -2.31786489      -0.43110541       1.59609480
C       -0.81301123      -0.11645674      -0.25410597
O       -0.24964837      -1.29563495       0.20275521
C        0.06627339       1.13585495      -0.02680924
O        1.28916318       1.12918552      -0.76339713
P        2.32337743      -0.14469013      -0.55335475
O        1.69943064      -1.27193436      -1.53243961
O        3.70037664       0.26548810      -0.90238238
O        2.00580920      -0.66254701       0.90249791
H       -3.20607415      -0.17010649       1.88522358
H       -1.03424950      -0.14821696      -1.33437768
H        0.86044816      -1.54549706      -1.03533684
H        0.28370683       1.22886991       1.03975938
H       -0.46443415       2.03013693      -0.35301620
H        0.93879471      -1.01633011       0.75948731
17
Properties=species:S:1:pos:R:3 relative_energy_eV=0.000633733368886169 branch=left pbc="F F F"
O       -3.02840131       0.86795678      -0.09616884
C       -2.15959704       0.16522667       0.38902589
O       -2.31772240      -0.43205448       1.59573424
C       -0.81270624      -0.11624150      -0.25351841
O       -0.24926965      -1.29554250       0.20400808
C        0.06639556       1.13655241      -0.02663661
O        1.28930251       1.12943031      -0.76347291
P        2.32411905      -0.14475786      -0.55313121
O        1.69855844      -1.27147861      -1.53250818
O        3.70125363       0.26487185      -0.90290782
O        2.00572156      -0.66230597       0.90214750
H       -3.20570734      -0.17041581       1.88507304
H       -1.03295841      -0.14915131      -1.33383879
H        0.85999254      -1.54601784      -1.03540961
H        0.28348812       1.22972062       1.04015019
H       -0.46474012       2.03087453      -0.35297992
H        0.93583579      -1.01612056       0.75815565
17
Properties=species:S:1:pos:R:3 relative_energy_eV=0.000716669066605391 branch=left pbc="F F F"
O       -3.02822591       0.86777367      -0.09668643
C       -2.15912229       0.16506139       0.38929323
O       -2.31763895      -0.43294652       1.59555288
C       -0.81248023      -0.11594632      -0.25295344
O       -0.24896574      -1.29527459       0.20506223
C        0.06642432       1.13723264      -0.02640500
O        1.28936294       1.12967270      -0.76341388
P        2.32456021      -0.14482370      -0.55309453
O        1.69774211      -1.27141923      -1.53257822
O        3.70188026       0.26424522      -0.90300688
O        2.00570648      -0.66208687       0.90189864
H       -3.20527059      -0.17064259       1.88488685
H       -1.03184258      -0.15008728      -1.33340508
H        0.85961720      -1.54636673      -1.03550903
H        0.28325404       1.23032872       1.04050326
H       -0.46503258       2.03152364      -0.35299662
H        0.93359601      -1.01569740       0.75657429
17
Properties=species:S:1:pos:R:3 relative_energy_eV=0.0008170407963916659 branch=left pbc="F F F"
O       -3.02753554       0.86728958      -0.09710778
C       -2.15888188       0.16495447       0.38943472
O       -2.31747284      -0.43396663       1.59540573
C       -0.81215615      -0.11542388      -0.25232578
O       -0.24869943      -1.29466116       0.20628053
C        0.06644333       1.13806860      -0.02609183
O        1.28936375       1.13003419      -0.76313245
P        2.32457161      -0.14495692      -0.55318400
O        1.69687106      -1.27177275      -1.53272563
O        3.70217731       0.26336555      -0.90265906
O        2.00577770      -0.66181799       0.90166451
H       -3.20479706      -0.17082269       1.88467067
H       -1.03062548      -0.15128171      -1.33287245
H        0.85934383      -1.54652933      -1.03563263
H        0.28296014       1.23086233       1.04085727
H       -0.46531583       2.03211884      -0.35305094
H        0.93154015      -1.01491374       0.75419136
17
Properties=species:S:1:pos:R:3 relative_energy_eV=0.0008809067840047646 branch=left pbc="F F F"
O       -3.02727543       0.86714622      -0.09731924
C       -2.15862064       0.16471663       0.38953054
O       -2.31735767      -0.43438275       1.59530261
C       -0.81198748      -0.11511589      -0.25205957
O       -0.24861909      -1.29426621       0.20684289
C        0.06645768       1.13842732      -0.02595051
O        1.28934847       1.13023540      -0.76293669
P        2.32437214      -0.14505738      -0.55322881
O        1.69654878      -1.27204287      -1.53282854
O        3.70214090       0.26291597      -0.90236997
O        2.00583477      -0.66168732       0.90155113
H       -3.20465091      -0.17087807       1.88461301
H       -1.03010821      -0.15184557      -1.33261089
H        0.85927654      -1.54651581      -1.03567455
H        0.28282665       1.23105617       1.04099190
H       -0.46541061       2.03231744      -0.35308178
H        0.93078877      -1.01447651       0.75295068
17
Properties=species:S:1:pos:R:3 relative_energy_eV=0.001042623396642739 branch=left pbc="F F F"
O       -3.02646712       0.86665480      -0.09733147
C       -2.15812307       0.16413062       0.38931206
O       -2.31734515      -0.43484425       1.59505700
C       -0.81166168      -0.11427801      -0.25178283
O       -0.24866630      -1.29332617       0.20790202
C        0.06651571       1.13892879      -0.02581578
O        1.28929100       1.13072348      -0.76241699
P        2.32332770      -0.14547829      -0.55312480
O        1.69643711      -1.27264891      -1.53321781
O        3.70158969       0.26197813      -0.90157271
O        2.00611906      -0.66134750       0.90118400
H       -3.20440590      -0.17099552       1.88460389
H       -1.02927564      -0.15287952      -1.33194734
H        0.85917560      -1.54630531      -1.03559524
H        0.28262247       1.23131493       1.04121247
H       -0.46546468       2.03244437      -0.35313290
H        0.92989583      -1.01352487       0.75038860
17
Properties=species:S:1:pos:R:3 relative_energy_eV=0.0011676246249407995 branch=left pbc="F F F"
O       -3.02620218       0.86649325      -0.09728965
C       -2.15789426       0.16387668       0.38920244
O       -2.31728810      -0.43495005       1.59492229
C       -0.81160541      -0.11392895      -0.25177794
O       -0.24879108      -1.29305309       0.20821230
C        0.06654140       1.13903183      -0.02581993
O        1.28926802       1.13090099      -0.76224316
P        2.32286212      -0.14568730      -0.55297419
O        1.69655998      -1.27280756      -1.53342302
O        3.70136908       0.26167950      -0.90130486
O        2.00633084      -0.66117850       0.90099369
H       -3.20443156      -0.17101142       1.88465523
H       -1.02902485      -0.15319803      -1.33166921
H        0.85908174      -1.54624074      -1.03550140
H        0.28257415       1.23138848       1.04129738
H       -0.46546692       2.03245315      -0.35314816
H        0.92968164      -1.01322147       0.74959035
17
Properties=species:S:1:pos:R:3 relative_energy_eV=0.0013811970238748472 branch=left pbc="F F F"
O       -3.02604686       0.86638411      -0.09719102
C       -2.15764704       0.16363666       0.38897241
O       -2.31729879      -0.43502113       1.59479009
C       -0.81130704      -0.11389040      -0.25173990
O       -0.24799491      -1.29230447       0.20898684
C        0.06640809       1.13904518      -0.02579605
O        1.28925069       1.13111068      -0.76205217
P        2.32368723      -0.14540464      -0.55280147
O        1.69686814      -1.27308847      -1.53382899
O        3.69991898       0.26098964      -0.90082174
O        2.00544165      -0.66131514       0.90049567
H       -3.20441812      -0.17105137       1.88472050
H       -1.02884960      -0.15343639      -1.33147619
H        0.85874677      -1.54621698      -1.03534324
H        0.28254510       1.23147753       1.04141108
H       -0.46541489       2.03245610      -0.35315945
H        0.92967523      -1.01282412       0.74855581
17
Properties=species:S:1:pos:R:3 relative_energy_eV=0.0024757951141509693 branch=left pbc="F F F"
O       -3.02635976       0.86659457      -0.09720249
C       -2.15785859       0.16360198       0.38884591
O       -2.31735865      -0.43518894       1.59468140
C       -0.80992106      -0.11528686      -0.25122270
O       -0.24323467      -1.28984067       0.21160657
C        0.06608276       1.13896165      -0.02545617
O        1.28965226       1.13122146      -0.76173714
P        2.32159024      -0.14575920      -0.55252049
O        1.69689313      -1.27357793      -1.53341904
O        3.70032874       0.26076536      -0.90094621
O        2.00038887      -0.66281831       0.89949563
H       -3.20411027      -0.17115061       1.88465193
H       -1.02893093      -0.15340929      -1.33198677
H        0.85893727      -1.54575862      -1.03568811
H        0.28245073       1.23161489       1.04148279
H       -0.46526127       2.03254190      -0.35317435
H        0.93027583      -1.01196457       0.74631144
17
Properties=species:S:1:pos:R:3 relative_energy_eV=0.004513100931944791 branch=left pbc="F F F"
O       -3.02673338       0.86689203      -0.09737869
C       -2.15819988       0.16363388       0.38908911
O       -2.31716768      -0.43534102       1.59456368
C       -0.80913831      -0.11626830      -0.25088800
O       -0.23987580      -1.28848161       0.21322463
C        0.06595086       1.13901921      -0.02521772
O        1.28980033       1.13114788      -0.76148785
P        2.32168528      -0.14530938      -0.55389199
O        1.69610333      -1.27399909      -1.53248693
O        3.70005689       0.26056508      -0.90087104
O        1.99673296      -0.66419880       0.89985569
H       -3.20402965      -0.17114703       1.88458729
H       -1.02906445      -0.15327509      -1.33249783
H        0.85964923      -1.54535065      -1.03635876
H        0.28237716       1.23166686       1.04144828
H       -0.46518079       2.03258264      -0.35316485
H        0.93059852      -1.01158981       0.74519718
17
Properties=species:S:1:pos:R:3 relative_energy_eV=0.0004485865210881457 branch=ts pbc="F F F"
O       -3.03328246       0.86966665      -0.09423941
C       -2.16252928       0.16453206       0.38531104
O       -2.31706529      -0.43899893       1.58929367
C       -0.81550779      -0.11465730      -0.26261007
O       -0.24805411      -1.29111768       0.18309319
C        0.06217122       1.13521815      -0.02030230
O        1.29256262       1.13069079      -0.75054406
P        2.32067858      -0.14558597      -0.56284024
O        1.67866423      -1.27962115      -1.50671278
O        3.70001879       0.25754030      -0.90526824
O        2.03610135      -0.65274653       0.91784406
H       -3.20254975      -0.17534299       1.88396807
H       -1.04191193      -0.13118216      -1.34416551
H        0.82317372      -1.51986458      -0.99111161
H        0.27640842       1.21718168       1.04752386
H       -0.45833668       2.03709831      -0.34232277
H        1.02184934      -1.00252383       0.80996324
17
Properties=species:S:1:pos:R:3 relative_energy_eV=-0.005508527428901289 branch=right pbc="F F F"
O       -3.04022017       0.87296918      -0.09007539
C       -2.16751668       0.16504060       0.38105576
O       -2.31685538      -0.44289458       1.58348924
C       -0.82359365      -0.11027667      -0.27597898
O       -0.25544150      -1.29569110       0.14207508
C        0.05940746       1.13190528      -0.01547898
O        1.29463679       1.13035173      -0.73852006
P        2.32175063      -0.14796696      -0.57023750
O        1.66015904      -1.28478861      -1.47728133
O        3.70192202       0.25603400      -0.91362224
O        2.08395916      -0.63743867       0.93792575
H       -3.20094884      -0.17970716       1.88314257
H       -1.05458723      -0.10893495      -1.35530551
H        0.78142101      -1.49620238      -0.93778356
H        0.26998706       1.20174812       1.05396957
H       -0.45236035       2.04133870      -0.33099698
H        1.10949794      -0.99545970       0.87366068
17
Properties=species:S:1:pos:R:3 relative_energy_eV=-0.0134169326229312 branch=right pbc="F F F"
O       -3.04097197       0.87583602      -0.08265581
C       -2.16582241       0.16220129       0.37657936
O       -2.31374303      -0.44900633       1.57835901
C       -0.82584698      -0.10830997      -0.29728504
O       -0.25683951      -1.30914022       0.07762511
C        0.06174468       1.12885777      -0.01525925
O        1.30135989       1.13360168      -0.72941766
P        2.32650925      -0.15329692      -0.58091068
O        1.65663234      -1.29792925      -1.44617602
O        3.69774781       0.26159004      -0.93296872
O        2.09432510      -0.62738776       0.94601817
H       -3.19675391      -0.18349293       1.88117366
H       -1.06524815      -0.08650293      -1.37239599
H        0.74193907      -1.48620545      -0.86275242
H        0.26447409       1.19310507       1.05745298
H       -0.45357342       2.03963293      -0.32521336
H        1.14528427      -0.99352633       0.87786499
17
Properties=species:S:1:pos:R:3 relative_energy_eV=-0.02587996943111648 branch=right pbc="F F F"
O       -3.03643487       0.88010149      -0.08205402
C       -2.16419066       0.15720382       0.36498053
O       -2.29751638      -0.46074939       1.56585023
C       -0.83912303      -0.09921101      -0.31857630
O       -0.28600901      -1.31542247       0.04750546
C        0.06052046       1.12234627      -0.02113350
O        1.29590031       1.13269953      -0.73641786
P        2.32559413      -0.15941885      -0.59961699
O        1.64387935      -1.30827633      -1.42931624
O        3.70497993       0.27147964      -0.93179024
O        2.12356058      -0.60746177       0.94812882
H       -3.17687307      -0.19359759       1.87357159
H       -1.07764561      -0.05162078      -1.39231459
H        0.68646019      -1.46790758      -0.81023029
H        0.25492505       1.16805815       1.05324572
H       -0.44841013       2.03835638      -0.31927938
H        1.20159962      -1.00655287       0.93748553
17
Properties=species:S:1:pos:R:3 relative_energy_eV=-0.15441914259645273 branch=right pbc="F F F"
O       -3.04650537       0.89490137      -0.07460971
C       -2.16533960       0.16238194       0.33328943
O       -2.25994836      -0.48674771       1.52123457
C       -0.86908105      -0.07656061      -0.37811402
O       -0.35825469      -1.32853603      -0.03401950
C        0.06616430       1.10826998      -0.03880413
O        1.28573038       1.12346463      -0.75561608
P        2.33413695      -0.17831203      -0.63203727
O        1.66440639      -1.31461073      -1.41659843
O        3.70784832       0.29836589      -0.93575596
O        2.20288460      -0.55784812       0.97212122
H       -3.12691979      -0.22413521       1.86181338
H       -1.10404441       0.01864968      -1.44332372
H        0.47700710      -1.44037419      -0.66545429
H        0.24114783       1.09817147       1.04082087
H       -0.44373405       2.03799844      -0.30057379
H        1.36571770      -1.03505226       1.09566619
17
Properties=species:S:1:pos:R:3 relative_energy_eV=-0.20193791263591265 branch=right pbc="F F F"
O       -3.08012559       0.91100933      -0.06667232
C       -2.18879800       0.18326347       0.32811953
O       -2.27137803      -0.47365178       1.51376271
C       -0.88391131      -0.06644290      -0.39079880
O       -0.39210480      -1.33150184      -0.03020607
C        0.07499261       1.10490752      -0.03925198
O        1.29596225       1.12529621      -0.74007106
P        2.35877049      -0.18089633      -0.63730159
O        1.72823912      -1.32092168      -1.43605969
O        3.71995219       0.33689241      -0.92891586
O        2.23069836      -0.54217363       0.97720467
H       -3.13526626      -0.22955150       1.87806327
H       -1.09951863      -0.01371049      -1.46476478
H        0.38905636      -1.48831153      -0.66509002
H        0.26293790       1.09122428       1.03838108
H       -0.44277873       2.03522846      -0.28515053
H        1.40448824      -1.04063350       1.09879022
17
Properties=species:S:1:pos:R:3 relative_energy_eV=-0.21179729812138248 branch=right pbc="F F F"
O       -3.07966934       0.91881639      -0.07407782
C       -2.19696304       0.18623579       0.32711787
O       -2.28248295      -0.45862437       1.51890866
C       -0.89292757      -0.07237444      -0.38649885
O       -0.40836650      -1.34292676      -0.02882610
C        0.07524189       1.09269228      -0.04017557
O        1.28458702       1.11250557      -0.76027392
P        2.37406754      -0.17177251      -0.64108674
O        1.74252712      -1.32227242      -1.42089224
O        3.72787115       0.37778244      -0.91664471
O        2.25382876      -0.54499477       0.96976651
H       -3.14937620      -0.21392134       1.87518291
H       -1.10706970      -0.00976029      -1.45789137
H        0.36487049      -1.50104130      -0.66261828
H        0.25964367       1.06610194       1.03847555
H       -0.42844492       2.03326706      -0.27425795
H        1.43387878      -1.04968682       1.08383091
17
Properties=species:S:1:pos:R:3 relative_energy_eV=-0.21931348910584347 branch=right pbc="F F F"
O       -3.07806957       0.92772358      -0.08667354
C       -2.20162189       0.19364512       0.32931817
O       -2.30408463      -0.43604406       1.52736831
C       -0.90336266      -0.07792902      -0.38888630
O       -0.42213085      -1.35089534      -0.03559922
C        0.07244774       1.07382917      -0.03395987
O        1.27283055       1.09647989      -0.76359032
P        2.38315817      -0.16304649      -0.64378530
O        1.78508741      -1.33304646      -1.41829329
O        3.71939589       0.42360942      -0.92638808
O        2.26966263      -0.53129410       0.97114670
H       -3.17464553      -0.17674430       1.86703160
H       -1.13022457      -0.00319204      -1.45873862
H        0.36235204      -1.51001271      -0.64844860
H        0.28006092       1.02669877       1.03949517
H       -0.43308365       2.01810551      -0.25143512
H        1.47344431      -1.07786060       1.07147725
17
Properties=species:S:1:pos:R:3 relative_energy_eV=-0.22319647330368753 branch=right pbc="F F F"
O       -3.08054796       0.93540697      -0.09439844
C       -2.20936083       0.19647054       0.32209971
O       -2.31163021      -0.42413155       1.52362588
C       -0.90831088      -0.08148174      -0.38894381
O       -0.42338486      -1.35419344      -0.04241177
C        0.06991795       1.06500304      -0.03086349
O        1.26026434       1.09415385      -0.77825006
P        2.38391314      -0.15814709      -0.64760205
O        1.79112211      -1.33689387      -1.41192827
O        3.71597235       0.43838184      -0.93195977
O        2.27838244      -0.52000404       0.97248997
H       -3.17932273      -0.15623307       1.86251252
H       -1.13652547      -0.00158578      -1.45677059
H        0.36025671      -1.50728649      -0.65581543
H        0.28762230       0.99794669       1.03928792
H       -0.43837093       2.01070289      -0.22951576
H        1.51121886      -1.09808240       1.09848240
17
Properties=species:S:1:pos:R:3 relative_energy_eV=-0.2270781101906323 branch=right pbc="F F F"
O       -3.08046975       0.93894179      -0.10780789
C       -2.21377785       0.19742436       0.31518385
O       -2.32494428      -0.41445979       1.52157152
C       -0.91333895      -0.08808480      -0.39757293
O       -0.43789121      -1.36597763      -0.06309622
C        0.06529106       1.05417758      -0.02397235
O        1.25091401       1.09193897      -0.78030592
P        2.37753325      -0.15083516      -0.64709322
O        1.78567440      -1.34613495      -1.38811394
O        3.70513932       0.44456297      -0.95039700
O        2.29468473      -0.49450770       0.97705313
H       -3.18632254      -0.12781899       1.86410287
H       -1.13223733      -0.00344559      -1.46780356
H        0.36847831      -1.50023472      -0.65564671
H        0.29343342       0.96968972       1.04213456
H       -0.44108164       2.00780344      -0.19159970
H        1.56013138      -1.11301324       1.10340258
17
Properties=species:S:1:pos:R:3 relative_energy_eV=-0.23019706951163244 branch=right pbc="F F F"
O       -3.09407666       0.94306109      -0.12290033
C       -2.22711975       0.20030165       0.29588150
O       -2.32579902      -0.40649572       1.50573995
C       -0.92489906      -0.08920890      -0.40919193
O       -0.46988296      -1.37289802      -0.07516045
C        0.06098062       1.03914636      -0.01318117
O        1.24628018       1.09340873      -0.77237475
P        2.37956462      -0.14134709      -0.64537627
O        1.77714321      -1.34853698      -1.35790269
O        3.69930776       0.45228819      -0.98594511
O        2.32477909      -0.46791130       0.98844901
H       -3.17731196      -0.10920852       1.86068160
H       -1.12942690       0.01000429      -1.48092535
H        0.34901398      -1.50752763      -0.64758129
H        0.29421264       0.92751321       1.04911820
H       -0.43674089       1.99923335      -0.16292097
H        1.62519143      -1.12179645       1.12362923
17
Properties=species:S:1:pos:R:3 relative_energy_eV=-0.23307137139636325 branch=right pbc="F F F"
O       -3.12403726       0.94413743      -0.17758202
C       -2.25041262       0.21887653       0.25972273
O       -2.34899581      -0.36404098       1.48096247
C       -0.94539770      -0.09216167      -0.43624020
O       -0.54612073      -1.40096260      -0.12851533
C        0.05573863       0.99751586       0.01747416
O        1.23345953       1.08795824      -0.75171637
P        2.38339685      -0.12290504      -0.64709382
O        1.77252135      -1.37751919      -1.26860117
O        3.66736790       0.49209030      -1.08326573
O        2.41395421      -0.40786857       0.99872503
H       -3.18658197      -0.04145316       1.84729753
H       -1.13480667       0.04907554      -1.50706638
H        0.33217877      -1.51575780      -0.61293578
H        0.28280106       0.80862568       1.07234365
H       -0.43821976       1.97040741      -0.06487379
H        1.80437065      -1.14599191       1.15140465
17
Properties=species:S:1:pos:R:3 relative_energy_eV=-0.24838690091928584 branch=right pbc="F F F"
O       -3.16897075       0.94284412      -0.24836199
C       -2.29219699       0.23790919       0.21065444
O       -2.36921748      -0.29363254       1.45755167
C       -0.98626205      -0.08705931      -0.46961294
O       -0.63895549      -1.41488654      -0.19661904
C        0.03918789       0.94786982       0.05757796
O        1.21202602       1.07096587      -0.71379083
P        2.39601592      -0.11410698      -0.64537650
O        1.78524102      -1.40685188      -1.17575945
O        3.61915321       0.52658666      -1.19470508
O        2.55222155      -0.34746966       1.00107115
H       -3.20813331       0.02366406       1.82351608
H       -1.13505505       0.09521776      -1.53917060
H        0.28050980      -1.53137324      -0.58397720
H        0.26440800       0.67255068       1.09141593
H       -0.43701570       1.93408378       0.06187432
H        2.05825965      -1.15628615       1.21375220
17
Properties=species:S:1:pos:R:3 relative_energy_eV=-0.2564293254981749 branch=right pbc="F F F"
O       -3.19747776       0.92961174      -0.27254018
C       -2.30897670       0.24490797       0.19685789
O       -2.38166277      -0.25800843       1.45508311
C       -0.99503301      -0.08612459      -0.47625464
O       -0.65324877      -1.42047339      -0.21909297
C        0.03210302       0.92432220       0.08066486
O        1.20379013       1.06048113      -0.68829491
P        2.39223885      -0.11091828      -0.64331879
O        1.77895911      -1.41709914      -1.13621089
O        3.60193096       0.51898333      -1.24013616
O        2.61322093      -0.32507243       1.00023431
H       -3.23417757       0.04435429       1.80255192
H       -1.13414431       0.11945915      -1.54430120
H        0.27187972      -1.53217990      -0.59446192
H        0.25281129       0.63681747       1.11155861
H       -0.42355315       1.91612351       0.09951654
H        2.15255625      -1.14515911       1.21818476
17
Properties=species:S:1:pos:R:3 relative_energy_eV=-0.26015045055464725 branch=right pbc="F F F"
O       -3.22933974       0.89598125      -0.30721138
C       -2.32566139       0.24751064       0.18334731
O       -2.39561388      -0.22519665       1.45352329
C       -1.00305238      -0.07156008      -0.47831139
O       -0.68514227      -1.41544595      -0.25184963
C        0.03466990       0.91091842       0.10665684
O        1.21454869       1.05281773      -0.65123842
P        2.40027842      -0.12171240      -0.64508661
O        1.76704142      -1.43467659      -1.09337125
O        3.58010988       0.49898906      -1.30270364
O        2.68425963      -0.29924460       0.98871426
H       -3.26771434       0.04926721       1.77475332
H       -1.13146791       0.15603843      -1.54191692
H        0.25179341      -1.52431641      -0.59697544
H        0.23671373       0.60135015       1.13567512
H       -0.41703513       1.90520806       0.13470792
H        2.25682813      -1.12590289       1.24132717
17
Properties=species:S:1:pos:R:3 relative_energy_eV=-0.26264630833247793 branch=right pbc="F F F"
O       -3.23424619       0.87736674      -0.31839414
C       -2.32907731       0.24360482       0.18824626
O       -2.41309784      -0.22892298       1.45794000
C       -1.00092500      -0.06618573      -0.46750672
O       -0.68514896      -1.41253871      -0.24744091
C        0.04207725       0.91767572       0.11006013
O        1.21500823       1.05313715      -0.66083051
P        2.40211687      -0.12199710      -0.64722826
O        1.76797416      -1.43676750      -1.08880748
O        3.58368065       0.49088851      -1.31155020
O        2.68886628      -0.29806812       0.98906209
H       -3.29071401       0.04167455       1.76954981
H       -1.13163855       0.16988539      -1.53007025
H        0.24413240      -1.52834999      -0.60961620
H        0.25862420       0.60932954       1.13577383
H       -0.40553129       1.91405283       0.13828142
H        2.25911518      -1.12475965       1.24257150
17
Properties=species:S:1:pos:R:3 relative_energy_eV=-0.2637271821477043 branch=right pbc="F F F"
O       -3.24952748       0.86394817      -0.33370194
C       -2.33737202       0.24560884       0.17945963
O       -2.41989576      -0.22045825       1.45112091
C       -1.00304318      -0.05708937      -0.46846223
O       -0.69982444      -1.40836372      -0.25953315
C        0.04573670       0.91300607       0.11966596
O        1.21573951       1.04849801      -0.65601949
P        2.40033016      -0.12704251      -0.64976212
O        1.76186121      -1.44751438      -1.06781910
O        3.57119566       0.48243347      -1.33571456
O        2.71251469      -0.28529103       0.98263045
H       -3.30380451       0.03525978       1.75654666
H       -1.12954138       0.18981720      -1.52868017
H        0.23863859      -1.52890190      -0.59725770
H        0.26680961       0.59876675       1.14245664
H       -0.39514597       1.91150907       0.16511612
H        2.29654460      -1.11416069       1.24999458
17
Properties=species:S:1:pos:R:3 relative_energy_eV=-0.2643782702871249 branch=right pbc="F F F"
O       -3.25435925       0.86248316      -0.34002644
C       -2.34053187       0.24924671       0.17631548
O       -2.42398118      -0.21747096       1.44803312
C       -1.00442327      -0.05239298      -0.46722449
O       -0.70262453      -1.40412265      -0.25829204
C        0.04772742       0.91043831       0.12603418
O        1.21121419       1.04548983      -0.66076991
P        2.39849668      -0.12786550      -0.65171952
O        1.76019444      -1.45307606      -1.05591112
O        3.56528321       0.47702434      -1.34809421
O        2.71522878      -0.27478584       0.98098193
H       -3.31211686       0.02923447       1.74837889
H       -1.12284930       0.19448305      -1.52872272
H        0.23689781      -1.52317479      -0.59373692
H        0.27693743       0.58084836       1.14306994
H       -0.38862167       1.91081819       0.18054974
H        2.30874380      -1.10715201       1.25117465
17
Properties=species:S:1:pos:R:3 relative_energy_eV=-0.264672788009193 branch=right pbc="F F F"
O       -3.25747870       0.86302920      -0.34680830
C       -2.34375100       0.25281081       0.17296793
O       -2.42941376      -0.20988835       1.44591149
C       -1.00625497      -0.05049780      -0.46829131
O       -0.70975887      -1.40397096      -0.26135881
C        0.04875498       0.90449911       0.12933259
O        1.21163523       1.04356845      -0.65702272
P        2.39999238      -0.12770124      -0.65268186
O        1.76106189      -1.45652071      -1.04311497
O        3.55930286       0.47533734      -1.36332071
O        2.72895609      -0.26476359       0.97850962
H       -3.32135337       0.02812853       1.74204333
H       -1.12136683       0.20097537      -1.52875270
H        0.23113288      -1.52557106      -0.59061074
H        0.27527506       0.56419487       1.14223109
H       -0.38329431       1.90533643       0.19851237
H        2.32777606      -1.09894067       1.25249433
17
Properties=species:S:1:pos:R:3 relative_energy_eV=-0.2653022439299093 branch=right pbc="F F F"
O       -3.25940254       0.87083632      -0.36319341
C       -2.34943647       0.26069304       0.16308751
O       -2.44335551      -0.19960972       1.43660168
C       -1.01124381      -0.04707303      -0.47403235
O       -0.73272076      -1.40700982      -0.28051774
C        0.05071120       0.88880273       0.14450865
O        1.21077813       1.04417437      -0.64450714
P        2.40042471      -0.12712581      -0.65454274
O        1.75567161      -1.46320998      -1.00827709
O        3.54234511       0.46301056      -1.40301137
O        2.77069732      -0.23605042       0.96969705
H       -3.34048159       0.03170172       1.72259445
H       -1.12354375       0.21446352      -1.53306098
H        0.21432926      -1.53484221      -0.58631025
H        0.27848017       0.51788617       1.14801664
H       -0.37566039       1.89071478       0.24312911
H        2.38362231      -1.06733640       1.26985881
17
Properties=species:S:1:pos:R:3 relative_energy_eV=-0.26650332657663967 branch=right pbc="F F F"
O       -3.25017351       0.90608988      -0.36907319
C       -2.35547676       0.27150070       0.15471743
O       -2.46583092      -0.20447121       1.42041259
C       -1.01900781      -0.05219275      -0.47579081
O       -0.76173071      -1.41838521      -0.29454844
C        0.05443743       0.86320605       0.15488412
O        1.20439425       1.03853730      -0.64200866
P        2.40369587      -0.12251418      -0.65618151
O        1.75999093      -1.46802566      -0.97317227
O        3.52660113       0.47013113      -1.43179930
O        2.80771434      -0.19896884       0.96223897
H       -3.35720378       0.04807425       1.70592819
H       -1.12018467       0.22217099      -1.53163100
H        0.18543802      -1.55159561      -0.58867831
H        0.29687376       0.46237983       1.14187963
H       -0.36925567       1.86144646       0.28886726
H        2.43093231      -1.02735698       1.28399638
17
Properties=species:S:1:pos:R:3 relative_energy_eV=-0.2672774687562196 branch=right pbc="F F F"
O       -3.24762257       0.92293612      -0.37399021
C       -2.36115284       0.27546445       0.14775660
O       -2.48318347      -0.20777889       1.41025127
C       -1.02273771      -0.05119238      -0.48056785
O       -0.77889665      -1.42194391      -0.31631164
C        0.05504454       0.84672619       0.16607306
O        1.20074030       1.03337669      -0.63540558
P        2.40414168      -0.12341417      -0.65783143
O        1.76300923      -1.47657281      -0.94346624
O        3.50949474       0.46238981      -1.46345254
O        2.83464644      -0.17347815       0.95475059
H       -3.37114142       0.05781406       1.69553347
H       -1.11158208       0.23899348      -1.53385822
H        0.17466951      -1.55732068      -0.58371164
H        0.29866123       0.43099448       1.14789831
H       -0.36692761       1.84277815       0.31896974
H        2.47405050      -0.99974619       1.29740354
17
Properties=species:S:1:pos:R:3 relative_energy_eV=-0.2676712565589696 branch=right pbc="F F F"
O       -3.24395248       0.93507548      -0.37182030
C       -2.36192998       0.27801060       0.14579485
O       -2.48713872      -0.21775914       1.40304488
C       -1.02427255      -0.05020778      -0.48190821
O       -0.78167708      -1.42192767      -0.32133509
C        0.05290908       0.84559759       0.16815406
O        1.19863680       1.03000445      -0.63345354
P        2.40345458      -0.12547732      -0.65680084
O        1.76569244      -1.48247235      -0.93167401
O        3.50331649       0.45691531      -1.47141715
O        2.84062532      -0.16333534       0.95413694
H       -3.37066173       0.05534327       1.69466915
H       -1.11075324       0.24565973      -1.53346809
H        0.17245270      -1.56145314      -0.58407003
H        0.29421782       0.42295153       1.14721535
H       -0.36535756       1.84390292       0.32212924
H        2.48565190      -0.99080188       1.30084403
17
Properties=species:S:1:pos:R:3 relative_energy_eV=-0.2681950504993438 branch=right pbc="F F F"
O       -3.23805805       0.95186847      -0.36358010
C       -2.36295102       0.27919724       0.14546763
O       -2.49394024      -0.23305270       1.39516980
C       -1.02738946      -0.04719164      -0.48537948
O       -0.78452930      -1.41858696      -0.33038603
C        0.05127240       0.84458765       0.16703013
O        1.19784710       1.02349877      -0.63383188
P        2.40265200      -0.13115550      -0.65358965
O        1.76844307      -1.49310990      -0.91205450
O        3.49502604       0.45051543      -1.47991330
O        2.84945068      -0.15439860       0.95490583
H       -3.37298191       0.04862819       1.69123558
H       -1.11774729       0.25199327      -1.53581512
H        0.17076857      -1.55661078      -0.58938161
H        0.28935799       0.42346122       1.14806316
H       -0.36442131       1.84362604       0.32217097
H        2.50841473      -0.98324409       1.30992978
17
Properties=species:S:1:pos:R:3 relative_energy_eV=-0.26944595433815266 branch=right pbc="F F F"
O       -3.21934720       1.01880407      -0.33092927
C       -2.36610580       0.29521839       0.14668832
O       -2.52022537      -0.28270375       1.36529423
C       -1.03766807      -0.03910970      -0.49617256
O       -0.81044669      -1.41498740      -0.35907734
C        0.05518380       0.83321015       0.16348822
O        1.19784511       1.01283084      -0.64264235
P        2.40744311      -0.13603253      -0.64617615
O        1.77100579      -1.50767906      -0.83918082
O        3.47702516       0.41697539      -1.51888512
O        2.87931451      -0.10537552       0.95625297
H       -3.39441729       0.00563113       1.67032580
H       -1.13151152       0.27176872      -1.54398346
H        0.15339355      -1.55957274      -0.57821469
H        0.29594391       0.39275989       1.13567245
H       -0.34553817       1.83485070       0.33767057
H        2.55931884      -0.93656264       1.32991027
17
Properties=species:S:1:pos:R:3 relative_energy_eV=-0.27081745439136284 branch=right pbc="F F F"
O       -3.19730342       1.07747307      -0.28852184
C       -2.36875480       0.30386882       0.15415857
O       -2.54615704      -0.33023710       1.34102840
C       -1.04762026      -0.03227859      -0.50310877
O       -0.82376264      -1.40985885      -0.39414601
C        0.05534601       0.82876123       0.15508452
O        1.19795325       0.99981168      -0.65454030
P        2.40732734      -0.14984336      -0.63925462
O        1.76807995      -1.52630483      -0.78051910
O        3.46730224       0.37813262      -1.54038483
O        2.90787628      -0.07124491       0.95286947
H       -3.41805027      -0.04041693       1.64979965
H       -1.14641516       0.29869902      -1.54343625
H        0.15049358      -1.54927714      -0.57285938
H        0.29839931       0.38308349       1.12430860
H       -0.33948194       1.83243007       0.33095307
H        2.60598122      -0.89277260       1.35860968
17
Properties=species:S:1:pos:R:3 relative_energy_eV=-0.27140611382128554 branch=right pbc="F F F"
O       -3.17195498       1.13771176      -0.24626985
C       -2.37087712       0.31601786       0.15814112
O       -2.57552875      -0.37496232       1.30765048
C       -1.05640680      -0.02604594      -0.51287697
O       -0.84304860      -1.40658739      -0.42498736
C        0.05583607       0.81670072       0.15144314
O        1.19702237       0.98553123      -0.66106920
P        2.41091091      -0.16032016      -0.63351574
O        1.77007269      -1.54008439      -0.72329203
O        3.45618997       0.34222887      -1.56557368
O        2.93973616      -0.02754963       0.94643808
H       -3.43809151      -0.07421987       1.63276025
H       -1.15758884       0.32171388      -1.54866794
H        0.13526839      -1.55230217      -0.57036871
H        0.29969023       0.35795584       1.11501207
H       -0.33284734       1.82097825       0.33908407
H        2.65283040      -0.83674094       1.38613311
17
Properties=species:S:1:pos:R:3 relative_energy_eV=-0.27216169943858404 branch=right pbc="F F F"
O       -3.14154029       1.19624894      -0.19741970
C       -2.37330396       0.32485968       0.16289658
O       -2.61125990      -0.42493164       1.26708189
C       -1.06739024      -0.01891024      -0.52070639
O       -0.86238954      -1.40223346      -0.46402795
C        0.05790586       0.80423188       0.14901189
O        1.19450063       0.96862779      -0.67163676
P        2.41376189      -0.17228743      -0.62646854
O        1.77223858      -1.55393080      -0.65043248
O        3.44104314       0.29570506      -1.59679647
O        2.97237339       0.02372984       0.93731233
H       -3.46179471      -0.10809731       1.60672170
H       -1.17325204       0.34901791      -1.54879556
H        0.12023178      -1.54885774      -0.56911148
H        0.30126229       0.32874930       1.10501161
H       -0.31573016       1.81036672       0.35486578
H        2.70455597      -0.77226306       1.41253444
17
Properties=species:S:1:pos:R:3 relative_energy_eV=-0.2728493175272888 branch=right pbc="F F F"
O       -3.11372987       1.24745830      -0.13466024
C       -2.37363959       0.33151521       0.17114620
O       -2.64321174      -0.48134991       1.22188484
C       -1.07545762      -0.00448274      -0.53224206
O       -0.87504750      -1.38830696      -0.51665604
C        0.05991459       0.79715112       0.14355478
O        1.19624009       0.94938587      -0.67915950
P        2.41304951      -0.19222394      -0.61449312
O        1.76675915      -1.57048799      -0.56497894
O        3.41736869       0.23174230      -1.62690095
O        3.00742116       0.07272795       0.92486200
H       -3.48534428      -0.15657949       1.57503988
H       -1.19033190       0.38841578      -1.55030469
H        0.11042613      -1.54027411      -0.56287450
H        0.29852109       0.30866779       1.09399762
H       -0.29900317       1.80647314       0.35864789
H        2.75727745      -0.69980707       1.44317775
17
Properties=species:S:1:pos:R:3 relative_energy_eV=-0.27323236239681137 branch=right pbc="F F F"
O       -3.10091455       1.26665608      -0.11106805
C       -2.37275802       0.33332940       0.17167457
O       -2.65107891      -0.50111880       1.20371290
C       -1.07879500      -0.00119554      -0.54006605
O       -0.88040601      -1.38569371      -0.53821324
C        0.05841558       0.79523814       0.14058766
O        1.19678329       0.94650668      -0.67910436
P        2.41102979      -0.19768490      -0.60633646
O        1.76133557      -1.57286240      -0.52427089
O        3.40475246       0.20644691      -1.63739846
O        3.02316037       0.08908531       0.92242073
H       -3.48638879      -0.17225926       1.56939319
H       -1.19389997       0.40221559      -1.55425546
H        0.10622239      -1.53867489      -0.56861174
H        0.29419376       0.30128781       1.08891449
H       -0.29827583       1.80474561       0.35763638
H        2.77783596      -0.67599698       1.45502565
17
Properties=species:S:1:pos:R:3 relative_energy_eV=-0.2734586728074646 branch=right pbc="F F F"
O       -3.09641950       1.26993464      -0.10738504
C       -2.37097986       0.33343759       0.17057349
O       -2.64900257      -0.50507595       1.19873639
C       -1.07883373       0.00063244      -0.54345877
O       -0.88218199      -1.38355769      -0.55252684
C        0.05712440       0.79375316       0.14167369
O        1.19653839       0.94525642      -0.67641232
P        2.40954121      -0.20024065      -0.60328179
O        1.75847664      -1.57410845      -0.50659407
O        3.39709061       0.19466749      -1.64327342
O        3.03105255       0.09493780       0.92021925
H       -3.48415778      -0.17912237       1.56687031
H       -1.19409069       0.41099973      -1.55464272
H        0.10438495      -1.53771440      -0.56595457
H        0.29120249       0.30049901       1.09086159
H       -0.30141577       1.80281753       0.35836122
H        2.78288267      -0.66709140       1.45627437
