17
Properties=species:S:1:pos:R:3 relative_energy_eV=0.0 branch=left pbc="F F F"
O       -3.23903533       0.80982505      -0.34095807
C       -2.32350192       0.23346769       0.21387136
O       -2.40322636      -0.14422340       1.51510437
C       -0.98689681      -0.10256272      -0.41032272
O       -0.63759754      -1.41598671      -0.06795467
C        0.04449453       0.94362639       0.06845938
O        1.19584086       1.04344631      -0.74121429
P        2.37222462      -0.14175549      -0.72237252
O        1.72237323      -1.45920571      -1.13417135
O        3.54908551       0.45158228      -1.41170348
O        2.67794559      -0.29425458       0.91244901
H       -3.29153566       0.12064888       1.79937074
H       -1.11990995       0.02912654      -1.48961381
H        0.26351020      -1.55460290      -0.49006168
H        0.29746523       0.71498306       1.10683677
H       -0.42110721       1.93129033       0.04078369
H        2.23228241      -1.10510523       1.18837704
17
Properties=species:S:1:pos:R:3 relative_energy_eV=3.37625497195404e-05 branch=left pbc="F F F"
O       -3.23859410       0.80725034      -0.34525986
C       -2.32351334       0.23378682       0.21275149
O       -2.40478152      -0.13962819       1.51494953
C       -0.98623265      -0.10310840      -0.40908665
O       -0.63756216      -1.41613650      -0.06477981
C        0.04437951       0.94270207       0.07090884
O        1.19534670       1.04419197      -0.73925259
P        2.37168098      -0.14096066      -0.72396537
O        1.72115276      -1.45780977      -1.13700692
O        3.54783483       0.45285596      -1.41413009
O        2.67955274      -0.29433670       0.91040353
H       -3.29444518       0.12304101       1.79700914
H       -1.11656973       0.02716473      -1.48882832
H        0.26235089      -1.55615483      -0.48814712
H        0.29803691       0.71283951       1.10894749
H       -0.42162950       1.93022322       0.04502550
H        2.23540431      -1.10562081       1.18734106
17
Properties=species:S:1:pos:R:3 relative_energy_eV=9.708494690130465e-05 branch=left pbc="F F F"
O       -3.23920571       0.80508869      -0.34890002
C       -2.32328915       0.23441812       0.21094274
O       -2.40422496      -0.13497042       1.51431955
C       -0.98513059      -0.10376260      -0.40776591
O       -0.63759841      -1.41687158      -0.06052934
C        0.04515491       0.94250516       0.07274613
O        1.19482454       1.04587640      -0.73799455
P        2.37020808      -0.14026282      -0.72523360
O        1.71921737      -1.45626926      -1.13900292
O        3.54576667       0.45428724      -1.41566889
O        2.67949761      -0.29438074       0.90871770
H       -3.29577192       0.12409236       1.79318258
H       -1.11386759       0.02497910      -1.48776808
H        0.26127410      -1.55820034      -0.48528247
H        0.29968849       0.71031907       1.10983153
H       -0.42134104       1.92978181       0.04991300
H        2.23720908      -1.10633045       1.18537244
17
Properties=species:S:1:pos:R:3 relative_energy_eV=0.00019466823505354114 branch=left pbc="F F F"
O       -3.23979579       0.80533748      -0.34652941
C       -2.32261524       0.23411560       0.21099078
O       -2.40049789      -0.13528643       1.51451773
C       -0.98529861      -0.10345470      -0.40923253
O       -0.63744497      -1.41605714      -0.06047227
C        0.04445720       0.94291826       0.07156602
O        1.19531995       1.04577808      -0.73822052
P        2.37047790      -0.14023371      -0.72463539
O        1.72092252      -1.45715045      -1.13996579
O        3.54673632       0.45456086      -1.41360200
O        2.67889861      -0.29549318       0.90910285
H       -3.29214183       0.12247591       1.79420572
H       -1.11474443       0.02438303      -1.48930888
H        0.26026623      -1.55992523      -0.48621350
H        0.29734162       0.71161722       1.10977920
H       -0.42058952       1.93106422       0.04778503
H        2.23111943      -1.10435008       1.18711288
17
Properties=species:S:1:pos:R:3 relative_energy_eV=0.0008130142668960616 branch=left pbc="F F F"
O       -3.23814410       0.80530778      -0.34131048
C       -2.31918589       0.23447099       0.21293836
O       -2.39490791      -0.14058407       1.51525011
C       -0.98344485      -0.10193448      -0.41217236
O       -0.63673473      -1.41456827      -0.06116545
C        0.04727803       0.94408512       0.06793235
O        1.19560060       1.04543599      -0.74359076
P        2.37108027      -0.14018992      -0.72380532
O        1.72017816      -1.45497380      -1.14002071
O        3.54960735       0.45609609      -1.40898050
O        2.66861449      -0.29440523       0.91295326
H       -3.28422096       0.11926106       1.80145005
H       -1.11634415       0.02054187      -1.49312703
H        0.25824727      -1.56180635      -0.49020355
H        0.30097602       0.70753297       1.10428092
H       -0.41522843       1.93367958       0.04722854
H        2.20904037      -1.09764963       1.18922249
17
Properties=species:S:1:pos:R:3 relative_energy_eV=0.002002804965741234 branch=left pbc="F F F"
O       -3.23807083       0.80375229      -0.34048622
C       -2.31971761       0.23220284       0.21425293
O       -2.39184428      -0.14670811       1.51616875
C       -0.98444327      -0.10203243      -0.41105898
O       -0.63855672      -1.41546288      -0.06044385
C        0.05009828       0.94526218       0.06353877
O        1.19612445       1.04874953      -0.75219292
P        2.37087690      -0.13778483      -0.72347327
O        1.72436874      -1.45540193      -1.13910328
O        3.55314447       0.45257281      -1.40428827
O        2.65299289      -0.28878924       0.91672872
H       -3.27736508       0.11792828       1.80667655
H       -1.11132627       0.02072274      -1.49133979
H        0.25538920      -1.56296943      -0.49079970
H        0.31279701       0.70595321       1.09740508
H       -0.41120371       1.93442676       0.05102826
H        2.18914741      -1.09212213       1.18426710
17
Properties=species:S:1:pos:R:3 relative_energy_eV=0.003451924287219299 branch=left pbc="F F F"
O       -3.23780893       0.80394030      -0.34112768
C       -2.31996520       0.23086518       0.21260250
O       -2.39421898      -0.14355614       1.51439321
C       -0.98292528      -0.10487412      -0.41035592
O       -0.63797446      -1.41796771      -0.05864778
C        0.05187389       0.93955850       0.06508891
O        1.19426220       1.04602316      -0.75791156
P        2.37168057      -0.13681718      -0.72635721
O        1.73002081      -1.45779439      -1.14292703
O        3.55704792       0.45563723      -1.40009660
O        2.64988950      -0.28494621       0.91424470
H       -3.27785284       0.12202662       1.81167684
H       -1.10958245       0.02302938      -1.49049655
H        0.25685983      -1.56106935      -0.48648903
H        0.32178926       0.69643762       1.09621339
H       -0.40941338       1.93000297       0.05930654
H        2.16872918      -1.08019617       1.17776313
17
Properties=species:S:1:pos:R:3 relative_energy_eV=0.006988934692344628 branch=left pbc="F F F"
O       -3.23612591       0.81499119      -0.31396827
C       -2.31490378       0.23158782       0.22258765
O       -2.37333358      -0.16273685       1.51981779
C       -0.98564172      -0.10212483      -0.41660351
O       -0.63197060      -1.41621915      -0.07703511
C        0.05373434       0.93881354       0.05299348
O        1.18881130       1.03822642      -0.77948474
P        2.37644746      -0.14294455      -0.72414862
O        1.73624262      -1.45960419      -1.14968049
O        3.58025356       0.44920452      -1.36689988
O        2.63035635      -0.28748189       0.91739196
H       -3.24982786       0.11318736       1.82655460
H       -1.12645009       0.02813738      -1.49452594
H        0.26624860      -1.55908711      -0.50244480
H        0.33023239       0.70082756       1.08293059
H       -0.41493184       1.92406577       0.04616663
H        2.10327047      -1.04854336       1.19322844
17
Properties=species:S:1:pos:R:3 relative_energy_eV=0.011308198925689794 branch=left pbc="F F F"
O       -3.22207450       0.82856169      -0.26009014
C       -2.29829247       0.22284506       0.24856191
O       -2.34098526      -0.18759848       1.54179041
C       -0.98932706      -0.10346562      -0.43289504
O       -0.62568108      -1.41942326      -0.12019719
C        0.05152970       0.94361328       0.02000094
O        1.19279822       1.02157168      -0.80476584
P        2.38224974      -0.15240155      -0.71064202
O        1.75584182      -1.46726378      -1.16170335
O        3.60440983       0.43627448      -1.31989739
O        2.58788450      -0.28504873       0.94386327
H       -3.21551633       0.09085827       1.85500396
H       -1.16215221       0.04523739      -1.50487695
H        0.27831827      -1.55373255      -0.53831497
H        0.32669565       0.72659204       1.05881887
H       -0.41546334       1.93000440      -0.00083586
H        2.02217637      -1.01632477       1.22305906
17
Properties=species:S:1:pos:R:3 relative_energy_eV=0.016070813038822962 branch=left pbc="F F F"
O       -3.21373232       0.84340199      -0.22524192
C       -2.28829466       0.22428065       0.26404115
O       -2.32042215      -0.19710619       1.55354909
C       -0.99112996      -0.10808166      -0.44167215
O       -0.61562794      -1.42615786      -0.14846167
C        0.05243270       0.94104193       0.00369817
O        1.20036411       1.01477109      -0.81162412
P        2.38750598      -0.16077274      -0.69942697
O        1.76786704      -1.47280071      -1.16830398
O        3.61706967       0.43295972      -1.28890459
O        2.56591965      -0.28792807       0.95617130
H       -3.19318668       0.07338261       1.88096420
H       -1.19438284       0.04671495      -1.50821898
H        0.28961199      -1.54075961      -0.57605035
H        0.31154389       0.73103151       1.04396889
H       -0.40615414       1.93247829      -0.04172510
H        1.96302768      -0.98615643       1.24411668
17
Properties=species:S:1:pos:R:3 relative_energy_eV=0.019436594422586495 branch=left pbc="F F F"
O       -3.21371460       0.85202437      -0.20401103
C       -2.28721331       0.22466622       0.27195905
O       -2.30456785      -0.21254949       1.55745355
C       -0.99573230      -0.10291351      -0.45047799
O       -0.61060842      -1.41694139      -0.16334947
C        0.04863089       0.94665418      -0.01245260
O        1.20951920       1.01607737      -0.80876251
P        2.39053874      -0.16707471      -0.69164592
O        1.77299393      -1.47880815      -1.16613702
O        3.62565620       0.42353117      -1.27073212
O        2.56316601      -0.30021477       0.96125296
H       -3.17057125       0.05719179       1.90116370
H       -1.20549771       0.04447190      -1.51492163
H        0.29379338      -1.53830696      -0.59526247
H        0.29386834       0.74585664       1.03314245
H       -0.40897569       1.93406165      -0.06826057
H        1.93112655      -0.96742689       1.25792129
17
Properties=species:S:1:pos:R:3 relative_energy_eV=0.027238204995228443 branch=left pbc="F F F"
O       -3.21138480       0.85897670      -0.16875848
C       -2.27942485       0.21674320       0.27672465
O       -2.27762817      -0.24462221       1.55271774
C       -0.99337312      -0.09805185      -0.46224913
O       -0.60372306      -1.40848015      -0.17636512
C        0.04402562       0.96264950      -0.03324500
O        1.21638307       1.00701879      -0.81532976
P        2.39055541      -0.17520337      -0.67490681
O        1.76308538      -1.47449147      -1.16477061
O        3.64403303       0.39046235      -1.23734751
O        2.55401506      -0.30881078       0.98049882
H       -3.12764862       0.02440017       1.93379850
H       -1.22165313       0.04957457      -1.52343551
H        0.28970438      -1.53263454      -0.63096913
H        0.27423331       0.78391510       1.02423276
H       -0.41720269       1.95015685      -0.11794007
H        1.88841536      -0.94130352       1.27422435
17
Properties=species:S:1:pos:R:3 relative_energy_eV=0.04113848630368011 branch=left pbc="F F F"
O       -3.19830219       0.87822242      -0.08299189
C       -2.25854939       0.21289443       0.30781045
O       -2.20875503      -0.31623477       1.55774494
C       -1.01308439      -0.08401319      -0.48706289
O       -0.61763908      -1.39981629      -0.23235741
C        0.03421925       0.98372187      -0.07816529
O        1.21761793       0.98877417      -0.84409364
P        2.39544999      -0.19815915      -0.64332731
O        1.79006103      -1.50047062      -1.15494377
O        3.67455416       0.37560956      -1.14137084
O        2.48363534      -0.29662858       1.01959593
H       -3.02974735      -0.02433454       1.98097762
H       -1.27322875       0.07853360      -1.54101459
H        0.27081461      -1.51669212      -0.69305121
H        0.25575609       0.85563074       0.98408496
H       -0.41746423       1.97032276      -0.21803783
H        1.82707422      -0.94706117       1.30308223
17
Properties=species:S:1:pos:R:3 relative_energy_eV=0.057940307840908645 branch=left pbc="F F F"
O       -3.19145982       0.89429369       0.01133779
C       -2.24216252       0.20592727       0.33008057
O       -2.15060528      -0.37124723       1.55646077
C       -1.02037714      -0.06495149      -0.52134595
O       -0.63468367      -1.38285978      -0.29324950
C        0.03471504       0.99736087      -0.13245142
O        1.23417192       0.97668362      -0.87166083
P        2.39618759      -0.21308057      -0.61410077
O        1.81344777      -1.51641746      -1.14236862
O        3.68843969       0.36623109      -1.07033404
O        2.41925246      -0.30598170       1.05910326
H       -2.94373816      -0.07927284       2.03030307
H       -1.31433150       0.11121133      -1.56428284
H        0.27056357      -1.50373404      -0.70496388
H        0.22784143       0.93253304       0.93822712
H       -0.41919245       1.97359866      -0.30308683
H        1.76434328      -0.95999550       1.32921139
17
Properties=species:S:1:pos:R:3 relative_energy_eV=0.07681566191968159 branch=left pbc="F F F"
O       -3.18227487       0.90894992       0.10470601
C       -2.22193672       0.20813365       0.35826596
O       -2.08728759      -0.41678089       1.55626680
C       -1.02933668      -0.05494420      -0.54349599
O       -0.64486470      -1.38701146      -0.36461023
C        0.03343131       1.02963262      -0.18035697
O        1.24094972       0.96959456      -0.90348433
P        2.38975457      -0.21440284      -0.57750282
O        1.81676865      -1.51797141      -1.10948946
O        3.70320342       0.33746784      -0.99640791
O        2.33486666      -0.30896256       1.08760698
H       -2.86198301      -0.15373194       2.07337818
H       -1.35714879       0.14714499      -1.57188813
H        0.30109211      -1.49377059      -0.71015837
H        0.21824659       0.99457976       0.89474200
H       -0.41436297       1.99808732      -0.42259908
H        1.69329455      -0.98571604       1.34190649
17
Properties=species:S:1:pos:R:3 relative_energy_eV=0.08989110497714137 branch=left pbc="F F F"
O       -3.15564368       0.92700189       0.16466496
C       -2.20051996       0.20838509       0.38590438
O       -2.03703831      -0.43819157       1.57082168
C       -1.04424196      -0.04539308      -0.56290436
O       -0.64933661      -1.37601908      -0.42459298
C        0.02116571       1.03906502      -0.22625278
O        1.23777718       0.94700270      -0.93102219
P        2.38411210      -0.22004274      -0.54832806
O        1.83557348      -1.54306744      -1.07083859
O        3.70757863       0.35080687      -0.91632748
O        2.27420203      -0.30067401       1.11592342
H       -2.80658177      -0.19501538       2.10555794
H       -1.41071813       0.17193092      -1.57492130
H        0.31077499      -1.47612577      -0.73144037
H        0.21178419       1.01782156       0.84969688
H       -0.40855109       2.01189473      -0.49483205
H        1.66207548      -1.01908111       1.32576995
17
Properties=species:S:1:pos:R:3 relative_energy_eV=0.09878644995114882 branch=left pbc="F F F"
O       -3.13687749       0.93312068       0.19637094
C       -2.18478525       0.20356845       0.39692057
O       -2.01026349      -0.44458188       1.57763669
C       -1.04559850      -0.03984472      -0.57320438
O       -0.64853995      -1.36799056      -0.45314035
C        0.02219152       1.03723104      -0.24765345
O        1.23785078       0.92964667      -0.95088013
P        2.38116654      -0.22006409      -0.52829726
O        1.84442041      -1.54911259      -1.04743358
O        3.70972726       0.34870503      -0.87898646
O        2.22794160      -0.28604049       1.13449078
H       -2.78068196      -0.21848549       2.11908779
H       -1.44759503       0.18344170      -1.57006213
H        0.31265079      -1.45841830      -0.75088307
H        0.20251135       1.04175489       0.83019978
H       -0.39956835       2.00561922      -0.52538894
H        1.64786208      -1.03825102       1.30810218
17
Properties=species:S:1:pos:R:3 relative_energy_eV=0.10710030727568665 branch=left pbc="F F F"
O       -3.13225271       0.92668690       0.21237423
C       -2.17353617       0.20542459       0.41025490
O       -1.99891084      -0.45482349       1.58438291
C       -1.04530279      -0.03978727      -0.57070315
O       -0.64475689      -1.37031972      -0.46364126
C        0.02972720       1.04458106      -0.25454536
O        1.24233553       0.93741546      -0.96571547
P        2.37724354      -0.21523408      -0.51932446
O        1.84614368      -1.54876585      -1.03230582
O        3.71596680       0.32523358      -0.86615949
O        2.18325987      -0.26812499       1.13637527
H       -2.77773437      -0.22880295       2.11352514
H       -1.46308917       0.18371464      -1.56340438
H        0.31668572      -1.45736814      -0.77598454
H        0.22100569       1.06171717       0.81756207
H       -0.40459984       2.00784155      -0.53498968
H        1.64022707      -1.04908999       1.30917803
17
Properties=species:S:1:pos:R:3 relative_energy_eV=0.11989204834389966 branch=left pbc="F F F"
O       -3.12935560       0.94063775       0.24161687
C       -2.17227565       0.21123872       0.41590615
O       -1.98614796      -0.45397336       1.58111206
C       -1.05535956      -0.03918915      -0.57708773
O       -0.65562984      -1.37067740      -0.48670406
C        0.02136705       1.03858440      -0.27628254
O        1.23790635       0.91712644      -0.98004857
P        2.38614923      -0.21691575      -0.51135714
O        1.88783581      -1.56156628      -1.01283435
O        3.72143203       0.35917206      -0.83865986
O        2.16235045      -0.27415417       1.14789108
H       -2.75431295      -0.21998642       2.11838490
H       -1.48938165       0.18549001      -1.55653105
H        0.29881788      -1.44868002      -0.80145593
H        0.22564504       1.05586484       0.79692439
H       -0.41003650       2.00920265      -0.54003984
H        1.64340816      -1.07187592       1.31604450
17
Properties=species:S:1:pos:R:3 relative_energy_eV=0.1600397894726484 branch=left pbc="F F F"
O       -3.11952696       0.93475867       0.26181319
C       -2.17209663       0.19067008       0.43162560
O       -1.99804337      -0.47277542       1.60632689
C       -1.05571397      -0.02649830      -0.57869065
O       -0.66583341      -1.36899294      -0.51825105
C        0.03594328       1.05938632      -0.27876877
O        1.22682439       0.90585442      -1.01344979
P        2.38543901      -0.22927457      -0.50391677
O        1.94662621      -1.58679379      -1.03149073
O        3.71602600       0.36626805      -0.77912643
O        2.09793785      -0.23209629       1.14233733
H       -2.75602742      -0.20213453       2.14865480
H       -1.49797594       0.20839883      -1.55842392
H        0.26840900      -1.48791183      -0.84623299
H        0.25745586       1.05704341       0.78986973
H       -0.40872638       2.02183838      -0.56682830
H        1.67169474      -1.07744222       1.33143070
17
Properties=species:S:1:pos:R:3 relative_energy_eV=0.21049575728102354 branch=left pbc="F F F"
O       -3.10598216       0.95501954       0.28512233
C       -2.16583898       0.20432916       0.45274576
O       -2.00123302      -0.48974867       1.61234290
C       -1.08073877      -0.02595214      -0.58913931
O       -0.69591626      -1.37164324      -0.55537734
C        0.02535128       1.02165889      -0.31300748
O        1.19602035       0.82681433      -1.06379920
P        2.38693527      -0.21567940      -0.49313978
O        2.02599078      -1.58829514      -1.02930771
O        3.70362910       0.45179874      -0.68429204
O        2.06168610      -0.23811575       1.14694655
H       -2.71134870      -0.17345229       2.19605509
H       -1.52828103       0.25555343      -1.55671450
H        0.22800038      -1.49808225      -0.89383145
H        0.26021272       1.04459455       0.74918142
H       -0.36854305       2.00920579      -0.58432574
H        1.70246815      -1.10770738       1.35741930
17
Properties=species:S:1:pos:R:3 relative_energy_eV=0.25555442756740376 branch=left pbc="F F F"
O       -3.10244919       1.00333117       0.32597077
C       -2.18313223       0.21311871       0.44597847
O       -1.97905017      -0.47910366       1.59301757
C       -1.11651601      -0.02739827      -0.60175874
O       -0.73977607      -1.37760162      -0.60397315
C        0.01642785       0.98993935      -0.33551010
O        1.16937876       0.73243453      -1.08007578
P        2.42627356      -0.21272745      -0.46282024
O        2.11593628      -1.59251930      -1.01527275
O        3.69364090       0.56232655      -0.62726175
O        2.04335630      -0.25987099       1.16965168
H       -2.63833025      -0.15003969       2.22327791
H       -1.58310475       0.27299844      -1.54282578
H        0.18752105      -1.46648928      -0.92561258
H        0.23865336       1.02177713       0.73600205
H       -0.33534992       1.97861347      -0.62284805
H        1.71893253      -1.14849105       1.36093916
17
Properties=species:S:1:pos:R:3 relative_energy_eV=0.3028681711439276 branch=left pbc="F F F"
O       -3.09447599       1.05584768       0.37412962
C       -2.19688064       0.23809135       0.44604138
O       -1.93765884      -0.46435068       1.57688229
C       -1.17234073      -0.02269847      -0.62975779
O       -0.78007361      -1.36991724      -0.65610522
C        0.00195767       0.96967255      -0.33877317
O        1.14636892       0.66490890      -1.06805726
P        2.45086040      -0.21237077      -0.42161416
O        2.24967998      -1.60322639      -0.97793016
O        3.65858457       0.63966478      -0.59689472
O        2.07117934      -0.30020557       1.20863070
H       -2.56407941      -0.12894292       2.23312767
H       -1.65727777       0.26374112      -1.57062301
H        0.15822512      -1.41956514      -0.93828669
H        0.21442347       0.98286401       0.72968059
H       -0.33791983       1.95902569      -0.67037120
H        1.72183923      -1.19224094       1.33679974
17
Properties=species:S:1:pos:R:3 relative_energy_eV=0.3281214597700455 branch=left pbc="F F F"
O       -3.08855538       1.06614228       0.39539313
C       -2.18577884       0.25344951       0.45023037
O       -1.92741310      -0.45741164       1.57488255
C       -1.18530632      -0.01575850      -0.65280626
O       -0.78839853      -1.36075574      -0.66784360
C       -0.01927789       0.96150931      -0.35776831
O        1.14202154       0.64839039      -1.05982525
P        2.46077226      -0.21744609      -0.41646726
O        2.30095591      -1.62242256      -0.95254476
O        3.64999658       0.66566195      -0.58456146
O        2.09516921      -0.32162310       1.21743354
H       -2.54472210      -0.12214950       2.24236842
H       -1.68365521       0.26364240      -1.59279723
H        0.15136332      -1.40388350      -0.93794998
H        0.18541178       0.97412247       0.72190489
H       -0.35008929       1.95546680      -0.66611709
H        1.71991790      -1.20663656       1.32334685
17
Properties=species:S:1:pos:R:3 relative_energy_eV=0.39005930416533374 branch=left pbc="F F F"
O       -3.06795782       1.08572529       0.40866986
C       -2.19342325       0.24445892       0.44927458
O       -1.90649333      -0.44796174       1.58293941
C       -1.19977646      -0.01658538      -0.66053996
O       -0.79025570      -1.35780172      -0.67286029
C       -0.02031506       0.96760272      -0.37002263
O        1.13157602       0.62101746      -1.06864636
P        2.48946325      -0.22761839      -0.40791080
O        2.33928633      -1.63413722      -0.93347699
O        3.65721376       0.67927222      -0.57960086
O        2.10508626      -0.33509119       1.20997730
H       -2.53242609      -0.11844068       2.24462986
H       -1.69038850       0.27622851      -1.59618347
H        0.15131395      -1.40016365      -0.93533316
H        0.10666378       0.95505911       0.69483130
H       -0.36730273       1.98743262      -0.63286086
H        1.72014736      -1.21869895       1.30399153
17
Properties=species:S:1:pos:R:3 relative_energy_eV=0.6200974126732035 branch=left pbc="F F F"
O       -3.04427086       1.09634394       0.41316190
C       -2.16880146       0.27135841       0.45598160
O       -1.89484495      -0.44576605       1.57335108
C       -1.20551384      -0.02556750      -0.65919590
O       -0.79173128      -1.36971451      -0.68139959
C       -0.04840139       0.96994981      -0.34851067
O        1.08147860       0.65745913      -1.14621910
P        2.47024593      -0.22021011      -0.45018752
O        2.35517383      -1.61704687      -0.93148066
O        3.66494316       0.67108230      -0.54878692
O        2.10715696      -0.34145763       1.25272725
H       -2.52071510      -0.11430201       2.23478175
H       -1.69520956       0.27037765      -1.58020325
H        0.15460962      -1.40001280      -0.93756083
H        0.06464340       0.90286952       0.70597227
H       -0.32579779       1.99564281      -0.61655277
H        1.72944628      -1.24070828       1.30099970
17
Properties=species:S:1:pos:R:3 relative_energy_eV=1.1933588698702806 branch=left pbc="F F F"
O       -3.02494920       1.12761633       0.43471875
C       -2.14165186       0.30102436       0.45951491
O       -1.90194497      -0.44814209       1.56418308
C       -1.19556428      -0.01908066      -0.68214223
O       -0.77683230      -1.35894676      -0.66435128
C        0.04680104       0.97455058      -0.42669192
O        1.08476950       0.72535430      -1.28269692
P        2.46228983      -0.23820016      -0.48009661
O        2.17772961      -1.60220828      -0.94225499
O        3.54190101       0.81557930      -0.39677947
O        2.12490730      -0.38207493       1.25792485
H       -2.50902179      -0.10494735       2.24011091
H       -1.76239973       0.22324480      -1.57971058
H        0.15917715      -1.38610865      -0.95886742
H        0.21809293       0.75059638       0.62804263
H       -0.32716080       1.95846357      -0.52006165
H        1.75626789      -1.27642285       1.38603626
17
Properties=species:S:1:pos:R:3 relative_energy_eV=1.8231845797818096 branch=left pbc="F F F"
O       -2.99300683       1.14809683       0.44484715
C       -2.14653055       0.29728659       0.46130264
O       -1.90030519      -0.45372311       1.57316321
C       -1.19839757      -0.01020169      -0.68594999
O       -0.76454020      -1.34245732      -0.64382978
C        0.03953765       0.94082759      -0.45560773
O        1.10110008       0.74248598      -1.39353864
P        2.42137796      -0.21172236      -0.41571109
O        2.05826871      -1.54488934      -0.94688960
O        3.43515216       0.88633032      -0.31971220
O        2.18010785      -0.44555083       1.29342525
H       -2.50931126      -0.09700223       2.24182075
H       -1.78401896       0.19937478      -1.59106312
H        0.16646113      -1.38821852      -0.97329469
H        0.44075183       0.66436367       0.42522868
H       -0.36850136       1.98917917      -0.44451871
H        1.75426595      -1.31388111       1.46720639
17
Properties=species:S:1:pos:R:3 relative_energy_eV=2.38599730749047 branch=left pbc="F F F"
O       -2.95703172       1.17133280       0.45096144
C       -2.12155542       0.28759032       0.46372645
O       -1.89792342      -0.45867787       1.58195072
C       -1.18985032      -0.01738872      -0.67859843
O       -0.75486154      -1.34927870      -0.62956731
C        0.00370550       0.95039438      -0.57933783
O        0.90951008       0.85166407      -1.59554516
P        2.37992517      -0.19793486      -0.23933538
O        2.03756679      -1.47340095      -0.94535728
O        3.39866506       0.87923200      -0.29551806
O        2.27443808      -0.55369553       1.38834728
H       -2.51167130      -0.09154717       2.23592999
H       -1.76425314       0.19380678      -1.59596073
H        0.16172295      -1.40214987      -0.97836849
H        0.59062010       0.63953850       0.29246314
H       -0.37255682       1.98111070      -0.37754752
H        1.74596085      -1.35029693       1.53863576
17
Properties=species:S:1:pos:R:3 relative_energy_eV=2.4485195772140287 branch=left pbc="F F F"
O       -2.93197815       1.18162834       0.45367027
C       -2.10291314       0.28787280       0.46656874
O       -1.89636771      -0.46268474       1.58527268
C       -1.18936601      -0.02948880      -0.67524502
O       -0.75182015      -1.36158194      -0.62241036
C       -0.00919266       0.97853331      -0.67040431
O        0.76510284       0.92971493      -1.73120605
P        2.38684020      -0.21337989      -0.15352674
O        2.05131868      -1.44014411      -0.94291561
O        3.39763666       0.86369895      -0.28471408
O        2.33030723      -0.61285562       1.45744831
H       -2.51358699      -0.08876229       2.23164132
H       -1.74417265       0.19580643      -1.59475577
H        0.15665313      -1.41068226      -0.98021847
H        0.61746352       0.64779695       0.26904683
H       -0.37372885       1.96704150      -0.34273641
H        1.74021443      -1.37221433       1.57136320
17
Properties=species:S:1:pos:R:3 relative_energy_eV=2.468076325218135 branch=ts pbc="F F F"
O       -2.92061631       1.18589406       0.45562942
C       -2.09496319       0.28880181       0.46672907
O       -1.89154852      -0.46520755       1.58556076
C       -1.18806358      -0.03602964      -0.67475783
O       -0.75123981      -1.37012511      -0.61747685
C       -0.00955244       0.98395998      -0.70861147
O        0.68610141       0.98227535      -1.80583654
P        2.40372898      -0.22981849      -0.11641611
O        2.05872865      -1.43222301      -0.94319352
O        3.40600900       0.85311592      -0.27671003
O        2.34440866      -0.63072635       1.48165388
H       -2.50873575      -0.08956812       2.23071087
H       -1.74274818       0.18468278      -1.59543909
H        0.15281299      -1.42418751      -0.98424938
H        0.67254546       0.62369046       0.21486752
H       -0.36101725       1.95729213      -0.30289807
H        1.74392319      -1.38184772       1.59032223
17
Properties=species:S:1:pos:R:3 relative_energy_eV=2.048883319414017 branch=right pbc="F F F"
O       -2.90055648       1.19338650       0.45943063
C       -2.08340755       0.29046942       0.47499183
O       -1.87658202      -0.46451122       1.58342972
C       -1.19059467      -0.05781282      -0.67537837
O       -0.74581996      -1.37656228      -0.61853698
C       -0.10087089       1.03479933      -0.86583905
O        0.48519689       1.11331656      -1.93875584
P        2.31585767      -0.18520335      -0.02324592
O        2.03479163      -1.38443334      -0.90833175
O        3.39295101       0.81647357      -0.22763349
O        2.36183370      -0.66972166       1.55527054
H       -2.49651108      -0.09752433       2.23123728
H       -1.75719127       0.15832306      -1.59262093
H        0.17114574      -1.43170697      -0.98019904
H        1.02885136       0.45652491       0.13460675
H       -0.31441561       1.95049300      -0.26673309
H        1.74245858      -1.40665161       1.62119910
17
Properties=species:S:1:pos:R:3 relative_energy_eV=1.6695955066097667 branch=right pbc="F F F"
O       -2.87934639       1.20404877       0.46294204
C       -2.06472557       0.30000029       0.47798908
O       -1.86915764      -0.47322111       1.56762897
C       -1.20749592      -0.04617876      -0.72591611
O       -0.68325816      -1.33197833      -0.69097613
C       -0.24054302       1.13273479      -1.03945720
O        0.27285475       1.26450685      -2.12441869
P        2.31369490      -0.20059384       0.06309462
O        1.96766618      -1.37996139      -0.83786261
O        3.42680689       0.76285377      -0.15715772
O        2.44302938      -0.81069170       1.62253709
H       -2.47842625      -0.12303072       2.24048391
H       -1.91097345       0.02763870      -1.56470492
H        0.30599075      -1.35887567      -0.87226780
H        1.08026769       0.53419829       0.09247519
H       -0.16769559       1.92662665      -0.26930075
H        1.75844870      -1.48841792       1.71780254
17
Properties=species:S:1:pos:R:3 relative_energy_eV=1.564321080699301 branch=right pbc="F F F"
O       -2.83586104       1.23145110       0.50249225
C       -2.04315420       0.31091039       0.46130030
O       -1.82089212      -0.49058749       1.52406914
C       -1.24117718      -0.05390319      -0.76919397
O       -0.64185295      -1.29602899      -0.74035369
C       -0.35864105       1.18273137      -1.15528518
O        0.09533162       1.35827195      -2.25831726
P        2.34300071      -0.24054024       0.10439673
O        1.90526298      -1.38156254      -0.82443096
O        3.53591645       0.64412759      -0.07161547
O        2.42605273      -0.81207538       1.67994636
H       -2.42720175      -0.15335362       2.20250309
H       -2.00768243      -0.04119757      -1.54913672
H        0.37465657      -1.24597252      -0.76312687
H        1.16566809       0.54793310       0.21936523
H       -0.21193489       1.93104508      -0.34578422
H        1.80964601      -1.55159041       1.74606284
17
Properties=species:S:1:pos:R:3 relative_energy_eV=1.4137753984286974 branch=right pbc="F F F"
O       -2.75177616       1.29344917       0.56876145
C       -2.01162603       0.33317647       0.44331025
O       -1.76982080      -0.51927187       1.46047026
C       -1.29723818      -0.05643625      -0.84901013
O       -0.65243018      -1.27378377      -0.81605965
C       -0.52200768       1.23144354      -1.30977737
O       -0.19539017       1.44508553      -2.45154115
P        2.42019174      -0.22539872       0.26211553
O        1.88663501      -1.29274992      -0.69175280
O        3.71676635       0.45204944      -0.02401108
O        2.42979899      -0.88591579       1.78937077
H       -2.31866704      -0.20587961       2.19554098
H       -2.11547511      -0.11268981      -1.58152152
H        0.38094423      -1.21434759      -0.76750278
H        1.32949312       0.67927662       0.45698019
H       -0.32731538       1.95959556      -0.48252508
H        1.86505538      -1.66794438       1.76004389
17
Properties=species:S:1:pos:R:3 relative_energy_eV=1.345252030678239 branch=right pbc="F F F"
O       -2.66722303       1.30739515       0.60050131
C       -1.98118802       0.31275787       0.43419322
O       -1.74286480      -0.57490266       1.41969827
C       -1.35681383      -0.04899270      -0.89810255
O       -0.69034011      -1.24760589      -0.95150200
C       -0.63808204       1.23591321      -1.40359474
O       -0.40745479       1.43064021      -2.57288770
P        2.46688197      -0.21367327       0.36889958
O        1.79547735      -1.20984717      -0.57962922
O        3.82371882       0.36289637       0.11198276
O        2.46572853      -0.95828131       1.84798711
H       -2.20368306      -0.21464654       2.19486310
H       -2.20620160      -0.12157378      -1.58751028
H        0.33130272      -1.17000666      -0.77608862
H        1.51609610       0.82509903       0.60917726
H       -0.35418189       1.97192814      -0.62130685
H        1.91596611      -1.74744137       1.76621130
17
Properties=species:S:1:pos:R:3 relative_energy_eV=1.3057804216114164 branch=right pbc="F F F"
O       -2.59164027       1.31813970       0.66578038
C       -1.95998784       0.30297182       0.42925161
O       -1.70234380      -0.62466179       1.37167204
C       -1.43330069      -0.03972992      -0.95709614
O       -0.73282731      -1.21811567      -1.08632191
C       -0.73263026       1.21746022      -1.52374942
O       -0.58518505       1.39473148      -2.70720122
P        2.52830526      -0.19419434       0.49348101
O        1.75094532      -1.06414087      -0.49960916
O        3.93135119       0.24359852       0.22277227
O        2.46835439      -1.01407362       1.95141576
H       -2.06292690      -0.24415020       2.18836511
H       -2.33961780      -0.10677578      -1.58008499
H        0.25507870      -1.12441877      -0.79559842
H        1.71595826       0.93487682       0.80944986
H       -0.41000343       1.97384562      -0.77741540
H        1.96760914      -1.81570456       1.75778071
17
Properties=species:S:1:pos:R:3 relative_energy_eV=1.2918713989347452 branch=right pbc="F F F"
O       -2.58669285       1.32235885       0.68294032
C       -1.95505376       0.31222512       0.43122956
O       -1.66649758      -0.62500297       1.35303934
C       -1.45442990      -0.03042252      -0.96099681
O       -0.75968536      -1.21202266      -1.10331023
C       -0.74031893       1.20688324      -1.54751126
O       -0.58434527       1.35568774      -2.73374830
P        2.53071219      -0.18073415       0.51040014
O        1.73274994      -1.01176233      -0.49489287
O        3.94217087       0.23674282       0.24432867
O        2.45388908      -1.02303535       1.95743712
H       -2.01562994      -0.27783253       2.18757237
H       -2.37574239      -0.12332701      -1.55288958
H        0.22524642      -1.09817435      -0.84307294
H        1.74892972       0.95336123       0.87526824
H       -0.38113362       1.95994150      -0.81284867
H        1.95297033      -1.82522798       1.76994696
17
Properties=species:S:1:pos:R:3 relative_energy_eV=1.280120861796604 branch=right pbc="F F F"
O       -2.58919529       1.30174087       0.71147166
C       -1.94052220       0.30667903       0.44509195
O       -1.60673916      -0.61280648       1.36957118
C       -1.45665821      -0.03718479      -0.95431058
O       -0.78308171      -1.23060464      -1.10604707
C       -0.68905092       1.16524064      -1.53190740
O       -0.50617501       1.28128353      -2.71753352
P        2.48765860      -0.14756500       0.49583284
O        1.70698012      -0.95212856      -0.54371598
O        3.89462463       0.29104348       0.24842673
O        2.44464073      -1.03028028       1.91874309
H       -1.98177214      -0.28260050       2.20079993
H       -2.37601327      -0.07057520      -1.55455202
H        0.20693764      -1.10766865      -0.86607346
H        1.67306750       0.95527074       0.89098908
H       -0.29355043       1.90237256      -0.80513192
H        1.87598781      -1.79255854       1.76123744
17
Properties=species:S:1:pos:R:3 relative_energy_eV=1.2514766503081773 branch=right pbc="F F F"
O       -2.50740782       1.26329991       0.76390705
C       -1.83921531       0.29119300       0.46618277
O       -1.42110131      -0.61039323       1.38445340
C       -1.46238762      -0.05046292      -0.97172001
O       -0.88589026      -1.29900475      -1.14846451
C       -0.60649617       1.08458974      -1.59121217
O       -0.47860953       1.19684553      -2.78723099
P        2.40465871      -0.05798162       0.54439173
O        1.58618755      -0.71542529      -0.57140341
O        3.81090781       0.40130302       0.31994963
O        2.35777705      -1.09789796       1.85114384
H       -1.74209030      -0.28265878       2.24334436
H       -2.40136272      -0.03028435      -1.54286670
H        0.08342162      -1.19448602      -0.89380839
H        1.63279253       1.00055116       1.11186557
H       -0.12451799       1.78455900      -0.87425388
H        1.66047216      -1.74408978       1.65861358
17
Properties=species:S:1:pos:R:3 relative_energy_eV=1.1944140851883276 branch=right pbc="F F F"
O       -2.36867531       1.28682305       0.78378365
C       -1.76898684       0.28418934       0.44530581
O       -1.28500384      -0.62548408       1.31318918
C       -1.49428112      -0.07395098      -0.99687392
O       -0.94748073      -1.33589790      -1.21910853
C       -0.66578831       1.05483994      -1.67495998
O       -0.64171440       1.18497500      -2.87493789
P        2.39428185       0.00681136       0.66665443
O        1.48593123      -0.45553412      -0.47582058
O        3.83214267       0.35815332       0.44669928
O        2.27189348      -1.17205209       1.84615980
H       -1.47929891      -0.27771572       2.19661492
H       -2.47199397      -0.04833953      -1.48687224
H       -0.01014775      -1.27307303      -0.89992445
H        1.73116559       1.07009511       1.34876094
H       -0.09164681       1.72881324      -1.01120174
H        1.57674149      -1.77299723       1.55542344
17
Properties=species:S:1:pos:R:3 relative_energy_eV=1.1819537186966045 branch=right pbc="F F F"
O       -2.30618626       1.30357805       0.78530436
C       -1.74081042       0.28485037       0.43808684
O       -1.26385170      -0.62552129       1.30811430
C       -1.50494128      -0.08516555      -1.01081968
O       -0.93836773      -1.33898423      -1.22166622
C       -0.70332499       1.04627594      -1.69730024
O       -0.70265543       1.19635628      -2.89439307
P        2.39142783       0.01200455       0.69504335
O        1.46549008      -0.38906445      -0.45350838
O        3.84061410       0.30505859       0.48086164
O        2.24162933      -1.17781005       1.85897761
H       -1.43951207      -0.26559437       2.18969354
H       -2.48689525      -0.07621014      -1.48988835
H        0.00249657      -1.23851385      -0.92681176
H        1.76245170       1.08175004       1.38843817
H       -0.12616499       1.70011768      -1.01943953
H        1.57573879      -1.79347199       1.53219954
17
Properties=species:S:1:pos:R:3 relative_energy_eV=1.1759621505443647 branch=right pbc="F F F"
O       -2.26418479       1.32374307       0.77047652
C       -1.72842283       0.28436960       0.43721153
O       -1.28189441      -0.62601629       1.32127772
C       -1.49381614      -0.10334165      -1.00917330
O       -0.90165807      -1.34516724      -1.22306509
C       -0.71577139       1.04528496      -1.68814280
O       -0.73349077       1.21171158      -2.88249743
P        2.38080420       0.01370896       0.69189249
O        1.46674178      -0.37577226      -0.47038433
O        3.83351971       0.29524935       0.48746045
O        2.19626599      -1.17931178       1.85216574
H       -1.42881917      -0.23655990       2.19653844
H       -2.48249139      -0.11467395      -1.47844535
H        0.04352820      -1.22808323      -0.93911847
H        1.76576197       1.08279877       1.39909485
H       -0.13817128       1.69782947      -1.00730007
H        1.54923665      -1.80611394       1.50490121
17
Properties=species:S:1:pos:R:3 relative_energy_eV=1.1722543478135776 branch=right pbc="F F F"
O       -2.24421026       1.32894283       0.77640260
C       -1.71960013       0.28155863       0.44864756
O       -1.30806834      -0.64186919       1.33791638
C       -1.48240580      -0.10699308      -0.99598485
O       -0.87985124      -1.34443954      -1.20682955
C       -0.72415620       1.04639749      -1.69478610
O       -0.75459834       1.19667990      -2.89223396
P        2.38263606       0.01243757       0.69143783
O        1.48279125      -0.34214435      -0.49255550
O        3.84437897       0.27787570       0.52025853
O        2.16366372      -1.18718782       1.83678605
H       -1.42808985      -0.23265915       2.20888930
H       -2.47449983      -0.12942343      -1.45865400
H        0.07140049      -1.21091056      -0.95003711
H        1.76087214       1.08450852       1.39285410
H       -0.13690883       1.70629731      -1.03187895
H        1.51378453      -1.79941552       1.47265950
17
Properties=species:S:1:pos:R:3 relative_energy_eV=1.136625024046225 branch=right pbc="F F F"
O       -2.12091544       1.39227985       0.78736476
C       -1.67174204       0.29699098       0.52022082
O       -1.42581136      -0.64574914       1.45430425
C       -1.34894811      -0.15133924      -0.89942458
O       -0.64340713      -1.33787971      -1.01816669
C       -0.70606935       1.03094101      -1.66245174
O       -0.84021733       1.16935627      -2.85095386
P        2.33947105       0.00118137       0.59549619
O        1.64235339      -0.29957431      -0.73865940
O        3.80566235       0.23204087       0.66735085
O        1.94549248      -1.22657278       1.65106015
H       -1.60472807      -0.23405373       2.31882563
H       -2.32118449      -0.29190491      -1.38097752
H        0.33966893      -1.06470561      -0.90255370
H        1.59495577       1.04522239       1.21640719
H       -0.13780369       1.76277544      -1.05561194
H        1.22036179      -1.73935455       1.26065977
17
Properties=species:S:1:pos:R:3 relative_energy_eV=1.1154435643074976 branch=right pbc="F F F"
O       -2.02688611       1.42132708       0.81821820
C       -1.61373920       0.30999783       0.55383715
O       -1.42939364      -0.64833910       1.48850232
C       -1.30418945      -0.16736519      -0.85657212
O       -0.54515142      -1.32752942      -0.94650745
C       -0.72880466       1.00601800      -1.66989443
O       -0.92198862       1.11629303      -2.85776428
P        2.31476196       0.00122079       0.58893720
O        1.73951591      -0.20580501      -0.81859911
O        3.77794485       0.21102119       0.80216568
O        1.81033136      -1.27063264       1.54524667
H       -1.64462606      -0.23683500       2.34101692
H       -2.28668104      -0.35762878      -1.31138088
H        0.42763932      -1.00134583      -0.92090681
H        1.56800645       1.06420136       1.18040348
H       -0.12974702       1.73732734      -1.10221851
H        1.06014631      -1.71227227       1.12840555
17
Properties=species:S:1:pos:R:3 relative_energy_eV=1.1053431439322594 branch=right pbc="F F F"
O       -1.93715912       1.43852777       0.82698811
C       -1.56839939       0.30858420       0.57643139
O       -1.43852491      -0.64493678       1.52370169
C       -1.26624385      -0.18946340      -0.82747906
O       -0.46604223      -1.32389165      -0.90756397
C       -0.74055518       0.98521898      -1.66994636
O       -0.98869012       1.10055803      -2.84781609
P        2.29298671       0.00775608       0.58573479
O        1.79836314      -0.15981930      -0.86184873
O        3.74356978       0.18686343       0.89843478
O        1.71221491      -1.28534952       1.46322266
H       -1.66238009      -0.21003387       2.36201376
H       -2.25340271      -0.42537856      -1.25254145
H        0.49805264      -0.96077313      -0.95622661
H        1.52137867       1.05854974       1.16198218
H       -0.12223708       1.71813556      -1.12410029
H        0.94420786      -1.66489481       1.01190251
17
Properties=species:S:1:pos:R:3 relative_energy_eV=1.101779876575165 branch=right pbc="F F F"
O       -1.90114239       1.44511468       0.83667685
C       -1.55000198       0.31220326       0.57701422
O       -1.42533965      -0.64970619       1.51577175
C       -1.26721910      -0.18931740      -0.83299010
O       -0.44569048      -1.30627968      -0.93011634
C       -0.77159860       0.98216558      -1.69078781
O       -1.05835469       1.09861182      -2.85965024
P        2.29238011       0.00294523       0.60717500
O        1.80445934      -0.12523552      -0.84469582
O        3.74089096       0.14921494       0.93262986
O        1.68230071      -1.29237975       1.46188985
H       -1.62204918      -0.22381903       2.36545460
H       -2.25392934      -0.45224142      -1.23622854
H        0.51893096      -0.92833237      -0.95672920
H        1.53488788       1.05849721       1.18963363
H       -0.11969327       1.70270156      -1.17104834
H        0.90830778      -1.64449029       0.99888994
17
Properties=species:S:1:pos:R:3 relative_energy_eV=1.0946486801949504 branch=right pbc="F F F"
O       -1.87421059       1.43526431       0.84312734
C       -1.52719416       0.30536120       0.56564701
O       -1.36698848      -0.66782981       1.48998281
C       -1.26926573      -0.18900190      -0.84957685
O       -0.43833057      -1.30130692      -0.94665674
C       -0.78843365       0.97910843      -1.72042022
O       -1.14716071       1.11773222      -2.86668962
P        2.27258394       0.00235970       0.64044401
O        1.77564996      -0.08708680      -0.80995567
O        3.72832277       0.12522400       0.94264730
O        1.65283889      -1.30227865       1.47100685
H       -1.50045369      -0.24824286       2.35334009
H       -2.25957862      -0.45099615      -1.24448043
H        0.52027495      -0.91184582      -0.96403014
H        1.53285999       1.05289425       1.25778635
H       -0.07967363       1.67101080      -1.23888653
H        0.83589809      -1.59071393       1.03960377
17
Properties=species:S:1:pos:R:3 relative_energy_eV=1.0881411296941224 branch=right pbc="F F F"
O       -1.85418929       1.42819294       0.83461946
C       -1.51844520       0.29786797       0.54824539
O       -1.34691882      -0.67160760       1.47450272
C       -1.27424912      -0.19700175      -0.87074318
O       -0.42415269      -1.29241001      -0.97797050
C       -0.82699258       0.99139499      -1.72722481
O       -1.23561685       1.17825939      -2.84892504
P        2.28428060      -0.01017716       0.65183744
O        1.81322151      -0.09925931      -0.80749128
O        3.73439068       0.09210904       0.98736167
O        1.64703889      -1.30384555       1.48404591
H       -1.45159514      -0.23550651       2.33335100
H       -2.26332847      -0.48511707      -1.24851666
H        0.53480066      -0.90289463      -0.97497709
H        1.54548878       1.05558329       1.24870624
H       -0.09166057       1.65706103      -1.24624555
H        0.79506609      -1.56299697       1.10231397
17
Properties=species:S:1:pos:R:3 relative_energy_eV=1.085602038205252 branch=right pbc="F F F"
O       -1.88976710       1.41684292       0.82797938
C       -1.52916065       0.29267351       0.54694619
O       -1.32233331      -0.66754955       1.47794892
C       -1.27948827      -0.19722541      -0.87394444
O       -0.43374888      -1.29487344      -0.98606059
C       -0.81548263       0.99517717      -1.71681022
O       -1.23226284       1.21106421      -2.83087258
P        2.28588110      -0.01409465       0.64404612
O        1.83047490      -0.13987602      -0.81731535
O        3.72865023       0.12075977       0.99973804
O        1.65705980      -1.30287876       1.48975675
H       -1.45042298      -0.23849328       2.33844709
H       -2.26895316      -0.47163421      -1.26373444
H        0.53068354      -0.91609950      -0.97976238
H        1.52379283       1.05389559       1.20527074
H       -0.05563940       1.63073373      -1.23369920
H        0.78785502      -1.53877001       1.13495588
17
Properties=species:S:1:pos:R:3 relative_energy_eV=1.0799641900994175 branch=right pbc="F F F"
O       -1.91181964       1.39850222       0.79194853
C       -1.53880463       0.28071806       0.50900338
O       -1.27602778      -0.66733528       1.43240063
C       -1.30943267      -0.20674132      -0.91506644
O       -0.43685553      -1.27379702      -1.05116800
C       -0.87290096       1.01072687      -1.72850901
O       -1.40010613       1.34948169      -2.76217275
P        2.30608302      -0.03681664       0.69098986
O        1.85846343      -0.21679203      -0.76731397
O        3.75280977       0.08211949       1.04331445
O        1.63511234      -1.26402601       1.59769932
H       -1.31050360      -0.23546624       2.30119817
H       -2.29741992      -0.49090362      -1.29577178
H        0.52113425      -0.88763229      -0.99458826
H        1.56948214       1.08034763       1.19909524
H       -0.01709528       1.54712090      -1.27855663
H        0.79501863      -1.52985437       1.19038821
17
Properties=species:S:1:pos:R:3 relative_energy_eV=1.0566900523881486 branch=right pbc="F F F"
O       -1.97179746       1.35471638       0.78153586
C       -1.54925421       0.26245370       0.46842484
O       -1.17837075      -0.68116583       1.35943140
C       -1.36603070      -0.20779586      -0.97366021
O       -0.50077799      -1.28371028      -1.12611163
C       -0.90077939       1.02530072      -1.75981303
O       -1.56486083       1.56642185      -2.62096347
P        2.30378648      -0.02770063       0.76966931
O        1.83721818      -0.27345363      -0.67084814
O        3.75619850       0.07056153       1.10269124
O        1.60114632      -1.19548178       1.72961632
H       -1.01989514      -0.24554276       2.21220297
H       -2.36052919      -0.46896514      -1.35848945
H        0.45287192      -0.92052040      -0.96747707
H        1.58759695       1.12151015       1.23061409
H        0.11436534       1.38299925      -1.47569946
H        0.82624816      -1.53997636       1.26176888
17
Properties=species:S:1:pos:R:3 relative_energy_eV=1.0325736691411294 branch=right pbc="F F F"
O       -2.04531608       1.32175095       0.80739194
C       -1.58228397       0.25893070       0.45874186
O       -1.14579770      -0.68157214       1.32422341
C       -1.38487108      -0.18195281      -0.99689747
O       -0.54804624      -1.27397409      -1.16664455
C       -0.88276607       1.04284994      -1.76777478
O       -1.56277049       1.69312263      -2.52949372
P        2.30115353      -0.02374590       0.77967124
O        1.80997821      -0.36939747      -0.63156184
O        3.75159937       0.12485872       1.09830116
O        1.63831091      -1.15276654       1.81587351
H       -0.96086856      -0.24076414       2.16908074
H       -2.37561349      -0.43037227      -1.39121582
H        0.40589830      -0.97382764      -0.96607394
H        1.56723913       1.13245860       1.18218746
H        0.17356391       1.27049807      -1.57058711
H        0.90772587      -1.57644616       1.34767129
17
Properties=species:S:1:pos:R:3 relative_energy_eV=1.015410486052133 branch=right pbc="F F F"
O       -2.12782598       1.27524459       0.82569562
C       -1.58870585       0.25716946       0.45886966
O       -1.08806795      -0.66065797       1.31107195
C       -1.37869030      -0.16436879      -0.99811909
O       -0.61024148      -1.30544530      -1.17384349
C       -0.79907405       1.03874846      -1.74927121
O       -1.45741693       1.79761822      -2.42302865
P        2.25639036      -0.00244658       0.74966463
O        1.79148105      -0.46820894      -0.63293446
O        3.69422876       0.26028802       1.04647484
O        1.67628256      -1.10470572       1.85633338
H       -0.99621542      -0.23033171       2.17630407
H       -2.37535657      -0.33946114      -1.41059067
H        0.35429937      -1.05956647      -0.96983900
H        1.44736570       1.12409147       1.09501110
H        0.29331527       1.13267574      -1.61999760
H        0.97536629      -1.61099347       1.42109306
17
Properties=species:S:1:pos:R:3 relative_energy_eV=1.0054648003570037 branch=right pbc="F F F"
O       -2.04815555       1.29113175       0.82021511
C       -1.54643193       0.25551878       0.44801234
O       -1.08048297      -0.68430816       1.29784845
C       -1.37037858      -0.15922620      -1.01327272
O       -0.60264468      -1.29360141      -1.21990911
C       -0.83959846       1.05528987      -1.78566678
O       -1.54359362       1.83971125      -2.37997172
P        2.25715554      -0.00815653       0.78533079
O        1.77615043      -0.47265028      -0.59402712
O        3.70342919       0.24015173       1.06140263
O        1.67097568      -1.09605594       1.90749430
H       -1.00220211      -0.26222996       2.16793347
H       -2.38285669      -0.34846362      -1.38090339
H        0.35702478      -1.05955237      -0.98067275
H        1.46690173       1.13193403       1.12867470
H        0.26110977       1.13196450      -1.76571959
H        0.99073222      -1.62180792       1.46612570
17
Properties=species:S:1:pos:R:3 relative_energy_eV=1.002571625092969 branch=right pbc="F F F"
O       -1.99776708       1.31358791       0.81739664
C       -1.53374360       0.25977949       0.44855522
O       -1.11012399      -0.70071158       1.29978851
C       -1.36520108      -0.16225058      -1.01321588
O       -0.59681125      -1.29693346      -1.21751500
C       -0.84013747       1.04788719      -1.79251700
O       -1.55027952       1.84916408      -2.35526791
P        2.25289791      -0.00231325       0.78448448
O        1.78806385      -0.47641901      -0.59594909
O        3.69251725       0.26405822       1.07508283
O        1.66913208      -1.09682782       1.90154686
H       -1.01084792      -0.28424076       2.17007183
H       -2.38143283      -0.35349167      -1.36949527
H        0.36356908      -1.06058470      -0.98164142
H        1.44956577       1.12975423       1.12061726
H        0.26304823       1.11595590      -1.79057789
H        0.97468536      -1.60676479       1.46153029
17
Properties=species:S:1:pos:R:3 relative_energy_eV=1.0011385176767362 branch=right pbc="F F F"
O       -1.96648839       1.32561779       0.82759377
C       -1.52871767       0.26201435       0.45503141
O       -1.13202768      -0.71357575       1.30203226
C       -1.36599152      -0.15936501      -1.00727605
O       -0.60073779      -1.29702467      -1.21160896
C       -0.83811678       1.04488065      -1.79440475
O       -1.54334679       1.85306740      -2.35263611
P        2.25107888       0.00665669       0.78451532
O        1.79094601      -0.46528261      -0.59863328
O        3.68903075       0.27510609       1.08141073
O        1.66162572      -1.09099229       1.89786086
H       -1.02175869      -0.30217979       2.17316854
H       -2.38211795      -0.34891916      -1.36639209
H        0.35850198      -1.05971395      -0.98015191
H        1.44509149       1.13380587       1.12537689
H        0.26470882       1.09027556      -1.82062059
H        0.98545440      -1.61472179       1.44762841
17
Properties=species:S:1:pos:R:3 relative_energy_eV=1.0006035467049514 branch=right pbc="F F F"
O       -1.93897432       1.33505792       0.83053391
C       -1.52074418       0.26294640       0.45983723
O       -1.15231814      -0.72329665       1.30680452
C       -1.36070602      -0.16118311      -1.00218735
O       -0.59060320      -1.29623743      -1.20610494
C       -0.84412593       1.04250816      -1.79583840
O       -1.55816185       1.82921596      -2.37452267
P        2.25459634       0.00988664       0.78278661
O        1.79419360      -0.44228870      -0.60746268
O        3.69468917       0.25609008       1.08835254
O        1.64768538      -1.09064214       1.88461415
H       -1.03936408      -0.31876228       2.18063991
H       -2.37798713      -0.35628590      -1.35518921
H        0.36898307      -1.05124121      -0.98248709
H        1.46022266       1.14253884       1.13090425
H        0.25819654       1.11022031      -1.80609058
H        0.97155287      -1.60887735       1.42830403
17
Properties=species:S:1:pos:R:3 relative_energy_eV=1.0003631979161582 branch=right pbc="F F F"
O       -1.93152180       1.33200512       0.83584960
C       -1.52029314       0.25878585       0.46051007
O       -1.15633879      -0.73099208       1.30555544
C       -1.36074764      -0.16083798      -1.00297809
O       -0.59177009      -1.29594870      -1.20975158
C       -0.84235849       1.04556482      -1.79206071
O       -1.55616984       1.83081923      -2.37312401
P        2.25557707       0.00962363       0.77978428
O        1.79478308      -0.45400156      -0.60635082
O        3.69614081       0.25781582       1.08198422
O        1.64649137      -1.08103458       1.89047195
H       -1.04733306      -0.32663967       2.18015843
H       -2.37735572      -0.35463914      -1.35933845
H        0.36814795      -1.05428506      -0.98327777
H        1.46249709       1.14571237       1.11855653
H        0.26001433       1.11581219      -1.79946265
H        0.96737160      -1.59811058       1.43636776
17
Properties=species:S:1:pos:R:3 relative_energy_eV=1.000005588211934 branch=right pbc="F F F"
O       -1.93525783       1.32267664       0.84097242
C       -1.52287887       0.25196607       0.45947087
O       -1.15852227      -0.74313956       1.29817231
C       -1.36377876      -0.15856789      -1.00635925
O       -0.60269575      -1.29756223      -1.22051910
C       -0.83511840       1.04932180      -1.78665662
O       -1.54076943       1.84982949      -2.35625504
P        2.25372099       0.01319624       0.77603936
O        1.78982666      -0.48056976      -0.59835967
O        3.69550016       0.26230792       1.07153973
O        1.63857946      -1.05023431       1.90967092
H       -1.04060456      -0.34275027       2.17341512
H       -2.38141971      -0.34251933      -1.36446592
H        0.35683351      -1.06674829      -0.98465937
H        1.46507494       1.15865732       1.09156586
H        0.26795244       1.10698681      -1.79627117
H        0.98069233      -1.59320087       1.45559386
