16
Properties=species:S:1:pos:R:3 relative_energy_eV=4.468853217582364 branch=ts pbc="F F F"
O        3.80806473      -0.09729777       0.16494186
C        2.61210683       0.39855263      -0.17910331
C        1.38849028      -0.01908783       0.28857889
O        1.33249686      -0.87019697       1.30017490
C        0.10773334       0.41416345      -0.30318444
O       -0.91766294      -0.00436663       0.57727028
P       -2.32980240      -0.67912473      -0.13409171
O       -1.92191302      -1.16601538      -1.49117668
O       -2.96453397      -1.48126862       0.96334844
O       -3.22549970       0.71500631      -0.34597898
H        2.50625004       0.75668582      -1.18455553
H        3.12445109       0.81365011       0.23701898
H        0.36046205      -0.97708045       1.44535353
H       -0.06331473      -0.04576949      -1.28834008
H        0.05650890       1.50199034      -0.43835733
H       -3.86846946       0.72289206       0.37299768
