17
Properties=species:S:1:pos:R:3 relative_energy_eV=0.23805317248843494 branch=ts pbc="F F F"
C        0.92659222      -1.41546626      -0.28509955
C       -0.24536163      -1.35208299       0.35984667
O       -0.88473462      -0.24833094       0.77879328
P        0.74498069       2.54804088      -1.62910896
O       -0.56262204       3.26052663      -1.40313519
O        1.41644597       2.53071798      -2.96753921
O        1.38194116       1.83636908      -0.44978416
C       -1.00592560      -2.58383900       0.70405078
O       -2.05510203      -2.61498425       1.30570397
O       -0.40283243      -3.73200799       0.27209063
O       -0.40101773       2.82716693       1.49185567
H        1.47975600      -0.52945519      -0.54397807
H        1.34091043      -2.36906190      -0.56678442
H       -0.37702049       0.55928656       0.56586650
H       -1.00056948      -4.43803603       0.56013314
H       -0.81897908       3.15602685       0.67697351
H        0.46357027       2.56513889       1.13023509
