17
Properties=species:S:1:pos:R:3 relative_energy_eV=2.4683631044463255 branch=ts pbc="F F F"
O       -2.92340098       1.16603726       0.50437228
C       -2.08365580       0.28214766       0.51598713
O       -1.84039299      -0.44124474       1.64667563
C       -1.19918843      -0.05368400      -0.63985506
O       -0.74445056      -1.38125904      -0.56849276
C       -0.03196163       0.97673765      -0.71491509
O        0.63702102       0.97065301      -1.82921200
P        2.40086641      -0.22156651      -0.18256793
O        2.05028926      -1.42400227      -1.00660079
O        3.39216003       0.86934164      -0.35599457
O        2.37187052      -0.62839649       1.41516849
H       -2.44592725      -0.05916290       2.29930809
H       -1.77655151       0.14488118      -1.55156544
H        0.14189103      -1.43414582      -0.97642920
H        0.67457915       0.62976434       0.19241000
H       -0.38128091       1.95149680      -0.31008962
H        1.77298986      -1.37982085       1.53187992
