17
Properties=species:S:1:pos:R:3 relative_energy_eV=3.1578981834609294 branch=ts pbc="F F F"
O       -3.24507826      -0.82541526       1.89522866
C       -2.43399833      -0.40604734       1.10510507
O       -2.56596722       0.82126866       0.53669486
C       -0.24109570      -1.28623079       0.26351409
O        0.53775705      -2.07418055      -0.45094220
C        0.46654993      -0.37793406       1.22227971
O        1.45653051       0.46096658       0.51675943
P        1.01510865       0.90132752      -0.98775113
O        1.31778361      -0.32440768      -1.92289687
O       -0.32204443       1.58184846      -1.02537691
O        2.21265356       1.95231719      -1.33546419
H       -1.75593609       1.02203549      -0.00649938
H       -1.15827056      -0.97670162      -0.25204272
H        1.03787309      -1.26128750      -1.33421004
H       -0.18177046       0.28953993       1.77987237
H        1.06125266      -0.96661113       1.92196302
H        2.89715269       1.46327735      -1.80750702
