24
Properties=species:S:1:pos:R:3 relative_energy_eV=0.0 branch=left pbc="F F F"
O        0.06358341       0.88761803      -0.99029988
C       -0.26762498      -0.17792627      -0.49807302
O       -1.52336569      -0.60511607      -0.39289043
P       -3.31612722       1.78441224      -2.68395721
O       -3.16333011       0.55866700      -3.53103795
O       -4.40474009       2.80898311      -2.81750786
O       -1.89003180       2.61527803      -2.55674052
C        0.69761171      -1.18578664       0.10608715
O        0.22812941      -2.51757698      -0.04576183
C        0.94941909      -0.80835200       1.57768638
O        1.95253848      -1.60157239       2.16641211
P        3.42254681      -0.89744337       2.54719843
O        3.17810554       0.41858557       3.24677430
O        4.25883876      -2.01521115       3.08174268
O        3.96607860      -0.48825323       1.00768486
O       -3.41333729       1.13989319      -1.08873871
H       -1.17699785       2.02933036      -2.25228132
H        1.64068891      -1.09642572      -0.42724239
H       -0.73410302      -2.47035513       0.03706676
H        1.19833912       0.25515104       1.63369483
H        0.01579019      -0.97497929       2.12756006
H        3.90103316       0.47310225       0.97150797
H       -2.16470168       0.06969930      -0.77702656
H       -3.50356255       1.87852304      -0.47283485
24
Properties=species:S:1:pos:R:3 relative_energy_eV=0.0005396765336627141 branch=left pbc="F F F"
O        0.05406444       0.87586097      -0.99353183
C       -0.27642390      -0.18758820      -0.49598151
O       -1.53124247      -0.61698437      -0.39096727
P       -3.29705851       1.79407951      -2.68990813
O       -3.12037678       0.58339121      -3.55352369
O       -4.39200157       2.81187839      -2.82485393
O       -1.88096001       2.63406537      -2.52148622
C        0.69059452      -1.18871459       0.11595436
O        0.22390332      -2.52233309      -0.02395584
C        0.94603081      -0.79886212       1.58357003
O        1.94756197      -1.59026169       2.17766253
P        3.42727218      -0.89347746       2.53558140
O        3.19996712       0.42511801       3.23616596
O        4.26544118      -2.01425962       3.06010293
O        3.95196319      -0.49194230       0.98793361
O       -3.41985359       1.11872613      -1.10808979
H       -1.16704478       2.04520008      -2.22522969
H        1.63274928      -1.10187682      -0.41847111
H       -0.73799458      -2.47618235       0.06264236
H        1.19684673       0.26467135       1.62839730
H        0.01343772      -0.95764661       2.13701041
H        3.89253903       0.46979870       0.95039161
H       -2.17335723       0.05385795      -0.78099658
H       -3.53127769       1.84372573      -0.47939378
24
Properties=species:S:1:pos:R:3 relative_energy_eV=0.0009563897256157361 branch=left pbc="F F F"
O        0.05580153       0.86701600      -1.00440821
C       -0.27632276      -0.19141618      -0.49763463
O       -1.53228940      -0.61428186      -0.38003398
P       -3.29044701       1.79285803      -2.68775370
O       -3.09262377       0.58852232      -3.55649164
O       -4.39465623       2.80024133      -2.82738907
O       -1.88483472       2.64641993      -2.50688247
C        0.68972012      -1.19313456       0.11449522
O        0.21857845      -2.52590834      -0.02096910
C        0.94588581      -0.79888576       1.58083315
O        1.94615812      -1.58868668       2.17832740
P        3.42581618      -0.89088554       2.53298254
O        3.20022106       0.42855579       3.23235242
O        4.26380925      -2.01181836       3.05779529
O        3.94737409      -0.49076185       0.98360276
O       -3.41776954       1.11487598      -1.10877346
H       -1.16384186       2.06002013      -2.22193263
H        1.63098962      -1.11122785      -0.42249454
H       -0.74190864      -2.47766975       0.07787618
H        1.19891536       0.26413488       1.62305171
H        0.01219912      -0.95445061       2.13374117
H        3.88738353       0.47080069       0.94255640
H       -2.17336933       0.05629379      -0.77189959
H       -3.54000883       1.83963217      -0.48192799
24
Properties=species:S:1:pos:R:3 relative_energy_eV=0.0028428066871128976 branch=left pbc="F F F"
O        0.08969283       0.85461850      -1.03302965
C       -0.25589311      -0.19351339      -0.51443573
O       -1.51670738      -0.60097778      -0.39597025
P       -3.28865943       1.79676838      -2.67955519
O       -3.06179298       0.61023877      -3.56491347
O       -4.39630260       2.79904157      -2.82648214
O       -1.89283917       2.65434237      -2.44989816
C        0.69446278      -1.19961083       0.11553288
O        0.20472685      -2.52730501      -0.00224234
C        0.95097965      -0.78366985       1.57654417
O        1.93535483      -1.57838584       2.19515095
P        3.42545491      -0.89463197       2.53422957
O        3.21984985       0.43267683       3.22480845
O        4.25400109      -2.02152836       3.06123888
O        3.93837755      -0.50420150       0.97982811
O       -3.44651001       1.08887833      -1.11833543
H       -1.16420413       2.05888612      -2.20301945
H        1.63923151      -1.13843701      -0.41781237
H       -0.75518921      -2.46394602       0.09404871
H        1.22255330       0.27592449       1.59791767
H        0.01187733      -0.90884398       2.12889884
H        3.87960048       0.45800889       0.94235236
H       -2.15385782       0.06913656      -0.79144625
H       -3.61942595       1.79677460      -0.48438724
24
Properties=species:S:1:pos:R:3 relative_energy_eV=0.0047952362801879644 branch=left pbc="F F F"
O        0.11415528       0.85177646      -1.04437713
C       -0.24022913      -0.19147688      -0.52074433
O       -1.50442259      -0.58785117      -0.39713345
P       -3.28925200       1.80419302      -2.68530603
O       -3.04542006       0.64293923      -3.59992382
O       -4.39633475       2.80947571      -2.82138930
O       -1.90085734       2.66010823      -2.40769006
C        0.69911041      -1.20136822       0.12003768
O        0.19373765      -2.52452633       0.01950947
C        0.95321234      -0.77083679       1.57661203
O        1.92895954      -1.56594283       2.20661613
P        3.42716790      -0.89512365       2.53559558
O        3.23406194       0.43316889       3.22763234
O        4.25207423      -2.02732907       3.05763911
O        3.93602500      -0.52345134       0.97490219
O       -3.46902820       1.05316733      -1.14618753
H       -1.17108832       2.06491307      -2.16648964
H        1.64632798      -1.16168673      -0.41112733
H       -0.76404500      -2.44950424       0.13003489
H        1.22794326       0.28742913       1.58870734
H        0.01091721      -0.88686006       2.12445964
H        3.88337927       0.43753707       0.91288181
H       -2.14042983       0.07717322      -0.80381218
H       -3.67118305       1.74432000      -0.50142493
24
Properties=species:S:1:pos:R:3 relative_energy_eV=0.007465817987394985 branch=left pbc="F F F"
O        0.12102281       0.83178459      -1.09016142
C       -0.23109674      -0.19273093      -0.53165542
O       -1.49604700      -0.58446863      -0.39114249
P       -3.31430785       1.84542006      -2.69647105
O       -3.04896444       0.78096939      -3.71648296
O       -4.43502507       2.84498917      -2.74409526
O       -1.93759756       2.68714414      -2.33723987
C        0.71118955      -1.18825989       0.13095592
O        0.19911976      -2.51151153       0.06577349
C        0.97641794      -0.72438307       1.57526023
O        1.91765568      -1.53812550       2.23283477
P        3.43788790      -0.91758552       2.56149567
O        3.29102056       0.44049907       3.20602779
O        4.21036825      -2.06410846       3.13086496
O        3.97807145      -0.60977109       0.99629402
O       -3.49919704       0.96298055      -1.23070090
H       -1.19470492       2.08157423      -2.17395390
H        1.65455573      -1.16148802      -0.40921114
H       -0.75828118      -2.43016496       0.17374251
H        1.28960312       0.32315609       1.56005277
H        0.02985200      -0.78815093       2.12279423
H        3.97340945       0.35146212       0.91657141
H       -2.13423247       0.06304887      -0.82065472
H       -3.82593635       1.57796675      -0.56187668
24
Properties=species:S:1:pos:R:3 relative_energy_eV=0.009429738071048632 branch=left pbc="F F F"
O        0.12893471       0.80189874      -1.13138442
C       -0.23128840      -0.19502640      -0.53081722
O       -1.49988408      -0.56472086      -0.35870369
P       -3.31548060       1.88506715      -2.71150423
O       -3.00605662       0.93855028      -3.83013932
O       -4.45309635       2.86654418      -2.68656598
O       -1.96491921       2.70734509      -2.22732023
C        0.70703278      -1.17917293       0.15221583
O        0.18657364      -2.50018246       0.12106907
C        0.99339577      -0.68817142       1.58385035
O        1.92041316      -1.51088891       2.24948146
P        3.45569609      -0.92487985       2.56424842
O        3.35091245       0.45890007       3.16039553
O        4.18414946      -2.07592607       3.17964462
O        4.01308409      -0.68715736       0.99393816
O       -3.53380772       0.86450571      -1.34248542
H       -1.20263712       2.11303857      -2.13378362
H        1.64444406      -1.17331320      -0.39718243
H       -0.76993391      -2.40875108       0.22931175
H        1.33480330       0.35031119       1.54116659
H        0.05058829      -0.71795753       2.14201407
H        4.05246099       0.27111313       0.89519695
H       -2.13537531       0.06121296      -0.81845357
H       -3.99522429       1.38791016      -0.67517205
24
Properties=species:S:1:pos:R:3 relative_energy_eV=0.010069919007946737 branch=left pbc="F F F"
O        0.12522848       0.79799089      -1.11833451
C       -0.23680169      -0.19564383      -0.51386095
O       -1.50659763      -0.56156124      -0.33942408
P       -3.30331475       1.91029503      -2.72240305
O       -2.95509903       1.03297257      -3.88511209
O       -4.45771613       2.87107686      -2.66412948
O       -1.97470998       2.72431082      -2.17074284
C        0.69896733      -1.18022525       0.17316415
O        0.17031395      -2.49800892       0.15672902
C        0.99776305      -0.67628412       1.59787058
O        1.92210164      -1.49818883       2.26876836
P        3.46855564      -0.92303669       2.55351546
O        3.38643183       0.47139444       3.12818470
O        4.19490967      -2.07118164       3.17689168
O        4.00770756      -0.71834948       0.97197885
O       -3.53446107       0.81496125      -1.41409385
H       -1.20689309       2.13407131      -2.10145082
H        1.63365077      -1.18804478      -0.38058945
H       -0.78462748      -2.40089140       0.27100035
H        1.35084186       0.35739838       1.53945362
H        0.05782586      -0.69040527       2.16209086
H        4.06095199       0.23724544       0.85523163
H       -2.13829925       0.04950036      -0.82308079
H       -4.06194363       1.28085404      -0.75263786
24
Properties=species:S:1:pos:R:3 relative_energy_eV=0.010524901874305215 branch=left pbc="F F F"
O        0.12095081       0.79044384      -1.10225598
C       -0.24695454      -0.20261899      -0.50051814
O       -1.51929885      -0.56174448      -0.32918344
P       -3.28701185       1.92577181      -2.72721389
O       -2.90061490       1.09886885      -3.91415561
O       -4.45509500       2.86958046      -2.66352941
O       -1.98290956       2.73222147      -2.10947360
C        0.68618801      -1.18873101       0.18700308
O        0.14639189      -2.50204107       0.19423474
C        1.00403187      -0.66724215       1.60098759
O        1.93023030      -1.48653740       2.27220363
P        3.48081308      -0.91670814       2.54309857
O        3.40717090       0.48344065       3.10421187
O        4.20552623      -2.06143739       3.17473715
O        4.01369009      -0.73265871       0.95686928
O       -3.53692868       0.78059304      -1.46535487
H       -1.20538745       2.15316333      -2.05423763
H        1.61471337      -1.20866518      -0.37774888
H       -0.80869008      -2.39432251       0.29801583
H        1.36129965       0.36391321       1.52395368
H        0.07049406      -0.66737754       2.17567921
H        4.06938808       0.22088785       0.82565343
H       -2.14420426       0.04392520      -0.82907571
H       -4.10900648       1.20752542      -0.81488242
24
Properties=species:S:1:pos:R:3 relative_energy_eV=0.011146032047690824 branch=left pbc="F F F"
O        0.12039810       0.79225301      -1.09800057
C       -0.25122742      -0.20098848      -0.49846574
O       -1.52431203      -0.55497700      -0.32469975
P       -3.28355846       1.93072787      -2.72903021
O       -2.87852135       1.12905173      -3.92703315
O       -4.45959870       2.86403392      -2.65703192
O       -1.99307288       2.73797705      -2.08337450
C        0.67939341      -1.19231271       0.18642536
O        0.13228463      -2.50240606       0.20303904
C        1.00975660      -0.66549248       1.59553407
O        1.93635344      -1.48428114       2.26636698
P        3.48614279      -0.91424489       2.54295189
O        3.41461117       0.49059623       3.09280388
O        4.20157649      -2.05708743       3.18850198
O        4.02767235      -0.74202494       0.95820844
O       -3.53951640       0.75963747      -1.49203367
H       -1.20809738       2.16860353      -2.03454220
H        1.60345001      -1.22302421      -0.38518186
H       -0.81941335      -2.39195944       0.32933035
H        1.37065772       0.36360028       1.51115111
H        0.07962470      -0.65858722       2.17575080
H        4.07718610       0.21086449       0.81934479
H       -2.14908126       0.04615641      -0.83119869
H       -4.11792112       1.17413486      -0.83979820
24
Properties=species:S:1:pos:R:3 relative_energy_eV=0.012096537975594401 branch=left pbc="F F F"
O        0.12194816       0.78350305      -1.12510910
C       -0.24954636      -0.19653345      -0.50476126
O       -1.52321009      -0.53222042      -0.29891961
P       -3.28654553       1.93270953      -2.72220352
O       -2.87107282       1.14477163      -3.92508477
O       -4.46855293       2.85839959      -2.64724525
O       -2.00148030       2.73739574      -2.06499655
C        0.68147185      -1.19204576       0.17339648
O        0.12506328      -2.49832172       0.19239840
C        1.01941584      -0.66593714       1.58003454
O        1.94013532      -1.49046066       2.25201742
P        3.48319697      -0.91553281       2.55356895
O        3.39640801       0.49383456       3.08893581
O        4.19187623      -2.04843727       3.22320362
O        4.05422380      -0.75842971       0.97836418
O       -3.54170590       0.75213002      -1.49561497
H       -1.21193379       2.17280196      -2.04145588
H        1.60143698      -1.22820225      -0.40465664
H       -0.82159566      -2.37874385       0.34674091
H        1.38952763       0.35919809       1.49208626
H        0.09007361      -0.64772649       2.16132542
H        4.10091740       0.19321369       0.83150740
H       -2.14999381       0.05974986      -0.81216914
H       -4.15527029       1.14513524      -0.86234442
24
Properties=species:S:1:pos:R:3 relative_energy_eV=0.012636781924811658 branch=left pbc="F F F"
O        0.12148199       0.77530228      -1.13082601
C       -0.25264257      -0.19685643      -0.49998103
O       -1.52763368      -0.52392226      -0.28791225
P       -3.27717537       1.93893281      -2.72524831
O       -2.83873500       1.17534405      -3.93582344
O       -4.46560812       2.85686085      -2.65268216
O       -2.00738950       2.73909398      -2.03222386
C        0.67468284      -1.19318647       0.18293903
O        0.11158549      -2.49686590       0.21136784
C        1.02113091      -0.66467412       1.58554508
O        1.94496469      -1.49157387       2.25045992
P        3.48752174      -0.91222769       2.54405502
O        3.40021153       0.50031995       3.07091819
O        4.19842109      -2.04173452       3.21695937
O        4.05564909      -0.76222362       0.96711360
O       -3.54364133       0.73395272      -1.52392439
H       -1.21499353       2.17843711      -2.00924635
H        1.59297275      -1.23760568      -0.39677605
H       -0.83537073      -2.37006966       0.36060644
H        1.39377107       0.35962597       1.49719690
H        0.09576366      -0.64520075       2.17251410
H        4.10303123       0.18811944       0.81202362
H       -2.15258723       0.05915890      -0.81352161
H       -4.17062317       1.11124471      -0.89451588
24
Properties=species:S:1:pos:R:3 relative_energy_eV=0.01345421055884799 branch=left pbc="F F F"
O        0.12087472       0.77009104      -1.11995466
C       -0.25837833      -0.20000407      -0.48863908
O       -1.53560696      -0.52496458      -0.28448081
P       -3.26234893       1.95098296      -2.73171756
O       -2.80184066       1.21983023      -3.95370350
O       -4.45683245       2.86100936      -2.65676832
O       -2.00874143       2.74028360      -1.99783626
C        0.66615167      -1.19451607       0.20059973
O        0.10188882      -2.49707676       0.23276779
C        1.01855068      -0.66353656       1.60121669
O        1.95106811      -1.48658698       2.25974932
P        3.49894222      -0.90766043       2.52794362
O        3.41943334       0.50826223       3.04692308
O        4.21928433      -2.03305883       3.19800850
O        4.04296849      -0.76934532       0.94155448
O       -3.54419212       0.71843664      -1.56254220
H       -1.21325139       2.18412743      -1.96902736
H        1.58274485      -1.24281892      -0.38099818
H       -0.84169522      -2.37112345       0.39646975
H        1.38460462       0.36298478       1.50882453
H        0.09608657      -0.64900284       2.19389739
H        4.09690164       0.17985367       0.78204482
H       -2.15427636       0.05464370      -0.82012572
H       -4.20754806       1.06944103      -0.95518890
24
Properties=species:S:1:pos:R:3 relative_energy_eV=0.015043063627672382 branch=left pbc="F F F"
O        0.12599005       0.76197471      -1.12185572
C       -0.25751734      -0.20148841      -0.48320341
O       -1.53681628      -0.51182908      -0.26732077
P       -3.25243236       1.95676869      -2.73078476
O       -2.76665066       1.25158188      -3.95779531
O       -4.45547461       2.85587695      -2.65725520
O       -2.01209049       2.73919307      -1.96771320
C        0.66000725      -1.19948172       0.21000338
O        0.08888146      -2.49992580       0.24741148
C        1.01083833      -0.66243471       1.61087106
O        1.95264233      -1.47298996       2.27112887
P        3.50744566      -0.90103513       2.51622681
O        3.44708925       0.51748770       3.03109455
O        4.22563035      -2.03016888       3.18192809
O        4.03998166      -0.77324222       0.92449659
O       -3.54262930       0.70487102      -1.58558072
H       -1.21365309       2.18653481      -1.95656061
H        1.57855455      -1.25155044      -0.36885929
H       -0.85714104      -2.37064648       0.39588522
H        1.36505396       0.36843983       1.51792680
H        0.08971593      -0.65989478       2.20613402
H        4.10323824       0.17493383       0.76402037
H       -2.15280761       0.06085162      -0.81215671
H       -4.23306782       1.03642547      -0.99902495
24
Properties=species:S:1:pos:R:3 relative_energy_eV=0.018363029608735815 branch=left pbc="F F F"
O        0.12223524       0.76429510      -1.07799915
C       -0.26476472      -0.20315939      -0.44896147
O       -1.54602727      -0.51586252      -0.25082162
P       -3.22223526       1.97483403      -2.73844227
O       -2.69104799       1.34097352      -3.98553152
O       -4.44531094       2.84608560      -2.65626160
O       -2.01812861       2.74327350      -1.90753118
C        0.64660793      -1.20344956       0.24918707
O        0.06330387      -2.49720537       0.29580514
C        1.00560799      -0.66285534       1.64405557
O        1.96051105      -1.45976237       2.29960097
P        3.52387573      -0.89240212       2.47691718
O        3.49274923       0.53048790       2.98207307
O        4.25840125      -2.01662319       3.13214580
O        3.98617842      -0.78305095       0.86043589
O       -3.51509100       0.66657217      -1.65774744
H       -1.20343283       2.21537985      -1.91629069
H        1.56501470      -1.27222099      -0.32588153
H       -0.88295071      -2.35107641       0.42336728
H        1.34336246       0.37142081       1.54664803
H        0.09173483      -0.66929121       2.24640657
H        4.05214301       0.16360200       0.69483587
H       -2.15223090       0.05108862      -0.81312926
H       -4.25571638       0.93919818      -1.10386554
24
Properties=species:S:1:pos:R:3 relative_energy_eV=0.02315802980592707 branch=left pbc="F F F"
O        0.11512583       0.77177021      -1.01377095
C       -0.28411472      -0.20943887      -0.41328983
O       -1.56891143      -0.53766591      -0.25663817
P       -3.17504325       1.98918086      -2.73707871
O       -2.58501887       1.42792491      -3.99384272
O       -4.42048137       2.82856829      -2.65027472
O       -2.01708554       2.74550945      -1.83333915
C        0.61920955      -1.20849741       0.29388229
O        0.02112247      -2.49490463       0.37141507
C        1.00184458      -0.65161347       1.67796482
O        1.96850946      -1.44678185       2.32379454
P        3.54084659      -0.88247756       2.43346966
O        3.52165938       0.54566047       2.92265376
O        4.31402304      -1.99729740       3.06146019
O        3.93545085      -0.78518755       0.80203322
O       -3.48290247       0.62247338      -1.73576074
H       -1.18599218       2.24296606      -1.84115784
H        1.53375307      -1.29421865      -0.28888596
H       -0.93223469      -2.34344140       0.43556978
H        1.35072400       0.37769757       1.56012369
H        0.09454323      -0.64918384       2.29356575
H        3.98865010       0.15908728       0.61474485
H       -2.16440903       0.03169699      -0.82973881
H       -4.27447863       0.83842488      -1.22788665
24
Properties=species:S:1:pos:R:3 relative_energy_eV=0.02689796702179592 branch=left pbc="F F F"
O        0.12013852       0.78067356      -0.98216935
C       -0.28614341      -0.19962589      -0.38396750
O       -1.57270508      -0.52047107      -0.23538805
P       -3.16082952       2.00191801      -2.74712868
O       -2.55817082       1.49800942      -4.02102896
O       -4.42288928       2.81251592      -2.63748376
O       -2.01953202       2.74347180      -1.81307182
C        0.61233206      -1.20462628       0.32237866
O        0.02121873      -2.49453253       0.38830147
C        0.99606769      -0.65362393       1.70863255
O        1.97113426      -1.44759266       2.34270765
P        3.54564984      -0.88056585       2.40793211
O        3.53724911       0.54990183       2.89086774
O        4.33412506      -1.99363265       3.01878914
O        3.90069866      -0.80039292       0.76653765
O       -3.44905389       0.60038430      -1.78925001
H       -1.18772389       2.24284655      -1.81986377
H        1.52736869      -1.28668792      -0.26015420
H       -0.92998711      -2.35016611       0.47437701
H        1.33840302       0.37817317       1.59401328
H        0.09780438      -0.64900412       2.33731831
H        3.91881961       0.13918262       0.55018222
H       -2.15422985       0.03289837      -0.83694785
H       -4.26495450       0.78119835      -1.30657140
24
Properties=species:S:1:pos:R:3 relative_energy_eV=0.029367422976065427 branch=left pbc="F F F"
O        0.11216406       0.78289143      -0.93879834
C       -0.29864759      -0.20902232      -0.36329717
O       -1.58547207      -0.54594938      -0.25242510
P       -3.14148418       2.02036936      -2.76006488
O       -2.50219111       1.56114179      -4.03265394
O       -4.41605404       2.81202608      -2.65967189
O       -2.03641028       2.74767000      -1.77089878
C        0.59644159      -1.21232101       0.35019174
O       -0.00200841      -2.49738125       0.43415015
C        0.99813108      -0.65027680       1.72611800
O        1.98473705      -1.43758717       2.35042627
P        3.56232358      -0.87354232       2.38147427
O        3.56504747       0.55719838       2.86229243
O        4.35935464      -1.98533680       2.98308248
O        3.88912118      -0.79928297       0.73278607
O       -3.43100981       0.58235852      -1.85352790
H       -1.20702691       2.24328739      -1.75286863
H        1.51042789      -1.30037099      -0.23337854
H       -0.95214030      -2.34505502       0.52041972
H        1.33361103       0.38273780       1.59554218
H        0.10798022      -0.65112166       2.36547182
H        3.87061829       0.13816539       0.50549969
H       -2.15799894       0.01111917      -0.85961302
H       -4.24472352       0.74853423      -1.36124515
24
Properties=species:S:1:pos:R:3 relative_energy_eV=0.030972085740359034 branch=left pbc="F F F"
O        0.09987867       0.78868183      -0.91578198
C       -0.30840216      -0.21449025      -0.35675106
O       -1.59405141      -0.56546724      -0.27200538
P       -3.12843392       2.02751811      -2.76413890
O       -2.46480807       1.59182079      -4.03252992
O       -4.41103743       2.80773239      -2.67684766
O       -2.04683496       2.75265209      -1.74816697
C        0.58589346      -1.21865829       0.36148142
O       -0.02042870      -2.49892528       0.46506498
C        1.00060440      -0.64796286       1.73207028
O        1.99340221      -1.42944659       2.35466092
P        3.57246072      -0.86733948       2.36840895
O        3.58136454       0.56421689       2.84726164
O        4.37663805      -1.97841334       2.96224932
O        3.88091504      -0.79645321       0.71641797
O       -3.41997877       0.57660795      -1.87820471
H       -1.21654168       2.25028847      -1.70757495
H        1.49120287      -1.32595613      -0.23263131
H       -0.96944763      -2.33821420       0.54647060
H        1.32929821       0.38707664       1.60064693
H        0.11404460      -0.65086430       2.37657304
H        3.86189829       0.14144543       0.49135354
H       -2.15981298      -0.00907335      -0.88788094
H       -4.23303199       0.73347553      -1.38113473
24
Properties=species:S:1:pos:R:3 relative_energy_eV=0.03365443259826861 branch=left pbc="F F F"
O        0.09540401       0.78978173      -0.87843531
C       -0.32000148      -0.22627999      -0.34925415
O       -1.60229188      -0.59210780      -0.30891168
P       -3.11420137       2.03651686      -2.76236140
O       -2.41313650       1.61666920      -4.01561229
O       -4.40933432       2.79776771      -2.69648244
O       -2.06520597       2.76326958      -1.71431766
C        0.56716778      -1.22943259       0.37737589
O       -0.04598770      -2.50419906       0.50025646
C        0.99850811      -0.64914147       1.73645645
O        2.00161959      -1.42601904       2.34870977
P        3.57768862      -0.85816643       2.35007037
O        3.59404234       0.57405365       2.82758168
O        4.38811380      -1.96848711       2.93744624
O        3.86444869      -0.78678984       0.69380576
O       -3.40792882       0.57253084      -1.90304074
H       -1.22580470       2.27574917      -1.67532587
H        1.47018909      -1.34549465      -0.21804569
H       -0.99278713      -2.33543638       0.59059331
H        1.32496300       0.38373014       1.59157404
H        0.12115019      -0.64991465       2.39314356
H        3.88454865       0.15279844       0.47701899
H       -2.15818882      -0.03368952      -0.93267433
H       -4.21818330       0.72254242      -1.40056026
24
Properties=species:S:1:pos:R:3 relative_energy_eV=0.03617227698850911 branch=left pbc="F F F"
O        0.07463105       0.79465597      -0.84126462
C       -0.33464932      -0.24004634      -0.34474319
O       -1.60961621      -0.62980845      -0.34964869
P       -3.09574287       2.04185452      -2.75982030
O       -2.36374602       1.63471107      -4.00018755
O       -4.38913321       2.80724692      -2.71651758
O       -2.07530164       2.75307534      -1.67474148
C        0.55178641      -1.23976032       0.38961394
O       -0.06454711      -2.51109371       0.52970789
C        0.99905097      -0.64306530       1.73692076
O        2.00701632      -1.41905324       2.34345258
P        3.58305313      -0.85125484       2.33412515
O        3.59395670       0.58089851       2.81152265
O        4.39698486      -1.96189860       2.91671231
O        3.87369865      -0.77286673       0.67750699
O       -3.41256701       0.56938158      -1.92154594
H       -1.22766047       2.28031374      -1.63899221
H        1.45172717      -1.37091136      -0.20875323
H       -1.01219050      -2.34151575       0.61266365
H        1.32827583       0.38545849       1.57030155
H        0.13191476      -0.62588560       2.40788123
H        3.89846632       0.16880950       0.46902238
H       -2.16536814      -0.04842321      -0.95151474
H       -4.22524722       0.71942881      -1.42269127
24
Properties=species:S:1:pos:R:3 relative_energy_eV=0.04206312340829754 branch=left pbc="F F F"
O        0.03051008       0.79658677      -0.78448743
C       -0.36553575      -0.26215494      -0.33079297
O       -1.62672021      -0.68790098      -0.39680917
P       -3.06110451       2.05553187      -2.74684659
O       -2.29457189       1.64229068      -3.96406135
O       -4.34277082       2.84128813      -2.74378178
O       -2.06935157       2.74132217      -1.62041659
C        0.53094105      -1.25264374       0.40391594
O       -0.08594244      -2.51600121       0.60023709
C        1.01269576      -0.62843301       1.72285176
O        2.02386531      -1.40441599       2.32170251
P        3.59873956      -0.83392664       2.32214080
O        3.60945578       0.59524400       2.80947943
O        4.40910404      -1.94923087       2.90123001
O        3.88821674      -0.75203097       0.66476214
O       -3.42618146       0.57795211      -1.94051415
H       -1.23567063       2.24664227      -1.55684628
H        1.41267299      -1.40002055      -0.22050541
H       -1.03878488      -2.35503456       0.61470406
H        1.34632347       0.39199486       1.52231812
H        0.15477045      -0.58653378       2.40507028
H        3.88979819       0.18999908       0.45687997
H       -2.18122643      -0.09386076      -0.98630151
H       -4.26443985       0.72358660      -1.48491937
24
Properties=species:S:1:pos:R:3 relative_energy_eV=0.0464584706351161 branch=left pbc="F F F"
O        0.01867476       0.77639654      -0.77867911
C       -0.37540945      -0.28510982      -0.33115891
O       -1.63178494      -0.72142023      -0.42324074
P       -3.04879065       2.06302550      -2.74291311
O       -2.25158102       1.65126019      -3.94038924
O       -4.33191947       2.84527901      -2.77613561
O       -2.08486346       2.75954843      -1.59864544
C        0.51646618      -1.26885581       0.41625806
O       -0.11269345      -2.52251536       0.63172589
C        1.02300783      -0.62558132       1.71860314
O        2.03616698      -1.39548592       2.32265770
P        3.61119070      -0.82288243       2.32228911
O        3.62325707       0.60466363       2.81426926
O        4.42707078      -1.93891815       2.89242944
O        3.89864579      -0.73931518       0.66549117
O       -3.43254417       0.58637367      -1.93832745
H       -1.25277982       2.26654551      -1.50743859
H        1.39241679      -1.43063155      -0.21287458
H       -1.06490980      -2.36475150       0.59222054
H        1.36163333       0.38631885       1.48678684
H        0.18189093      -0.55858060       2.41736424
H        3.88224703       0.20101123       0.45099745
H       -2.18443178      -0.11436552      -1.00070246
H       -4.28616687       0.72824123      -1.51157867
24
Properties=species:S:1:pos:R:3 relative_energy_eV=0.051090084671159275 branch=left pbc="F F F"
O        0.01998190       0.76365573      -0.77933226
C       -0.37779971      -0.29607172      -0.33271290
O       -1.63626137      -0.72892362      -0.42660824
P       -3.04169534       2.06088490      -2.74169101
O       -2.21160757       1.66705009      -3.92235166
O       -4.33284118       2.82826974      -2.80069601
O       -2.10980361       2.75279911      -1.56672059
C        0.50776263      -1.27936793       0.42384529
O       -0.13314197      -2.51966877       0.67755173
C        1.02765589      -0.62218900       1.71076405
O        2.03968912      -1.39758012       2.31292708
P        3.61430465      -0.81963012       2.31732601
O        3.62244218       0.60611306       2.81354104
O        4.43695492      -1.92967530       2.88973310
O        3.90554957      -0.72665979       0.66010665
O       -3.43653525       0.58424217      -1.94929868
H       -1.26270107       2.28467105      -1.48761553
H        1.38145988      -1.46515677      -0.20303026
H       -1.08041598      -2.37583961       0.55728642
H        1.37529968       0.38331530       1.46773741
H        0.19006940      -0.53739711       2.41160203
H        3.88539435       0.21509313       0.45056990
H       -2.19077408      -0.12389772      -1.00457910
H       -4.27819346       0.75621373      -1.50934586
24
Properties=species:S:1:pos:R:3 relative_energy_eV=0.0585523253903375 branch=left pbc="F F F"
O        0.02670404       0.75250344      -0.78921830
C       -0.38380011      -0.29745592      -0.33215021
O       -1.64650779      -0.71551698      -0.42493961
P       -3.03344055       2.05913381      -2.73621416
O       -2.16840955       1.66737821      -3.89236427
O       -4.31817089       2.83152711      -2.82334534
O       -2.12707911       2.73351027      -1.52970231
C        0.49276880      -1.28321990       0.42978589
O       -0.15995558      -2.50958695       0.71817229
C        1.02994357      -0.61772710       1.70281950
O        2.04167035      -1.39159090       2.30472706
P        3.61246229      -0.81306932       2.31311037
O        3.61185879       0.61330764       2.80969110
O        4.43240026      -1.92906613       2.87846254
O        3.91028955      -0.71659887       0.65780832
O       -3.44253729       0.56978701      -1.97666832
H       -1.26730958       2.28616346      -1.47779846
H        1.35290461      -1.47918542      -0.21358956
H       -1.09477549      -2.38201131       0.51459085
H        1.38060231       0.38267036       1.44463354
H        0.20356173      -0.52991895       2.41529463
H        3.90057618       0.22645626       0.45504433
H       -2.19292729      -0.10942536      -1.01360068
H       -4.24603560       0.73218602      -1.46554068
24
Properties=species:S:1:pos:R:3 relative_energy_eV=0.07333111212210497 branch=left pbc="F F F"
O        0.02103801       0.75957389      -0.79980102
C       -0.39776933      -0.28235122      -0.33073955
O       -1.66273932      -0.68661160      -0.41050545
P       -3.01426473       2.04308887      -2.72348100
O       -2.14394304       1.64619796      -3.87361894
O       -4.28080253       2.84189460      -2.82121615
O       -2.13071251       2.70020044      -1.49577594
C        0.46472107      -1.27599254       0.43053308
O       -0.20565035      -2.49571195       0.71573409
C        1.02130874      -0.60989621       1.69499124
O        2.04390027      -1.38880616       2.27366487
P        3.61644097      -0.80941533       2.30535116
O        3.61615436       0.61307599       2.81190548
O        4.42951222      -1.92592621       2.88082811
O        3.92546848      -0.70509147       0.65136673
O       -3.42740600       0.53613905      -1.98684088
H       -1.26103509       2.27317294      -1.44751653
H        1.32612720      -1.47939347      -0.20655203
H       -1.13047976      -2.37705367       0.46283694
H        1.37545671       0.38799791       1.43187429
H        0.20079471      -0.50373713       2.41370006
H        3.91527192       0.23878922       0.45239473
H       -2.19488127      -0.10904132      -1.04367636
H       -4.19171720       0.68914782      -1.41644852
24
Properties=species:S:1:pos:R:3 relative_energy_eV=0.11864192217035452 branch=left pbc="F F F"
O        0.00244516       0.79508472      -0.78736591
C       -0.42445177      -0.25382121      -0.33860707
O       -1.68948298      -0.65721909      -0.41378127
P       -2.97289833       2.00357654      -2.69819433
O       -2.13149576       1.61020476      -3.86987255
O       -4.25812429       2.78134148      -2.75575482
O       -2.07764334       2.67571232      -1.48124114
C        0.44154346      -1.25463541       0.41879664
O       -0.24868798      -2.45982400       0.70793264
C        1.00715082      -0.59994263       1.68519277
O        2.03438187      -1.37392705       2.25906590
P        3.60955989      -0.80646946       2.29735689
O        3.59689005       0.61594999       2.80337517
O        4.39933186      -1.94320269       2.86771874
O        3.96580587      -0.69336121       0.65323562
O       -3.38268963       0.48599400      -1.98570512
H       -1.22907010       2.20765545      -1.37248460
H        1.29916761      -1.46291851      -0.22419960
H       -1.15341575      -2.30680035       0.40368587
H        1.35340801       0.39419682       1.40573674
H        0.20211730      -0.49648818       2.42204873
H        3.92023195       0.24697193       0.44068971
H       -2.23691362      -0.11898092      -1.07843947
H       -4.11236675       0.69115298      -1.39018127
24
Properties=species:S:1:pos:R:3 relative_energy_eV=0.3515975385380443 branch=left pbc="F F F"
O       -0.01880190       0.81536607      -0.80141409
C       -0.47354200      -0.23805379      -0.35965305
O       -1.71199102      -0.62911306      -0.47565813
P       -2.88025488       2.02309943      -2.69492956
O       -2.08391191       1.59243059      -3.88434395
O       -4.22236848       2.69513469      -2.70932923
O       -1.98801469       2.64401009      -1.46971272
C        0.42552696      -1.21542260       0.39680445
O       -0.26796461      -2.41779504       0.71280310
C        1.00915177      -0.57231625       1.66249312
O        2.03641441      -1.37022612       2.21323643
P        3.60825831      -0.80619351       2.29379050
O        3.62113742       0.60877415       2.81954834
O        4.40731442      -1.92755209       2.88017675
O        3.96085561      -0.69813530       0.65284302
O       -3.30089177       0.44999568      -1.87700928
H       -1.24493566       2.02707264      -1.28196252
H        1.27613689      -1.43169254      -0.25550167
H       -1.16788952      -2.27289089       0.37764311
H        1.35032801       0.44131708       1.44311213
H        0.19737714      -0.51320082       2.39263416
H        3.92015010       0.24258606       0.44544632
H       -2.44289762       0.00201980      -1.15860260
H       -4.09439357       0.63103571      -1.35340663
24
Properties=species:S:1:pos:R:3 relative_energy_eV=0.409339758574788 branch=left pbc="F F F"
O       -0.07359453       0.81052322      -0.81490749
C       -0.51060782      -0.25081589      -0.32484607
O       -1.73164596      -0.63156833      -0.38587628
P       -2.83468902       2.08675305      -2.69424402
O       -2.06277206       1.59033245      -3.86245696
O       -4.13161194       2.83398387      -2.71840167
O       -1.96001798       2.50363987      -1.42477045
C        0.46568428      -1.20227760       0.39990558
O       -0.17538015      -2.44779752       0.66943245
C        1.02534117      -0.56839744       1.68136106
O        2.05036128      -1.35576165       2.25947993
P        3.62305300      -0.79818179       2.29741888
O        3.65060559       0.62165685       2.81470856
O        4.42840560      -1.92194873       2.87118201
O        3.95461123      -0.69631451       0.65108145
O       -3.44053360       0.40477312      -1.95257870
H       -1.18622214       1.87577354      -1.24168392
H        1.32635225      -1.37272812      -0.25215197
H       -1.10193379      -2.29127729       0.41877293
H        1.37564545       0.43702596       1.44091186
H        0.20930953      -0.49428530       2.40698552
H        3.93654212       0.24578457       0.44802367
H       -2.71287845       0.00607888      -1.27313913
H       -4.20923063       0.69527912      -1.44519943
24
Properties=species:S:1:pos:R:3 relative_energy_eV=0.45526302130747354 branch=left pbc="F F F"
O       -0.06613495       0.81427649      -0.76472636
C       -0.52189366      -0.25158011      -0.28715413
O       -1.73787702      -0.62873396      -0.32986452
P       -2.78500130       2.09757626      -2.70059810
O       -2.03463288       1.62810083      -3.89335221
O       -4.05611984       2.88016276      -2.67656788
O       -1.92233526       2.41382710      -1.41860310
C        0.47659006      -1.19054008       0.39771101
O       -0.13251059      -2.45437603       0.64840300
C        1.02873420      -0.55452021       1.67612029
O        2.04670572      -1.34525804       2.25784951
P        3.61745983      -0.79544293       2.29134055
O        3.64783617       0.62482878       2.80752560
O        4.41578634      -1.92474726       2.86636181
O        3.95010580      -0.69228845       0.64421895
O       -3.53240585       0.36455896      -1.98680495
H       -1.15177601       1.77790618      -1.22344500
H        1.32230348      -1.30834908      -0.28290838
H       -1.06836189      -2.29116237       0.43888891
H        1.38249290       0.45199900       1.44426807
H        0.20684040      -0.47384047       2.39412462
H        3.94533267       0.25081034       0.44396327
H       -2.85786931      -0.04467076      -1.31263441
H       -4.25847539       0.73171338      -1.46510891
24
Properties=species:S:1:pos:R:3 relative_energy_eV=0.5513866619148757 branch=ts pbc="F F F"
O       -0.10708432       0.85559463      -0.74367394
C       -0.54471384      -0.24354854      -0.27564559
O       -1.73651564      -0.62943249      -0.30289521
P       -2.73388253       2.13744777      -2.68136098
O       -2.04191620       1.64618144      -3.91009851
O       -4.04250851       2.87302185      -2.67957888
O       -1.86755738       2.35956416      -1.41149112
C        0.47835427      -1.16601585       0.37978201
O       -0.11622290      -2.43333101       0.63545496
C        1.03028865      -0.53975595       1.66818711
O        2.03866971      -1.33934464       2.24710803
P        3.61502501      -0.79416657       2.28893114
O        3.64486442       0.62527641       2.80493273
O        4.40867766      -1.92505321       2.86551095
O        3.94192410      -0.69159804       0.64213799
O       -3.58832788       0.31903277      -1.99865529
H       -0.99371629       1.57436201      -1.14102032
H        1.32087421      -1.28842509      -0.30393335
H       -1.06110594      -2.30224456       0.44964044
H        1.38688712       0.46878227       1.44952941
H        0.20682007      -0.47090598       2.38572810
H        3.94957948       0.25170377       0.44330639
H       -2.91459366      -0.03932698      -1.33781395
H       -4.27374497       0.75199413      -1.47419819
24
Properties=species:S:1:pos:R:3 relative_energy_eV=0.5220566127100028 branch=right pbc="F F F"
O       -0.08413052       0.84337416      -0.73564852
C       -0.54082981      -0.26004067      -0.26485943
O       -1.72877498      -0.62409064      -0.29816091
P       -2.72804523       2.15900477      -2.68131972
O       -2.04991173       1.64723713      -3.91458929
O       -4.05381528       2.87016273      -2.69285985
O       -1.87489088       2.36681706      -1.41363587
C        0.48246865      -1.17401767       0.38399578
O       -0.11444607      -2.43735371       0.63551516
C        1.03151328      -0.53972575       1.66984301
O        2.03800164      -1.33964731       2.24668752
P        3.61585159      -0.79355309       2.28866473
O        3.64362741       0.62596156       2.80389068
O        4.40688581      -1.92556220       2.86503092
O        3.93956480      -0.69104608       0.64126638
O       -3.60367064       0.30517143      -2.00057152
H       -0.89815091       1.49593857      -1.10012566
H        1.31989640      -1.28445523      -0.30753236
H       -1.06044419      -2.30733028       0.45319444
H        1.38697857       0.46987653       1.44957369
H        0.20641083      -0.47009055       2.38573883
H        3.95163066       0.25244341       0.44331218
H       -2.92251226      -0.02856806      -1.34657890
H       -4.27785153       0.75886815      -1.48007092
24
Properties=species:S:1:pos:R:3 relative_energy_eV=0.5112288011005148 branch=right pbc="F F F"
O       -0.07045681       0.84948679      -0.73453284
C       -0.53010784      -0.25942860      -0.25813772
O       -1.71720595      -0.61733269      -0.27628326
P       -2.73651033       2.18150699      -2.69057036
O       -2.05985722       1.66953733      -3.92389129
O       -4.07118479       2.87697312      -2.72144948
O       -1.88584748       2.38631686      -1.42555814
C        0.49157641      -1.18362093       0.38720383
O       -0.10569489      -2.44765876       0.63840715
C        1.03482605      -0.54883197       1.67575363
O        2.03982185      -1.34219914       2.25866878
P        3.61719549      -0.79326705       2.28914946
O        3.64292576       0.62809373       2.80036581
O        4.40750577      -1.92518047       2.86358914
O        3.93257739      -0.68931373       0.63923994
O       -3.63841220       0.28233588      -2.00379888
H       -0.85667352       1.49334495      -1.08533203
H        1.33293088      -1.30086741      -0.29834670
H       -1.05174341      -2.31799740       0.46028322
H        1.38654490       0.45941856       1.44779872
H        0.20760798      -0.47162592       2.38839853
H        3.95285100       0.25464646       0.44358923
H       -2.94574502      -0.02989768      -1.36144920
H       -4.29156840       0.76493531      -1.48233718
24
Properties=species:S:1:pos:R:3 relative_energy_eV=0.50843596537743 branch=right pbc="F F F"
O       -0.06511626       0.84700794      -0.73054684
C       -0.52823478      -0.26014559      -0.25599129
O       -1.71857914      -0.60505510      -0.27495988
P       -2.73762400       2.18879348      -2.69928885
O       -2.05906797       1.67838474      -3.93460684
O       -4.07549699       2.88146971      -2.72274493
O       -1.88558399       2.37930006      -1.43105472
C        0.49547980      -1.18349391       0.38816748
O       -0.10157356      -2.44756890       0.63483006
C        1.03610483      -0.54891773       1.67789819
O        2.04058272      -1.34387016       2.26231588
P        3.61758170      -0.79342436       2.29031630
O        3.64601233       0.62810324       2.80007285
O        4.41436770      -1.92242411       2.86281128
O        3.92710024      -0.68993601       0.63954385
O       -3.64764539       0.28457705      -2.00629169
H       -0.85384389       1.48661611      -1.08029045
H        1.33924722      -1.30419565      -0.29420201
H       -1.04907234      -2.32068206       0.46492685
H        1.39216901       0.45878147       1.45161913
H        0.20704398      -0.47714166       2.38938082
H        3.95247005       0.25418826       0.44528213
H       -2.96006206      -0.03656441      -1.36335498
H       -4.30090360       0.76557185      -1.48307200
24
Properties=species:S:1:pos:R:3 relative_energy_eV=0.5052497547439998 branch=right pbc="F F F"
O       -0.05640835       0.85242061      -0.72628920
C       -0.52089358      -0.25653299      -0.25012828
O       -1.71164506      -0.60007848      -0.26210805
P       -2.73543763       2.19911852      -2.71316403
O       -2.07036824       1.70963308      -3.96263575
O       -4.07047925       2.89418672      -2.72737367
O       -1.88103534       2.36305373      -1.44610320
C        0.50127037      -1.18599979       0.39100166
O       -0.09437200      -2.45362147       0.62880518
C        1.04152630      -0.55666605       1.68533953
O        2.04697142      -1.34793071       2.27349979
P        3.62348629      -0.79315676       2.29164382
O        3.65061918       0.62828356       2.80088911
O        4.42899401      -1.91816783       2.86139815
O        3.91425448      -0.69154086       0.63762030
O       -3.67756434       0.27261033      -2.01071688
H       -0.84997156       1.48024834      -1.08100830
H        1.34842207      -1.30083946      -0.28657866
H       -1.04423501      -2.32087175       0.47761623
H        1.39705907       0.45251764       1.46775614
H        0.20950191      -0.48535890       2.39203826
H        3.95042125       0.25313258       0.44834853
H       -2.99382280      -0.04659002      -1.36750720
H       -4.32093751       0.77152415      -1.49158319
24
Properties=species:S:1:pos:R:3 relative_energy_eV=0.4989119577148813 branch=right pbc="F F F"
O       -0.05461981       0.85076485      -0.71855418
C       -0.51628630      -0.25870957      -0.23563753
O       -1.70575066      -0.60262727      -0.24793281
P       -2.72850937       2.23525124      -2.74683680
O       -2.08744354       1.75280883      -4.01247670
O       -4.06632039       2.92327174      -2.71859532
O       -1.87178151       2.34631920      -1.47848421
C        0.51505693      -1.18465151       0.40038908
O       -0.07953248      -2.45610334       0.61838640
C        1.04764349      -0.56633917       1.70518541
O        2.05539389      -1.35906972       2.29060807
P        3.62973104      -0.79582662       2.29405682
O        3.65811155       0.62660757       2.80028327
O        4.44991922      -1.91359539       2.85586843
O        3.90370026      -0.69100488       0.63774651
O       -3.73109312       0.22307303      -2.01000757
H       -0.83558539       1.46912856      -1.08900880
H        1.36030487      -1.29051379      -0.28369477
H       -1.03226289      -2.30907480       0.49814256
H        1.40072100       0.44573112       1.49405116
H        0.21404775      -0.50569672       2.41265594
H        3.94400807       0.25328822       0.44681975
H       -3.04166951      -0.05853774      -1.36427562
H       -4.34242724       0.78488014      -1.51792874
24
Properties=species:S:1:pos:R:3 relative_energy_eV=0.4960240498476196 branch=right pbc="F F F"
O       -0.05541575       0.84587627      -0.71786609
C       -0.51735286      -0.26265427      -0.23387027
O       -1.70692014      -0.60548520      -0.24427845
P       -2.72804302       2.24608037      -2.75369897
O       -2.09681715       1.76833308      -4.02595466
O       -4.06784488       2.93134640      -2.71557407
O       -1.85300330       2.35681520      -1.49735606
C        0.51272892      -1.18172731       0.40439758
O       -0.07634884      -2.45451295       0.62152833
C        1.04708921      -0.56585531       1.70800962
O        2.05998186      -1.35679024       2.28479420
P        3.63371624      -0.79592199       2.29213219
O        3.65673659       0.62539883       2.80293372
O        4.44996703      -1.91731863       2.85275313
O        3.91191013      -0.69150430       0.63580533
O       -3.73760258       0.20407121      -2.00750275
H       -0.83922057       1.45643838      -1.08875633
H        1.35862157      -1.28003852      -0.27655026
H       -1.02920819      -2.30948201       0.50095065
H        1.39716835       0.44844636       1.50749083
H        0.21729698      -0.51547784       2.41901595
H        3.93829417       0.25321806       0.44503753
H       -3.05135412      -0.06618292      -1.35436506
H       -4.33902362       0.78630125      -1.52831571
24
Properties=species:S:1:pos:R:3 relative_energy_eV=0.49355232019297546 branch=right pbc="F F F"
O       -0.06020690       0.84241309      -0.72059846
C       -0.52243021      -0.26279500      -0.22691695
O       -1.71138848      -0.60885573      -0.23308398
P       -2.72319055       2.25896485      -2.76575748
O       -2.11269007       1.78770975      -4.05035541
O       -4.06883817       2.92925104      -2.70663735
O       -1.83621133       2.37102056      -1.51901848
C        0.51170332      -1.18057160       0.41002948
O       -0.07300334      -2.45640376       0.63143603
C        1.04611380      -0.56575752       1.71498096
O        2.06331830      -1.36151457       2.27847047
P        3.63733849      -0.79758944       2.28985913
O        3.65842276       0.62241978       2.80310595
O        4.45143615      -1.92081785       2.84995271
O        3.92470948      -0.68807495       0.63586597
O       -3.73174775       0.20319217      -2.00656906
H       -0.83929135       1.45534503      -1.09304816
H        1.36073027      -1.27598149      -0.27035655
H       -1.02599708      -2.32071803       0.50190481
H        1.38819251       0.45420773       1.51963947
H        0.21641309      -0.52430613       2.42807424
H        3.93265486       0.25610660       0.44031828
H       -3.06031292      -0.08240804      -1.34519833
H       -4.34036879       0.78453746      -1.53533702
24
Properties=species:S:1:pos:R:3 relative_energy_eV=0.4925588938349392 branch=right pbc="F F F"
O       -0.06435784       0.84023788      -0.71877219
C       -0.52539114      -0.26442755      -0.22465855
O       -1.71491054      -0.60787548      -0.22556069
P       -2.72577603       2.25969092      -2.77068296
O       -2.11857693       1.79679678      -4.06024002
O       -4.07260085       2.92748182      -2.69832314
O       -1.82733137       2.37313037      -1.53221720
C        0.51017580      -1.18057774       0.41351238
O       -0.06988494      -2.45717650       0.63431255
C        1.04469113      -0.56758750       1.71773664
O        2.06512630      -1.35955501       2.27915489
P        3.63879217      -0.79754375       2.28884774
O        3.65901550       0.62186290       2.80394745
O        4.45326357      -1.92098128       2.84766636
O        3.92720468      -0.68714297       0.63465345
O       -3.72601206       0.20603221      -2.00979605
H       -0.83720290       1.45899938      -1.09848540
H        1.35605910      -1.27726701      -0.26845682
H       -1.02240879      -2.32505496       0.50154528
H        1.38537920       0.45145793       1.52364945
H        0.21759827      -0.52875629       2.43352314
H        3.93147007       0.25739171       0.44041718
H       -3.06125492      -0.08315330      -1.34366447
H       -4.33771135       0.78339145      -1.53734880
24
Properties=species:S:1:pos:R:3 relative_energy_eV=0.4904587872515549 branch=right pbc="F F F"
O       -0.06500786       0.83581977      -0.70941998
C       -0.53327071      -0.26244077      -0.20572861
O       -1.72409728      -0.60236187      -0.20386096
P       -2.73195926       2.26569116      -2.78457896
O       -2.15284972       1.82794981      -4.09524368
O       -4.08369633       2.91834222      -2.67201097
O       -1.79965642       2.37345721      -1.57191222
C        0.50603170      -1.18343355       0.42234396
O       -0.06940955      -2.46467187       0.63728268
C        1.04667028      -0.57475056       1.72899380
O        2.07154788      -1.36437284       2.28670362
P        3.64399149      -0.79484967       2.28877328
O        3.66406020       0.62440980       2.80527893
O        4.46444025      -1.91847091       2.83838827
O        3.92057568      -0.68330637       0.63366647
O       -3.71701220       0.20590372      -2.01781387
H       -0.83082529       1.44689518      -1.11074618
H        1.34789421      -1.27141027      -0.26772638
H       -1.02265224      -2.33918667       0.50555080
H        1.38112381       0.44828796       1.53498604
H        0.22161551      -0.54449821       2.44810343
H        3.93017204       0.26159308       0.44268731
H       -3.05121918      -0.07362309      -1.34853891
H       -4.33111082       0.78840046      -1.55441783
24
Properties=species:S:1:pos:R:3 relative_energy_eV=0.4890420696756337 branch=right pbc="F F F"
O       -0.06592444       0.83171492      -0.70496653
C       -0.53437441      -0.26530540      -0.20101785
O       -1.72715888      -0.59594186      -0.19286446
P       -2.73492663       2.26834321      -2.79143592
O       -2.17939009       1.83719923      -4.11482223
O       -4.08933618       2.91048407      -2.65042430
O       -1.78798866       2.37245015      -1.59004528
C        0.50282639      -1.18555871       0.42779685
O       -0.07299590      -2.46607639       0.63921298
C        1.04489604      -0.57964511       1.73334960
O        2.07384313      -1.36636267       2.28543217
P        3.64511857      -0.79565363       2.28622111
O        3.66517832       0.62183614       2.80585909
O        4.47008898      -1.91504061       2.83722664
O        3.91633697      -0.67834115       0.63015541
O       -3.70142312       0.20677465      -2.02400507
H       -0.82790596       1.44086659      -1.11022275
H        1.34281858      -1.26931565      -0.26298287
H       -1.02643326      -2.34138288       0.50772442
H        1.37811884       0.44214288       1.54140988
H        0.22158572      -0.54838317       2.45357877
H        3.92930222       0.26732682       0.44238817
H       -3.03729104      -0.06327160      -1.34964131
H       -4.31960896       0.79051363      -1.56716657
24
Properties=species:S:1:pos:R:3 relative_energy_eV=0.48787106015515747 branch=right pbc="F F F"
O       -0.06045902       0.82993369      -0.70192620
C       -0.53348753      -0.26267630      -0.19148885
O       -1.72778477      -0.58939401      -0.17699040
P       -2.74319886       2.27059263      -2.80097385
O       -2.22059152       1.85888340      -4.14368501
O       -4.09559606       2.90965481      -2.62245416
O       -1.76818140       2.36572104      -1.62214969
C        0.50158081      -1.18864723       0.43329090
O       -0.07809833      -2.46852486       0.64121571
C        1.04424293      -0.58664162       1.74132857
O        2.07660042      -1.37588684       2.28704941
P        3.64618596      -0.79513691       2.28436397
O        3.66111484       0.62262795       2.80496813
O        4.47780946      -1.91341475       2.82864048
O        3.91011430      -0.67187184       0.62671705
O       -3.68579974       0.20165658      -2.03242170
H       -0.82142441       1.43766676      -1.10845710
H        1.34588828      -1.27507646      -0.25250232
H       -1.03151213      -2.33691745       0.51715242
H        1.37672916       0.43719902       1.55252192
H        0.22254619      -0.55952338       2.46462960
H        3.92499268       0.27460629       0.44270745
H       -3.02756523      -0.05899980      -1.34815492
H       -4.30874963       0.79354244      -1.59262161
24
Properties=species:S:1:pos:R:3 relative_energy_eV=0.48694819013326196 branch=right pbc="F F F"
O       -0.05499130       0.83229650      -0.69683380
C       -0.52869010      -0.26039952      -0.18822637
O       -1.72481562      -0.57946200      -0.17087887
P       -2.74783003       2.27299005      -2.80453055
O       -2.25186070       1.87007450      -4.15994417
O       -4.10004607       2.90371926      -2.59524827
O       -1.75314056       2.36451320      -1.64273853
C        0.50246524      -1.19098466       0.43791510
O       -0.08599148      -2.46723851       0.64469602
C        1.04535378      -0.59131298       1.74645045
O        2.07912507      -1.37791362       2.28894598
P        3.64441925      -0.79478015       2.28077900
O        3.65192070       0.62093780       2.80596729
O        4.48051004      -1.91175547       2.81899469
O        3.90652075      -0.66768867       0.62443897
O       -3.66866928       0.20081268      -2.04097914
H       -0.81247182       1.43441651      -1.11596711
H        1.34664911      -1.28401292      -0.24711632
H       -1.03948222      -2.32849523       0.52736969
H        1.37515525       0.43325115       1.56079141
H        0.22505732      -0.56977038       2.47030465
H        3.91794804       0.27934932       0.44403160
H       -3.02027184      -0.05847882      -1.34694979
H       -4.30150710       0.78930493      -1.61051234
24
Properties=species:S:1:pos:R:3 relative_energy_eV=0.48587531943485374 branch=right pbc="F F F"
O       -0.04129075       0.83535606      -0.69210232
C       -0.52322378      -0.25275931      -0.18061937
O       -1.72118544      -0.56537566      -0.16356585
P       -2.75451655       2.27453075      -2.80811985
O       -2.30125702       1.89469527      -4.18504397
O       -4.10521310       2.89095039      -2.54689647
O       -1.72022340       2.36383584      -1.68138183
C        0.49993629      -1.19275563       0.44355349
O       -0.09901486      -2.46425949       0.65106825
C        1.04386731      -0.59990220       1.75460772
O        2.08148685      -1.38973432       2.29048212
P        3.64582061      -0.79551647       2.27917280
O        3.64538222       0.61890085       2.80942699
O        4.49311023      -1.90935577       2.80828732
O        3.89842228      -0.65878821       0.61978272
O       -3.64848072       0.19356852      -2.05497775
H       -0.79359502       1.42786388      -1.13171865
H        1.34391509      -1.29411148      -0.24089515
H       -1.05183042      -2.31179444       0.54687804
H        1.37086699       0.42781687       1.57761843
H        0.22394620      -0.58514224       2.48008183
H        3.90268607       0.28918966       0.44247154
H       -3.01022425      -0.05684635      -1.34841379
H       -4.29402828       0.77900615      -1.63893703
24
Properties=species:S:1:pos:R:3 relative_energy_eV=0.4839976912116981 branch=right pbc="F F F"
O       -0.02381490       0.83328497      -0.69464675
C       -0.51793683      -0.24630193      -0.17739969
O       -1.72019052      -0.53980368      -0.15447824
P       -2.75986937       2.27664196      -2.81088454
O       -2.36470224       1.93214441      -4.21475570
O       -4.10758896       2.86702476      -2.47915839
O       -1.67249073       2.35881801      -1.73657985
C        0.49532745      -1.19374822       0.45393171
O       -0.11804722      -2.45905443       0.65754104
C        1.04348685      -0.61080192       1.76717284
O        2.08793064      -1.39962087       2.28899294
P        3.64729241      -0.79580555       2.27501768
O        3.64300985       0.61330155       2.81633409
O        4.50777694      -1.90318708       2.79400446
O        3.88676201      -0.64724197       0.61820724
O       -3.62805495       0.18065499      -2.07191570
H       -0.76305911       1.42895405      -1.14623625
H        1.33744406      -1.30330519      -0.23018928
H       -1.07027346      -2.29194282       0.57249523
H        1.36629148       0.41865535       1.60031177
H        0.22296847      -0.60539159       2.49182612
H        3.87761135       0.30050774       0.44099279
H       -2.99525846      -0.05669583      -1.35596504
H       -4.28925803       0.76228559      -1.67385970
24
Properties=species:S:1:pos:R:3 relative_energy_eV=0.482347952114651 branch=right pbc="F F F"
O       -0.00705075       0.82855252      -0.70286573
C       -0.51553518      -0.23800289      -0.17105905
O       -1.72133088      -0.51493488      -0.14084121
P       -2.76120006       2.27737748      -2.81501728
O       -2.42683687       1.97259375      -4.24403333
O       -4.09997276       2.84251037      -2.41018646
O       -1.62968704       2.35297311      -1.78765551
C        0.48786266      -1.19415322       0.46206516
O       -0.13649190      -2.45524358       0.66211077
C        1.04153951      -0.61778612       1.77740446
O        2.09187761      -1.40548921       2.29113720
P        3.64957192      -0.79466026       2.27318526
O        3.64045938       0.61201976       2.82251979
O        4.51686095      -1.90381566       2.77808429
O        3.88019067      -0.63678886       0.61467045
O       -3.61153985       0.16146820      -2.08989494
H       -0.73743353       1.42843673      -1.15825702
H        1.33114645      -1.30861158      -0.21980726
H       -1.08825135      -2.27884920       0.59166253
H        1.36052512       0.41476830       1.61750831
H        0.22823297      -0.62464548       2.50949446
H        3.85193192       0.31116800       0.44014366
H       -2.98208368      -0.05624040      -1.36550651
H       -4.27742845       0.74672501      -1.70410358
24
Properties=species:S:1:pos:R:3 relative_energy_eV=0.48095544427633286 branch=right pbc="F F F"
O        0.00147322       0.82460514      -0.70409917
C       -0.51481575      -0.23144734      -0.15749313
O       -1.72399220      -0.49098753      -0.11162977
P       -2.76353532       2.28305192      -2.81907846
O       -2.47436270       2.01191174      -4.26542158
O       -4.09328588       2.83144784      -2.36077379
O       -1.60137220       2.33745767      -1.82606054
C        0.48310949      -1.19547327       0.47139548
O       -0.14388508      -2.45609233       0.66678079
C        1.03868584      -0.62101252       1.78694451
O        2.09352874      -1.40635283       2.29333040
P        3.65029157      -0.79403487       2.26835975
O        3.64122243       0.61016715       2.82353823
O        4.51661004      -1.90689355       2.76616542
O        3.87876121      -0.62797666       0.61066924
O       -3.59599702       0.14708938      -2.10515459
H       -0.72724143       1.41390588      -1.17285576
H        1.32533562      -1.31384616      -0.21101792
H       -1.09490922      -2.27986634       0.59239422
H        1.34994337       0.41330939       1.62209028
H        0.22912351      -0.62649232       2.52409399
H        3.83687830       0.32059348       0.44078629
H       -2.96964667      -0.06627773      -1.37729415
H       -4.25656280       0.74258550      -1.72491154
24
Properties=species:S:1:pos:R:3 relative_energy_eV=0.48033510047389427 branch=right pbc="F F F"
O        0.00820885       0.81998973      -0.70714606
C       -0.51412826      -0.23031580      -0.15575562
O       -1.72454931      -0.48268106      -0.10524421
P       -2.76429144       2.28364235      -2.81494766
O       -2.49423002       2.02853908      -4.26707012
O       -4.08736642       2.82536731      -2.33301615
O       -1.58886770       2.33175164      -1.83913365
C        0.48048068      -1.19584629       0.47293241
O       -0.15363157      -2.45234676       0.67260374
C        1.03681986      -0.61956232       1.78636543
O        2.09126070      -1.40500747       2.29321108
P        3.64874879      -0.79401309       2.26776328
O        3.64218312       0.60860965       2.82699379
O        4.51715580      -1.90756199       2.76031251
O        3.87366062      -0.62449048       0.60973801
O       -3.58699105       0.13803867      -2.11278459
H       -0.71290433       1.41208147      -1.18216743
H        1.32388745      -1.31537426      -0.20800242
H       -1.10349740      -2.26958532       0.59541415
H        1.35044524       0.41438548       1.62404631
H        0.22640702      -0.62632505       2.52183190
H        3.82684398       0.32384967       0.44044691
H       -2.96188322      -0.07564251      -1.38413650
H       -4.24840421       0.73186883      -1.73149698
24
Properties=species:S:1:pos:R:3 relative_energy_eV=0.4800067412943463 branch=right pbc="F F F"
O        0.00320066       0.81707002      -0.70696945
C       -0.51682681      -0.23397052      -0.15522551
O       -1.72665436      -0.49067646      -0.10343874
P       -2.76424424       2.28722579      -2.81528623
O       -2.49077446       2.03112567      -4.26701509
O       -4.08919984       2.83084048      -2.33922306
O       -1.59214115       2.33196597      -1.83457971
C        0.48126444      -1.19592370       0.47306576
O       -0.15064646      -2.45300675       0.67574796
C        1.03797294      -0.61682573       1.78531374
O        2.08995322      -1.40255491       2.29720483
P        3.64837731      -0.79364449       2.26894829
O        3.64444653       0.60968025       2.82664319
O        4.51544633      -1.90854010       2.76109793
O        3.86947051      -0.62659545       0.61018343
O       -3.58400633       0.14076271      -2.11185216
H       -0.71849417       1.40892194      -1.18080053
H        1.32251088      -1.31413790      -0.21057629
H       -1.10038088      -2.27251634       0.58944373
H        1.35299271       0.41632195       1.61885630
H        0.22444735      -0.62026794       2.51751613
H        3.83385620       0.32226752       0.44103398
H       -2.95973316      -0.07917649      -1.38415514
H       -4.24548001       0.73102610      -1.72517511
24
Properties=species:S:1:pos:R:3 relative_energy_eV=0.479450542050472 branch=right pbc="F F F"
O        0.01262297       0.81118717      -0.71805281
C       -0.51144862      -0.23333971      -0.15833527
O       -1.72260825      -0.48265027      -0.10518182
P       -2.76586728       2.29256636      -2.80830776
O       -2.51659168       2.05714991      -4.26742491
O       -4.08461236       2.82227786      -2.30212455
O       -1.57636839       2.33197076      -1.84921426
C        0.47941408      -1.19847741       0.47556505
O       -0.16270569      -2.44903004       0.68640443
C        1.03619426      -0.61406523       1.78542855
O        2.08494623      -1.39848132       2.30510010
P        3.64442385      -0.79370426       2.26909369
O        3.64663634       0.60804286       2.83035464
O        4.51263645      -1.91073439       2.75408214
O        3.85594758      -0.62337921       0.60924909
O       -3.57029341       0.12873798      -2.12200115
H       -0.70969192       1.40652922      -1.18682107
H        1.31894204      -1.32701699      -0.20869076
H       -1.11029076      -2.26042153       0.59413302
H        1.35455875       0.41663438       1.61303150
H        0.22326376      -0.60895033       2.51810321
H        3.82556148       0.32595769       0.44165358
H       -2.94310453      -0.09092988      -1.39669381
H       -4.23620755       0.70949812      -1.72859257
24
Properties=species:S:1:pos:R:3 relative_energy_eV=0.47898358030215604 branch=right pbc="F F F"
O        0.00667769       0.80937436      -0.71991431
C       -0.51249769      -0.23967443      -0.16415007
O       -1.72277748      -0.49556308      -0.11517154
P       -2.76838737       2.29900330      -2.80623236
O       -2.51240630       2.06780593      -4.26554269
O       -4.08889542       2.82666309      -2.30127213
O       -1.58064721       2.33707211      -1.84394083
C        0.47982493      -1.20013126       0.47639316
O       -0.16101109      -2.45080896       0.69190591
C        1.03619315      -0.60803142       1.78358805
O        2.08185686      -1.39354699       2.30886402
P        3.64378682      -0.79407211       2.27096041
O        3.65380702       0.60916162       2.82904695
O        4.50909069      -1.91328645       2.75649223
O        3.85058356      -0.62735650       0.60988619
O       -3.56861730       0.12815720      -2.12238731
H       -0.71666611       1.40425348      -1.18970508
H        1.32338468      -1.33255455      -0.20218928
H       -1.10915944      -2.26686312       0.59387569
H        1.35930785       0.42003592       1.60348444
H        0.22223170      -0.59342454       2.51508323
H        3.83246718       0.32267022       0.44477287
H       -2.93697156      -0.09226827      -1.40074947
H       -4.23581763       0.70275644      -1.72233951
24
Properties=species:S:1:pos:R:3 relative_energy_eV=0.4784029603470117 branch=right pbc="F F F"
O        0.01754640       0.80122348      -0.72962999
C       -0.50854720      -0.24215821      -0.16949508
O       -1.71949921      -0.49530332      -0.12735724
P       -2.77187549       2.30611457      -2.79497808
O       -2.54059705       2.10599624      -4.26232229
O       -4.08667073       2.81704849      -2.26097053
O       -1.56963264       2.32851061      -1.85129302
C        0.47726236      -1.20133523       0.48226709
O       -0.16824649      -2.44765155       0.70596773
C        1.03425584      -0.59914751       1.78397463
O        2.07614682      -1.38414549       2.31702273
P        3.64135279      -0.79562910       2.27050737
O        3.66182326       0.60681434       2.82929826
O        4.50065635      -1.92058439       2.75287390
O        3.84530264      -0.62682175       0.60974522
O       -3.56027683       0.11726603      -2.13940671
H       -0.70373819       1.39649285      -1.20150052
H        1.32416391      -1.34453694      -0.18943693
H       -1.11534092      -2.26085305       0.60485145
H        1.36097273       0.42561144       1.59107415
H        0.22056766      -0.57379007       2.51527004
H        3.82300540       0.32359596       0.44629338
H       -2.92427475      -0.10162232      -1.42114507
H       -4.22899871       0.68427707      -1.73085169
24
Properties=species:S:1:pos:R:3 relative_energy_eV=0.4772963218129007 branch=right pbc="F F F"
O        0.01305009       0.78826280      -0.73501390
C       -0.50766651      -0.26108908      -0.18121024
O       -1.71522261      -0.53190075      -0.16088954
P       -2.78233706       2.31711775      -2.78779167
O       -2.54617502       2.14426037      -4.25910944
O       -4.09806498       2.82397132      -2.24928410
O       -1.58137981       2.32124037      -1.84156238
C        0.48147249      -1.20299942       0.48983651
O       -0.15568882      -2.44988854       0.73096687
C        1.03504390      -0.58318781       1.78403386
O        2.07042089      -1.36732799       2.32981556
P        3.64230506      -0.79705664       2.27549976
O        3.67957876       0.60867920       2.82607409
O        4.48884414      -1.93138357       2.75939610
O        3.84571076      -0.63860293       0.61257277
O       -3.56054623       0.12812318      -2.15510898
H       -0.71072104       1.38446730      -1.20138526
H        1.32838907      -1.34574900      -0.18251645
H       -1.10330821      -2.27171391       0.61902060
H        1.36812006       0.43609440       1.57590378
H        0.21975224      -0.54180650       2.51334486
H        3.83542887       0.31167765       0.44696315
H       -2.92592496      -0.10388091      -1.43947947
H       -4.23572238       0.68206552      -1.73931692
24
Properties=species:S:1:pos:R:3 relative_energy_eV=0.4767444242243073 branch=right pbc="F F F"
O        0.01793915       0.77947546      -0.74495375
C       -0.50526199      -0.26715742      -0.18747753
O       -1.71245539      -0.53953035      -0.17166461
P       -2.78785949       2.32623003      -2.77659308
O       -2.57127771       2.17897953      -4.25299247
O       -4.09811746       2.81689140      -2.21127900
O       -1.57398023       2.31481950      -1.84826284
C        0.48113125      -1.20424939       0.49388895
O       -0.15826957      -2.44722634       0.75064136
C        1.03502441      -0.57242953       1.78304501
O        2.06612627      -1.35582474       2.33735336
P        3.64113787      -0.79701861       2.27796307
O        3.69179860       0.60790309       2.82881059
O        4.48114269      -1.93690067       2.75970918
O        3.83952473      -0.64253807       0.61508873
O       -3.55463537       0.12223879      -2.17643305
H       -0.70595229       1.37623976      -1.20984749
H        1.32950647      -1.35767567      -0.17536934
H       -1.10565389      -2.27401149       0.62959671
H        1.37008527       0.44511404       1.56887427
H        0.21993188      -0.52109051       2.51171827
H        3.83233702       0.30682206       0.44459183
H       -2.91907554      -0.11247100      -1.46295446
H       -4.22778744       0.67278321      -1.75269378
24
Properties=species:S:1:pos:R:3 relative_energy_eV=0.47637044225120917 branch=right pbc="F F F"
O        0.01248283       0.77653111      -0.74643620
C       -0.50720299      -0.27194711      -0.18932689
O       -1.71336751      -0.54888781      -0.17776774
P       -2.79016219       2.32961820      -2.77436027
O       -2.57952117       2.18702251      -4.25214922
O       -4.09914939       2.81694318      -2.20305088
O       -1.57423003       2.31960310      -1.84867352
C        0.48238380      -1.20436639       0.49667864
O       -0.15369787      -2.44769364       0.75848434
C        1.03679889      -0.56866339       1.78347228
O        2.06654857      -1.35174829       2.34132763
P        3.64303977      -0.79660228       2.28055288
O        3.69624627       0.60903467       2.82947918
O        4.48157822      -1.93679912       2.76475393
O        3.83901747      -0.64739932       0.61587876
O       -3.55470556       0.12411080      -2.18378912
H       -0.71113472       1.37447228      -1.21061550
H        1.32938364      -1.36149727      -0.17261924
H       -1.10088047      -2.27751402       0.63377839
H        1.37314686       0.44834918       1.56771169
H        0.21975128      -0.51786679       2.50977180
H        3.83718107       0.30123603       0.44133582
H       -2.92091400      -0.11466189      -1.47021370
H       -4.22723334       0.67809949      -1.76346296
24
Properties=species:S:1:pos:R:3 relative_energy_eV=0.476177036165609 branch=right pbc="F F F"
O        0.01365945       0.77226280      -0.75039816
C       -0.50701904      -0.27508179      -0.19190084
O       -1.71300228      -0.55299902      -0.18318492
P       -2.79176063       2.33426815      -2.76725949
O       -2.59344572       2.20511881      -4.24766016
O       -4.09771180       2.81175354      -2.18091448
O       -1.56780942       2.31958706      -1.85262655
C        0.48136231      -1.20540264       0.49940965
O       -0.15650372      -2.44667359       0.76617796
C        1.03615416      -0.56507723       1.78360769
O        2.06410178      -1.34656476       2.34736374
P        3.64254180      -0.79579438       2.28208839
O        3.70105210       0.61141757       2.82628624
O        4.47928967      -1.93664896       2.76750628
O        3.83842312      -0.65170752       0.61735167
O       -3.55108289       0.12094091      -2.19563459
H       -0.70954761       1.37093030      -1.21427003
H        1.32992705      -1.36387596      -0.16800615
H       -1.10327472      -2.27607144       0.63807088
H        1.37604192       0.44849868       1.55910360
H        0.21885847      -0.50677525       2.50922900
H        3.83705352       0.29660235       0.44122703
H       -2.91875823      -0.12249112      -1.48259814
H       -4.22318965       0.67315677      -1.77220839
24
Properties=species:S:1:pos:R:3 relative_energy_eV=0.475991921077366 branch=right pbc="F F F"
O        0.01134933       0.77261181      -0.74627819
C       -0.50864942      -0.27654183      -0.19087250
O       -1.71402858      -0.55714215      -0.18475755
P       -2.79168316       2.33574197      -2.76511721
O       -2.59399717       2.20740562      -4.24589801
O       -4.09757761       2.81026950      -2.17604943
O       -1.56645604       2.32165494      -1.85236973
C        0.48077566      -1.20624437       0.49932972
O       -0.15676738      -2.44846350       0.76256693
C        1.03754602      -0.56479928       1.78273360
O        2.06512005      -1.34707734       2.34639833
P        3.64271363      -0.79440884       2.28288190
O        3.69754731       0.61627724       2.81880477
O        4.47917896      -1.93165027       2.77752773
O        3.84079071      -0.65755845       0.61768463
O       -3.55020080       0.12199243      -2.19880031
H       -0.71034556       1.37212352      -1.21067802
H        1.32826172      -1.36385780      -0.16929223
H       -1.10379189      -2.27629479       0.63698287
H        1.37756272       0.44888566       1.55737710
H        0.22157008      -0.50286302       2.50939932
H        3.84242276       0.29048708       0.43982963
H       -2.92220515      -0.12511041      -1.48335102
H       -4.22377656       0.67393549      -1.77729206
24
Properties=species:S:1:pos:R:3 relative_energy_eV=0.47569695674610557 branch=right pbc="F F F"
O        0.01112990       0.76951463      -0.74457577
C       -0.50973185      -0.28245491      -0.19558898
O       -1.71414089      -0.56710743      -0.19776304
P       -2.79283426       2.34200183      -2.75246087
O       -2.60516982       2.23500869      -4.23588542
O       -4.09766577       2.80496899      -2.15196767
O       -1.56260269       2.32227114      -1.84644042
C        0.47909188      -1.20810757       0.50000562
O       -0.15810455      -2.44751532       0.77558143
C        1.03691295      -0.55655457       1.77762184
O        2.06050286      -1.33795357       2.34861980
P        3.63942136      -0.79089004       2.28592519
O        3.69843365       0.62506247       2.80706074
O        4.47031296      -1.92464556       2.79725585
O        3.84503844      -0.67219591       0.61983362
O       -3.54651455       0.11709246      -2.21206680
H       -0.70892671       1.37085332      -1.20910107
H        1.32552999      -1.37168092      -0.16938236
H       -1.10414495      -2.28016984       0.63782395
H        1.38366827       0.45232312       1.54296896
H        0.22237956      -0.48454337       2.50514836
H        3.85249830       0.27415055       0.43338505
H       -2.91774391      -0.13373827      -1.49862387
H       -4.22198043       0.66368326      -1.78661360
24
Properties=species:S:1:pos:R:3 relative_energy_eV=0.47540406061307294 branch=right pbc="F F F"
O        0.00733677       0.77510169      -0.73506339
C       -0.51160702      -0.28171514      -0.19350311
O       -1.71532737      -0.56888972      -0.19903230
P       -2.79310806       2.34430532      -2.75188468
O       -2.59909992       2.23628819      -4.23485337
O       -4.09960858       2.80505457      -2.15321021
O       -1.56535404       2.32415406      -1.84274461
C        0.47834071      -1.20900810       0.49841604
O       -0.15720085      -2.44890212       0.77587837
C        1.03835432      -0.55884566       1.77488096
O        2.06246958      -1.34069503       2.34468584
P        3.63940860      -0.78670500       2.28761033
O        3.68886224       0.63487397       2.79456039
O        4.46998066      -1.91312306       2.81546825
O        3.85528905      -0.68369100       0.62199321
O       -3.54698851       0.11661434      -2.21182673
H       -0.71305799       1.37532506      -1.20089192
H        1.32285274      -1.37096891      -0.17358074
H       -1.10310411      -2.28582517       0.63275480
H        1.38440829       0.45025141       1.53953887
H        0.22253878      -0.48772494       2.50117364
H        3.86476567       0.26052107       0.42553956
H       -2.92054578      -0.13085298      -1.49511380
H       -4.22424572       0.66383017      -1.79003484
24
Properties=species:S:1:pos:R:3 relative_energy_eV=0.47523654468386667 branch=right pbc="F F F"
O        0.00981518       0.76910538      -0.74011403
C       -0.51012560      -0.28715345      -0.19860184
O       -1.71319960      -0.57643615      -0.21121423
P       -2.79803625       2.35158999      -2.74021269
O       -2.61670139       2.26876380      -4.22607609
O       -4.10097108       2.79847873      -2.12373128
O       -1.56199243       2.32227246      -1.84291129
C        0.47691750      -1.21105025       0.50173515
O       -0.16239197      -2.44654149       0.78906386
C        1.03782234      -0.55078725       1.77218963
O        2.05865406      -1.32989929       2.35124469
P        3.63864325      -0.78461885       2.29108684
O        3.69207836       0.64023128       2.78782519
O        4.46554332      -1.90965073       2.82782849
O        3.85863291      -0.69601089       0.62476596
O       -3.53904385       0.11243434      -2.22753231
H       -0.71060289       1.37156223      -1.20342652
H        1.32131822      -1.38109514      -0.16838679
H       -1.10707319      -2.28457944       0.63659023
H        1.38583053       0.45513532       1.52758485
H        0.22131636      -0.47037648       2.49614062
H        3.86899458       0.24637857       0.41966628
H       -2.91030920      -0.13818323      -1.51393230
H       -4.21975953       0.64980362      -1.79882157
24
Properties=species:S:1:pos:R:3 relative_energy_eV=0.4750794343854068 branch=right pbc="F F F"
O        0.00748413       0.77261880      -0.73593471
C       -0.51141567      -0.28449841      -0.19515613
O       -1.71482020      -0.57347772      -0.20500868
P       -2.79873780       2.35166053      -2.74450193
O       -2.61482934       2.26673898      -4.23020639
O       -4.10297853       2.79947722      -2.13143952
O       -1.56449579       2.32238004      -1.84469908
C        0.47700592      -1.21114524       0.50042626
O       -0.16301274      -2.44801700       0.78164186
C        1.03810798      -0.55584779       1.77430440
O        2.06289144      -1.33415800       2.34807778
P        3.64101815      -0.78212438       2.29162853
O        3.68738843       0.64508994       2.78229530
O        4.47094211      -1.90122523       2.83582637
O        3.86678078      -0.70185190       0.62651741
O       -3.53908711       0.11384102      -2.22467569
H       -0.71349364       1.37223818      -1.20161355
H        1.32101326      -1.37880670      -0.17106723
H       -1.10775487      -2.28200534       0.63244822
H        1.38231277       0.45288487       1.53464994
H        0.22200389      -0.48191516       2.50009306
H        3.87201550       0.23905666       0.41507555
H       -2.91160087      -0.13358311      -1.50878336
H       -4.22137844       0.65204261      -1.79913778
