16
Properties=species:S:1:pos:R:3 relative_energy_eV=1.7359783948377299 branch=ts pbc="F F F"
O        2.87810139       0.89974524       1.24906026
C        1.76686339       0.90573692       0.60725943
C        1.40781044      -0.26995020      -0.13761322
O        2.23684999      -1.29958217       0.02028430
C        0.18538202      -0.39989260      -0.96249490
O       -0.82734853      -0.98082743      -0.16510963
P       -2.05765964       0.06479664       0.38255026
O       -2.81015976      -0.71131907       1.41939507
O       -1.42319105       1.41325091       0.56377947
O       -2.99235300       0.12731233      -1.00495468
H        1.26333554       1.84589263       0.32932936
H        0.87916366       0.23454203       1.07376588
H        2.94542862      -0.89217720       0.60739961
H       -0.09051794       0.58507971      -1.35015613
H        0.38021967      -1.06956387      -1.80474962
H       -3.74191766      -0.45305742      -0.82775491
