31
Properties=species:S:1:pos:R:3 relative_energy_eV=0.7374498563076486 branch=ts pbc="F F F"
O        0.59608193       3.84756280       2.53048227
C        0.01109011       2.89494654       2.05345818
C        0.67336400       1.98597307       1.05919505
O        2.04733866       2.29162800       0.96106024
C        0.00162076       2.16025897      -0.31718847
O       -1.41485569       2.21258174      -0.17914040
C        0.49197582       1.09125488      -1.30256433
O        0.22371486       1.48725894      -2.64385710
C       -0.10786995      -0.27401667      -0.99921907
O       -1.47384620      -0.24125669      -1.48892713
C        0.58746126      -1.45662382      -1.63577314
O       -0.08578498      -2.64655297      -1.31338128
O        0.07688109      -1.34872924       2.07565243
P        0.12462535      -2.84132165       1.89376021
O       -0.15232380      -3.81883970       2.97707926
O        1.02107664      -3.35215900       0.72144201
O       -1.59903829      -2.97983041       0.71106763
H       -1.03672538       2.67678689       2.30699772
H        0.53171136       0.95220262       1.41000824
H        2.18586165       3.03290418       1.57274362
H        0.32533322       3.13223104      -0.69517803
H       -1.77277644       1.37560612      -0.51204621
H        1.57504011       1.04490967      -1.18984091
H       -0.68268326       1.18753604      -2.80431611
H       -0.12515683      -0.43058560       0.08152615
H       -1.65563422      -1.16529569      -1.72674098
H        1.61985299      -1.48199576      -1.27445379
H        0.62225809      -1.31257008      -2.72354500
H       -1.14006427      -2.80290775      -0.20204975
H        0.54596699      -3.07660736      -0.30311724
H       -2.01446440      -2.14434676       0.95687773
