17
Properties=species:S:1:pos:R:3 relative_energy_eV=0.0 branch=left pbc="F F F"
C       -0.05525483      -1.36165928      -0.43240788
C       -0.74126628      -0.25697879      -0.10865138
O       -0.31486155       1.01542645      -0.14588345
P        1.18835452       1.52810448      -0.78947755
O        1.13723461       3.01105662      -0.64388418
O        2.27009987       0.63117281      -0.26175855
O        0.95876675       1.12418947      -2.38253295
C       -2.14025325      -0.34425062       0.38879886
O       -2.84040154       0.59339662       0.70177083
O       -2.61781689      -1.62862445       0.47709118
O        2.19159006      -0.46239863       2.31264689
H        0.96996604      -1.29367392      -0.74711109
H       -0.51299246      -2.33201321      -0.35066459
H        0.53736698       1.89227757      -2.78698335
H       -3.51998911      -1.51676871       0.81191816
H        1.23231852      -0.49808353       2.38838183
H        2.30800119      -0.07045545       1.42033125
17
Properties=species:S:1:pos:R:3 relative_energy_eV=0.00038077546196291223 branch=left pbc="F F F"
C       -0.05295190      -1.36760718      -0.43707589
C       -0.73741697      -0.26312910      -0.10997526
O       -0.30945731       1.00937671      -0.14291627
P        1.19062728       1.52456312      -0.78961167
O        1.14076175       3.00712340      -0.63596525
O        2.27438345       0.62489397      -0.27022249
O        0.95296879       1.12926599      -2.38391066
C       -2.13545046      -0.34779373       0.39081053
O       -2.82929547       0.59118586       0.71484686
O       -2.62044709      -1.62997091       0.46906148
O        2.17950480      -0.47641359       2.30420299
H        0.97038087      -1.29905048      -0.75773644
H       -0.50819899      -2.33839115      -0.34796807
H        0.53435012       1.90212202      -2.78220424
H       -3.52067759      -1.51520627       0.80838642
H        1.22299564      -0.43984524       2.40770282
H        2.29878558      -0.08040609       1.41415939
17
Properties=species:S:1:pos:R:3 relative_energy_eV=0.0005725898736272939 branch=left pbc="F F F"
C       -0.04972663      -1.36752824      -0.43445525
C       -0.73423647      -0.26312563      -0.10649006
O       -0.30611414       1.00909776      -0.13815775
P        1.19162738       1.52584250      -0.78906399
O        1.13981694       3.00824884      -0.63691886
O        2.27742816       0.62845290      -0.27078209
O        0.95058332       1.12841622      -2.38195728
C       -2.13339867      -0.34648013       0.38960924
O       -2.82755757       0.59402400       0.70760042
O       -2.61957010      -1.62780368       0.46954962
O        2.17561642      -0.47779049       2.30291902
H        0.97188403      -1.29851146      -0.76122418
H       -0.50283224      -2.33935617      -0.34265818
H        0.52269836       1.89680623      -2.77875293
H       -3.52090142      -1.51073463       0.80501020
H        1.21990252      -0.44155201       2.40729094
H        2.29564281      -0.08728851       1.41006537
17
Properties=species:S:1:pos:R:3 relative_energy_eV=0.0012153644056525081 branch=left pbc="F F F"
C       -0.04399730      -1.36312936      -0.41848574
C       -0.73272991      -0.25826683      -0.10301132
O       -0.30648130       1.01447194      -0.13950757
P        1.19190563       1.53301371      -0.78776360
O        1.13332877       3.01531989      -0.63741670
O        2.28061366       0.64002134      -0.26738915
O        0.95993551       1.12850207      -2.38029870
C       -2.13442177      -0.34274653       0.38630098
O       -2.83303667       0.59697417       0.69742347
O       -2.61711758      -1.62532643       0.46934094
O        2.17151475      -0.50294692       2.28346059
H        0.98305665      -1.29489772      -0.72647099
H       -0.49979356      -2.33393460      -0.33233294
H        0.50493071       1.88116251      -2.77786515
H       -3.52125456      -1.51004524       0.79781899
H        1.21734857      -0.44251273       2.39266730
H        2.29706139      -0.10494182       1.39511392
17
Properties=species:S:1:pos:R:3 relative_energy_eV=0.0015701643205829896 branch=left pbc="F F F"
C       -0.04868362      -1.36393485      -0.42748556
C       -0.73478622      -0.25957709      -0.10574903
O       -0.30687720       1.01286190      -0.13778662
P        1.19241800       1.52992401      -0.78469220
O        1.13611635       3.01168442      -0.63334739
O        2.27926371       0.63658703      -0.26245193
O        0.96175750       1.12623003      -2.37654447
C       -2.13412058      -0.34572251       0.38816675
O       -2.82932337       0.59228853       0.70989812
O       -2.61806835      -1.62845849       0.46257874
O        2.16738248      -0.50900395       2.28319231
H        0.97870974      -1.29717013      -0.73526874
H       -0.50799543      -2.33341958      -0.34758204
H        0.50800768       1.87952834      -2.77415861
H       -3.51962142      -1.51490903       0.79812263
H        1.21967046      -0.39015489       2.39959815
H        2.30701298      -0.11603660       1.39509431
17
Properties=species:S:1:pos:R:3 relative_energy_eV=0.002775255914457375 branch=left pbc="F F F"
C       -0.06398750      -1.37885836      -0.47099654
C       -0.73527126      -0.27503552      -0.11644036
O       -0.29898698       0.99535676      -0.14041706
P        1.20304406       1.51103759      -0.78383854
O        1.15810750       2.99120424      -0.60816629
O        2.28266671       0.59739177      -0.28034147
O        0.96708205       1.13963051      -2.38381457
C       -2.12441995      -0.36059477       0.40760782
O       -2.80399569       0.57393599       0.77304465
O       -2.61967877      -1.64040187       0.45551162
O        2.13885685      -0.47611460       2.30387604
H        0.96147879      -1.31515695      -0.78593020
H       -0.53298435      -2.34549258      -0.41263947
H        0.53175429       1.91086572      -2.76850246
H       -3.51469462      -1.52811199       0.80920176
H        1.21835229      -0.23748557       2.45742331
H        2.28353855      -0.13145407       1.39600670
17
Properties=species:S:1:pos:R:3 relative_energy_eV=0.003841463283606572 branch=left pbc="F F F"
C       -0.06901017      -1.37728103      -0.48411399
C       -0.73764065      -0.27457779      -0.12077611
O       -0.30016190       0.99608221      -0.13576720
P        1.20208838       1.50804676      -0.78023231
O        1.16171948       2.98909759      -0.61036158
O        2.28052485       0.59560787      -0.27195916
O        0.96239950       1.13109464      -2.37845269
C       -2.12525493      -0.36259950       0.40561735
O       -2.80271034       0.56912838       0.78112847
O       -2.62228144      -1.64174873       0.44355270
O        2.13527530      -0.49263282       2.30562605
H        0.95633134      -1.31512975      -0.79970496
H       -0.54055701      -2.34280118      -0.42836448
H        0.52889154       1.90174339      -2.76445216
H       -3.51299603      -1.53285397       0.80839849
H        1.23886348      -0.18578751       2.47536306
H        2.29538034      -0.13467253       1.40608349
17
Properties=species:S:1:pos:R:3 relative_energy_eV=0.004790388396941125 branch=left pbc="F F F"
C       -0.07204398      -1.37646601      -0.49416036
C       -0.73714434      -0.27402688      -0.12145115
O       -0.29638703       0.99604917      -0.13115572
P        1.20437948       1.50636561      -0.77968218
O        1.16618171       2.98765006      -0.61169033
O        2.28192275       0.59006990      -0.27536042
O        0.96032444       1.12666493      -2.37685980
C       -2.12455991      -0.36292342       0.40562692
O       -2.80072272       0.56717524       0.78777313
O       -2.62302596      -1.64193309       0.43365966
O        2.13946443      -0.49341311       2.31028081
H        0.95340918      -1.31530408      -0.81233606
H       -0.54778776      -2.34167008      -0.44900206
H        0.51888432       1.89028156      -2.76591911
H       -3.51165130      -1.53687126       0.80450168
H        1.26193841      -0.15575292       2.51970373
H        2.27767998      -0.13517952       1.40765617
17
Properties=species:S:1:pos:R:3 relative_energy_eV=0.005543623752600979 branch=left pbc="F F F"
C       -0.09009636      -1.39369180      -0.54719208
C       -0.74011906      -0.29590350      -0.13782492
O       -0.29322380       0.97173593      -0.13764392
P        1.21094967       1.48246226      -0.77729594
O        1.18596469       2.96072353      -0.57955656
O        2.27887388       0.54768039      -0.28749580
O        0.96505098       1.14066100      -2.38294674
C       -2.11390738      -0.38334816       0.42489784
O       -2.76467595       0.54339955       0.85651161
O       -2.63312912      -1.65442317       0.42485181
O        2.10693441      -0.44404968       2.33963241
H        0.92531199      -1.32661863      -0.89251532
H       -0.56325290      -2.35863544      -0.49705208
H        0.56406039       1.93325092      -2.75864272
H       -3.51044654      -1.54506426       0.82091619
H        1.28592211       0.00251544       2.57093914
H        2.23664416      -0.14997892       1.41200254
17
Properties=species:S:1:pos:R:3 relative_energy_eV=0.005865997925866395 branch=left pbc="F F F"
C       -0.09667887      -1.39791349      -0.56382092
C       -0.73849439      -0.29964475      -0.14165614
O       -0.28648187       0.96639036      -0.13606215
P        1.21854606       1.47591958      -0.77459546
O        1.19687867       2.95329007      -0.57034460
O        2.28275026       0.53393189      -0.29018432
O        0.97127038       1.14342365      -2.38193191
C       -2.10866125      -0.38552703       0.42935879
O       -2.75558480       0.54132149       0.86626912
O       -2.62889644      -1.65617771       0.42904348
O        2.09720834      -0.42749568       2.34865600
H        0.91604915      -1.33106552      -0.91874850
H       -0.57295491      -2.36252773      -0.51658848
H        0.55045516       1.93058888      -2.74807960
H       -3.50772184      -1.54505371       0.82067635
H        1.28479933       0.03410882       2.58124438
H        2.22837810      -0.14285387       1.41834938
17
Properties=species:S:1:pos:R:3 relative_energy_eV=0.006138450917205773 branch=left pbc="F F F"
C       -0.09826723      -1.40144527      -0.56553285
C       -0.74142440      -0.30366809      -0.14583757
O       -0.29407314       0.96328919      -0.15223796
P        1.21649614       1.47431231      -0.77617264
O        1.19480827       2.95038644      -0.56194155
O        2.27772006       0.52965076      -0.29090792
O        0.98103855       1.15209129      -2.38741670
C       -2.10877819      -0.38862299       0.43266121
O       -2.75030785       0.53859740       0.87684552
O       -2.63483514      -1.65660425       0.42799135
O        2.09889938      -0.42447471       2.35130773
H        0.91268353      -1.33446640      -0.92393386
H       -0.57037540      -2.36672292      -0.51038424
H        0.56181009       1.94193967      -2.75044723
H       -3.51184194      -1.54367833       0.82376317
H        1.28877862       0.04126388       2.58356345
H        2.22852969      -0.14113281       1.42026550
17
Properties=species:S:1:pos:R:3 relative_energy_eV=0.007016965813818388 branch=left pbc="F F F"
C       -0.10191813      -1.40963087      -0.58115158
C       -0.73807767      -0.31072101      -0.15315132
O       -0.28733884       0.95498769      -0.15370243
P        1.22468264       1.46558413      -0.77728871
O        1.20691406       2.93913452      -0.54531566
O        2.28236160       0.50940927      -0.30672038
O        0.98478970       1.16441845      -2.39232070
C       -2.10257702      -0.39475383       0.43402550
O       -2.73378902       0.52950337       0.89842017
O       -2.63724458      -1.65883464       0.42277383
O        2.07608060      -0.40037637       2.36420508
H        0.90739082      -1.34620474      -0.94486428
H       -0.58474440      -2.36984534      -0.53180954
H        0.56422656       1.95921282      -2.74324072
H       -3.50215552      -1.54771320       0.84546488
H        1.27606797       0.08682358       2.58813567
H        2.21619201      -0.14027915       1.42812594
17
Properties=species:S:1:pos:R:3 relative_energy_eV=0.007974321910296567 branch=left pbc="F F F"
C       -0.11119256      -1.41676858      -0.60627818
C       -0.73593491      -0.31862402      -0.15919101
O       -0.27250454       0.94278910      -0.14676044
P        1.23625356       1.45266200      -0.77873164
O        1.23178136       2.92341429      -0.52805546
O        2.28940324       0.48371179      -0.32478989
O        0.97918095       1.17373741      -2.39470908
C       -2.09199684      -0.40147087       0.44480542
O       -2.71352902       0.52241622       0.92324037
O       -2.62961529      -1.66516193       0.42614156
O        2.04265891      -0.37294047       2.37839528
H        0.90049470      -1.35456254      -0.96499095
H       -0.59912577      -2.37601645      -0.57397850
H        0.56161766       1.97482190      -2.73481303
H       -3.48817577      -1.55294748       0.86000509
H        1.26244754       0.14886273       2.59254034
H        2.18909714      -0.13320894       1.43875634
17
Properties=species:S:1:pos:R:3 relative_energy_eV=0.009699384761916008 branch=left pbc="F F F"
C       -0.12128781      -1.42715369      -0.63794744
C       -0.72995225      -0.33169962      -0.16202412
O       -0.26175829       0.92752821      -0.14166315
P        1.24787574       1.43115465      -0.77205543
O        1.26404225       2.89817812      -0.50063690
O        2.29283082       0.44509978      -0.33514065
O        0.97084009       1.18273742      -2.38996831
C       -2.07759469      -0.41300359       0.46337684
O       -2.68698498       0.50558051       0.96644396
O       -2.62025609      -1.67312543       0.43734488
O        1.99021545      -0.32367931       2.38031122
H        0.88649920      -1.37123395      -1.00677909
H       -0.61834319      -2.38165948      -0.62097870
H        0.59473672       2.00925171      -2.71535661
H       -3.47708021      -1.57088637       0.87737844
H        1.24264050       0.25002230       2.57598081
H        2.15443652      -0.12639768       1.43330122
17
Properties=species:S:1:pos:R:3 relative_energy_eV=0.010408677444502246 branch=left pbc="F F F"
C       -0.12612645      -1.42890728      -0.65217281
C       -0.72821413      -0.33714913      -0.16027437
O       -0.25298522       0.92010124      -0.12663336
P        1.25368363       1.42146970      -0.76727261
O        1.27876299       2.88699771      -0.48741713
O        2.29482211       0.42602764      -0.34195029
O        0.97109262       1.18308937      -2.38550968
C       -2.07104940      -0.42221415       0.47205560
O       -2.67602637       0.49703067       0.97955716
O       -2.61651608      -1.68228678       0.44225175
O        1.96569805      -0.30170352       2.37880689
H        0.87888040      -1.37248136      -1.03050438
H       -0.63105191      -2.37958569      -0.64216775
H        0.60708842       2.01696592      -2.70625160
H       -3.47107491      -1.57406724       0.88476239
H        1.23339326       0.29499926       2.56343160
H        2.14048257      -0.11757308       1.43087592
17
Properties=species:S:1:pos:R:3 relative_energy_eV=0.010783769739646232 branch=left pbc="F F F"
C       -0.12853281      -1.42902858      -0.65963360
C       -0.72777120      -0.33958184      -0.15952127
O       -0.25057284       0.91669330      -0.12440398
P        1.25806117       1.41602401      -0.76385165
O        1.28617473       2.88039550      -0.47982873
O        2.29827154       0.41809582      -0.34180541
O        0.97300431       1.18317982      -2.38214132
C       -2.07076309      -0.42561502       0.47348294
O       -2.67594898       0.49078443       0.98604832
O       -2.61899387      -1.68410585       0.44285205
O        1.95585647      -0.29086817       2.37723686
H        0.87470411      -1.36778754      -1.04054249
H       -0.63008423      -2.38138150      -0.65181943
H        0.61003623       2.01819420      -2.70123659
H       -3.46922624      -1.57278870       0.89367347
H        1.22784771       0.31322535       2.55386538
H        2.13879640      -0.11472216       1.42921295
17
Properties=species:S:1:pos:R:3 relative_energy_eV=0.011045830287912395 branch=left pbc="F F F"
C       -0.13046080      -1.42882242      -0.66351915
C       -0.72955052      -0.34044424      -0.16058703
O       -0.24719687       0.91388431      -0.11733412
P        1.26020847       1.41351024      -0.76129392
O        1.28873506       2.87742160      -0.47488535
O        2.30172879       0.41557233      -0.34252662
O        0.97528227       1.18138534      -2.38013878
C       -2.07248952      -0.42427198       0.47356054
O       -2.67545910       0.49272042       0.98759863
O       -2.62005072      -1.68273925       0.44207316
O        1.95113646      -0.28530064       2.37689425
H        0.87120005      -1.36601275      -1.04870375
H       -0.62861508      -2.38280823      -0.65571955
H        0.60981484       2.01592947      -2.69776580
H       -3.46802736      -1.57813567       0.89845276
H        1.22400370       0.32202022       2.54604266
H        2.14059971      -0.11319584       1.42943962
17
Properties=species:S:1:pos:R:3 relative_energy_eV=0.01175979135587113 branch=left pbc="F F F"
C       -0.13234319      -1.42847603      -0.66865666
C       -0.72835812      -0.34124891      -0.16143178
O       -0.24483616       0.91252533      -0.11646675
P        1.26193544       1.41281020      -0.75757199
O        1.28694246       2.87708929      -0.47099124
O        2.30459126       0.41400096      -0.34203817
O        0.97202790       1.17838438      -2.37481932
C       -2.06966323      -0.42515999       0.47309196
O       -2.66813953       0.49647731       0.98337677
O       -2.62081088      -1.68307704       0.44146186
O        1.94889326      -0.27966081       2.38213262
H        0.86760917      -1.36155295      -1.05707527
H       -0.63025158      -2.38256409      -0.65568415
H        0.60461037       2.01143416      -2.69452516
H       -3.46717115      -1.57963167       0.90115426
H        1.21927041       0.32930634       2.53523015
H        2.14655292      -0.11994359       1.43440042
17
Properties=species:S:1:pos:R:3 relative_energy_eV=0.014288885467976797 branch=left pbc="F F F"
C       -0.13069069      -1.43011802      -0.67695017
C       -0.72256002      -0.34516500      -0.15721108
O       -0.23616806       0.90596502      -0.10059801
P        1.26289919       1.41067473      -0.75916681
O        1.28108658       2.87688689      -0.48320793
O        2.31159727       0.42121191      -0.34087064
O        0.95914781       1.17414235      -2.37370587
C       -2.06714332      -0.42577511       0.47409138
O       -2.67061134       0.49474997       0.98125737
O       -2.61515225      -1.68416664       0.45147828
O        1.93983224      -0.27316331       2.40447988
H        0.86142984      -1.36120147      -1.08720872
H       -0.62911361      -2.38460703      -0.66432191
H        0.59824635       2.01347655      -2.68382433
H       -3.46925941      -1.56751279       0.89368124
H        1.21667293       0.35180236       2.51509324
H        2.16064609      -0.14648752       1.45857165
17
Properties=species:S:1:pos:R:3 relative_energy_eV=0.01765975995294866 branch=left pbc="F F F"
C       -0.13417138      -1.42418402      -0.69505079
C       -0.71283954      -0.34299340      -0.15335873
O       -0.21845325       0.90395543      -0.06933412
P        1.27293484       1.41233588      -0.75224310
O        1.29914306       2.88072904      -0.48833868
O        2.32176716       0.41963428      -0.34334153
O        0.95145249       1.16515256      -2.36148313
C       -2.05747328      -0.42700755       0.47681875
O       -2.67265747       0.49681207       0.96353602
O       -2.60722521      -1.68300422       0.45596982
O        1.92905956      -0.26247567       2.41383516
H        0.85590161      -1.37105822      -1.10708673
H       -0.63604473      -2.37510927      -0.69038791
H        0.55562892       1.98621476      -2.67532043
H       -3.46504746      -1.56505313       0.89208540
H        1.20567121       0.36421654       2.51541500
H        2.16321307      -0.14745231       1.46987260
17
Properties=species:S:1:pos:R:3 relative_energy_eV=0.03139937048399588 branch=left pbc="F F F"
C       -0.13522336      -1.40905166      -0.71843209
C       -0.69103293      -0.33914297      -0.13350581
O       -0.15784468       0.89077595      -0.00388398
P        1.30613814       1.40174889      -0.74727737
O        1.34032094       2.87367182      -0.49462303
O        2.36922432       0.41279277      -0.36156184
O        0.92604862       1.13084848      -2.34518365
C       -2.04940428      -0.41994809       0.46913863
O       -2.67464951       0.51118550       0.92806376
O       -2.57702577      -1.69042150       0.48386559
O        1.90015495      -0.25360816       2.43502522
H        0.85033430      -1.34865276      -1.14488417
H       -0.67175730      -2.33992819      -0.77577275
H        0.43971056       1.90811750      -2.64498986
H       -3.45677592      -1.57038800       0.87242377
H        1.18906203       0.38845712       2.53543817
H        2.14357948      -0.11574414       1.49774698
17
Properties=species:S:1:pos:R:3 relative_energy_eV=0.045476869512640405 branch=left pbc="F F F"
C       -0.13816602      -1.39440650      -0.74665504
C       -0.67792734      -0.33361562      -0.12598136
O       -0.13465159       0.88680311       0.02362288
P        1.32134663       1.38465421      -0.74655336
O        1.34826346       2.85331872      -0.49035433
O        2.39487569       0.40116176      -0.38411867
O        0.92009377       1.10198865      -2.33116833
C       -2.03639901      -0.40450163       0.47409886
O       -2.68661235       0.52455236       0.90405894
O       -2.54988263      -1.67702050       0.48279568
O        1.88456382      -0.23534394       2.44110392
H        0.85635729      -1.33371610      -1.15670100
H       -0.68673885      -2.31790246      -0.83177408
H        0.36286396       1.84455687      -2.59231235
H       -3.42912826      -1.56619335       0.87081098
H        1.16780092       0.39607696       2.55509914
H        2.13420009      -0.09970004       1.50561573
17
Properties=species:S:1:pos:R:3 relative_energy_eV=0.06405930041000829 branch=left pbc="F F F"
C       -0.13946503      -1.37973421      -0.77336469
C       -0.67663517      -0.31334347      -0.16589395
O       -0.11552238       0.88950379       0.03507141
P        1.34735601       1.38311579      -0.72618556
O        1.37738996       2.84949039      -0.46212838
O        2.40418693       0.37996927      -0.37028356
O        0.93426607       1.09607619      -2.30270315
C       -2.03255093      -0.39538024       0.43394262
O       -2.67256608       0.53073231       0.88209477
O       -2.54216210      -1.66914572       0.47186546
O        1.89271618      -0.19539167       2.44558487
H        0.85670236      -1.35384259      -1.17147986
H       -0.70186785      -2.29048884      -0.85598463
H        0.26210156       1.75778271      -2.52416175
H       -3.39824845      -1.56284727       0.91226731
H        1.12824666       0.38619435       2.52050920
H        2.12691182      -0.08197828       1.50243742
17
Properties=species:S:1:pos:R:3 relative_energy_eV=0.08352747757817269 branch=left pbc="F F F"
C       -0.13895814      -1.37775498      -0.80067117
C       -0.67720379      -0.32343897      -0.17480234
O       -0.12259442       0.88557885       0.01644085
P        1.36026229       1.38100966      -0.70357329
O        1.43948856       2.83935125      -0.41131771
O        2.40550719       0.36825785      -0.33184599
O        0.96484460       1.13532570      -2.29948991
C       -2.03497563      -0.38797713       0.42006967
O       -2.66259889       0.55213099       0.85690059
O       -2.55026346      -1.65767167       0.46664456
O        1.89783089      -0.14048453       2.44476286
H        0.86143450      -1.34336375      -1.19184027
H       -0.70390375      -2.28629224      -0.88622248
H        0.15667052       1.64627602      -2.47468394
H       -3.37841531      -1.55199315       0.95652634
H        1.07445237       0.35963493       2.46208897
H        2.15928205      -0.06787640       1.50260076
17
Properties=species:S:1:pos:R:3 relative_energy_eV=0.1097711081711168 branch=left pbc="F F F"
C       -0.13458092      -1.38472243      -0.79752526
C       -0.67770665      -0.32475082      -0.17657176
O       -0.14122060       0.90237114      -0.01845808
P        1.36760428       1.38707789      -0.69506914
O        1.46355114       2.83234187      -0.34795292
O        2.37788646       0.33311888      -0.33862578
O        0.99906697       1.18005794      -2.30581124
C       -2.02974344      -0.38215809       0.43345055
O       -2.66105054       0.56699921       0.84582669
O       -2.55497261      -1.64817040       0.49324864
O        1.89704262      -0.11506246       2.45197781
H        0.85735050      -1.29858827      -1.20494461
H       -0.67075840      -2.31487292      -0.93683513
H        0.10618949       1.53240606      -2.43906667
H       -3.39079144      -1.52536839       0.96918604
H        1.04493700       0.32859513       2.39519359
H        2.19805575      -0.03856189       1.52356474
17
Properties=species:S:1:pos:R:3 relative_energy_eV=0.15238987059274223 branch=left pbc="F F F"
C       -0.13980626      -1.36293198      -0.83459649
C       -0.69807475      -0.32320015      -0.19895076
O       -0.16337727       0.89795143      -0.04299884
P        1.37845656       1.37826862      -0.68008734
O        1.47245300       2.80123186      -0.26913303
O        2.38704058       0.31201579      -0.35751111
O        1.03924842       1.26515793      -2.29798565
C       -2.03976105      -0.38435867       0.44020660
O       -2.66426823       0.57150606       0.84558461
O       -2.55509051      -1.64683636       0.55201993
O        1.89033381      -0.08226167       2.44461966
H        0.85930362      -1.27114718      -1.22605659
H       -0.65031102      -2.30721891      -0.91816952
H        0.08833340       1.39260732      -2.41505631
H       -3.42315026      -1.50606175       0.96241145
H        1.01223008       0.28733662       2.30418272
H        2.25729950       0.00865342       1.54310811
17
Properties=species:S:1:pos:R:3 relative_energy_eV=0.20607884748096694 branch=left pbc="F F F"
C       -0.17606192      -1.36712094      -0.83401520
C       -0.69387524      -0.31057601      -0.19755059
O       -0.14369367       0.89789138      -0.03654334
P        1.39247854       1.40889281      -0.64967114
O        1.49857539       2.80042471      -0.13657283
O        2.40845414       0.34389072      -0.35790595
O        1.05752212       1.30164799      -2.27607616
C       -2.03956979      -0.38243837       0.43327195
O       -2.68394448       0.56475218       0.82768995
O       -2.53674172      -1.65432768       0.55148813
O        1.87958558      -0.03143539       2.40803468
H        0.79515373      -1.31355144      -1.28775250
H       -0.70712400      -2.29992125      -0.83492301
H        0.10963302       1.28413159      -2.43768087
H       -3.40909934      -1.52123399       0.95305335
H        0.98302551       0.24656568       2.18870821
H        2.31654172       0.06312040       1.53803272
17
Properties=species:S:1:pos:R:3 relative_energy_eV=0.2525908466959663 branch=left pbc="F F F"
C       -0.20381380      -1.38578711      -0.81013603
C       -0.69525364      -0.31059569      -0.17753175
O       -0.13673575       0.89911530      -0.00531129
P        1.40948875       1.41069214      -0.61352272
O        1.49354774       2.81702298      -0.12962340
O        2.43927033       0.34111760      -0.35462074
O        1.09503189       1.38057806      -2.24720044
C       -2.05204148      -0.37142747       0.43111375
O       -2.70960123       0.57209780       0.81004711
O       -2.52583446      -1.65469972       0.52086951
O        1.87360812       0.00340168       2.38366935
H        0.73112662      -1.35678504      -1.34485980
H       -0.75770793      -2.31182816      -0.77783477
H        0.15402083       1.23421134      -2.41232295
H       -3.38401250      -1.56190420       0.95636086
H        0.98153617       0.22194293       2.09311069
H        2.33823000       0.10356012       1.52938005
17
Properties=species:S:1:pos:R:3 relative_energy_eV=0.49355899036163464 branch=left pbc="F F F"
C       -0.25413125      -1.40033949      -0.82574084
C       -0.71224660      -0.31118549      -0.19346300
O       -0.09834104       0.86931050      -0.05247317
P        1.47519030       1.45904589      -0.65144623
O        1.57107930       2.85265202      -0.19674183
O        2.46718039       0.39272491      -0.34336127
O        1.16694036       1.48366579      -2.24993575
C       -2.09526962      -0.38425545       0.42590069
O       -2.77253940       0.53975955       0.81592887
O       -2.58563675      -1.67936299       0.51892106
O        1.86857471       0.03376882       2.35891484
H        0.68240571      -1.38856345      -1.35552885
H       -0.77642059      -2.34422527      -0.72741982
H        0.21228064       1.21692026      -2.23163819
H       -3.43373671      -1.63644749       0.99682866
H        0.97316340       0.20753659       2.04422509
H        2.36236710       0.11970811       1.51861709
17
Properties=species:S:1:pos:R:3 relative_energy_eV=1.2032691722852178 branch=left pbc="F F F"
C       -0.31489432      -1.45691886      -0.82339855
C       -0.85162233      -0.33455071      -0.28654039
O       -0.31811828       0.89079684      -0.26741013
P        1.72732305       1.60008289      -0.70751518
O        1.85833241       3.00160061      -0.23563406
O        2.69132952       0.50203129      -0.37860614
O        1.16202460       1.51751606      -2.22753567
C       -2.19979577      -0.46327319       0.42253489
O       -2.85301909       0.45802136       0.85475317
O       -2.66211458      -1.75537827       0.54937386
O        1.86736743       0.06463079       2.33664599
H        0.62985349      -1.42676466      -1.33840893
H       -0.78306701      -2.42101410      -0.69539041
H        0.26074119       1.20301868      -1.91232119
H       -3.49824403      -1.67445412       1.03742477
H        0.96790245       0.19745129       2.01969096
H        2.36686139       0.12791730       1.50392422
17
Properties=species:S:1:pos:R:3 relative_energy_eV=1.293491218748386 branch=ts pbc="F F F"
C       -0.33146847      -1.47493073      -0.80903343
C       -0.90887901      -0.34848986      -0.31285905
O       -0.45342148       0.87500744      -0.37952892
P        1.90892656       1.67884158      -0.77313272
O        1.95230857       3.05039496      -0.21647211
O        2.76364010       0.52773521      -0.36884716
O        1.12047999       1.49800232      -2.14461196
C       -2.22903838      -0.48533373       0.42142884
O       -2.88574379       0.42700191       0.87410133
O       -2.67665149      -1.77749829       0.55784670
O        1.86575474       0.07070080       2.32611800
H        0.61045282      -1.44034897      -1.33659976
H       -0.78341170      -2.44323779      -0.67143512
H        0.22074478       1.18437477      -1.72512926
H       -3.50721236      -1.67826444       1.04777922
H        0.96408213       0.19585628       2.01175817
H        2.36921915       0.13997519       1.49901177
17
Properties=species:S:1:pos:R:3 relative_energy_eV=1.0251483391293732 branch=right pbc="F F F"
C       -0.35137325      -1.47897665      -0.79720928
C       -1.00036311      -0.41062224      -0.37823870
O       -0.66457289       0.88371615      -0.63567280
P        2.16366481       1.76959075      -0.90115828
O        2.07305635       3.10030364      -0.20479152
O        2.86955458       0.57759431      -0.36512816
O        1.16984438       1.51782539      -2.01994955
C       -2.24467133      -0.49914801       0.42112138
O       -2.87286444       0.42435260       0.88681796
O       -2.68085884      -1.79537841       0.56767552
O        1.85601705       0.06738288       2.32208305
H        0.59410174      -1.43221931      -1.32912684
H       -0.77646843      -2.46362229      -0.64924595
H       -0.00303034       1.04826315      -1.33095162
H       -3.51097992      -1.69107697       1.05803991
H        0.95744061       0.19866556       2.00851858
H        2.37020736       0.15221001       1.49641799
17
Properties=species:S:1:pos:R:3 relative_energy_eV=0.7017920104262885 branch=right pbc="F F F"
C       -0.35429351      -1.47324081      -0.81762752
C       -1.03305058      -0.38574069      -0.41333572
O       -0.75669069       0.89103145      -0.63086114
P        2.11108715       1.75722133      -0.87283559
O        2.14945439       3.08964837      -0.20761161
O        2.91715594       0.60894745      -0.34390204
O        1.23342762       1.51188283      -2.09115252
C       -2.26580637      -0.51674257       0.40718315
O       -2.88170510       0.40806230       0.90121224
O       -2.69868660      -1.80846949       0.57505681
O        1.86339719       0.05422322       2.30616682
H        0.59029674      -1.41220196      -1.32556843
H       -0.75161024      -2.45518057      -0.63434777
H        0.01781501       1.02476413      -1.28211540
H       -3.52093087      -1.70576178       1.07916323
H        0.95678110       0.20415814       2.01550921
H        2.37206311       0.17625914       1.48426802
17
Properties=species:S:1:pos:R:3 relative_energy_eV=0.5881994554692938 branch=right pbc="F F F"
C       -0.38419408      -1.44431287      -0.82293593
C       -1.13343414      -0.38569783      -0.47093414
O       -0.90489068       0.89401491      -0.75553572
P        2.24065768       1.75973768      -0.82873029
O        2.29572136       3.15282487      -0.29054733
O        3.04218074       0.59318449      -0.31526109
O        1.29486914       1.46103622      -1.97774310
C       -2.34036507      -0.55520927       0.39283660
O       -2.93380337       0.35251551       0.93240435
O       -2.75436016      -1.85396099       0.56568396
O        1.88224538       0.02210067       2.26043913
H        0.55782413      -1.31013553      -1.33024504
H       -0.69570900      -2.45096394      -0.58750331
H       -0.02367771       1.03930794      -1.23794649
H       -3.52873852      -1.77044317       1.14669565
H        0.96986096       0.22080635       2.02589997
H        2.36451764       0.24405481       1.44262481
17
Properties=species:S:1:pos:R:3 relative_energy_eV=0.515949573040416 branch=right pbc="F F F"
C       -0.40474469      -1.40594411      -0.81783626
C       -1.20400356      -0.37870940      -0.48561753
O       -1.01996900       0.90134030      -0.81887867
P        2.31997842       1.74915365      -0.81481994
O        2.47743256       3.16279720      -0.35396551
O        3.16053006       0.64190814      -0.23438751
O        1.28145224       1.37753974      -1.86627355
C       -2.39456247      -0.57567579       0.38620213
O       -2.99482791       0.31824627       0.94120848
O       -2.77280495      -1.88294597       0.53883845
O        1.89783249       0.01621047       2.23120400
H        0.52293796      -1.22707385      -1.34764768
H       -0.64669161      -2.42598716      -0.54470350
H       -0.13350379       1.04080125      -1.27744326
H       -3.50281995      -1.83301835       1.17454719
H        0.98353894       0.23572090       2.02413763
H        2.37892962       0.25449567       1.41463793
17
Properties=species:S:1:pos:R:3 relative_energy_eV=0.4773543184164737 branch=right pbc="F F F"
C       -0.40865514      -1.34838219      -0.81108963
C       -1.25476716      -0.35426255      -0.50238673
O       -1.16188130       0.92109798      -0.88233769
P        2.38605864       1.72926902      -0.78844965
O        2.59961826       3.17736054      -0.50035787
O        3.24359551       0.65523266      -0.17145276
O        1.28582946       1.29121818      -1.73422060
C       -2.42269946      -0.58596732       0.38050726
O       -3.06923032       0.27794181       0.92762593
O       -2.72955225      -1.90955468       0.54686219
O        1.90202231       0.03471396       2.24682067
H        0.49154462      -1.15831324      -1.36900812
H       -0.61320491      -2.35822353      -0.49709923
H       -0.24868969       1.07869948      -1.25947806
H       -3.48784845      -1.90564250       1.14977297
H        1.00296312       0.25074843       1.97588751
H        2.43360104       0.17292192       1.43760657
17
Properties=species:S:1:pos:R:3 relative_energy_eV=0.4684585136419628 branch=right pbc="F F F"
C       -0.40303722      -1.34360737      -0.81266528
C       -1.24525342      -0.34728131      -0.49522338
O       -1.14719653       0.93745461      -0.84622311
P        2.36955783       1.72439071      -0.80538106
O        2.58577432       3.17472802      -0.51807237
O        3.21060962       0.65177356      -0.16276675
O        1.28668557       1.29084957      -1.77756461
C       -2.41904691      -0.58794620       0.38107943
O       -3.08714281       0.27351595       0.90651839
O       -2.70800374      -1.91258675       0.56938661
O        1.89456635       0.03102431       2.27326627
H        0.50146832      -1.15208161      -1.36521714
H       -0.60768846      -2.35522723      -0.49688980
H       -0.24991645       1.10398460      -1.25564311
H       -3.49470043      -1.90261218       1.13634623
H        1.01380120       0.23678332       1.94181367
H        2.44822687       0.14569605       1.47643873
17
Properties=species:S:1:pos:R:3 relative_energy_eV=0.45916088309604675 branch=right pbc="F F F"
C       -0.39320948      -1.30997257      -0.79829638
C       -1.25341784      -0.33277736      -0.47403584
O       -1.14662130       0.95378287      -0.81733944
P        2.37256151       1.71467014      -0.82682062
O        2.61747966       3.16898029      -0.58012510
O        3.17969114       0.64307909      -0.14027591
O        1.28697602       1.28371719      -1.79706247
C       -2.44386058      -0.59209559       0.37405979
O       -3.15569802       0.25779459       0.86064849
O       -2.69603377      -1.92218054       0.58082648
O        1.88551895      -0.00235168       2.27904027
H        0.50098853      -1.09862609      -1.35955922
H       -0.57217550      -2.32787137      -0.49632660
H       -0.25182864       1.10028283      -1.23150427
H       -3.48220042      -1.92597072       1.14895215
H        1.01979911       0.19894544       1.90640131
H        2.48073441       0.15945155       1.52062012
17
Properties=species:S:1:pos:R:3 relative_energy_eV=0.4475853469011781 branch=right pbc="F F F"
C       -0.39053840      -1.27163731      -0.76948421
C       -1.27358385      -0.31113350      -0.45628136
O       -1.17784183       0.98468109      -0.77273775
P        2.39456647       1.71497854      -0.85577507
O        2.72883084       3.16546744      -0.72501409
O        3.17362691       0.64739760      -0.13710944
O        1.25006540       1.26858035      -1.74313709
C       -2.47922331      -0.60405112       0.34086124
O       -3.26298227       0.23028154       0.73589984
O       -2.63994379      -1.93892828       0.61129659
O        1.88801326      -0.03494511       2.28499931
H        0.50092370      -1.02010063      -1.31808156
H       -0.53654710      -2.29476261      -0.45596037
H       -0.27601770       1.14782045      -1.16845603
H       -3.44248894      -1.97644220       1.15043432
H        1.01553874       0.07689274       1.89171363
H        2.47630515       0.18475949       1.53603495
17
Properties=species:S:1:pos:R:3 relative_energy_eV=0.432056516801822 branch=right pbc="F F F"
C       -0.36878301      -1.25029770      -0.74573408
C       -1.26348104      -0.29267906      -0.44023745
O       -1.17075472       1.00620186      -0.73026075
P        2.40157234       1.72927607      -0.88085509
O        2.79660541       3.16850462      -0.81874971
O        3.17219669       0.65734881      -0.15836579
O        1.20272909       1.31229862      -1.71367333
C       -2.49914709      -0.61165496       0.31909643
O       -3.34988948       0.18545207       0.64493581
O       -2.60740639      -1.93702157       0.65035745
O        1.89186606      -0.03270517       2.28667103
H        0.54179262      -1.02771931      -1.28074757
H       -0.53858379      -2.27092976      -0.43777034
H       -0.26418667       1.18263635      -1.13039092
H       -3.43437420      -1.98923718       1.15117997
H        0.99938123      -0.05069373       1.92534257
H        2.43916588       0.19007931       1.50840467
17
Properties=species:S:1:pos:R:3 relative_energy_eV=0.4276847569999518 branch=right pbc="F F F"
C       -0.36356858      -1.23413386      -0.72064175
C       -1.26234188      -0.28143840      -0.41938974
O       -1.16205693       1.01638893      -0.70381704
P        2.40347510       1.74512842      -0.90041008
O        2.85175479       3.16895915      -0.89047265
O        3.14680512       0.66820640      -0.15846031
O        1.18192874       1.34444938      -1.70968542
C       -2.51013733      -0.62116265       0.30739152
O       -3.39993911       0.15269912       0.57666170
O       -2.59060752      -1.93934152       0.67530483
O        1.89322009      -0.03504901       2.29475108
H        0.54577133      -0.99529285      -1.24603485
H       -0.53121700      -2.25861258      -0.42921212
H       -0.25253810       1.18764234      -1.11060170
H       -3.43405298      -1.99853778       1.14885371
H        1.00636223      -0.12558767       1.93172526
H        2.42584472       0.17454224       1.50324043
17
Properties=species:S:1:pos:R:3 relative_energy_eV=0.42591788977733813 branch=right pbc="F F F"
C       -0.36354492      -1.24601417      -0.71996023
C       -1.26522900      -0.29398479      -0.42535122
O       -1.16211412       1.00208842      -0.71647286
P        2.40456981       1.75776504      -0.89601116
O        2.86599587       3.17772882      -0.88682044
O        3.13914342       0.67287891      -0.15633482
O        1.18394980       1.36389537      -1.70908742
C       -2.51320331      -0.61973168       0.31057584
O       -3.38955197       0.16684576       0.59191105
O       -2.60633053      -1.93892282       0.67286515
O        1.90392167      -0.03232635       2.28944596
H        0.55182579      -1.00185815      -1.23306258
H       -0.52791452      -2.27228761      -0.43365082
H       -0.25065455       1.17723590      -1.11598950
H       -3.45055070      -1.99473250       1.14557099
H        1.00730610      -0.11458265       1.94763209
H        2.42108388       0.16486205       1.48394278
17
Properties=species:S:1:pos:R:3 relative_energy_eV=0.4242704938042152 branch=right pbc="F F F"
C       -0.35330794      -1.24456936      -0.70112139
C       -1.25997679      -0.29414877      -0.41560532
O       -1.16884741       1.00249138      -0.70764142
P        2.40559726       1.76708531      -0.90944520
O        2.90089203       3.17541771      -0.93044997
O        3.12009119       0.67794892      -0.15583663
O        1.16803220       1.39258008      -1.70378752
C       -2.51557447      -0.62374814       0.30423314
O       -3.39377620       0.16614695       0.56892766
O       -2.61620196      -1.94203386       0.66855779
O        1.91275443      -0.05759691       2.28902534
H        0.56940046      -1.00415162      -1.20202715
H       -0.52633668      -2.27271598      -0.42528872
H       -0.26042326       1.18921556      -1.10722388
H       -3.46349168      -1.99657133       1.13631615
H        1.01188447      -0.13092770       1.95820121
H        2.41798679       0.16443698       1.48236876
17
Properties=species:S:1:pos:R:3 relative_energy_eV=0.4233803127790452 branch=right pbc="F F F"
C       -0.35293441      -1.24142019      -0.69353357
C       -1.26587991      -0.29515525      -0.41694737
O       -1.17629979       1.00201815      -0.70943509
P        2.41267042       1.76977184      -0.91736645
O        2.92064712       3.17318874      -0.94969494
O        3.11944563       0.68209234      -0.15528098
O        1.16954989       1.39796175      -1.70273764
C       -2.52056548      -0.62727674       0.30178932
O       -3.39903323       0.15927710       0.57650712
O       -2.62221432      -1.94664909       0.65862751
O        1.91730963      -0.07364177       2.28842201
H        0.57427587      -0.99587156      -1.18370647
H       -0.52440344      -2.26840103      -0.41326726
H       -0.26879381       1.19002200      -1.10412527
H       -3.47037431      -1.99440178       1.12535009
H        1.01369702      -0.12639055       1.95928656
H        2.42160550       0.16373498       1.48531531
17
Properties=species:S:1:pos:R:3 relative_energy_eV=0.42249178383281105 branch=right pbc="F F F"
C       -0.35217708      -1.23528645      -0.67414880
C       -1.26839838      -0.28999174      -0.40645090
O       -1.17730025       1.00765659      -0.70037881
P        2.42141232       1.77198432      -0.93163907
O        2.93394786       3.17361379      -0.96937311
O        3.12757748       0.68412458      -0.16882967
O        1.17411692       1.40391253      -1.71279248
C       -2.52691694      -0.62547737       0.30287026
O       -3.40467727       0.16015175       0.58115436
O       -2.62905072      -1.94939003       0.64208835
O        1.91688886      -0.08096741       2.28728885
H        0.58232938      -0.99123462      -1.15067504
H       -0.52431807      -2.26245466      -0.39582999
H       -0.27400270       1.19138170      -1.10306194
H       -3.47914110      -2.01065616       1.10272708
H        1.01047011      -0.13277247       1.96471635
H        2.41794180       0.15426437       1.48153744
17
Properties=species:S:1:pos:R:3 relative_energy_eV=0.42170104201795766 branch=right pbc="F F F"
C       -0.34208876      -1.23650815      -0.65175507
C       -1.26058634      -0.29085353      -0.39375586
O       -1.16826185       1.00668300      -0.68919523
P        2.42268851       1.77348097      -0.94201550
O        2.92748894       3.17891784      -0.96031708
O        3.13133006       0.67986621      -0.18895568
O        1.17946663       1.40426388      -1.72979890
C       -2.52526590      -0.62457395       0.30637699
O       -3.39534639       0.16639421       0.59428424
O       -2.64612175      -1.95329571       0.62316022
O        1.91646225      -0.07725112       2.27600860
H        0.59665616      -0.99157642      -1.12024563
H       -0.52734951      -2.26537417      -0.38667064
H       -0.26951524       1.18916544      -1.09955298
H       -3.49854220      -2.00656388       1.08117752
H        1.00534470      -0.13735356       1.97034168
H        2.40234298       0.15343759       1.46011621
17
Properties=species:S:1:pos:R:3 relative_energy_eV=0.41665685070256586 branch=right pbc="F F F"
C       -0.28825183      -1.15225795      -0.52343276
C       -1.26294595      -0.25432195      -0.30998323
O       -1.20402579       1.05489971      -0.57415295
P        2.45324557       1.74112486      -1.01070611
O        3.00970133       3.11932554      -1.15243157
O        3.15268051       0.67945919      -0.20436157
O        1.16146148       1.37609558      -1.71321603
C       -2.56539428      -0.64265168       0.27864828
O       -3.48556175       0.11679919       0.49004448
O       -2.66491370      -1.97361488       0.58573053
O        1.89885566      -0.09742393       2.22049739
H        0.66463482      -0.84793462      -0.92049929
H       -0.43731668      -2.19233912      -0.28141644
H       -0.32588269       1.24372236      -1.00174176
H       -3.55185095      -2.05848973       0.96759705
H        1.01203670      -0.28763871       1.89315858
H        2.38222896       0.14410451       1.40546871
17
Properties=species:S:1:pos:R:3 relative_energy_eV=0.4114093134885479 branch=right pbc="F F F"
C       -0.26108434      -1.10470315      -0.43426918
C       -1.26613732      -0.22887836      -0.26937249
O       -1.21781505       1.08397767      -0.51112351
P        2.45819379       1.75229586      -1.05835225
O        3.10606249       3.07126771      -1.32711481
O        3.12545184       0.69586482      -0.21956973
O        1.10506344       1.44459901      -1.66537829
C       -2.58889388      -0.65573219       0.24208875
O       -3.55741353       0.06213542       0.34789309
O       -2.64285311      -1.97516622       0.60919750
O        1.88578391      -0.13997890       2.20507633
H        0.70499020      -0.78693390      -0.79193722
H       -0.40524876      -2.15100434      -0.22094384
H       -0.33838935       1.29278624      -0.93637684
H       -3.55301146      -2.09356090       0.92165393
H        1.03611404      -0.43570168       1.86273979
H        2.35788745       0.13759155       1.39499217
17
Properties=species:S:1:pos:R:3 relative_energy_eV=0.4067346574702242 branch=right pbc="F F F"
C       -0.26667850      -1.08557015      -0.40421379
C       -1.29466315      -0.22953004      -0.28369355
O       -1.28477076       1.07248394      -0.58272925
P        2.49392202       1.76531805      -1.04714655
O        3.18974915       3.03807510      -1.40064252
O        3.15713951       0.71169334      -0.20140334
O        1.10481017       1.49647958      -1.58448767
C       -2.61087924      -0.67071094       0.23635547
O       -3.58588989       0.03686507       0.35144483
O       -2.65194226      -1.99292897       0.59467303
O        1.90329367      -0.17668578       2.18994965
H        0.70085103      -0.75202660      -0.74276690
H       -0.39246824      -2.12938974      -0.16504209
H       -0.38683810       1.30407608      -0.94969928
H       -3.55859521      -2.12099292       0.91248511
H        1.04575018      -0.42676570       1.82956633
H        2.38590969       0.12846776       1.39655401
17
Properties=species:S:1:pos:R:3 relative_energy_eV=0.4039271671172173 branch=right pbc="F F F"
C       -0.26925210      -1.09896583      -0.39230508
C       -1.29397591      -0.23694321      -0.29805008
O       -1.28246469       1.05683584      -0.62743657
P        2.49405558       1.75771178      -1.02616919
O        3.14870196       3.07924202      -1.27393429
O        3.17527579       0.66538784      -0.24239696
O        1.11898324       1.48245680      -1.59357973
C       -2.60350911      -0.66280295       0.24958045
O       -3.55962729       0.06121769       0.41764201
O       -2.65829368      -1.99370997       0.56812105
O        1.88971202      -0.13668162       2.15906277
H        0.70108715      -0.78460704      -0.74163424
H       -0.40612341      -2.13483263      -0.12525813
H       -0.38070197       1.28762648      -0.98443343
H       -3.55698626      -2.11848840       0.90651648
H        1.03594336      -0.38317699       1.78852528
H        2.39587578       0.12858908       1.36495307
17
Properties=species:S:1:pos:R:3 relative_energy_eV=0.40073930425205617 branch=right pbc="F F F"
C       -0.26307829      -1.12804301      -0.41647429
C       -1.27003823      -0.24651234      -0.30027174
O       -1.23745644       1.04680712      -0.62716154
P        2.45002593       1.75003603      -0.99927793
O        3.05777669       3.11111548      -1.09714088
O        3.13972242       0.62524085      -0.27290816
O        1.12358959       1.46316044      -1.67249634
C       -2.58060842      -0.64914713       0.26574896
O       -3.51653687       0.09484941       0.45379969
O       -2.66295218      -1.98174534       0.57605627
O        1.86921623      -0.09230790       2.14127375
H        0.70637495      -0.82949764      -0.78256180
H       -0.40731999      -2.15968595      -0.13739598
H       -0.34165161       1.25762929      -1.01857108
H       -3.55728783      -2.08462993       0.93510714
H        1.03087861      -0.34746313       1.74174725
H        2.40804635       0.13905409       1.35972988
17
Properties=species:S:1:pos:R:3 relative_energy_eV=0.39951959655081737 branch=right pbc="F F F"
C       -0.25325756      -1.13179769      -0.42070391
C       -1.26041630      -0.25068539      -0.30816412
O       -1.22412181       1.04107632      -0.64006204
P        2.42888721       1.74444643      -0.99197986
O        2.99871626       3.12334924      -1.01430230
O        3.13494500       0.60548320      -0.30467481
O        1.12258839       1.45509304      -1.70146751
C       -2.56841597      -0.64373930       0.26993340
O       -3.49357205       0.11138615       0.46792033
O       -2.66249208      -1.97481672       0.58482983
O        1.87088501      -0.09283174       2.14178281
H        0.71009124      -0.83331514      -0.80261672
H       -0.39222010      -2.16244143      -0.13518382
H       -0.33142932       1.24365997      -1.04560666
H       -3.55953787      -2.06844786       0.94161022
H        1.01849731      -0.31692634       1.75217257
H        2.40955371       0.11936837       1.35571566
17
Properties=species:S:1:pos:R:3 relative_energy_eV=0.395816338568693 branch=right pbc="F F F"
C       -0.22649169      -1.10133706      -0.39635723
C       -1.25344757      -0.23874733      -0.30766160
O       -1.24349520       1.04195417      -0.67606926
P        2.39440121       1.75288743      -1.00674497
O        2.99492349       3.11948077      -1.01104847
O        3.08399765       0.58390266      -0.35614379
O        1.07526090       1.50993574      -1.71170253
C       -2.56699336      -0.64617945       0.24908113
O       -3.52174691       0.08651162       0.37899822
O       -2.63464457      -1.96429490       0.61906255
O        1.90407620      -0.18573886       2.16290209
H        0.73534994      -0.78341055      -0.76871483
H       -0.33674678      -2.12439253      -0.07354846
H       -0.34566353       1.26171356      -1.07269001
H       -3.54061095      -2.06588893       0.95017692
H        1.01973166      -0.32702359       1.80634615
H        2.41080004       0.04948966       1.36331708
17
Properties=species:S:1:pos:R:3 relative_energy_eV=0.38623531302437186 branch=right pbc="F F F"
C       -0.19630020      -1.05767318      -0.35611060
C       -1.24507995      -0.21891130      -0.34237125
O       -1.26157159       1.04418917      -0.76537444
P        2.31437187       1.74646490      -0.99378489
O        2.94390707       3.09185178      -0.86462339
O        2.92993678       0.51736350      -0.38343128
O        1.03753072       1.58289124      -1.79356385
C       -2.55434617      -0.64266614       0.21227319
O       -3.53339341       0.06365965       0.30569094
O       -2.58154128      -1.94643472       0.63761111
O        1.98472906      -0.28301506       2.15242290
H        0.77035154      -0.74876232      -0.72339600
H       -0.29834610      -2.05767660       0.03087304
H       -0.36594641       1.27651093      -1.16216102
H       -3.47723715      -2.06172730       0.99014024
H        1.05657380      -0.29282564       1.89206258
H        2.42506104      -0.04437422       1.31294538
17
Properties=species:S:1:pos:R:3 relative_energy_eV=0.383838970468787 branch=right pbc="F F F"
C       -0.19647643      -1.04671427      -0.35249595
C       -1.24415518      -0.20411520      -0.32973705
O       -1.26207565       1.06476092      -0.74140617
P        2.31111610       1.73400102      -1.00496949
O        2.95694882       3.07588845      -0.90412007
O        2.91191928       0.50824460      -0.36770742
O        1.03432652       1.56991132      -1.80462377
C       -2.55672102      -0.63912965       0.21163971
O       -3.55207409       0.04698635       0.28136374
O       -2.56912809      -1.93934821       0.64708713
O        2.00016594      -0.26969282       2.16678032
H        0.76904861      -0.73363117      -0.71848158
H       -0.29792375      -2.05869272       0.00588633
H       -0.37253590       1.29452800      -1.14909179
H       -3.47265799      -2.07134642       0.97298697
H        1.07017449      -0.33327482       1.92032141
H        2.41874792      -0.02951131       1.31577045
17
Properties=species:S:1:pos:R:3 relative_energy_eV=0.38021137002215255 branch=right pbc="F F F"
C       -0.19869665      -1.03935439      -0.34047184
C       -1.24920583      -0.20199760      -0.32519478
O       -1.27445841       1.06055448      -0.75380880
P        2.30992209       1.72486538      -1.01527482
O        2.99407077       3.04600213      -0.90313118
O        2.88056805       0.47952590      -0.39040389
O        1.02616484       1.59960800      -1.80969165
C       -2.56007007      -0.63881924       0.21635670
O       -3.55237523       0.05198444       0.28846785
O       -2.57700028      -1.94273022       0.64512802
O        2.02775827      -0.24549633       2.18161427
H        0.77475229      -0.71839284      -0.67680748
H       -0.31117295      -2.05682353      -0.00380687
H       -0.38734167       1.29228969      -1.16244878
H       -3.49123425      -2.08275056       0.93523529
H        1.10431223      -0.36523452       1.93597332
H        2.43270641       0.00563236       1.32746742
17
Properties=species:S:1:pos:R:3 relative_energy_eV=0.378046041008929 branch=right pbc="F F F"
C       -0.20304032      -1.03472035      -0.33404371
C       -1.25750491      -0.20237038      -0.32646886
O       -1.28252399       1.06402136      -0.74215536
P        2.31497746       1.72175422      -1.02450952
O        3.03886449       3.02332638      -0.93980925
O        2.86265968       0.46698306      -0.39879810
O        1.01294328       1.62653439      -1.79201058
C       -2.57128995      -0.64641745       0.20066559
O       -3.56490021       0.04190767       0.26781151
O       -2.58794141      -1.95091348       0.62660977
O        2.03811883      -0.20906726       2.19897894
H        0.77356775      -0.71103667      -0.65940682
H       -0.31787289      -2.05307981      -0.00107486
H       -0.39417629       1.30244101      -1.14496048
H       -3.49456461      -2.08401766       0.94298594
H        1.13289715      -0.41085150       1.93289255
H        2.44848548       0.02436897       1.34249607
17
Properties=species:S:1:pos:R:3 relative_energy_eV=0.3776566926680971 branch=right pbc="F F F"
C       -0.20455334      -1.03660792      -0.33363634
C       -1.25920640      -0.20422971      -0.32680430
O       -1.28497698       1.06174836      -0.74416226
P        2.31627092       1.71697200      -1.02489207
O        3.03953078       3.01813953      -0.92947640
O        2.86449558       0.45792519      -0.40733606
O        1.01425210       1.62748200      -1.79350343
C       -2.57389173      -0.64536202       0.20024293
O       -3.56579372       0.04521270       0.27439815
O       -2.59226139      -1.95119022       0.61933427
O        2.04331336      -0.19485295       2.20178314
H        0.77062414      -0.71231029      -0.66169962
H       -0.31513884      -2.05572797      -0.00192431
H       -0.39711216       1.30340227      -1.14464168
H       -3.49778083      -2.08155755       0.93942184
H        1.14114058      -0.41054102       1.94070852
H        2.44978751       0.03035986       1.34139045
17
Properties=species:S:1:pos:R:3 relative_energy_eV=0.3771196785310167 branch=right pbc="F F F"
C       -0.20754606      -1.03470267      -0.32208940
C       -1.26316539      -0.20356532      -0.31694040
O       -1.28806987       1.06580414      -0.72565400
P        2.32434708       1.71631979      -1.03278652
O        3.07646628       3.00213635      -0.95274031
O        2.85542174       0.44851473      -0.41805103
O        1.00908785       1.65109444      -1.78018094
C       -2.58262361      -0.65047431       0.19320050
O       -3.58057074       0.03334855       0.24396172
O       -2.59892639      -1.95269185       0.62350743
O        2.05631062      -0.18448489       2.19879831
H        0.76406762      -0.71386138      -0.66372062
H       -0.31403760      -2.04875250       0.02675973
H       -0.40148119       1.31048599      -1.12449134
H       -3.51127386      -2.08983715       0.92046758
H        1.15665730      -0.41790575       1.94574285
H        2.45403579       0.03743297       1.33341933
17
Properties=species:S:1:pos:R:3 relative_energy_eV=0.37696566844169865 branch=right pbc="F F F"
C       -0.20759869      -1.03335580      -0.31927161
C       -1.26490492      -0.20446036      -0.31826982
O       -1.29210790       1.06381878      -0.73059192
P        2.32564375       1.71683834      -1.03189564
O        3.08015163       3.00114796      -0.94690865
O        2.85553852       0.44522997      -0.42403391
O        1.00831333       1.65751425      -1.77601249
C       -2.58462593      -0.65228391       0.19062227
O       -3.58451292       0.02905347       0.23502988
O       -2.59946378      -1.95261150       0.62658259
O        2.06386149      -0.19267821       2.19606417
H        0.76240170      -0.71283916      -0.66555383
H       -0.31063864      -2.04522691       0.03710585
H       -0.40483843       1.31127038      -1.12490732
H       -3.51225544      -2.08994784       0.92216367
H        1.15491617      -0.39950263       1.95027545
H        2.45881962       0.02689418       1.32880425
17
Properties=species:S:1:pos:R:3 relative_energy_eV=0.3763832196164003 branch=right pbc="F F F"
C       -0.21624667      -1.02479915      -0.29983366
C       -1.27765242      -0.20145797      -0.30413929
O       -1.30542098       1.07200641      -0.70109619
P        2.34516028       1.70957282      -1.04066812
O        3.13664853       2.97331508      -0.98828456
O        2.86355732       0.42718989      -0.44463612
O        1.00185156       1.68245426      -1.73777667
C       -2.60402279      -0.66453659       0.17237703
O       -3.61801168      -0.00247342       0.17076117
O       -2.60589077      -1.95454431       0.63834327
O        2.08455677      -0.18099446       2.18539690
H        0.75786479      -0.69717890      -0.62822366
H       -0.32126008      -2.04192537       0.04024808
H       -0.41723293       1.32609114      -1.08660530
H       -3.52361742      -2.10292025       0.91283336
H        1.17126837      -0.37573358       1.94680514
H        2.47714777       0.02479416       1.31370180
