16
Properties=species:S:1:pos:R:3 relative_energy_eV=0.40579059315132326 branch=ts pbc="F F F"
O        0.89008063       2.06926173       0.42992035
C        1.75272652       1.21295968       0.07480491
C        1.53469468       0.10550195      -0.73391213
O        2.56731998      -0.84152296      -0.87292379
C        0.27510543      -0.20617149      -1.24345343
O       -0.59806402      -1.29562140      -0.11779403
P       -1.60613124      -0.63079462       0.87379072
O       -2.37875672      -1.56372072       1.74231044
O       -0.86567721       0.50724608       1.72018814
O       -2.64224645       0.22947786      -0.10135602
H        2.32964466      -1.55918941      -0.27552326
H        2.80042226       1.31853862       0.41865448
H       -0.27096903       1.12990694       1.19949268
H       -0.44099909       0.59933901      -1.30053659
H        0.23776018      -0.88768299      -2.07735358
H       -3.52817641      -0.06180029       0.13457789
