32
Properties=species:S:1:pos:R:3 relative_energy_eV=0.8171275479253381 branch=ts pbc="F F F"
O        5.66953482       0.56871768       1.06246625
P        4.31140275       0.07584316       0.74089859
O        3.13813022       0.83801162       1.48465383
O        4.11943113      -1.48572975       1.08318229
O        4.07014051       0.17954626      -0.88641751
C        2.73742703       0.27248382      -1.38451487
C        1.87160651      -0.85612555      -1.16867439
O        2.17440438      -1.97728053      -0.69384296
C        0.40542431      -0.52091848      -1.32890463
O       -0.35142672      -1.70760243      -1.39222119
C        0.01178888       0.42584485      -0.09888139
O        0.96289806       1.41074625       0.12735182
C       -1.36487593       1.08156060      -0.34625525
O       -1.41342016       1.70370541      -1.64202134
C       -2.58606322       0.19302804      -0.14443912
O       -2.68666749      -0.19346992       1.21054347
P       -4.18348256      -0.68016499       1.78671956
O       -3.91788746      -1.25596598       3.14918877
O       -4.96278922      -1.34742284       0.69294070
O       -4.89843796       0.83238505       2.02202549
H        3.41304643      -1.85913072       0.49299964
H        1.93804457       1.10228651      -0.73250655
H        2.77694618       0.66274987      -2.39835680
H        0.25118875       0.06364552      -2.23706506
H        0.21253174      -2.37518107      -0.96249247
H       -0.09288155      -0.25302638       0.75941338
H        2.26618012       1.02116736       0.98445489
H       -1.42333627       1.90364651       0.36580121
H       -1.78321929       1.04525158      -2.24298139
H       -3.46951848       0.76528564      -0.45133690
H       -2.51984430      -0.69145654      -0.78159153
H       -4.67660246       1.05780392       2.93339323
