17
Properties=species:S:1:pos:R:3 relative_energy_eV=4.083555755671114 branch=ts pbc="F F F"
O       -2.88268911      -0.09938032       1.42214269
C       -1.87945035       0.35212217       0.93189135
O       -1.13143866       1.27803037       1.43723662
C       -1.40856569      -0.31342152      -0.47118799
O       -2.24662711      -1.27002024      -0.73702461
C        0.00555975      -0.96450373      -0.32927318
O        1.00144037      -0.39125708      -1.12743901
P        1.92063967       0.83191601      -0.47354301
O        2.90206464       1.23813078      -1.52033574
O        0.97942162       1.81133497       0.21249622
O        2.70299039       0.04110633       0.76286623
H       -0.24714308       1.45081725       0.87190314
H       -1.36643757       0.51889399      -1.18881112
H       -1.94200133      -1.31542717      -0.14040551
H        0.30634478      -0.98382996       0.72516662
H       -0.18645572      -1.97459890      -0.68377660
H        3.56904895      -0.21660344       0.42535491
