17
Properties=species:S:1:pos:R:3 relative_energy_eV=0.06961127019530977 branch=ts pbc="F F F"
O       -0.61428524      -0.47135851       2.05610871
C        0.15060569      -0.69719734       1.12808185
O        1.09326391      -1.66020484       1.22902654
C        0.17233438      -0.00281880      -0.17790185
O        1.08386975      -0.49889740      -1.02224206
P        1.20424476      -0.08042688      -2.69875561
O        2.34390357      -0.92828081      -3.16604794
O        1.07759009       1.40091928      -2.83258304
O       -0.21907738      -0.76021897      -3.23394900
C       -0.68181741       1.01624472      -0.36694338
O       -1.62215884       1.46610267       4.04616618
H        0.97365134      -2.03578652       2.11447511
H       -2.04502469       0.63139158       3.82064731
H        0.00046206      -1.67165685      -3.46212386
H       -0.67285563       1.56723764      -1.29039098
H       -1.36423075       1.28135190       0.42502068
H       -0.88036713       1.44365717       3.43139938
