32
Properties=species:S:1:pos:R:3 relative_energy_eV=2.041327072904096 branch=ts pbc="F F F"
O        3.00982479       2.86835370       0.75506274
P        3.53381607       1.49485511       0.51291393
O        4.64845447       0.82033319       1.26572665
O        3.88202129       1.36661477      -1.11896066
O        2.15205713       0.48856340       0.61012593
C        2.29427981      -0.84459777       1.05810960
C        2.19564118      -1.84324354      -0.08991453
O        2.53481630      -3.08156357       0.09544633
C        2.15666329      -1.37184600      -1.40215373
O        2.39944637      -2.29058364      -2.34880838
C       -1.09220594      -0.72417651      -0.69574511
O       -0.55159682      -1.75205090      -0.28386541
C       -1.20034848       0.53331201       0.10590379
O       -0.23961759       1.43192176      -0.43415761
C       -2.59237570       1.12579512      -0.03588964
O       -3.53367989       0.14803680       0.36903604
P       -5.16077863       0.58153215       0.36511223
O       -5.90330624      -0.67373002       0.72472675
O       -5.44383224       1.44608863      -0.82526637
O       -5.19248228       1.58580139       1.71389115
H        4.49356669       0.62584408      -1.20724818
H        3.24200439      -0.99123434       1.57586692
H        1.47927285      -1.06041290       1.75171775
H        1.97351772      -0.36651542      -1.72705716
H        2.57533328      -3.08974104      -1.76568970
H       -1.43683855      -0.68185717      -1.73718893
H        0.82952122      -1.73530997      -0.37189064
H       -1.01699189       0.31497885       1.16435352
H        0.62245128       1.24493210      -0.00841227
H       -2.65190286       2.02121853       0.58385301
H       -2.75296523       1.42658830      -1.07294630
H       -5.39283748       0.99884530       2.45240850
