32
Properties=species:S:1:pos:R:3 relative_energy_eV=1.7304773456417024 branch=ts pbc="F F F"
O       -0.03183310      -1.22157897      -0.58642374
P       -0.54569257      -2.61046724      -0.94824438
O        0.32913624      -3.61436617      -1.64041229
O       -1.29427877      -3.26588959       0.31976525
O       -1.89145362      -2.32596469      -1.95192098
C       -1.64110774      -1.32547115      -2.89051159
C       -1.71570869       0.09464754      -2.31206817
O       -2.70179417       0.49796564      -1.72845724
C       -0.55526514       1.01414208      -2.65087996
O       -0.75233789       2.37122499      -2.31443763
C       -1.48167787      -0.12422438       1.59615375
O       -1.73026024      -1.28886010       2.02665563
C       -0.18623115       0.45505612       1.35520762
O       -0.08652167       1.54973819       0.62389717
C        1.05302144      -0.15625563       1.93558312
O        1.68918653       0.75368677       2.86364458
P        2.77264530       1.87840591       2.32119416
O        3.10881078       2.75359727       3.49156436
O        2.27745868       2.40127104       0.97858547
O        4.10429732       0.92385820       1.98499814
H       -1.46441516      -2.54745826       0.98881965
H       -2.42342243      -1.37536773      -3.66119189
H       -0.67639284      -1.45669062      -3.39685534
H        0.32275371       0.57450819      -2.16775325
H       -0.78287204       2.39278082      -1.34890908
H       -2.28351789       0.46364665       1.15204165
H       -0.39430281       0.96909749      -3.73313386
H       -1.03291214       0.80311151       2.59167558
H        0.87622098       1.92853668       0.69870898
H        0.76174654      -1.03626738       2.49909240
H        1.72286599      -0.45775146       1.12820329
H        4.65385076       0.98135890       2.77539027
