12
Properties=species:S:1:pos:R:3 pbc="F F F"
O        0.19387313      -0.71037097       1.75902678
C        0.91079405      -0.14067363       0.82229650
C        0.20059688       0.37803071      -0.35743662
O        0.74268290       1.24101965      -1.17892116
C       -1.17178512      -0.06567228      -0.64267714
O       -1.51789304      -1.26522667      -0.05042771
H        1.62436005      -0.83118433       0.25904071
H        1.63997832       1.45180486      -0.87022871
H        1.62774693       0.65833760       1.15111785
H       -1.33671821      -0.07469994      -1.72632861
H       -1.78871709       0.77731012      -0.25967576
H       -1.00671374      -1.27271767       0.82735666
