16
Properties=species:S:1:pos:R:3 pbc="F F F"
C        2.07993654      -0.41169175      -0.60815427
C        1.00860159       0.02616616       0.19965821
O        1.00560025       1.35141284      -0.11274208
N       -1.49033957      -0.76137034      -1.73829814
C       -0.92801161       0.70144564       1.65345280
N        0.04617816      -0.18742706       1.05366564
H        3.03364744      -0.19663396      -0.20070155
H        1.63189376      -1.35870060       0.07061802
H        1.74362832      -0.63201982      -1.58792351
H       -1.36269460      -1.58775288      -2.30674182
H       -2.48809429      -0.62881741      -1.64368628
H       -1.52196039       0.10947714       2.34461511
H       -0.42021016       1.50000486       2.20522285
H       -1.58028641       1.13456393       0.88757598
H       -1.14371325      -0.98881893      -0.81256004
H        0.36731094       1.99971052       0.17562018
