16
Properties=species:S:1:pos:R:3 pbc="F F F"
O       -2.14710058       1.01683837      -1.95445116
C       -1.67602460       1.20601621      -0.85882058
C       -1.02910561       0.15206680       0.03065957
O       -1.09780570       0.41281479       1.29329269
C        0.79045473       0.31065379      -0.51219578
O        0.83780675      -0.00071651      -1.86930901
C        1.40685604      -0.67402122       0.30487316
O        0.47106392      -1.25421335       2.05989925
H       -1.64669910       2.18303294      -0.35208509
H       -1.17885770      -0.87151002      -0.34729687
H       -0.25697760      -0.47311892       1.88516104
H        1.02034701       1.32955376      -0.24954540
H        0.97488185       0.82205703      -2.37575328
H        2.17401435      -0.39963438       1.00608315
H        1.40890670      -1.68725537      -0.07983136
H       -0.04935622      -2.07258179       2.01962717
