16
Properties=species:S:1:pos:R:3 pbc="F F F"
C       -0.92681366      -0.26080986      -0.32086867
C       -0.03236889       0.54532969      -1.17473202
O       -0.88793645       1.23246046      -2.16390999
N        1.11117549       0.43547018      -1.65312370
C        0.45843486      -0.76432088       1.59261383
N       -0.14289134       0.52423298       1.25970553
H       -1.57161001      -0.96455696      -0.83862681
H       -0.19669119      -0.72091159       0.33218196
H       -1.48860747       0.53148787       0.16312410
H        1.65377606      -0.16585347      -1.03603321
H       -0.34781052       1.58991887      -2.88271567
H        1.43024753      -1.01943736       1.15665379
H        0.60917690      -0.96365255       2.65060082
H       -0.17320612      -1.59489239       1.28974082
H        0.51599265       1.19091601       1.62866137
H       -0.01086784       0.40461900      -0.00327216
