16
Properties=species:S:1:pos:R:3 pbc="F F F"
O       -0.29866372       3.51028701       0.17709052
C       -0.84953153       2.12757832       0.02733391
C       -0.34210040       0.32922459       0.37104632
O       -0.67764837      -0.10630632       1.43959042
C        0.05312830      -1.05499839      -0.73368223
O       -1.13157194      -1.90530546      -1.00259834
C        1.06273015      -1.93184539       0.14746812
O        1.86450784      -1.23423801       1.11226797
H       -0.70291113       1.99462238      -1.04451112
H       -1.90477227       2.01783027       0.35336876
H       -0.53848145       4.23551988       0.86748933
H        0.47190688      -0.73022125      -1.71590150
H       -1.90895712      -1.28043461      -1.07413839
H        1.71018412      -2.59397142      -0.45922867
H        0.43101498      -2.57409704       0.75667115
H        2.64785952      -0.83304721       0.70830879
