12
Properties=species:S:1:pos:R:3 pbc="F F F"
O        1.32933146       0.93696010      -0.68312555
C        0.28720482       0.41319140      -1.36168276
C       -0.91151638      -0.20656321      -1.03950574
O       -1.50857434      -0.61219761       0.08796216
C        0.82666127      -0.03269611       1.79625210
O       -0.22002302      -0.51135909       2.20107388
H        0.42998822       0.54669338      -2.42749512
H       -0.57942220      -0.07934034      -0.85373165
H       -1.59790272      -0.44366254      -1.85723192
H       -1.01368211      -0.57892935       1.00531737
H        1.25730175       0.61249294       0.32292971
H        1.64332502       0.04541258       2.55650614
