12
Properties=species:S:1:pos:R:3 pbc="F F F"
O        1.35271217       1.02850483      -0.60408280
C        0.37990311       0.39918175      -1.29225417
C       -0.88626279      -0.19004990      -1.21869198
O       -1.40924321      -0.37336491       0.01089702
C        0.31699735      -0.29827300       2.02003474
O        0.43479063      -0.62301037       3.13360354
H        0.70615770       0.41431739      -2.33004522
H       -0.52048937       0.07424121      -0.78396238
H       -1.56858205      -0.50559747      -2.01240990
H       -1.02061110      -0.40549773       0.96605645
H        0.74959361       0.30722513       0.56080383
H        1.37328879       0.20545073       1.40787939
