16
Properties=species:S:1:pos:R:3 pbc="F F F"
O       -1.46374165       1.57447760      -2.03394198
C       -1.62472562       0.46986638      -1.16480759
C       -2.00825042       0.77267221       0.26820101
O       -2.92442384      -0.06090837       0.94700268
C       -0.71782622       0.22966726      -0.06244220
O        3.74387376      -1.32939596       1.24455107
C        0.46754899      -0.18707960       0.34564112
O        1.40733629      -0.65749558      -0.51752743
H       -3.80708203       0.24854688       0.71709296
H       -2.07480468       1.82988074       0.52740257
H       -0.63353923       1.44014515      -2.50516241
H       -2.11546767      -0.38800602      -1.61826140
H        4.26146621      -2.12060415       1.05822743
H        4.39492113      -0.63198762       1.37786337
H        0.70995948      -0.16137890       1.40247876
H        2.20821305      -0.92336602      -0.02401421
