16
Properties=species:S:1:pos:R:3 pbc="F F F"
O       -0.31567684       1.22539416      -0.81197368
C       -0.59036153       0.01323519      -1.46402143
C        0.69095461      -0.72589694      -1.82410560
O        1.59926943      -0.77544758      -0.69175390
O       -1.98707215       0.41249797       2.92016287
C       -0.86759157       0.85768655       2.71566517
C       -0.17286873       0.37034230       1.54979774
O        0.40390319      -0.76881507       1.62329799
H       -1.15959596       0.21483707      -2.37719661
H        0.50251959      -1.75943739      -2.10652534
H        1.20545073      -0.21935574      -2.64001334
H        1.81398694       0.15309823      -0.52181781
H       -0.39724574       1.63363702       3.34837906
H       -1.21309433      -0.65267464      -0.84781202
H       -0.34008727       1.00548362       0.24233069
H        0.84042878      -0.98761611       0.72274463
