12
Properties=species:S:1:pos:R:3 pbc="F F F"
C        0.25117322      -0.28228866      -0.28509094
O        1.39452610      -1.04511480      -0.29612582
O        0.77632620       0.17002719       1.80150077
C       -0.34487263      -0.38280997      -1.63831326
C       -0.16409577       0.39426444       0.78625096
O       -1.25718534       1.22332278       0.75290566
H        0.37844700      -0.04548492      -2.38411266
H       -1.85863423       0.86769044       1.42272435
H        0.79243267       1.06810809       2.20068908
H       -0.60667182      -1.42288500      -1.84603914
H        1.81632854      -0.85107493       1.15145448
H       -1.22820661       0.24947818      -1.63776558
