12
Properties=species:S:1:pos:R:3 pbc="F F F"
C        0.29339214      -0.56241534      -0.45710716
O        1.28246539      -1.29509190      -0.35617383
O        0.52459488      -0.13964697       1.84760739
C       -0.40933084      -0.32331490      -1.76037589
C       -0.17912504       0.08661914       0.72864632
O       -1.08792078       1.08251792       0.73349792
H        0.32485176      -0.01679351      -2.50238786
H       -1.68507250       0.96537675       1.48836605
H        0.80346655       0.64735479       2.36248386
H       -0.83772717      -1.26374515      -2.10625216
H        2.11077398       0.33707821       1.73199156
H       -1.19082891       0.42525764      -1.68220825
