16
Properties=species:S:1:pos:R:3 pbc="F F F"
O       -1.42928957      -0.80948653      -1.28016425
C       -0.71225383      -0.38637126      -2.16602289
C        0.47635530       0.46130465      -1.83444078
O        0.73450955       0.54956179      -0.46728042
O        0.76135751       1.84146003       2.07723300
C        0.72574277       0.61683930       2.05646005
C       -0.15715914      -0.29001495       1.27602517
O       -0.69292576      -1.31240250       2.09094481
H       -0.92153450      -0.62111635      -3.22229829
H        1.34898998      -0.02588918      -2.29648628
H        0.36088692       1.39071516      -2.41382044
H       -0.11907148       0.41441156       0.27338125
H        0.87410521       0.25491594       3.08634474
H       -0.83680276       0.39163072       0.76517619
H        0.67042551      -0.57472103       0.61745902
H       -1.08333572      -1.90083734       1.43748912
