16
Properties=species:S:1:pos:R:3 pbc="F F F"
O        0.03818676       1.65998675      -1.74083758
C        0.29462446       0.67869527      -0.85704604
C        1.48253573       0.17769659      -0.17657068
O        1.95529829       0.74476788       1.06629036
C        0.12786142      -0.42493742      -0.19017317
O       -1.22217825       1.44924081       0.87832456
C       -0.67358039      -1.52079893       0.39522115
O       -1.79115242      -1.91102234      -0.39223245
H        2.65036755       1.37816164       0.84699303
H        2.32220155      -0.25463388      -0.72583055
H       -1.22240453       1.48995134      -1.28677141
H       -0.66459185       1.80635922       0.18401450
H       -0.71245295       0.69778482       1.19792580
H       -1.08138958      -1.20512195       1.35627256
H       -0.03155241      -2.37939192       0.61139175
H       -1.47177338      -2.38673786      -1.16697182
