12
Properties=species:S:1:pos:R:3 pbc="F F F"
O       -1.44030917       2.67787795       1.90095557
C       -2.18417576       2.33707223       1.11711371
C        0.15581790      -0.15007420      -1.02979652
O       -0.91831189      -0.87111190      -1.61770453
C        0.67840701      -0.81803421       0.22357781
O        1.76140832      -0.03080822       0.70335948
H       -0.11867681       0.88396344      -0.79576335
H        0.94748967      -0.11685360      -1.77526734
H       -1.69163156      -0.78983048      -1.04782480
H        0.99708185      -1.83755460      -0.01709459
H       -0.13107103      -0.88344668       0.96371717
H        2.12062318      -0.46011756       1.48628994
