12
Properties=species:S:1:pos:R:3 pbc="F F F"
C        0.12167917       0.43398291      -0.00738165
O        1.32555813       0.22248929       0.74258483
O       -0.74873816      -0.55333232       2.04546548
C        0.12930892      -0.27195660      -1.34748401
C       -1.05660653      -0.04357837       0.84132473
O       -2.19398019       0.03700507       0.45163119
H        0.91013500       0.13807092      -1.98755696
H       -0.03948268       1.50544880      -0.16276766
H        0.21673413      -0.50622973       2.15263998
H        0.30853822      -1.33864806      -1.22487729
H        2.07968945       0.45253979       0.19047661
H       -0.82818045      -0.13324963      -1.84057788
