16
Properties=species:S:1:pos:R:3 pbc="F F F"
O       -0.70958920       1.41310868      -1.66102463
C        0.13258816       0.65564385      -1.11944960
C        1.11056676       0.61427562      -0.00980180
O        0.53709866       0.91119096       1.42817856
C        0.59360022      -0.53147661      -0.70051939
O       -1.65530244       1.71136233       0.63117546
C        0.44710752      -1.98619548      -0.56043160
O       -0.65555746      -2.21618150       0.33247051
H        1.06986346       1.63222784       1.79443952
H        2.12928587       1.00132951       0.00420334
H       -1.77028375       1.04090149      -0.08274077
H       -0.76570646       1.34587620       1.12718850
H       -1.31257543       2.45368706       0.08885829
H        1.36881558      -2.42120344      -0.15917903
H        0.25776739      -2.45490891      -1.53138146
H       -0.77769866      -3.16963522       0.41799677
