12
Properties=species:S:1:pos:R:3 pbc="F F F"
C       -0.06464787      -0.93903549      -1.83276311
O        0.77336942      -1.04900889      -0.77495400
O        1.07874222       1.92894716       1.83217855
C       -1.21703209      -0.27211567      -1.94448232
C        0.43232259       1.08900666       2.39989303
O        0.59616816      -0.20512166       2.06331856
H        1.54215088      -0.38699384       1.96349186
H        0.18670321      -1.58721452      -2.66400423
H        0.61843597       0.09000927      -0.13106713
H       -1.60517515       0.32954422      -1.13309392
H       -0.44269457       1.37123840       2.99699259
H       -1.89834276      -0.36925563      -2.77550990
