12
Properties=species:S:1:pos:R:3 pbc="F F F"
C        0.17788361       0.62091528      -1.97099930
O       -0.06884635       1.47859514      -2.68025624
O       -1.68785344       0.66199099       2.34017264
C        1.18160829      -0.33458655      -1.64928104
C       -0.72486235      -0.29619705       1.88880820
O       -0.78593355      -0.61979684       0.57682008
H        1.89544549       0.13141153      -0.94304988
H        0.26749726       0.11851102       2.15889017
H       -1.87189035       1.19751589       1.57457184
H        0.75662755      -1.21898188      -1.15450473
H       -0.87633613      -1.14322335       2.59375416
H        1.73878496      -0.60674891      -2.57178587
