16
Properties=species:S:1:pos:R:3 pbc="F F F"
O       -0.41197361      -0.32591213       0.67235457
C       -0.13654814      -0.06693791      -0.63468891
C        1.24434903       0.35721703      -1.05813920
O        1.57688371       1.70073663      -0.71397414
C       -2.45266204      -0.45434422      -1.29644511
O       -3.38951634      -0.49081214      -2.08908121
C       -1.09475004      -0.07016805      -1.58622581
O        0.49658088      -0.32142332       3.46160479
H        1.99353835      -0.31057385      -0.60704148
H        1.42803547       0.31264262      -2.12724767
H        1.44317169       1.83217544       0.23253194
H       -2.65716777      -0.74320021      -0.25135844
H        0.76217331      -0.45104457       1.29623167
H        1.14260108      -0.05330550       4.12457968
H       -0.90893160       0.21641548      -2.61138562
H        0.96421602      -1.13146531       3.18828494
