12
Properties=species:S:1:pos:R:3 pbc="F F F"
O        1.95265856      -0.48811752       0.81030918
C        1.18778126       0.53967986       0.47717044
C        0.19393891       0.59453222      -0.56655135
O       -0.10066643       1.70562351      -1.02806890
C       -0.53259865      -0.67472624      -0.96243422
O       -0.96051629      -1.45769898       0.14672868
H        1.76061742      -1.27752167       0.26143100
H       -2.26514097       2.11594095       2.16711064
H        1.39261744       1.43955071       1.04850501
H        0.13725726      -1.31760411      -1.55162375
H       -1.34616713      -0.37564750      -1.63212956
H       -1.40002795      -0.83352885       0.76387515
