12
Properties=species:S:1:pos:R:3 pbc="F F F"
O       -0.89271470      -2.41204872      -1.13473710
C       -0.92627616      -1.22496779      -1.36103233
C       -0.13677990      -0.21164959      -0.59514670
O       -0.44489555       1.01390740      -0.86412357
C        0.73170493      -0.57697715       0.43818237
O       -0.04422256       1.65748503       1.39835322
H        0.73924891       2.18308096       1.60520179
H       -0.26041256       1.56244303       0.18884020
H       -1.56188492      -0.78822628      -2.15131437
H        0.80040245      -1.62588299       0.67749310
H        1.66361654      -0.02965047       0.50009234
H        0.33222478       0.45248810       1.29819795
