12
Properties=species:S:1:pos:R:3 pbc="F F F"
O       -1.69796778       0.50169283      -0.26370370
C       -0.87170517       1.41081214      -0.32914942
C        0.55354745       1.29976113      -0.15580621
O       -1.25637638      -2.23079619       0.22440931
C        1.15381262       0.12381873       0.10949701
O        2.48389738       0.05213701       0.26599394
H       -1.22933611       2.43484051      -0.54244685
H        1.15458068       2.19542806      -0.24313679
H       -1.59924488      -1.33186909       0.04208386
H       -2.03646157      -2.79340822       0.23483123
H        0.59676384      -0.80465511       0.20728494
H        2.75088512      -0.85737486       0.44879707
