12
Properties=species:S:1:pos:R:3 pbc="F F F"
O       -1.85002875       1.01797750       0.80381376
C       -1.04566904       1.28063709      -0.06937088
C        0.13784067       0.45691940      -0.38778573
O       -0.63067610      -1.04926611      -1.26245371
C        0.69740044      -0.37680337       0.61523259
O        2.08961780      -0.47613722       0.56803040
H       -1.18714509       2.15751593      -0.73428071
H        0.76348399       0.78288676      -1.21228043
H       -1.54493707      -1.04278708      -0.95142764
H        0.04732814      -1.32561438      -0.11196405
H        0.23027611      -0.32157887       1.59284327
H        2.37497941      -1.06649664       1.27617755
