12
Properties=species:S:1:pos:R:3 pbc="F F F"
O       -0.48803501      -0.55690510      -1.02504559
C       -1.09012357       0.24231144      -1.79879704
C       -0.47943098       0.08498602       0.48803020
O       -1.01949859       1.30065983       0.37121917
C        0.96604950       0.07385052       0.92627732
O        1.47782661      -1.21569731       1.20186868
H       -1.31135069       1.32403768      -0.65697885
H       -1.09044394      -0.65732096       1.01195282
H       -1.09005178      -0.15878938      -2.82534627
H        1.00979357       0.63336875       1.86276388
H        1.56255311       0.61691887       0.18754911
H        1.56955586      -1.68524347       0.36602501
