16
Properties=species:S:1:pos:R:3 pbc="F F F"
O       -2.75060485       0.87713883      -0.10235198
C       -1.65619341       0.13819627      -0.57106994
C       -1.16187517      -0.40685013      -0.30742880
O       -1.39157092      -1.21999844       1.01407308
C        0.09711604       0.43073917      -0.03859154
O        0.47482877       1.04710864      -1.21744610
C        1.30633437      -0.37316122       0.51128856
O        2.49278444       0.41211108       0.38667397
H       -1.30205470       0.58271016      -1.53910124
H       -1.03821641      -1.21667308      -0.83028499
H       -1.95986998      -0.61653980       1.50707618
H       -0.27245619       1.12934997       0.71825385
H        1.41682381       1.27469023      -1.08134960
H        1.42553428      -1.31303909      -0.03189708
H        1.13436113      -0.60120532       1.55983072
H        3.18505976      -0.14458024       0.02232065
