16
Properties=species:S:1:pos:R:3 pbc="F F F"
O       -2.74891344      -0.97749476       0.23176851
C       -1.67788122      -0.71174563      -0.25823010
C       -0.96055691       0.60680555      -0.04744172
O        0.38359864       0.46092895      -0.47298063
C       -1.03007549       1.06847644       1.39733665
O       -0.22082479       2.24553940       1.44881238
C        2.69475635      -1.96483914      -1.67985583
O        3.51686357      -2.81219453      -1.91414695
H       -1.14216525      -1.42659271      -0.91877265
H       -1.47899474       1.35562380      -0.66582929
H        0.85376017       1.21570406      -0.09271714
H       -2.06549031       1.26298476       1.68106477
H       -0.62568985       0.28893803       2.04846743
H       -0.07723466       2.48432428       2.36966988
H        1.61957264      -2.20333706      -1.54207512
H        2.95926601      -0.89316028      -1.58506340
