12
Properties=species:S:1:pos:R:3 pbc="F F F"
C        0.19528194      -0.31037546      -0.27945730
O       -0.04286578      -0.23642948       2.31031786
O       -0.69179419      -2.35287148      -1.59841569
C       -0.01903131       1.01607818      -0.91832314
C       -0.47677565      -1.46336497      -0.82557419
O       -1.05016392      -1.02286276       0.28413447
H        0.84257766       1.39983451      -1.45890418
H        1.25097061      -0.11185459       0.30935243
H        0.68269161       0.44603096       2.49668146
H       -0.83060034       1.09374089      -1.63483634
H        0.35732785      -0.22816663       1.47730587
H       -0.21761848       1.77024083      -0.16228122
