16
Properties=species:S:1:pos:R:3 pbc="F F F"
C        0.85669704       1.03822142      -1.09121991
C        0.43837851      -0.30191932      -0.95017271
C       -0.88659689      -0.61238171      -0.94027055
C       -1.13362776      -1.25220136       0.27872748
C        0.70464961       0.86473692       0.70256200
C       -0.40215432       0.17941367       1.27403028
H        0.31759270       1.46045497      -1.91986394
H        1.80977979       1.16744806      -1.55070819
H        1.22658952      -0.81912886      -0.41610415
H       -1.65915293      -0.00369363      -1.40341294
H       -0.65835050      -2.19310473       0.32417688
H       -2.00689130      -1.79143091      -0.03036869
H        1.56058915       0.24066970       0.77052330
H        1.06997298       1.80362608       1.05787604
H       -0.45127564      -0.65940987       1.89721838
H       -0.78619998       0.87869956       1.99700675
