12
Properties=species:S:1:pos:R:3 pbc="F F F"
O        1.09079113       1.77931412       0.02539197
C        0.09579222       0.87671904       0.01740556
C        0.01908379      -0.20289992      -0.57147297
O        0.09449876      -0.33953360       2.03324560
C       -0.63119404      -1.20448006      -1.33170743
O        0.41824529      -0.32739353      -1.87314015
H       -0.82026619      -0.16477339       2.08172476
H        0.31271775       0.44457055       2.52016527
H       -0.25759678       0.74702122       0.99995906
H       -1.57777169      -1.11062442      -1.83817846
H       -0.30492408      -2.22400758      -1.24719084
H        1.56062383       1.72608758      -0.81620236
