16
Properties=species:S:1:pos:R:3 pbc="F F F"
O        1.24595641       3.42736119       1.44665502
C        0.96667272       2.48814753       0.72840463
C        0.46154068       2.70694298      -0.66497373
O        0.34076504       4.06703856      -0.96634647
O        0.36718398      -1.54410866       0.93794836
C       -0.71867096      -1.88139196       0.28809029
C       -0.71564668      -3.26349696       0.06658440
O       -1.47230055      -3.78295035      -0.97358456
H        1.06926712       1.43906587       1.06532808
H        1.15319401       2.19869312      -1.35511868
H       -0.49793985       2.17564093      -0.76448609
H        0.64744208       4.52346325      -0.16250381
H       -1.39620404      -1.12934778      -0.12042344
H        0.59450122      -2.78378578       0.49628338
H       -0.67821050      -3.89962924       0.95620796
H       -1.36755129      -4.74164203      -0.97806533
