12
Properties=species:S:1:pos:R:3 pbc="F F F"
O       -0.26581605      -0.28244752      -1.10820035
C       -1.32226522      -0.11219004      -1.83675457
C       -0.40434335       0.17273132       0.32146389
O       -0.79266003       1.48972023       0.38066738
C        0.96256398       0.04750270       0.93488298
O        1.37673835      -1.29444258       1.11794989
H       -1.62967076       1.59307151      -0.09979667
H       -1.12103528      -0.52078105       0.77190158
H       -1.00422249      -0.53865600      -2.82079212
H        0.89791560       0.48781593       1.92870168
H        1.67650343       0.63700764       0.35112653
H        1.57210965      -1.67286759       0.25289445
