12
Properties=species:S:1:pos:R:3 pbc="F F F"
O       -0.49044720      -0.55433747      -1.02789175
C       -1.08319223       0.25031425      -1.80344704
C       -0.47300164       0.08969759       0.48294359
O       -0.99939637       1.31145359       0.36513555
C        0.97265418       0.06397425       0.91955436
O        1.47540240      -1.23174713       1.18260881
H       -1.29025093       1.33746113      -0.66314871
H       -1.09151776      -0.64463355       1.00926866
H       -1.09074762      -0.15577791      -2.82814442
H        1.02119983       0.61444374       1.86115279
H        1.57174842       0.60984252       0.18507952
H        1.56542424      -1.69280079       0.34189822
