12
Properties=species:S:1:pos:R:3 pbc="F F F"
O        0.59928091      -0.42728006      -2.15157252
C        0.27388309       0.77631425      -1.78300281
C       -1.79291722      -0.91708021       2.64069483
O       -2.83713902      -0.50946964       3.08130442
C        1.04823378       1.85225583      -2.25280983
O        2.02384139       1.48752898      -3.03990733
H       -1.07595154      -1.49412911       3.25166064
H       -1.47365239      -0.73330280       1.59088418
H       -0.60059016       0.81052899      -1.13579922
H        0.91439921       1.69655276      -2.16006743
H        0.98807413      -3.07882231       4.95795491
H        1.98490573       0.48108059      -3.12803100
