12
Properties=species:S:1:pos:R:3 pbc="F F F"
C       -0.14304897      -0.51509962      -1.40356877
O        1.00666749      -0.45102102      -0.71790228
O       -0.24420830       0.17645643       3.17060519
C       -0.60081096       0.61832503      -2.19931710
C        0.68042455      -0.74561053       3.60312213
O        0.41880533      -1.60444780       4.39673131
H       -0.59265348       1.54947121      -1.61968884
H       -0.52342537      -1.50756037      -1.50144158
H        0.23299212       0.77466971       2.57790020
H        0.05734673       0.77602454      -3.06550175
H        1.31846899       0.46420057      -0.66172257
H       -1.61056660       0.46457999      -2.57922623
