12
Properties=species:S:1:pos:R:3 pbc="F F F"
C       -0.30886510      -0.35518750      -1.45023215
O        1.00981890      -0.29292898      -1.16999139
O        2.15724690       0.47630213       3.12293962
C       -1.18839927      -0.98888846      -0.67941291
C        1.05717879       0.86082370       2.82263777
O       -0.58158457       0.31952360      -2.60387476
H       -1.52765651       0.25880380      -2.76879326
H        0.32174841       1.18675963       3.58986827
H        1.45182554       0.18532539      -1.88324698
H       -2.22870611      -1.04881453      -0.95981576
H        0.71116645       0.91468077       1.77353604
H       -0.87386334      -1.51627629       0.20639605
