16
Properties=species:S:1:pos:R:3 pbc="F F F"
O        0.32257702      -0.99507105      -0.31323390
C       -0.49802210       0.06098321      -0.43823266
C       -1.09412753       0.25607642      -1.80884254
O       -1.85980320       1.42289452      -1.97986559
C       -0.18021490       0.73421706       1.92979276
O        0.67070985      -0.07227119       2.27059721
C       -0.76740538       0.86032168       0.61369556
O        2.91236972      -2.12225251       1.09596995
H       -0.28070780       0.18695354      -2.54484000
H       -1.76150396      -0.58672436      -2.00949624
H       -1.27688657       2.18832144      -1.90476328
H       -0.56539573       1.46274256       2.67150541
H        0.42987490      -1.44920815      -1.16043126
H        3.32093724      -2.15123066       1.96669990
H       -1.49327503       1.64595031       0.47518702
H        2.13757756      -1.55940931       1.22988247
