16
Properties=species:S:1:pos:R:3 pbc="F F F"
O        1.14855479       0.02746866      -1.25256623
C       -0.03853594      -0.51378075      -0.72081271
C       -1.37090907      -0.04388566      -1.26657841
O       -1.30904458       1.35257328      -1.07444145
C        0.02871481       0.81909447       1.43121556
O        0.90736335       1.42312286       2.01255386
C        0.18127242      -0.52131770       0.75571697
O        1.56709548      -1.16474029       1.37262900
H       -1.25950323      -0.43109816      -2.27377880
H       -2.09762345      -0.53886958      -0.63876502
H       -0.52568246       1.68350407      -1.53013260
H       -0.94832285       1.30609595       1.33957661
H        1.96116668      -0.26833249      -0.82005496
H        0.37854690      -1.69252465      -0.48079717
H       -0.52568048      -1.12899293       1.33411384
H        1.86836089      -0.34534981       1.79307284
