16
Properties=species:S:1:pos:R:3 pbc="F F F"
O       -2.18257389      -0.27274831      -1.76841842
C       -2.26903656      -0.52790699      -0.59024026
C       -1.08318616      -0.13638484       0.25831416
O       -0.68105165      -1.02645751       1.27680386
C        0.61575607       0.43027297      -0.83770534
O        0.88476398      -0.51574877      -1.66913785
C        1.42746548       0.83111849       0.36150810
O        1.95226764      -0.27323660       1.10424383
H       -2.90967845      -1.07572683       0.12174453
H       -1.31513981       0.77150415       0.84523026
H        0.26608416      -0.97921424       1.51223240
H       -0.01683604       1.28203919      -1.02618317
H       -0.29557912      -0.41050407      -0.87654647
H        2.21636180       1.25194310      -0.26695291
H        1.18456041       1.58797261       1.10741569
H        2.20582578      -0.93693015       0.44769034
