16
Properties=species:S:1:pos:R:3 pbc="F F F"
O       -2.75791945      -0.03985912      -1.43528139
C       -2.15827074      -0.67435697      -0.55667126
C       -1.33882504      -0.10653625       0.45060751
O       -0.75306870      -0.96467033       1.33457077
C        0.67491141       0.65060298      -0.75427085
O        0.50093297      -0.49568148      -1.29815001
C        1.71230352       0.84315238       0.28897291
O        1.93854860      -0.31137606       1.08865694
H       -2.22759291      -1.78314457      -0.48538695
H       -1.49531397       0.93000371       0.73936102
H        0.16266908      -0.69135152       1.54670807
H        0.21912666       1.55084463      -1.18183306
H       -0.62987977      -0.66333035      -0.91723960
H        2.63191350       1.14073228      -0.24436812
H        1.44269948       1.66163918       0.95377584
H        2.07777052      -1.04667503       0.47054571
