16
Properties=species:S:1:pos:R:3 pbc="F F F"
C        1.50415294      -0.75725276      -0.85034474
C        0.26759565       0.04941739      -0.49832321
O        0.41521982       1.39279917      -0.93818461
N       -0.86464661      -0.46445073      -1.25444727
C       -1.11297245       0.61086285       1.47286139
N        0.13396549       0.06746366       0.96193801
H        2.36931481      -0.38912347      -0.30035715
H        1.35439488      -1.80885584      -0.60152808
H        1.69209736      -0.68237441      -1.91692609
H       -1.11353404      -1.38730850      -0.91854016
H       -1.66746404       0.14052347      -1.12547696
H       -1.99736889      -0.00810914       1.26734948
H       -1.03770216       0.73595822       2.55201197
H       -1.28766939       1.59454399       1.04231273
H        0.29197539      -0.86508482       1.32254095
H        1.05169134       1.80222180      -0.33736390
