16
Properties=species:S:1:pos:R:3 pbc="F F F"
O       -3.13170563       0.48013686      -0.21341984
C       -2.51017641      -0.09812417      -1.20597522
C       -0.69113490      -0.49911665       0.43493505
O       -1.38458183      -0.81529255       1.36633785
C        0.61901954       0.23002309       0.41869064
O        0.38900462       1.03605602      -1.00573573
C        1.84528278      -0.55524890       0.65354028
O        2.81351492       0.38596571       0.22194799
H       -2.14086390       0.74763870      -1.84909815
H       -1.23898745      -0.76194906      -0.63749400
H       -3.29097247      -0.15321339       0.51405760
H        0.44196610       0.95615014       1.21312464
H        1.31860430       1.27217811      -1.01571086
H        1.46929599      -0.93099065      -0.48972112
H        1.81671025      -1.12593351       1.57381820
H        3.61205436      -0.10432281      -0.00159881
