16
Properties=species:S:1:pos:R:3 pbc="F F F"
O       -2.85680069       0.25661578      -0.37816751
C       -1.73244464       0.05774148      -1.00012101
C       -0.74688697      -0.32833904       1.43984708
O       -1.79051722      -0.87522245       1.60944784
C        0.44029341       0.23162718       1.39964392
O        0.64956064       0.30845369      -1.83970611
C        1.44436645      -0.34565225       0.49165398
O        2.65955227       0.30544154       0.66589447
H       -1.45503476       0.76159133      -1.75574988
H       -1.23093622      -0.89591949      -0.94405063
H       -2.84198010      -0.30477469       0.46336618
H        0.57897226       1.19198731       1.87141601
H        1.05585312       1.17766836      -1.81638483
H        1.02972495      -0.09350755      -0.65472414
H        1.51240322      -1.44018898       0.50722107
H        3.22091036       0.05638487      -0.08186087
