16
Properties=species:S:1:pos:R:3 pbc="F F F"
O       -0.51160348      -1.03683283      -1.14799775
C       -0.60821074       0.09475537      -1.58223408
C        0.57803560       1.00802152      -1.52582985
O        1.71455795       0.54952370      -0.84029844
O       -1.93072485      -1.70146257       1.10791314
C       -1.18294067      -0.96442737       1.70579259
C        0.10963992      -0.34199562       1.25223068
O        0.61242901      -0.12728007       2.58355860
H       -1.56681514       0.43356050      -2.00809577
H        0.69620872       1.36342456      -2.56259895
H        0.20520193       1.91679349      -1.02560502
H        1.40740534      -0.37615841      -0.76213970
H       -1.40652209      -0.67631006       2.75230971
H        0.47056547      -1.05734285       0.50372639
H       -0.26266637       0.42495791       0.55419861
H        1.67543937       0.49077273       0.99506985
