16
Properties=species:S:1:pos:R:3 pbc="F F F"
C        1.94438554      -0.60343814      -0.43474159
C        0.92346370       0.25427407       0.22375152
O        1.04037203       1.55108577      -0.18183080
N       -1.49032758      -0.76137915      -1.73830464
C       -0.90082331       0.67691246       1.63677341
N        0.06353845      -0.21846434       1.02886490
H        2.94221129      -0.20663927      -0.25540115
H        1.87004706      -1.61518235      -0.05425830
H        1.78108272      -0.60195727      -1.51128013
H       -1.36261669      -1.58769725      -2.30682718
H       -2.48809272      -0.62894268      -1.64363966
H       -1.51525637       0.11599275       2.33690070
H       -0.42675868       1.48996311       2.19859461
H       -1.57210039       1.12886629       0.89773800
H       -1.14363828      -0.98887262      -0.81260115
H        0.31599995       2.06502696       0.19588255
