16
Properties=species:S:1:pos:R:3 pbc="F F F"
C        1.56072634      -0.89305649      -0.67257763
C        0.34586701      -0.03444265      -0.38317004
O        0.77239040       1.31578942      -0.59633853
N       -0.73935808      -0.43823482      -1.27722334
C       -1.07616191       0.61580486       1.53018564
N       -0.00986120      -0.22164144       1.01432056
H        2.35341704      -0.65161736       0.02857837
H        1.29793595      -1.94524372      -0.58283025
H        1.91623665      -0.70852984      -1.68544123
H       -0.44470847      -0.27088077      -2.23341697
H       -1.56318492       0.13426951      -1.11818771
H       -1.31834695       0.28790635       2.53905263
H       -0.72641914       1.64407563       1.60910018
H       -2.01483410       0.61851538       0.95172549
H       -0.25201261      -1.19760746       1.12438916
H        0.02345084       1.89935597      -0.42330680
