12
Properties=species:S:1:pos:R:3 pbc="F F F"
O        1.48561731      -0.44457472      -1.01107017
C        1.39638695       0.73565295      -1.23146342
C       -0.99491476      -0.90356077       1.46650645
O        0.03149263      -1.87564737       1.49493448
C        0.03277875       1.43567964      -1.46662760
O       -1.00771656       0.83376221      -1.43728859
H       -1.60636096      -1.04973615       2.35421778
H       -1.63980794      -0.99703730       0.58992204
H        2.29137995       1.39382578      -1.27423357
H       -0.60687002       0.11774434       1.49453198
H        0.07971174       2.53041711      -1.65764562
H        0.56019232      -1.75469839       0.70033942
