12
Properties=species:S:1:pos:R:3 pbc="F F F"
C        0.90954281      -0.79602325      -1.81386850
O       -0.23047673      -1.14484552      -2.21466876
O       -1.27807400      -0.56081892      -0.01350146
C        0.13278527       1.35466029       0.59327375
C       -0.24829966      -0.10816821       0.53844346
O        0.36240521      -0.81212533       1.54199363
H       -0.10582499      -1.65986271       1.61356149
H       -0.37959764       1.81834408       1.43791673
H       -0.95070001      -1.01435312      -1.47260708
H       -0.17282589       1.85188899      -0.32296737
H        0.75645898      -0.39093527      -0.63162598
H        1.20463695       1.46222977       0.74409032
