16
Properties=species:S:1:pos:R:3 pbc="F F F"
O       -1.84868125       1.27551223       1.60964860
C       -1.66587839       0.20071688       1.01260717
C       -2.08695437      -0.08912941      -0.30148465
O       -1.86374883      -1.34719891      -0.78122470
C        0.75646096       0.49466902      -0.18138385
O        0.37466577       0.13908483      -1.39077189
C        1.94732291      -0.18051619       0.37177863
O        3.10064189       0.56877953      -0.04088311
H       -1.21752836      -0.68491359       1.51611835
H       -2.79055943       0.55243230      -0.82002230
H       -2.20968862      -1.41873012      -1.67773687
H        0.39185800       1.41243401       0.26812215
H       -0.60802600       0.30190423      -1.43399501
H        1.86144893      -0.19670823       1.46476318
H        1.98205713      -1.20752300      -0.00015430
H        3.87661898       0.17919652       0.38463329
