12
Properties=species:S:1:pos:R:3 pbc="F F F"
O        0.95301400      -1.00332157       1.01357456
C        1.26424064       0.27112873       0.88688725
C        0.19706018       0.63266264      -0.58679892
O        0.49887773       1.20790443      -1.62060601
C       -1.19483149       0.03551908      -0.60063690
O       -1.65757799      -0.45918596       0.63487908
H        1.38082563      -1.38316421       0.08541299
H        1.95391165       0.61879615       0.16616721
H        0.77489295       0.97938550       1.36451644
H       -1.22001729      -0.75203637      -1.36665443
H       -1.92580189       0.76656113      -0.94012596
H       -0.96127146      -1.03391054       0.99205599
