16
Properties=species:S:1:pos:R:3 pbc="F F F"
C        0.97114331       0.82863743      -1.21193226
C        0.45751390      -0.46976286      -1.36471393
C       -0.88001567      -0.62533439      -1.06321012
C       -1.15964112      -1.31741131       0.12672088
C        0.70793972       0.91165895       0.83352431
C       -0.32262210       0.08863395       1.38399793
H        0.34870829       1.66628684      -1.51080768
H        2.03416835       1.01704535      -1.30425202
H        1.12982701      -1.28938916      -1.12422549
H       -1.55727093       0.18315238      -1.32658104
H       -0.54391949      -2.17515832       0.37873234
H       -2.17260103      -1.37782706       0.50654006
H        1.71937713       0.61807636       1.07708991
H        0.54735003       1.97990314       0.85778195
H       -0.02721765      -0.63070152       2.13422760
H       -1.25273771       0.59219449       1.60710756
