16
Properties=species:S:1:pos:R:3 pbc="F F F"
C        0.20192920       0.39690258      -1.98047924
C       -0.32645979      -0.93107994      -1.74652154
O       -0.28798729      -1.56688420      -2.79991265
N       -0.77256384      -1.35731727      -0.56965631
C        0.84623711       0.63210880       2.07674384
N       -0.58525907       0.45630348       1.82676071
H        0.36386345       1.28242354      -1.42107797
H        0.74743134       0.17634082      -2.80462930
H        0.03655044       0.42612415      -2.97910609
H       -0.75288022      -0.77238000       0.27006807
H       -1.12535677      -2.29684835      -0.53660415
H        1.09152272       1.28040861       2.92435425
H        1.30670025      -0.33992448       2.24624475
H        1.31206757       1.04850805       1.18725083
H       -1.04743318       0.07806933       2.64347759
H       -1.02529083       1.34902849       1.65003757
