16
Properties=species:S:1:pos:R:3 pbc="F F F"
O        0.63566640      -0.07849302      -3.12760788
C        0.09308636      -0.67544561      -2.22172662
C       -0.84083724      -0.15951650      -1.17406326
O       -1.21589588       1.15536148      -1.77421234
O        2.20455018      -0.04081569       3.06500100
C        1.30623345      -0.37113492       2.32784944
C        0.22929078       0.52247937       1.78300730
O       -0.72514376      -0.33876527       1.22289184
H        0.44421695      -1.71509987      -2.20390069
H       -1.69333752      -0.76908640      -1.46536071
H       -0.39384835      -0.38357044      -0.20288885
H       -0.54314289       1.38424724      -2.43094552
H        1.21457983      -1.41735467       1.97449742
H        0.04431986       1.26435875       2.56479709
H        0.72824974       1.10406738       0.99632762
H       -1.48798790       0.51876818       0.66633416
