16
Properties=species:S:1:pos:R:3 pbc="F F F"
O        1.06138430       0.32962157      -1.92812694
C        0.24043145      -0.62757001      -2.02452581
C       -1.06980632      -0.46892085      -1.57537743
O       -1.40610285       0.90692647      -1.28750122
O        1.98538227      -0.33835815       2.91791592
C        1.34452407      -0.39047389       1.89767846
C        0.41508817       0.71187649       1.46459280
O       -0.90613059       0.22285495       1.06510077
H        0.54237766      -1.59538018      -2.46618287
H       -1.91982983      -1.07242460      -1.81107271
H       -1.09565253      -0.62940785       1.48570776
H       -0.58506267       1.37788794      -1.57687081
H        1.40967293      -1.26457513       1.21347039
H        0.28788378       1.45445773       2.24807697
H        0.81871153       1.17506416       0.56694622
H       -1.12288678       0.20843449      -0.18984897
