18
Properties=species:S:1:pos:R:3 relative_energy_eV=16.211472926548595 branch=ts pbc="F F F"
C       -0.63650256       1.59486470      -0.36213082
C       -0.50963267      -0.08256116      -1.15088392
O        0.84931925      -0.05982151      -1.23044532
P        1.61955743      -0.59674855       0.14457444
O        1.27620443       0.27964844       1.39341718
O        3.13994579      -0.16574571      -0.14272109
O        1.38362380      -2.06791358       0.26503269
C       -1.22015328      -0.78946340      -0.26475395
O       -1.21597679      -2.05584201       0.07845708
O       -2.07632474       0.05377442       0.58568225
O       -0.42486122       1.51340798       0.37743809
H       -1.76753636       2.13113544      -0.39673673
H       -0.20158912       2.20029090      -1.26857690
H        3.60273859      -0.84697004      -0.64983826
H       -0.24750128      -2.32244668       0.06656295
H       -2.74415848      -0.54977408       0.94129872
H       -1.29811259       0.88491362       0.46140583
H        0.47095052       0.87928336       1.15226670
