18
Properties=species:S:1:pos:R:3 relative_energy_eV=1.6801871747848054 branch=ts pbc="F F F"
C        0.05072826       1.61657506      -0.71452453
C       -0.18684865       0.41756419      -1.07184733
O       -1.01060565      -0.66637590       0.14435320
P       -0.18191386      -1.25030838       1.54756389
O       -0.65533724      -2.62107639       1.81893826
O       -0.44199258      -0.12825282       2.57425678
O        1.36411155      -1.14310992       1.07090458
C       -0.08114216      -0.54487342      -2.16230223
O       -0.53366866      -1.67829539      -2.14252067
O        0.58360916      -0.05015446      -3.21587636
O        0.14766291       2.19641976       1.85339144
H        0.33557810       2.30284942      -1.50520267
H        0.11570994       2.05792097       0.76825851
H       -0.17794806       0.88872633       2.28972652
H        1.76148125      -2.02323864       1.04704395
H        0.60044288      -0.75731667      -3.88161582
H       -1.13103568      -1.44337653      -0.45559342
H       -0.55887633       2.82656220       2.03506621
