18
Properties=species:S:1:pos:R:3 relative_energy_eV=1.8995177562901517 branch=ts pbc="F F F"
O        0.30487881       0.67176272       2.18423333
C       -0.67594081       0.73184730       1.42581354
O       -1.93494554       0.85213085       1.91299752
C       -0.58377239       0.57753634       0.03087034
O        0.66249222       0.90296876      -0.55364087
P        1.65255963      -0.39267031      -0.69511275
O        1.04788767      -1.44292907      -1.56427807
O        3.00126101       0.19390580      -1.32576255
O        2.03726307      -0.78795145       0.79386328
C       -1.64220942       0.25368464      -0.94527823
O       -1.53159307      -1.30032613      -0.93721833
H       -1.84114871       0.91906341       2.87485369
H       -0.83124777      -0.93205654       0.05423402
H        3.62396280       0.45697411      -0.63609409
H        1.50882571      -0.23792339       1.45525901
H       -2.66407325       0.45421281      -0.64990743
H       -1.42677938       0.57403057      -1.95620009
H       -0.70746454      -1.49421034      -1.46862435
