18
Properties=species:S:1:pos:R:3 relative_energy_eV=0.3498368890468555 branch=ts pbc="F F F"
C        1.37928788      -1.15486600      -0.58621201
C        0.05318766      -0.60537580      -0.29082706
O       -0.05393607       0.17883869       0.88793204
P       -0.28864776       2.12901842       0.85679934
O        0.98499444       2.58044993       0.26176253
O       -0.32195018       2.21628026       2.47428635
O       -1.67624271       2.16712386       0.31781533
C       -1.06231267      -0.73165847      -1.03997632
O       -2.22371497      -0.12144790      -0.86003539
O       -1.05475605      -1.57554356      -2.09338871
O        1.71489195      -2.13956413       0.41556990
H        1.35285446      -1.61141871      -1.57718999
H        2.12625447      -0.35557354      -0.58656437
H        0.51895719       2.58569411       2.77794114
H       -2.11513866       0.75122035      -0.38647643
H       -1.92754120      -1.52267652      -2.50464325
H       -0.01498449      -0.34240665       1.70810151
H        2.60884434      -2.44810553       0.22511632
