32
Properties=species:S:1:pos:R:3 relative_energy_eV=0.4417765405232785 branch=ts pbc="F F F"
O        1.89082307      -1.94235037      -3.57492937
C        1.44345802      -1.83020730      -2.45213291
C        1.94401167      -0.74585527      -1.53030891
O        3.08822348      -0.12926209      -2.08286559
C        0.87107493       0.32889309      -1.29501701
O        1.36244810       1.31940131      -0.39284845
C       -0.42764959      -0.23322564      -0.70741721
O       -0.10747563      -1.26575699       0.19475389
C       -1.34769182       0.82786484      -0.08210005
O       -0.82021288       1.39327710       1.11283120
C       -1.72231396       1.90702850      -1.08693148
O       -2.68496787       2.81994417      -0.59768385
O       -1.44361094      -1.48127356       2.18855204
P       -0.34413738      -0.85936148       3.08747041
O        0.98978777      -0.75943725       2.29860656
O       -0.79595974       0.53157518       3.69124588
O       -0.15355961      -1.69564005       4.43637299
H        0.66048531      -2.50368286      -2.06859492
H        2.19613106      -1.19683359      -0.56665847
H        3.17329401      -0.49423504      -2.98179080
H        0.66387542       0.79009943      -2.26763692
H        2.24852380       1.56753660      -0.68466508
H       -0.99999134      -0.67369212      -1.53318029
H        0.63255225      -0.95054913       1.16499013
H       -2.26147308       0.31345449       0.22568215
H        0.11442769       1.60000457       0.93050230
H       -2.05893119       1.43304907      -2.01926157
H       -0.84741973       2.50923467      -1.32206777
H       -3.47270790       2.33297762      -0.32938094
H       -0.95959119      -1.42148197       1.09066903
H       -0.94267016       1.11307619       2.90553995
H        0.11122480      -2.60457884       4.24824264
