18
Properties=species:S:1:pos:R:3 relative_energy_eV=3.2347813644264534 branch=ts pbc="F F F"
C       -1.17440501      -1.66672241       0.05265805
C       -0.81035908      -0.31250797      -0.53225943
O       -1.49952166       0.25847123      -1.35454622
C        1.01610405      -0.76236620      -1.51809633
O        1.38513024      -1.87524556      -1.63902072
O        1.06401928       0.26948000      -2.33880313
O       -0.19463143       2.11802486      -0.03671589
P        0.35859746       0.84313528       0.83586132
O        1.46315494      -0.07643718       0.21824473
O       -0.56001354       0.40901339       2.11983753
O        1.33426717       1.73966020       1.82058440
H       -1.19917744      -2.37234658      -0.76994120
H       -0.45554355      -2.02489174       0.78386481
H       -2.17130318      -1.63671569       0.49509657
H        0.31173833       0.85485579      -2.12074586
H        0.15444618       2.95057911       0.30801549
H       -1.28343567      -0.21020602       1.96172207
H        2.26090342       1.49418209       1.71428801
