18
Properties=species:S:1:pos:R:3 relative_energy_eV=2.304313413962518 branch=ts pbc="F F F"
C        2.43644685      -0.38250051      -0.77981000
C        1.28728197      -0.28139080      -0.08694532
O        0.57097196       0.84821508      -0.00634538
P       -1.59876780       1.04847197      -0.31542694
O       -3.06274816       0.92864513      -0.12094354
O       -1.06166249       2.53835917      -0.55494130
O       -1.14754618       0.10868070      -1.56477665
C        0.75158771      -1.48010184       0.64484772
O       -0.23676864      -1.48889644       1.37005021
O        1.44850786      -2.61615677       0.45548743
O       -1.13968685       0.96873439       1.52415136
H        2.82398685       0.47793176      -1.29702159
H        2.98285260      -1.30735749      -0.82614076
H       -1.81063998       3.13986150      -0.46031376
H       -1.96306402      -0.26928905      -1.92662519
H        0.99433307      -3.29836787       0.97567757
H       -1.14831140       0.00172423       1.75295754
H       -0.12676569       1.06351386       1.21605254
