18
Properties=species:S:1:pos:R:3 relative_energy_eV=2.1520166033660644 branch=ts pbc="F F F"
C        1.12692989       2.11059535      -1.29197296
C        0.48765987       1.34993265      -0.39948264
O       -0.75575610       0.86457761      -0.63523427
P       -1.15933462      -0.78285536      -0.64015322
O       -2.29149345      -0.89172076      -1.57234193
O        0.35895558      -1.28105850      -0.86181839
O       -1.34389866      -2.77915661       0.12941215
C        1.08507812       1.08140608       0.92549420
O        0.54544474       0.43382816       1.82785851
O        2.29645403       1.61299043       1.10952135
O       -1.55841259      -0.67443503       1.06287010
H        0.67456309       2.31661534      -2.24907129
H        2.09427720       2.53069901      -1.07921438
H        0.31741003      -2.24067401      -0.69859931
H       -2.17468347      -3.04613488      -0.28557694
H        2.58190973       1.38276673       2.00862130
H       -0.71179512      -0.24412049       1.52068842
H       -1.57327937      -1.74334583       1.12928258
