18
Properties=species:S:1:pos:R:3 relative_energy_eV=0.01710774645107449 branch=ts pbc="F F F"
O       -0.15707064       2.47044484       0.50388137
C       -0.84113680       1.53124491       0.84660107
O       -1.87498668       1.63899428       1.70703492
C       -0.70528495       0.11195843       0.37413511
O        0.41555018       0.03544301      -0.50197563
P        1.83138854      -0.50009444      -0.01716122
O        2.02160791      -0.95868211       1.36990252
O        2.04968415      -1.75397491      -1.07184327
O        2.84116414       0.59468454      -0.59944961
C       -1.95436914      -0.38864013      -0.45502646
O       -1.89515797      -1.68129032      -0.70529809
H       -1.93033439       2.57659917       1.95015798
H       -0.60485230      -0.57307512       1.21087449
H        2.34832206      -2.51185797      -0.55585384
H        2.42293860       1.46745747      -0.61022066
H       -2.80953385      -0.07357773       0.18119940
H       -1.98623786       0.26587914      -1.34929722
H        0.82838375      -2.25192970      -2.27779867
