18
Properties=species:S:1:pos:R:3 relative_energy_eV=0.00582252755339141 branch=ts pbc="F F F"
O        0.31518807       2.19185531       0.23371939
C       -0.47302723       1.37676814       0.64599586
O       -1.34564249       1.71250314       1.61247611
C       -0.58985836      -0.04721010       0.11913806
O        0.57316734      -0.43619677      -0.59596733
P        1.99390623      -0.39154076       0.21961735
O        1.80972497      -0.48520892       1.68507232
O        2.81971037      -1.57133780      -0.49087780
O        2.77551676       0.86436548      -0.37727457
C       -1.78339868      -0.18640505      -0.81828368
O       -2.15276745      -1.55176001      -0.89818738
H       -1.86436417       0.94101888       1.88258555
H       -0.74435457      -0.73050105       0.95876156
H        2.87085970      -2.34590265       0.08182673
H        2.23107133       1.66148505      -0.25008194
H       -2.62252928       0.39939878      -0.42900100
H       -1.50293431       0.23270193      -1.78694578
H       -2.35928158      -1.76697858      -1.81213659
