18
Properties=species:S:1:pos:R:3 relative_energy_eV=0.0 branch=left pbc="F F F"
O        0.26919794       2.25257107       0.24777931
C       -0.58740390       1.43566431       0.51578477
O       -1.68978829       1.74881231       1.21356107
C       -0.56181670      -0.03215686       0.13380005
O        0.62268578      -0.33745406      -0.58359536
P        2.01846265      -0.51534606       0.24849913
O        1.86702407      -1.14043410       1.57960012
O        2.88444395      -1.34887423      -0.81875789
O        2.71843148       0.91867737       0.17324988
C       -1.75090385      -0.41430144      -0.73829474
O       -1.82628054      -1.82773054      -0.75231745
H       -1.62239085       2.69093331       1.43987539
H       -0.61298726      -0.62287788       1.05125897
H        3.07517217      -2.22664981      -0.46738473
H        2.03341080       1.61698573       0.17498926
H       -2.65547216       0.02533259      -0.31115887
H       -1.59712316      -0.00018978      -1.73945620
H       -2.53561104      -2.08991655      -1.34778748
18
Properties=species:S:1:pos:R:3 relative_energy_eV=5.951376806478947e-06 branch=left pbc="F F F"
O        0.26909427       2.25281516       0.24740695
C       -0.58729900       1.43578739       0.51561724
O       -1.68967202       1.74883319       1.21342035
C       -0.56162593      -0.03203349       0.13381283
O        0.62280179      -0.33742473      -0.58360121
P        2.01846476      -0.51542193       0.24872670
O        1.86679039      -1.14093769       1.57960259
O        2.88497470      -1.34824021      -0.81866880
O        2.71834048       0.91866142       0.17406514
C       -1.75068017      -0.41436433      -0.73812297
O       -1.82601567      -1.82781838      -0.75212225
H       -1.62268314       2.69111261       1.43932118
H       -0.61295843      -0.62278573       1.05118215
H        3.07403492      -2.22697279      -0.46866187
H        2.03328605       1.61693499       0.17537902
H       -2.65523956       0.02522624      -0.31102882
H       -1.59704439      -0.00030424      -1.73927986
H       -2.53551797      -2.09002208      -1.34740317
18
Properties=species:S:1:pos:R:3 relative_energy_eV=6.551195838255808e-06 branch=left pbc="F F F"
O        0.26898989       2.25303893       0.24683872
C       -0.58714158       1.43583885       0.51532817
O       -1.68936103       1.74862732       1.21344799
C       -0.56139084      -0.03200006       0.13375393
O        0.62293755      -0.33756547      -0.58373562
P        2.01844389      -0.51550027       0.24891229
O        1.86633241      -1.14126152       1.57962910
O        2.88574491      -1.34755632      -0.81847695
O        2.71806455       0.91867854       0.17481690
C       -1.75050682      -0.41437165      -0.73793018
O       -1.82622694      -1.82776992      -0.75180221
H       -1.62273533       2.69104235       1.43904110
H       -0.61294661      -0.62279029       1.05104642
H        3.07337485      -2.22713503      -0.46956612
H        2.03300350       1.61693614       0.17555011
H       -2.65496523       0.02530349      -0.31091835
H       -1.59693703      -0.00050817      -1.73908328
H       -2.53562907      -2.08996156      -1.34720679
18
Properties=species:S:1:pos:R:3 relative_energy_eV=2.260001565446146e-05 branch=left pbc="F F F"
O        0.26902368       2.25328357       0.24643335
C       -0.58701007       1.43595747       0.51495054
O       -1.68911594       1.74849080       1.21334337
C       -0.56120282      -0.03198028       0.13362647
O        0.62307829      -0.33769348      -0.58395250
P        2.01839995      -0.51561865       0.24901307
O        1.86548039      -1.14148343       1.57958984
O        2.88669843      -1.34690103      -0.81823342
O        2.71778468       0.91861872       0.17549284
C       -1.75045595      -0.41443389      -0.73773076
O       -1.82655454      -1.82772352      -0.75143192
H       -1.62261502       2.69094056       1.43889123
H       -0.61284591      -0.62269981       1.05096596
H        3.07286243      -2.22717706      -0.47047716
H        2.03289871       1.61701257       0.17582417
H       -2.65481903       0.02523937      -0.31069936
H       -1.59686435      -0.00080751      -1.73887461
H       -2.53569186      -2.08997907      -1.34708590
18
Properties=species:S:1:pos:R:3 relative_energy_eV=3.089189704041928e-05 branch=left pbc="F F F"
O        0.26895640       2.25334529       0.24608617
C       -0.58696034       1.43590912       0.51482997
O       -1.68869948       1.74820928       1.21392572
C       -0.56135690      -0.03213424       0.13353947
O        0.62288815      -0.33811199      -0.58414564
P        2.01820436      -0.51574264       0.24880522
O        1.86469278      -1.14121909       1.57949802
O        2.88703618      -1.34696166      -0.81814089
O        2.71741739       0.91852073       0.17506911
C       -1.75068623      -0.41434004      -0.73782211
O       -1.82754772      -1.82752029      -0.75109692
H       -1.62186445       2.69050520       1.43993082
H       -0.61321857      -0.62279887       1.05094667
H        3.07497094      -2.22653685      -0.46931594
H        2.03269356       1.61706209       0.17499713
H       -2.65500714       0.02562317      -0.31104116
H       -1.59636070      -0.00108122      -1.73896695
H       -2.53610713      -2.08968264      -1.34745347
18
Properties=species:S:1:pos:R:3 relative_energy_eV=4.122416794416495e-05 branch=left pbc="F F F"
O        0.26903000       2.25354581       0.24626325
C       -0.58704296       1.43614547       0.51480483
O       -1.68882748       1.74854180       1.21382770
C       -0.56157042      -0.03204465       0.13359119
O        0.62272862      -0.33811722      -0.58409744
P        2.01806055      -0.51593368       0.24871514
O        1.86377889      -1.14145903       1.57928493
O        2.88739010      -1.34685943      -0.81811561
O        2.71739849       0.91827369       0.17504693
C       -1.75079941      -0.41443964      -0.73789524
O       -1.82744083      -1.82762285      -0.75094438
H       -1.62148641       2.69062659       1.44033788
H       -0.61343973      -0.62247157       1.05119922
H        3.07549502      -2.22626797      -0.46962006
H        2.03290795       1.61701489       0.17472825
H       -2.65534049       0.02525570      -0.31118458
H       -1.59585522      -0.00122508      -1.73901117
H       -2.53593554      -2.08991747      -1.34728562
18
Properties=species:S:1:pos:R:3 relative_energy_eV=5.1878279919037595e-05 branch=left pbc="F F F"
O        0.26884100       2.25362834       0.24632726
C       -0.58721547       1.43626001       0.51508496
O       -1.68893633       1.74886060       1.21417058
C       -0.56197053      -0.03198817       0.13386718
O        0.62235450      -0.33823866      -0.58378656
P        2.01787099      -0.51611146       0.24862081
O        1.86332891      -1.14177191       1.57908374
O        2.88722108      -1.34705282      -0.81821061
O        2.71737839       0.91807113       0.17459450
C       -1.75085397      -0.41439627      -0.73819249
O       -1.82728539      -1.82767098      -0.75092381
H       -1.62095502       2.69068728       1.44129385
H       -0.61407634      -0.62221456       1.05161930
H        3.07707719      -2.22580936      -0.46905607
H        2.03281907       1.61676288       0.17344568
H       -2.65576381       0.02514683      -0.31189691
H       -1.59486201      -0.00114330      -1.73927193
H       -2.53592110      -2.08997421      -1.34712429
18
Properties=species:S:1:pos:R:3 relative_energy_eV=7.657642709091306e-05 branch=left pbc="F F F"
O        0.26861659       2.25381253       0.24639040
C       -0.58742769       1.43652108       0.51533338
O       -1.68938499       1.74946948       1.21392682
C       -0.56217013      -0.03173102       0.13431511
O        0.62218306      -0.33802755      -0.58325131
P        2.01782480      -0.51628514       0.24887945
O        1.86309236      -1.14277817       1.57890978
O        2.88734094      -1.34667697      -0.81820978
O        2.71752649       0.91791612       0.17505861
C       -1.75054768      -0.41444884      -0.73835385
O       -1.82613829      -1.82789237      -0.75102517
H       -1.62103039       2.69115529       1.44130756
H       -0.61443689      -0.62168301       1.05223542
H        3.07631623      -2.22600665      -0.47036460
H        2.03270134       1.61634838       0.17260961
H       -2.65595307       0.02457986      -0.31241761
H       -1.59396116      -0.00087129      -1.73937409
H       -2.53550034      -2.09035636      -1.34632451
18
Properties=species:S:1:pos:R:3 relative_energy_eV=9.965475692297332e-05 branch=left pbc="F F F"
O        0.26828612       2.25395442       0.24617250
C       -0.58762717       1.43672080       0.51548837
O       -1.68985538       1.74994609       1.21354566
C       -0.56215711      -0.03145808       0.13484236
O        0.62216722      -0.33774356      -0.58271356
P        2.01785378      -0.51639817       0.24937187
O        1.86306150      -1.14410530       1.57880506
O        2.88771846      -1.34590382      -0.81803030
O        2.71762293       0.91788706       0.17603946
C       -1.75000555      -0.41445159      -0.73839779
O       -1.82481927      -1.82804502      -0.75111132
H       -1.62139547       2.69159585       1.44096437
H       -0.61456076      -0.62115476       1.05291628
H        3.07458152      -2.22655834      -0.47233669
H        2.03228656       1.61582760       0.17169467
H       -2.65585000       0.02413164      -0.31292316
H       -1.59318193      -0.00051074      -1.73936481
H       -2.53507430      -2.09068875      -1.34531778
18
Properties=species:S:1:pos:R:3 relative_energy_eV=0.0001383904746035114 branch=left pbc="F F F"
O        0.26809583       2.25413923       0.24589268
C       -0.58782192       1.43702070       0.51531735
O       -1.69059949       1.75046306       1.21242613
C       -0.56176912      -0.03107101       0.13534552
O        0.62250075      -0.33709427      -0.58236825
P        2.01798821      -0.51646888       0.25016984
O        1.86272034      -1.14596496       1.57869507
O        2.88891291      -1.34434504      -0.81747124
O        2.71777221       0.91791785       0.17801273
C       -1.74921927      -0.41455008      -0.73809070
O       -1.82303816      -1.82822409      -0.75111262
H       -1.62232621       2.69218081       1.43964085
H       -0.61391375      -0.62042369       1.05369780
H        3.07055654      -2.22783310      -0.47618790
H        2.03188891       1.61528258       0.17155993
H       -2.65539179       0.02348985      -0.31294363
H       -1.59298623      -0.00020782      -1.73902288
H       -2.53431860      -2.09126584      -1.34391553
18
Properties=species:S:1:pos:R:3 relative_energy_eV=0.00018472057854523882 branch=left pbc="F F F"
O        0.26826769       2.25425839       0.24581796
C       -0.58801066       1.43737124       0.51473319
O       -1.69154831       1.75093955       1.21064393
C       -0.56111504      -0.03069057       0.13559357
O        0.62312638      -0.33611410      -0.58251670
P        2.01813743      -0.51647939       0.25099358
O        1.86162238      -1.14781578       1.57851440
O        2.89095159      -1.34232534      -0.81652537
O        2.71796966       0.91790573       0.18036081
C       -1.74855881      -0.41478346      -0.73740976
O       -1.82139289      -1.82838128      -0.75096526
H       -1.62346404       2.69271821       1.43779074
H       -0.61227962      -0.61959319       1.05442187
H        3.06549530      -2.22956069      -0.48093309
H        2.03178531       1.61496457       0.17244945
H       -2.65478892       0.02292243      -0.31233481
H       -1.59377759      -0.00026072      -1.73836350
H       -2.53336876      -2.09203035      -1.34262585
18
Properties=species:S:1:pos:R:3 relative_energy_eV=0.0002424740705464501 branch=left pbc="F F F"
O        0.26883518       2.25430410       0.24614274
C       -0.58817997       1.43774182       0.51398052
O       -1.69249395       1.75141448       1.20873962
C       -0.56052939      -0.03041358       0.13549759
O        0.62382113      -0.33502003      -0.58298715
P        2.01826702      -0.51653044       0.25151822
O        1.85991396      -1.14904983       1.57830651
O        2.89331379      -1.34055623      -0.81556873
O        2.71816346       0.91776643       0.18218965
C       -1.74839163      -0.41515356      -0.73659828
O       -1.82025398      -1.82857234      -0.75082037
H       -1.62441612       2.69317516       1.43596249
H       -0.61010604      -0.61880746       1.05491393
H        3.06109346      -2.23122376      -0.48520043
H        2.03225257       1.61506101       0.17430184
H       -2.65446308       0.02253204      -0.31128700
H       -1.59535121      -0.00072352      -1.73761375
H       -2.53242416      -2.09289908      -1.34183227
18
Properties=species:S:1:pos:R:3 relative_energy_eV=0.0003039328512386419 branch=left pbc="F F F"
O        0.26904285       2.25415383       0.24595126
C       -0.58827969       1.43775239       0.51360055
O       -1.69259303       1.75142270       1.20846939
C       -0.56044375      -0.03053415       0.13536310
O        0.62415879      -0.33477662      -0.58303480
P        2.01840809      -0.51668961       0.25171738
O        1.85902182      -1.14929198       1.57839127
O        2.89488957      -1.33981834      -0.81510227
O        2.71782943       0.91772685       0.18270624
C       -1.74873300      -0.41527112      -0.73635183
O       -1.82038656      -1.82853042      -0.75088131
H       -1.62437024       2.69312864       1.43582487
H       -0.60893330      -0.61855904       1.05515862
H        3.06046065      -2.23186464      -0.48626200
H        2.03227901       1.61539941       0.17453876
H       -2.65466800       0.02309860      -0.31119779
H       -1.59617607      -0.00117433      -1.73740922
H       -2.53245557      -2.09312699      -1.34183709
18
Properties=species:S:1:pos:R:3 relative_energy_eV=0.0003565324150258675 branch=left pbc="F F F"
O        0.26976888       2.25450634       0.24683433
C       -0.58832652       1.43845122       0.51307832
O       -1.69348425       1.75263679       1.20639695
C       -0.56018254      -0.03008439       0.13510666
O        0.62489459      -0.33383398      -0.58273491
P        2.01884825      -0.51697704       0.25223629
O        1.85785177      -1.15026287       1.57838262
O        2.89697887      -1.33848398      -0.81493052
O        2.71818592       0.91732292       0.18503453
C       -1.74883315      -0.41596754      -0.73587819
O       -1.81829648      -1.82928650      -0.75112983
H       -1.62536487       2.69439932       1.43353933
H       -0.60730202      -0.61747454       1.05534304
H        3.05468315      -2.23329803      -0.49142272
H        2.03335277       1.61591104       0.17729300
H       -2.65493981       0.02166766      -0.30986763
H       -1.59756684      -0.00157835      -1.73692558
H       -2.53121679      -2.09460292      -1.34071059
18
Properties=species:S:1:pos:R:3 relative_energy_eV=0.0004369975249574054 branch=left pbc="F F F"
O        0.26848209       2.25457603       0.24346904
C       -0.58812363       1.43809154       0.51301970
O       -1.69173452       1.75214763       1.20873389
C       -0.56040578      -0.03070354       0.13558247
O        0.62536681      -0.33550793      -0.58042147
P        2.01989325      -0.51744714       0.25365474
O        1.86031771      -1.15116346       1.57975745
O        2.89876000      -1.33711050      -0.81492211
O        2.71635672       0.91811276       0.18762263
C       -1.74875637      -0.41573433      -0.73680359
O       -1.81855190      -1.82913243      -0.75187779
H       -1.62465109       2.69432784       1.43433402
H       -0.60847581      -0.61764000       1.05578552
H        3.05332347      -2.23354175      -0.49298502
H        2.03112837       1.61626310       0.17400031
H       -2.65535054       0.02271819      -0.31182614
H       -1.59554504      -0.00111006      -1.73765091
H       -2.53298278      -2.09410085      -1.33982767
18
Properties=species:S:1:pos:R:3 relative_energy_eV=0.0005509950533451047 branch=left pbc="F F F"
O        0.26793496       2.25530712       0.24206813
C       -0.58789760       1.43860872       0.51275392
O       -1.69149364       1.75293605       1.20818425
C       -0.56003992      -0.03038933       0.13595254
O        0.62621626      -0.33587112      -0.57861868
P        2.02094106      -0.51777300       0.25527215
O        1.86213541      -1.15318920       1.58056726
O        2.90041164      -1.33510052      -0.81497630
O        2.71590689       0.91847727       0.19209896
C       -1.74789818      -0.41605357      -0.73708406
O       -1.81609282      -1.82973042      -0.75238469
H       -1.62579314       2.69565650       1.43207841
H       -0.60889706      -0.61688518       1.05610686
H        3.04559619      -2.23485620      -0.49931456
H        2.03036106       1.61627286       0.17404331
H       -2.65517486       0.02103398      -0.31178758
H       -1.59444573      -0.00040328      -1.73771527
H       -2.53271960      -2.09499566      -1.33759961
18
Properties=species:S:1:pos:R:3 relative_energy_eV=0.00068017672674614 branch=left pbc="F F F"
O        0.26702548       2.25609185       0.23968718
C       -0.58753395       1.43887963       0.51244953
O       -1.69072917       1.75300914       1.20841655
C       -0.55944043      -0.03026034       0.13650275
O        0.62697117      -0.33670294      -0.57704829
P        2.02189546      -0.51784069       0.25705922
O        1.86476668      -1.15534477       1.58147469
O        2.90145612      -1.33298724      -0.81471439
O        2.71516415       0.91933853       0.19655712
C       -1.74656788      -0.41605739      -0.73745567
O       -1.81442729      -1.82992779      -0.75266553
H       -1.62680311       2.69638316       1.43030670
H       -0.60993961      -0.61665021       1.05641244
H        3.03865691      -2.23598416      -0.50466360
H        2.02850820       1.61590616       0.17285489
H       -2.65440923       0.01974475      -0.31220987
H       -1.59247531       0.00063696      -1.73783316
H       -2.53306734      -2.09518971      -1.33548556
18
Properties=species:S:1:pos:R:3 relative_energy_eV=0.0007796547579346225 branch=left pbc="F F F"
O        0.26720060       2.25703614       0.24006877
C       -0.58739193       1.43968837       0.51202090
O       -1.69156525       1.75377121       1.20632553
C       -0.55858176      -0.02955646       0.13662670
O        0.62770409      -0.33603396      -0.57700198
P        2.02231879      -0.51773626       0.25801296
O        1.86533050      -1.15724908       1.58141526
O        2.90205645      -1.33144674      -0.81440062
O        2.71580264       0.91948275       0.20003094
C       -1.74540638      -0.41641066      -0.73699160
O       -1.81202510      -1.83039397      -0.75251264
H       -1.62883921       2.69753912       1.42720540
H       -0.60942819      -0.61595498       1.05649086
H        3.03095411      -2.23753266      -0.51053930
H        2.02868489       1.61547604       0.17463498
H       -2.65351747       0.01737755      -0.31081849
H       -1.59242688       0.00120226      -1.73724128
H       -2.53181911      -2.09621375      -1.33368139
18
Properties=species:S:1:pos:R:3 relative_energy_eV=0.0008495577021676581 branch=left pbc="F F F"
O        0.26749610       2.25763685       0.24007026
C       -0.58719207       1.44015166       0.51150097
O       -1.69186469       1.75400287       1.20513023
C       -0.55791080      -0.02924274       0.13656081
O        0.62817994      -0.33570725      -0.57739692
P        2.02246416      -0.51745034       0.25860395
O        1.86544530      -1.15831968       1.58132165
O        2.90247235      -1.33030900      -0.81383823
O        2.71607548       0.91980965       0.20211805
C       -1.74465511      -0.41664405      -0.73662748
O       -1.81105105      -1.83057484      -0.75229975
H       -1.62975489       2.69796113       1.42559834
H       -0.60893850      -0.61571713       1.05646676
H        3.02643997      -2.23853066      -0.51382689
H        2.02831816       1.61524640       0.17575148
H       -2.65271565       0.01608237      -0.30985014
H       -1.59248467       0.00131445      -1.73681940
H       -2.53127333      -2.09666483      -1.33281870
18
Properties=species:S:1:pos:R:3 relative_energy_eV=0.0008947196547524072 branch=left pbc="F F F"
O        0.26832244       2.25838536       0.24176834
C       -0.58725441       1.44100713       0.51103062
O       -1.69322538       1.75484443       1.20261326
C       -0.55727123      -0.02859626       0.13633560
O        0.62866646      -0.33444393      -0.57823506
P        2.02243666      -0.51725673       0.25870383
O        1.86445033      -1.15925229       1.58075434
O        2.90271165      -1.32962065      -0.81354850
O        2.71712209       0.91956903       0.20355505
C       -1.74418141      -0.41714062      -0.73585338
O       -1.80938682      -1.83101004      -0.75210852
H       -1.63131099       2.69881694       1.42317098
H       -0.60760246      -0.61510231       1.05643983
H        3.02159143      -2.23981256      -0.51754439
H        2.02951983       1.61510588       0.17860121
H       -2.65214240       0.01419062      -0.30792579
H       -1.59360301       0.00107837      -1.73603573
H       -2.52979213      -2.09771750      -1.33207675
18
Properties=species:S:1:pos:R:3 relative_energy_eV=0.0009305085441155825 branch=left pbc="F F F"
O        0.26919732       2.25886397       0.24224554
C       -0.58706847       1.44154998       0.51031362
O       -1.69361113       1.75539951       1.20122101
C       -0.55682835      -0.02837731       0.13600894
O        0.62904184      -0.33378999      -0.57883936
P        2.02237345      -0.51686822       0.25896392
O        1.86347348      -1.15974151       1.58048297
O        2.90311122      -1.32866688      -0.81303099
O        2.71739405       0.91981034       0.20465969
C       -1.74385611      -0.41770988      -0.73542688
O       -1.80846405      -1.83144583      -0.75217956
H       -1.63125294       2.69926222       1.42213384
H       -0.60684757      -0.61481857       1.05639459
H        3.01799909      -2.24066867      -0.52012032
H        2.02940105       1.61527281       0.18077303
H       -2.65154959       0.01298520      -0.30662384
H       -1.59430272       0.00032612      -1.73563733
H       -2.52915999      -2.09833842      -1.33169392
18
Properties=species:S:1:pos:R:3 relative_energy_eV=0.00098653422537609 branch=left pbc="F F F"
O        0.27058241       2.25973899       0.24462098
C       -0.58722895       1.44274541       0.50973703
O       -1.69547970       1.75705748       1.19789106
C       -0.55636993      -0.02754906       0.13575683
O        0.62956567      -0.33176159      -0.57934113
P        2.02229967      -0.51670612       0.25897087
O        1.86160894      -1.16066581       1.57978009
O        2.90318323      -1.32789680      -0.81318666
O        2.71864086       0.91935791       0.20576164
C       -1.74344771      -0.41874961      -0.73454391
O       -1.80554191      -1.83249042      -0.75254154
H       -1.63232768       2.70070129       1.41929654
H       -0.60552744      -0.61383527       1.05651600
H        3.01186447      -2.24214260      -0.52484774
H        2.03120326       1.61541922       0.18538036
H       -2.65104646       0.01040069      -0.30407574
H       -1.59585522      -0.00065867      -1.73479078
H       -2.52707302      -2.09992020      -1.33073895
18
Properties=species:S:1:pos:R:3 relative_energy_eV=0.0010616127983666956 branch=left pbc="F F F"
O        0.27154245       2.26002270       0.24506360
C       -0.58712146       1.44332717       0.50920710
O       -1.69598351       1.75836219       1.19633983
C       -0.55631100      -0.02719105       0.13570558
O        0.62981123      -0.33066496      -0.57890325
P        2.02227160      -0.51650593       0.25929350
O        1.86043570      -1.16115344       1.57965825
O        2.90317118      -1.32688584      -0.81350887
O        2.71883109       0.91939299       0.20646638
C       -1.74298053      -0.41973911      -0.73432351
O       -1.80306215      -1.83357841      -0.75329433
H       -1.63151410       2.70177615       1.41809518
H       -0.60568859      -0.61315999       1.05674023
H        3.00723937      -2.24278036      -0.52819863
H        2.03129877       1.61573322       0.18862894
H       -2.65055847       0.00866047      -0.30288019
H       -1.59630902      -0.00173039      -1.73461755
H       -2.52602208      -2.10084054      -1.32982731
18
Properties=species:S:1:pos:R:3 relative_energy_eV=0.0011259907732892316 branch=left pbc="F F F"
O        0.27196599       2.26021816       0.24587711
C       -0.58733656       1.44385591       0.50914301
O       -1.69699120       1.75974842       1.19459930
C       -0.55636496      -0.02663886       0.13600801
O        0.62997077      -0.32933900      -0.57803838
P        2.02233915      -0.51662502       0.25947320
O        1.85971904      -1.16177295       1.57953004
O        2.90277503      -1.32636333      -0.81440504
O        2.71941046       0.91898558       0.20682882
C       -1.74240605      -0.42054017      -0.73409006
O       -1.80012083      -1.83463884      -0.75403379
H       -1.63158041       2.70305051       1.41630489
H       -0.60615106      -0.61232081       1.05714413
H        3.00292937      -2.24325829      -0.53152494
H        2.03237658       1.61576846       0.19175466
H       -2.65020828       0.00686783      -0.30182266
H       -1.59660374      -0.00224149      -1.73440462
H       -2.52467284      -2.10171120      -1.32869872
18
Properties=species:S:1:pos:R:3 relative_energy_eV=0.0011861411840072833 branch=left pbc="F F F"
O        0.27122077       2.25966254       0.24371778
C       -0.58731300       1.44334925       0.50908083
O       -1.69603550       1.75977650       1.19561359
C       -0.55665887      -0.02696079       0.13652867
O        0.62984797      -0.32986287      -0.57666313
P        2.02254689      -0.51661998       0.25997447
O        1.86046107      -1.16168007       1.58014001
O        2.90272518      -1.32572335      -0.81482364
O        2.71875875       0.91931995       0.20672089
C       -1.74191045      -0.42072327      -0.73456911
O       -1.79954053      -1.83498847      -0.75465515
H       -1.63003214       2.70315077       1.41672250
H       -0.60795527      -0.61234517       1.05761216
H        3.00222521      -2.24264463      -0.53212102
H        2.03138937       1.61582910       0.19211007
H       -2.64982373       0.00697456      -0.30263372
H       -1.59550325      -0.00234715      -1.73489912
H       -2.52535198      -2.10112202      -1.32821109
18
Properties=species:S:1:pos:R:3 relative_energy_eV=0.0012422940162650775 branch=left pbc="F F F"
O        0.26984461       2.25892785       0.24074184
C       -0.58739233       1.44253756       0.50891943
O       -1.69475068       1.75924395       1.19709759
C       -0.55684102      -0.02757346       0.13705952
O        0.62978070      -0.33097608      -0.57551815
P        2.02289140      -0.51656095       0.26047983
O        1.86157783      -1.16132265       1.58086795
O        2.90328523      -1.32511300      -0.81474321
O        2.71813892       0.91978596       0.20651709
C       -1.74155672      -0.42059779      -0.73502380
O       -1.80020812      -1.83492451      -0.75494735
H       -1.62864446       2.70283661       1.41720597
H       -0.60962516      -0.61267544       1.05809534
H        3.00254519      -2.24185858      -0.53236349
H        2.03054881       1.61587211       0.19232029
H       -2.64941409       0.00768178      -0.30350933
H       -1.59442757      -0.00222854      -1.73540906
H       -2.52670202      -2.10000992      -1.32814547
18
Properties=species:S:1:pos:R:3 relative_energy_eV=0.0013208690725150518 branch=left pbc="F F F"
O        0.26715384       2.25745531       0.23383100
C       -0.58729331       1.44069469       0.50814949
O       -1.69130587       1.75735460       1.20101336
C       -0.55709908      -0.02935487       0.13776448
O        0.62962117      -0.33428285      -0.57405849
P        2.02351503      -0.51612631       0.26144870
O        1.86389008      -1.16002236       1.58241919
O        2.90509676      -1.32362618      -0.81357860
O        2.71658529       0.92118962       0.20611083
C       -1.74139431      -0.42004365      -0.73594039
O       -1.80372710      -1.83414412      -0.75518430
H       -1.62547798       2.70141148       1.41917332
H       -0.61219481      -0.61391925       1.05891607
H        3.00517849      -2.24041395      -0.53159252
H        2.02812293       1.61631242       0.19202959
H       -2.64890586       0.00999332      -0.30566467
H       -1.59228029      -0.00198482      -1.73635818
H       -2.53043434      -2.09744818      -1.32883383
18
Properties=species:S:1:pos:R:3 relative_energy_eV=0.0014247444196371362 branch=left pbc="F F F"
O        0.26524947       2.25626753       0.22808196
C       -0.58719122       1.43931252       0.50686564
O       -1.68863840       1.75596817       1.20336908
C       -0.55706783      -0.03094594       0.13794863
O        0.62966714      -0.33722368      -0.57373246
P        2.02403752      -0.51550008       0.26214948
O        1.86491633      -1.15853075       1.58353226
O        2.90784828      -1.32189483      -0.81173704
O        2.71596837       0.92235843       0.20609436
C       -1.74168985      -0.41979858      -0.73624054
O       -1.80723372      -1.83355940      -0.75506205
H       -1.62319447       2.70046046       1.41977448
H       -0.61294932      -0.61478213       1.05957371
H        3.00595637      -2.23973932      -0.53287994
H        2.02722625       1.61710346       0.19470539
H       -2.64875427       0.01134093      -0.30639949
H       -1.59160152      -0.00199493      -1.73666353
H       -2.53349842      -2.09579697      -1.32973486
18
Properties=species:S:1:pos:R:3 relative_energy_eV=0.0015428041806444526 branch=left pbc="F F F"
O        0.26465102       2.25594740       0.22547214
C       -0.58729001       1.43901733       0.50573781
O       -1.68793526       1.75582848       1.20331093
C       -0.55701213      -0.03172747       0.13806273
O        0.62969572      -0.33869531      -0.57393625
P        2.02429629      -0.51509668       0.26235783
O        1.86486450      -1.15755770       1.58393798
O        2.90964539      -1.32046696      -0.81067504
O        2.71668307       0.92258829       0.20630724
C       -1.74215639      -0.41998661      -0.73588090
O       -1.80856774      -1.83343876      -0.75518212
H       -1.62292829       2.70063308       1.41848531
H       -0.61216051      -0.61481919       1.06036831
H        3.00432656      -2.24026250      -0.53606911
H        2.02858141       1.61793165       0.19947093
H       -2.64925700       0.01088140      -0.30606635
H       -1.59185162      -0.00185993      -1.73605504
H       -2.53453429      -2.09587161      -1.33000127
18
Properties=species:S:1:pos:R:3 relative_energy_eV=0.0016369507138733752 branch=left pbc="F F F"
O        0.26575792       2.25629618       0.22639467
C       -0.58727773       1.43966728       0.50489448
O       -1.68898425       1.75689829       1.20103733
C       -0.55680177      -0.03153657       0.13764484
O        0.62977979      -0.33843253      -0.57506641
P        2.02416814      -0.51484396       0.26206967
O        1.86313459      -1.15707969       1.58353561
O        2.91095195      -1.31975156      -0.81005064
O        2.71816042       0.92214607       0.20679930
C       -1.74276441      -0.42065822      -0.73499597
O       -1.80777709      -1.83403647      -0.75510152
H       -1.62404165       2.70179495       1.41591624
H       -0.60976568      -0.61403068       1.06060486
H        3.00043186      -2.24144628      -0.54043827
H        2.03119639       1.61862340       0.20553101
H       -2.65009699       0.00892824      -0.30434900
H       -1.59352745      -0.00195339      -1.73491486
H       -2.53349338      -2.09754012      -1.32986621
18
Properties=species:S:1:pos:R:3 relative_energy_eV=0.001751216419506818 branch=left pbc="F F F"
O        0.26789571       2.25739012       0.23078892
C       -0.58756338       1.44135819       0.50480500
O       -1.69219272       1.75934009       1.19646365
C       -0.55673344      -0.03024177       0.13766595
O        0.62960712      -0.33627833      -0.57603424
P        2.02368115      -0.51512519       0.26123539
O        1.86084322      -1.15746637       1.58246842
O        2.91016999      -1.31969302      -0.81119158
O        2.72074759       0.92047623       0.20715909
C       -1.74301049      -0.42167511      -0.73364226
O       -1.80350924      -1.83519472      -0.75546687
H       -1.62748744       2.70431054       1.41125014
H       -0.60668044      -0.61219301       1.06122042
H        2.99400167      -2.24365822      -0.54632100
H        2.03585217       1.61889359       0.21286381
H       -2.65144143       0.00496465      -0.30228304
H       -1.59531672      -0.00123727      -1.73295584
H       -2.52981274      -2.10092540      -1.32838087
18
Properties=species:S:1:pos:R:3 relative_energy_eV=0.0018541427416494116 branch=left pbc="F F F"
O        0.27052281       2.25828825       0.23608106
C       -0.58760727       1.44300229       0.50506425
O       -1.69540781       1.76179787       1.19190957
C       -0.55658581      -0.02860548       0.13740841
O        0.62939623      -0.33354064      -0.57727178
P        2.02292863      -0.51544354       0.26028276
O        1.85809721      -1.15802831       1.58120717
O        2.90912251      -1.32019397      -0.81245155
O        2.72281054       0.91883685       0.20741949
C       -1.74300517      -0.42270938      -0.73242286
O       -1.79872190      -1.83656129      -0.75541496
H       -1.63075667       2.70676223       1.40704172
H       -0.60361653      -0.61019168       1.06128287
H        2.98769268      -2.24545016      -0.55121636
H        2.03953605       1.61878247       0.21899892
H       -2.65243914       0.00107104      -0.30021913
H       -1.59728218      -0.00047769      -1.73125088
H       -2.52563373      -2.10429380      -1.32680360
18
Properties=species:S:1:pos:R:3 relative_energy_eV=0.001964838709682226 branch=left pbc="F F F"
O        0.27341922       2.25932477       0.24404047
C       -0.58802938       1.44520804       0.50609092
O       -1.70010952       1.76507453       1.18569028
C       -0.55650743      -0.02603392       0.13763163
O        0.62900720      -0.32917523      -0.57817536
P        2.02185520      -0.51625685       0.25890225
O        1.85525581      -1.15943814       1.57941575
O        2.90607498      -1.32129410      -0.81526995
O        2.72556022       0.91619354       0.20742998
C       -1.74230214      -0.42383768      -0.73097106
O       -1.79120955      -1.83816981      -0.75547193
H       -1.63588451       2.71003295       1.40136168
H       -0.60056025      -0.60727691       1.06167993
H        2.97975993      -2.24775910      -0.55665435
H        2.04445186       1.61796156       0.22520134
H       -2.65330757      -0.00425396      -0.29814957
H       -1.59908083       0.00122390      -1.72909679
H       -2.51934296      -2.10847851      -1.32401014
18
Properties=species:S:1:pos:R:3 relative_energy_eV=0.0020210377297189552 branch=left pbc="F F F"
O        0.27476746       2.25965008       0.24814729
C       -0.58824780       1.44620711       0.50662228
O       -1.70235739       1.76659535       1.18256711
C       -0.55641246      -0.02471222       0.13762648
O        0.62887366      -0.32687133      -0.57870745
P        2.02127856      -0.51662717       0.25820735
O        1.85378218      -1.16019204       1.57844798
O        2.90457840      -1.32198956      -0.81658046
O        2.72680357       0.91490466       0.20746145
C       -1.74183159      -0.42436854      -0.73030210
O       -1.78761553      -1.83891327      -0.75527729
H       -1.63834613       2.71148768       1.39879192
H       -0.59908070      -0.60576829       1.06172878
H        2.97600641      -2.24866610      -0.55894227
H        2.04660103       1.61739205       0.22773957
H       -2.65343337      -0.00678735      -0.29703959
H       -1.60008035       0.00200602      -1.72813606
H       -2.51623575      -2.11030196      -1.32270993
18
Properties=species:S:1:pos:R:3 relative_energy_eV=0.0021532234241021797 branch=left pbc="F F F"
O        0.27602392       2.26051800       0.25704038
C       -0.58946748       1.44845242       0.50781959
O       -1.70750407       1.76965868       1.17564677
C       -0.55608262      -0.02196207       0.13821378
O        0.62887831      -0.32204360      -0.57929584
P        2.02043249      -0.51761599       0.25676858
O        1.85169054      -1.16228651       1.57633571
O        2.90057817      -1.32378792      -0.81989133
O        2.72978734       0.91195949       0.20749276
C       -1.74051733      -0.42508130      -0.72881850
O       -1.78010999      -1.83981009      -0.75535527
H       -1.64410670       2.71427079       1.39335319
H       -0.59647142      -0.60267099       1.06259448
H        2.96885492      -2.25064217      -0.56319540
H        2.05177456       1.61586731       0.23171663
H       -2.65337136      -0.01180969      -0.29472176
H       -1.60142225       0.00348495      -1.72615192
H       -2.50991698      -2.11345614      -1.31990683
18
Properties=species:S:1:pos:R:3 relative_energy_eV=0.002187668866099557 branch=left pbc="F F F"
O        0.27465535       2.26095044       0.25082985
C       -0.58927668       1.44745413       0.50712191
O       -1.70540730       1.76808712       1.18051013
C       -0.55565752      -0.02354849       0.13875850
O        0.62922918      -0.32593456      -0.57910715
P        2.02170741      -0.51753814       0.25802228
O        1.85366221      -1.16110647       1.57836089
O        2.90328927      -1.32265504      -0.81846279
O        2.72869428       0.91356921       0.20720628
C       -1.74160495      -0.42415241      -0.72927960
O       -1.78423371      -1.83983424      -0.75614328
H       -1.64101661       2.71331175       1.39557987
H       -0.59866330      -0.60551905       1.06275918
H        2.97322683      -2.24990354      -0.56185058
H        2.05003179       1.61751251       0.23054773
H       -2.65504854      -0.00813741      -0.29610522
H       -1.60020407       0.00273418      -1.72742719
H       -2.51433350      -2.11224483      -1.32167578
18
Properties=species:S:1:pos:R:3 relative_energy_eV=0.002409946268016938 branch=left pbc="F F F"
O        0.27487656       2.26315905       0.25892579
C       -0.59097903       1.45014070       0.50756857
O       -1.71119227       1.77139909       1.17347977
C       -0.55463202      -0.02138321       0.13914626
O        0.63025110      -0.32239918      -0.58051504
P        2.02207256      -0.51830393       0.25705883
O        1.85139464      -1.16301966       1.57652550
O        2.90203599      -1.32416522      -0.82025270
O        2.73283893       0.91119723       0.20803221
C       -1.74172096      -0.42443747      -0.72721377
O       -1.77903458      -1.84044368      -0.75690185
H       -1.64614543       2.71616135       1.38994311
H       -0.59561936      -0.60404981       1.06344319
H        2.96690627      -2.25257134      -0.56752506
H        2.05712512       1.61738218       0.23582202
H       -2.65614420      -0.01178238      -0.29147602
H       -1.60324461       0.00184538      -1.72595584
H       -2.50973870      -2.11568389      -1.32045997
18
Properties=species:S:1:pos:R:3 relative_energy_eV=0.00280207913601771 branch=left pbc="F F F"
O        0.27545880       2.26515530       0.26380866
C       -0.59162930       1.45189463       0.50731445
O       -1.71463007       1.77367572       1.16856313
C       -0.55405936      -0.02059550       0.13827092
O        0.63135675      -0.32052031      -0.58201181
P        2.02278730      -0.51817479       0.25663330
O        1.84888167      -1.16379834       1.57517278
O        2.90418444      -1.32429343      -0.81925720
O        2.73626357       0.91036078       0.20962562
C       -1.74329982      -0.42481707      -0.72574156
O       -1.77822151      -1.84053564      -0.75716919
H       -1.64847129       2.71780883       1.38654505
H       -0.59303219      -0.60408118       1.06258973
H        2.96332931      -2.25490389      -0.57220481
H        2.06283818       1.61848049       0.24035277
H       -2.65698082      -0.01348942      -0.28624545
H       -1.60800311      -0.00088461      -1.72552042
H       -2.50772263      -2.11823634      -1.32108101
18
Properties=species:S:1:pos:R:3 relative_energy_eV=0.0033085833420045674 branch=left pbc="F F F"
O        0.27816016       2.26698435       0.27294549
C       -0.59178548       1.45416094       0.50745579
O       -1.71950657       1.77711536       1.16018709
C       -0.55376349      -0.01875877       0.13607205
O        0.63238198      -0.31585120      -0.58431809
P        2.02275908      -0.51781810       0.25549106
O        1.84386824      -1.16503183       1.57244255
O        2.90677933      -1.32452877      -0.81783801
O        2.74108320       0.90864506       0.21204597
C       -1.74503741      -0.42612392      -0.72384331
O       -1.77584416      -1.84113367      -0.75608856
H       -1.65262234       2.72028654       1.38111087
H       -0.58869510      -0.60265325       1.06021130
H        2.95648069      -2.25795132      -0.57890845
H        2.07069207       1.61926010       0.24707826
H       -2.65678355      -0.01751700      -0.27851921
H       -1.61627136      -0.00386504      -1.72458679
H       -2.50284560      -2.12217423      -1.32129306
18
Properties=species:S:1:pos:R:3 relative_energy_eV=0.0038509838304889854 branch=left pbc="F F F"
O        0.28208932       2.26845294       0.28541513
C       -0.59201180       1.45673816       0.50831920
O       -1.72616785       1.78117125       1.14936891
C       -0.55360340      -0.01567760       0.13358693
O        0.63323270      -0.30863356      -0.58667788
P        2.02215396      -0.51782975       0.25384316
O        1.83793044      -1.16706203       1.56892337
O        2.90840249      -1.32500050      -0.81735073
O        2.74730626       0.90551006       0.21459052
C       -1.74606046      -0.42800643      -0.72162160
O       -1.77118842      -1.84255655      -0.75382506
H       -1.65957029       2.72359288       1.37316581
H       -0.58384130      -0.59963593       1.05736359
H        2.94697172      -2.26133288      -0.58705159
H        2.08083462       1.61924420       0.25499563
H       -2.65565310      -0.02359951      -0.26980858
H       -1.62632939      -0.00555236      -1.72300076
H       -2.49544609      -2.12677712      -1.32059119
18
Properties=species:S:1:pos:R:3 relative_energy_eV=0.004386901462567039 branch=left pbc="F F F"
O        0.28638320       2.27001731       0.30273378
C       -0.59332632       1.46030748       0.51005951
O       -1.73625124       1.78630471       1.13475866
C       -0.55311295      -0.01074949       0.13175117
O        0.63418898      -0.29818589      -0.58904220
P        2.02111506      -0.51870548       0.25152028
O        1.83157434      -1.17063459       1.56441052
O        2.90735046      -1.32660119      -0.81932493
O        2.75569285       0.90002095       0.21693113
C       -1.74561462      -0.43025510      -0.71858227
O       -1.76227869      -1.84491501      -0.75084282
H       -1.67119122       2.72824566       1.36132763
H       -0.57809118      -0.59444228       1.05532335
H        2.93357089      -2.26531362      -0.59737166
H        2.09465747       1.61789188       0.26451304
H       -2.65385008      -0.03246915      -0.26008594
H       -1.63708156      -0.00523417      -1.72010571
H       -2.48468630      -2.13223666      -1.31832876
18
Properties=species:S:1:pos:R:3 relative_energy_eV=0.004863542257226072 branch=left pbc="F F F"
O        0.28983250       2.27177709       0.32255234
C       -0.59582521       1.46467579       0.51233782
O       -1.74836043       1.79197457       1.11848434
C       -0.55221722      -0.00477691       0.13123749
O        0.63521277      -0.28640473      -0.59107559
P        2.01992432      -0.52041374       0.24881226
O        1.82595604      -1.17534324       1.55956518
O        2.90309441      -1.32926512      -0.82387505
O        2.76481703       0.89309792       0.21856148
C       -1.74373721      -0.43231570      -0.71507835
O       -1.74987175      -1.84748031      -0.74825540
H       -1.68553804       2.73366588       1.34740519
H       -0.57228042      -0.58799963       1.05502415
H        2.91825503      -2.26965347      -0.60831596
H        2.10997507       1.61543385       0.27417879
H       -2.65205552      -0.04280321      -0.25107041
H       -1.64611294      -0.00312192      -1.71629839
H       -2.47201972      -2.13800163      -1.31454520
18
Properties=species:S:1:pos:R:3 relative_energy_eV=0.00521339659098885 branch=left pbc="F F F"
O        0.29175417       2.27303320       0.33711255
C       -0.59820031       1.46802160       0.51399407
O       -1.75765395       1.79598089       1.10682774
C       -0.55126402      -0.00027722       0.13147541
O        0.63611603      -0.27791281      -0.59248363
P        2.01916604      -0.52198035       0.24689932
O        1.82249780      -1.17911560       1.55623644
O        2.89882668      -1.33153015      -0.82812264
O        2.77146080       0.88773158       0.21934486
C       -1.74180768      -0.43356662      -0.71243609
O       -1.73996564      -1.84935748      -0.74659494
H       -1.69655224       2.73770183       1.33684833
H       -0.56849164      -0.58316566       1.05569444
H        2.90703872      -2.27266611      -0.61610694
H        2.12127713       1.61332159       0.28082510
H       -2.65092058      -0.05036788      -0.24518600
H       -1.65163913      -0.00080831      -1.71336313
H       -2.46259371      -2.14199693      -1.31132027
18
Properties=species:S:1:pos:R:3 relative_energy_eV=0.005438853473606287 branch=left pbc="F F F"
O        0.29265105       2.27365601       0.34569517
C       -0.59998942       1.47007165       0.51476015
O       -1.76347014       1.79825552       1.10010178
C       -0.55043774       0.00236985       0.13181654
O        0.63690009      -0.27305407      -0.59345167
P        2.01888954      -0.52305856       0.24589306
O        1.82070787      -1.18151574       1.55444575
O        2.89579927      -1.33284831      -0.83103401
O        2.77550040       0.88441750       0.21965725
C       -1.74044772      -0.43416089      -0.71077393
O       -1.73385060      -1.85045813      -0.74564881
H       -1.70330980       2.74008818       1.33044497
H       -0.56653919      -0.58031418       1.05653255
H        2.90042081      -2.27431058      -0.62061471
H        2.12814687       1.61195468       0.28455436
H       -2.65041317      -0.05475306      -0.24191162
H       -1.65449756       0.00089339      -1.71154977
H       -2.45701226      -2.14418764      -1.30927245
18
Properties=species:S:1:pos:R:3 relative_energy_eV=0.005601745961030247 branch=left pbc="F F F"
O        0.29319795       2.27378974       0.35089687
C       -0.60136323       1.47135566       0.51483369
O       -1.76721198       1.79966140       1.09601265
C       -0.54972128       0.00386900       0.13194069
O        0.63764772      -0.27029982      -0.59431520
P        2.01886847      -0.52371243       0.24541471
O        1.81955666      -1.18302285       1.55347134
O        2.89368289      -1.33355563      -0.83295269
O        2.77805551       0.88239474       0.21985004
C       -1.73959819      -0.43445089      -0.70963862
O       -1.73009567      -1.85106009      -0.74510140
H       -1.70737694       2.74149995       1.32673878
H       -0.56538728      -0.57857280       1.05723147
H        2.89633025      -2.27505591      -0.62324142
H        2.13235166       1.61103190       0.28671753
H       -2.65029637      -0.05734842      -0.23987373
H       -1.65598687       0.00192907      -1.71034225
H       -2.45360506      -2.14540698      -1.30799789
18
Properties=species:S:1:pos:R:3 relative_energy_eV=0.005755343478085706 branch=left pbc="F F F"
O        0.29404998       2.27348719       0.35561700
C       -0.60266035       1.47250814       0.51431825
O       -1.77054662       1.80116606       1.09195475
C       -0.54896479       0.00501554       0.13164024
O        0.63851074      -0.26804147      -0.59552189
P        2.01887795      -0.52409866       0.24504315
O        1.81795054      -1.18422231       1.55254040
O        2.89156975      -1.33393679      -0.83461526
O        2.78031403       0.88078234       0.22022233
C       -1.73904097      -0.43474269      -0.70844148
O       -1.72675174      -1.85139517      -0.74471005
H       -1.71058966       2.74260589       1.32420141
H       -0.56382443      -0.57687738       1.05773106
H        2.89235555      -2.27545202      -0.62532006
H        2.13566937       1.61007115       0.28865880
H       -2.65043237      -0.05969057      -0.23773390
H       -1.65697906       0.00239204      -1.70902350
H       -2.45045979      -2.14652562      -1.30691671
18
Properties=species:S:1:pos:R:3 relative_energy_eV=0.005970993428491056 branch=left pbc="F F F"
O        0.29568246       2.27295373       0.36195240
C       -0.60384139       1.47397966       0.51354183
O       -1.77438008       1.80360641       1.08589799
C       -0.54826503       0.00645014       0.13089892
O        0.63925908      -0.26509645      -0.59718726
P        2.01851824      -0.52424146       0.24430552
O        1.81504234      -1.18541515       1.55093406
O        2.88863096      -1.33450645      -0.83659601
O        2.78276837       0.87909220       0.22097007
C       -1.73861155      -0.43529025      -0.70683726
O       -1.72216894      -1.85158113      -0.74461290
H       -1.71393081       2.74390648       1.32210863
H       -0.56068167      -0.57438133       1.05795931
H        2.88671449      -2.27595558      -0.62765627
H        2.13877657       1.60870213       0.29130146
H       -2.65071078      -0.06300961      -0.23478636
H       -1.65767433       0.00219976      -1.70708396
H       -2.44607992      -2.14836744      -1.30546565
18
Properties=species:S:1:pos:R:3 relative_energy_eV=0.006220277053216705 branch=left pbc="F F F"
O        0.29775226       2.27277939       0.36984140
C       -0.60462143       1.47578105       0.51328420
O       -1.77858081       1.80673394       1.07802072
C       -0.54780665       0.00841880       0.13027937
O        0.63950292      -0.26119366      -0.59876183
P        2.01763680      -0.52431697       0.24296843
O        1.81131201      -1.18668442       1.54853596
O        2.88485417      -1.33559397      -0.83906293
O        2.78528056       0.87720503       0.22189897
C       -1.73809559      -0.43604083      -0.70496038
O       -1.71610775      -1.85167984      -0.74488060
H       -1.71794751       2.74537774       1.31970612
H       -0.55609117      -0.57114919       1.05807947
H        2.87959485      -2.27706684      -0.63038148
H        2.14175512       1.60698869       0.29465438
H       -2.65086641      -0.06728186      -0.23139101
H       -1.65800369       0.00173397      -1.70464609
H       -2.44051981      -2.15096531      -1.30354025
18
Properties=species:S:1:pos:R:3 relative_energy_eV=0.006468954383308301 branch=left pbc="F F F"
O        0.29951782       2.27329247       0.37774072
C       -0.60502209       1.47761782       0.51388029
O       -1.78263606       1.80972765       1.07003884
C       -0.54764530       0.01067614       0.13029677
O        0.63917503      -0.25698624      -0.59968493
P        2.01645710      -0.52449888       0.24129768
O        1.80798338      -1.18797381       1.54590512
O        2.88088710      -1.33719987      -0.84176469
O        2.78751152       0.87525519       0.22267310
C       -1.73736409      -0.43676814      -0.70323407
O       -1.70959820      -1.85184604      -0.74544557
H       -1.72225027       2.74691363       1.31687035
H       -0.55141258      -0.56793056       1.05838118
H        2.87254056      -2.27867849      -0.63318996
H        2.14454309       1.60531487       0.29801738
H       -2.65079552      -0.07165256      -0.22843897
H       -1.65799267       0.00153279      -1.70231459
H       -2.43485110      -2.15375024      -1.30138422
18
Properties=species:S:1:pos:R:3 relative_energy_eV=0.0066673572873696685 branch=left pbc="F F F"
O        0.30063172       2.27440025       0.38442739
C       -0.60517348       1.47926076       0.51513163
O       -1.78616261       1.81192136       1.06336169
C       -0.54755970       0.01286876       0.13102672
O        0.63857122      -0.25314286      -0.59997419
P        2.01531885      -0.52487303       0.23962989
O        1.80568998      -1.18920698       1.54355510
O        2.87729761      -1.33898618      -0.84438310
O        2.78931010       0.87340629       0.22313740
C       -1.73642814      -0.43726427      -0.70183344
O       -1.70369863      -1.85208527      -0.74601591
H       -1.72662213       2.74814019       1.31352958
H       -0.54757508      -0.56530438       1.05903770
H        2.86666570      -2.28052505      -0.63573740
H        2.14713595       1.60395088       0.30087185
H       -2.65051412      -0.07528743      -0.22629009
H       -1.65780013       0.00188446      -1.70043896
H       -2.43003951      -2.15611172      -1.29939145
18
Properties=species:S:1:pos:R:3 relative_energy_eV=0.006828656314610271 branch=left pbc="F F F"
O        0.30118963       2.27580111       0.38981110
C       -0.60532896       1.48071712       0.51655372
O       -1.78924567       1.81348644       1.05806138
C       -0.54745266       0.01481884       0.13221112
O        0.63793010      -0.24987865      -0.59991732
P        2.01431965      -0.52538180       0.23816536
O        1.80434729      -1.19033352       1.54166397
O        2.87418186      -1.34074421      -0.84676293
O        2.79064420       0.87172779       0.22336720
C       -1.73535296      -0.43760403      -0.70079928
O       -1.69866355      -1.85252316      -0.74655807
H       -1.73040085       2.74925340       1.31033333
H       -0.54480559      -0.56336500       1.06004749
H        2.86207469      -2.28230525      -0.63795714
H        2.14952392       1.60300200       0.30311701
H       -2.65017130      -0.07822013      -0.22495460
H       -1.65758154       0.00265559      -1.69910826
H       -2.42616076      -2.15806071      -1.29762972
18
Properties=species:S:1:pos:R:3 relative_energy_eV=0.006954985805350589 branch=left pbc="F F F"
O        0.30140935       2.27726259       0.39401378
C       -0.60549426       1.48201059       0.51785582
O       -1.79179785       1.81449361       1.05416332
C       -0.54715363       0.01641488       0.13356536
O        0.63748673      -0.24721868      -0.59987446
P        2.01353380      -0.52597025       0.23695231
O        1.80362950      -1.19133412       1.54022735
O        2.87158821      -1.34232381      -0.84878231
O        2.79152323       0.87027880       0.22342212
C       -1.73423144      -0.43779188      -0.70001432
O       -1.69463420      -1.85301587      -0.74690917
H       -1.73372195       2.75000769       1.30723423
H       -0.54287921      -0.56205328       1.06132444
H        2.85861656      -2.28391765      -0.63979766
H        2.15164200       1.60243799       0.30484243
H       -2.64979189      -0.08040725      -0.22417052
H       -1.65744580       0.00370353      -1.69818314
H       -2.42323171      -2.15953103      -1.29622521
18
Properties=species:S:1:pos:R:3 relative_energy_eV=0.007074839282722678 branch=left pbc="F F F"
O        0.30151621       2.27849793       0.39729896
C       -0.60580275       1.48316803       0.51865627
O       -1.79386838       1.81545840       1.05124768
C       -0.54678952       0.01755875       0.13470141
O        0.63727737      -0.24514898      -0.60003951
P        2.01289627      -0.52650435       0.23606373
O        1.80319307      -1.19212535       1.53922442
O        2.86953728      -1.34359653      -0.85028069
O        2.79185253       0.86917831       0.22341203
C       -1.73319815      -0.43804833      -0.69953109
O       -1.69156796      -1.85364971      -0.74720061
H       -1.73570523       2.75083434       1.30523909
H       -0.54162838      -0.56124012       1.06262333
H        2.85607413      -2.28521152      -0.64123738
H        2.15321501       1.60227370       0.30611360
H       -2.64949167      -0.08223614      -0.22388763
H       -1.65744058       0.00464273      -1.69763397
H       -2.42102186      -2.16080527      -1.29512529
18
Properties=species:S:1:pos:R:3 relative_energy_eV=0.007156051604397362 branch=left pbc="F F F"
O        0.30160644       2.27944807       0.39979922
C       -0.60609545       1.48415561       0.51904425
O       -1.79526968       1.81630501       1.04940998
C       -0.54630542       0.01825276       0.13545876
O        0.63737243      -0.24357487      -0.60048965
P        2.01246270      -0.52695538       0.23544664
O        1.80281771      -1.19275611       1.53854655
O        2.86807821      -1.34460076      -0.85122706
O        2.79174094       0.86844992       0.22328340
C       -1.73233806      -0.43829820      -0.69920604
O       -1.68948332      -1.85412738      -0.74730474
H       -1.73704190       2.75137103       1.30377782
H       -0.54071423      -0.56076654       1.06375575
H        2.85428581      -2.28624861      -0.64227589
H        2.15417376       1.60234369       0.30707682
H       -2.64919561      -0.08360777      -0.22382285
H       -1.65753774       0.00540237      -1.69722963
H       -2.41950926      -2.16174693      -1.29439899
18
Properties=species:S:1:pos:R:3 relative_energy_eV=0.007232667219795985 branch=left pbc="F F F"
O        0.30171840       2.28003827       0.40190498
C       -0.60652846       1.48501168       0.51898322
O       -1.79625659       1.81750472       1.04807899
C       -0.54596367       0.01859396       0.13569262
O        0.63761271      -0.24234022      -0.60107967
P        2.01213327      -0.52727216       0.23508884
O        1.80237977      -1.19325251       1.53809631
O        2.86708144      -1.34535855      -0.85167703
O        2.79125092       0.86809418       0.22304625
C       -1.73168997      -0.43873058      -0.69911391
O       -1.68798294      -1.85459313      -0.74747646
H       -1.73709565       2.75227798       1.30358889
H       -0.54003673      -0.56041350       1.06450296
H        2.85296787      -2.28708121      -0.64302791
H        2.15441896       1.60256098       0.30783410
H       -2.64900067      -0.08502551      -0.22401885
H       -1.65765832       0.00574557      -1.69695260
H       -2.41830304      -2.16271404      -1.29382641
18
Properties=species:S:1:pos:R:3 relative_energy_eV=0.007312799891224131 branch=left pbc="F F F"
O        0.30173266       2.28051906       0.40402578
C       -0.60697514       1.48580584       0.51898709
O       -1.79692521       1.81878909       1.04736248
C       -0.54565852       0.01884947       0.13562175
O        0.63799334      -0.24113485      -0.60163386
P        2.01198515      -0.52758676       0.23481830
O        1.80192758      -1.19388406       1.53766381
O        2.86630941      -1.34620072      -0.85194235
O        2.79072271       0.86789827       0.22247584
C       -1.73114408      -0.43912630      -0.69903735
O       -1.68662133      -1.85474637      -0.74762793
H       -1.73742140       2.75319200       1.30314855
H       -0.53933461      -0.55993191       1.06491006
H        2.85181239      -2.28801325      -0.64372786
H        2.15428178       1.60262466       0.30863188
H       -2.64878753      -0.08641814      -0.22422201
H       -1.65767020       0.00596007      -1.69653039
H       -2.41717972      -2.16355014      -1.29327946
18
Properties=species:S:1:pos:R:3 relative_energy_eV=0.007406122680549743 branch=left pbc="F F F"
O        0.30154915       2.28097591       0.40675192
C       -0.60770048       1.48666124       0.51924963
O       -1.79778922       1.82056832       1.04672231
C       -0.54564705       0.01931356       0.13533821
O        0.63830353      -0.23972600      -0.60183558
P        2.01194037      -0.52796471       0.23457641
O        1.80154956      -1.19481576       1.53711872
O        2.86542305      -1.34727049      -0.85230166
O        2.79035035       0.86772142       0.22145438
C       -1.73061190      -0.43960391      -0.69905888
O       -1.68461291      -1.85480292      -0.74808670
H       -1.73766421       2.75496388       1.30278353
H       -0.53869459      -0.55905722       1.06490785
H        2.85046734      -2.28924639      -0.64463540
H        2.15390312       1.60235916       0.30959925
H       -2.64870274      -0.08837465      -0.22456979
H       -1.65743357       0.00602471      -1.69600615
H       -2.41558253      -2.16468016      -1.29236372
18
Properties=species:S:1:pos:R:3 relative_energy_eV=0.00752457261478412 branch=left pbc="F F F"
O        0.30101844       2.28166431       0.41010872
C       -0.60853464       1.48756725       0.52036381
O       -1.79896985       1.82217036       1.04647971
C       -0.54578845       0.02030657       0.13528608
O        0.63846966      -0.23805979      -0.60140396
P        2.01210041      -0.52854493       0.23420522
O        1.80151829      -1.19621814       1.53634549
O        2.86421045      -1.34878277      -0.85314576
O        2.79062122       0.86726452       0.21987060
C       -1.72999171      -0.43978130      -0.69896305
O       -1.68163334      -1.85451763      -0.74872824
H       -1.73951341       2.75700622       1.30072321
H       -0.53815256      -0.55771480       1.06468420
H        2.84884147      -2.29089401      -0.64590343
H        2.15385536       1.60144678       0.31080393
H       -2.64870400      -0.09047748      -0.22480239
H       -1.65684010       0.00638034      -1.69529221
H       -2.41345999      -2.16576948      -1.29098760
18
Properties=species:S:1:pos:R:3 relative_energy_eV=0.007672403153264895 branch=left pbc="F F F"
O        0.30032462       2.28244569       0.41346498
C       -0.60942391       1.48840644       0.52201769
O       -1.80050598       1.82335002       1.04635083
C       -0.54612041       0.02171550       0.13561207
O        0.63833339      -0.23652227      -0.60041932
P        2.01231336      -0.52921746       0.23374783
O        1.80189461      -1.19769649       1.53551296
O        2.86280231      -1.35030989      -0.85439000
O        2.79146670       0.86653199       0.21820257
C       -1.72936732      -0.43968317      -0.69885784
O       -1.67805744      -1.85422831      -0.74954072
H       -1.74199835       2.75925068       1.29789316
H       -0.53798999      -0.55625799       1.06443054
H        2.84718270      -2.29253815      -0.64728649
H        2.15426269       1.60009946       0.31194169
H       -2.64891549      -0.09244630      -0.22496037
H       -1.65606128       0.00695230      -1.69475828
H       -2.41109298      -2.16680604      -1.28931698
18
Properties=species:S:1:pos:R:3 relative_energy_eV=0.007804621425748337 branch=left pbc="F F F"
O        0.29974311       2.28319191       0.41600486
C       -0.61003574       1.48906184       0.52375437
O       -1.80189021       1.82367810       1.04654022
C       -0.54635484       0.02312056       0.13630875
O        0.63805706      -0.23542495      -0.59937486
P        2.01251217      -0.52985131       0.23325163
O        1.80253621      -1.19885319       1.53481822
O        2.86155299      -1.35152359      -0.85571012
O        2.79256803       0.86562732       0.21689947
C       -1.72884090      -0.43926241      -0.69870002
O       -1.67490095      -1.85391946      -0.75018058
H       -1.74496279       2.76074336       1.29452632
H       -0.53815470      -0.55515751       1.06444643
H        2.84586950      -2.29374573      -0.64842593
H        2.15507969       1.59869783       0.31277059
H       -2.64919837      -0.09363449      -0.22492113
H       -1.65538441       0.00771406      -1.69451192
H       -2.40914864      -2.16741628      -1.28785196
18
Properties=species:S:1:pos:R:3 relative_energy_eV=0.007892891560913995 branch=left pbc="F F F"
O        0.29943434       2.28375467       0.41776691
C       -0.61046259       1.48959314       0.52509069
O       -1.80301932       1.82365562       1.04676643
C       -0.54654499       0.02424372       0.13709221
O        0.63771870      -0.23473416      -0.59858273
P        2.01257901      -0.53036761       0.23278206
O        1.80322526      -1.19952795       1.53433436
O        2.86059851      -1.35226019      -0.85683370
O        2.79350911       0.86471335       0.21609244
C       -1.72846540      -0.43880688      -0.69863961
O       -1.67238652      -1.85373873      -0.75069766
H       -1.74726867       2.76183156       1.29184710
H       -0.53857159      -0.55451595       1.06472753
H        2.84490743      -2.29443165      -0.64921174
H        2.15593492       1.59748381       0.31326403
H       -2.64954394      -0.09435323      -0.22485089
H       -1.65492953       0.00836434      -1.69461966
H       -2.40766753      -2.16785778      -1.28668342
18
Properties=species:S:1:pos:R:3 relative_energy_eV=0.007982892111613182 branch=left pbc="F F F"
O        0.29935735       2.28421119       0.41911035
C       -0.61072834       1.49011239       0.52612379
O       -1.80386122       1.82346158       1.04714881
C       -0.54666383       0.02509034       0.13792374
O        0.63739807      -0.23420139      -0.59809881
P        2.01253543      -0.53084420       0.23226890
O        1.80395871      -1.19985342       1.53398265
O        2.85988223      -1.35271500      -0.85781599
O        2.79427315       0.86369891       0.21559035
C       -1.72819186      -0.43829950      -0.69864390
O       -1.67032194      -1.85350220      -0.75112333
H       -1.74941796       2.76255505       1.28941642
H       -0.53912446      -0.55424084       1.06530666
H        2.84412861      -2.29474948      -0.64975638
H        2.15679170       1.59632092       0.31357395
H       -2.64987846      -0.09476871      -0.22472731
H       -1.65464187       0.00893576      -1.69494452
H       -2.40644811      -2.16816531      -1.28569105
18
Properties=species:S:1:pos:R:3 relative_energy_eV=0.008070034302363638 branch=left pbc="F F F"
O        0.29946854       2.28453676       0.42034597
C       -0.61099770       1.49069712       0.52677845
O       -1.80451613       1.82356520       1.04747195
C       -0.54687109       0.02560316       0.13868955
O        0.63705941      -0.23365157      -0.59791032
P        2.01233371      -0.53131518       0.23169153
O        1.80474009      -1.19985767       1.53373988
O        2.85936829      -1.35291248      -0.85867601
O        2.79478966       0.86256150       0.21531430
C       -1.72801801      -0.43788925      -0.69881626
O       -1.66841754      -1.85318817      -0.75160454
H       -1.75102610       2.76343538       1.28772991
H       -0.53983045      -0.55427827       1.06612986
H        2.84338829      -2.29478510      -0.65012763
H        2.15752901       1.59512170       0.31376654
H       -2.65021296      -0.09527131      -0.22467924
H       -1.65447005       0.00928584      -1.69546719
H       -2.40526978      -2.16861155      -1.28473241
18
Properties=species:S:1:pos:R:3 relative_energy_eV=0.008168640488293022 branch=left pbc="F F F"
O        0.29956194       2.28474266       0.42139628
C       -0.61127972       1.49126671       0.52712518
O       -1.80493365       1.82409719       1.04767442
C       -0.54716600       0.02569857       0.13932544
O        0.63677200      -0.23301588      -0.59790609
P        2.01207977      -0.53177039       0.23111659
O        1.80556663      -1.19967791       1.53361115
O        2.85904989      -1.35298184      -0.85943440
O        2.79515746       0.86138433       0.21518611
C       -1.72791274      -0.43758850      -0.69906149
O       -1.66687213      -1.85269317      -0.75212573
H       -1.75240437       2.76434065       1.28666592
H       -0.54058023      -0.55460199       1.06705601
H        2.84274130      -2.29465085      -0.65038693
H        2.15819386       1.59396520       0.31387807
H       -2.65040299      -0.09583918      -0.22472521
H       -1.65433693       0.00946672      -1.69590529
H       -2.40418689      -2.16909621      -1.28384566
18
Properties=species:S:1:pos:R:3 relative_energy_eV=0.008279075016616844 branch=left pbc="F F F"
O        0.29942863       2.28479189       0.42217619
C       -0.61172034       1.49172071       0.52723160
O       -1.80533476       1.82528573       1.04740150
C       -0.54764265       0.02542265       0.13980485
O        0.63650195      -0.23236736      -0.59778514
P        2.01187651      -0.53215685       0.23068865
O        1.80641805      -1.19947307       1.53361202
O        2.85875887      -1.35297153      -0.86017678
O        2.79553877       0.86036454       0.21519128
C       -1.72782895      -0.43752703      -0.69935809
O       -1.66558105      -1.85214729      -0.75270223
H       -1.75319035       2.76551598       1.28664871
H       -0.54144362      -0.55513580       1.06782853
H        2.84224540      -2.29447760      -0.65064015
H        2.15889721       1.59303396       0.31387925
H       -2.65044779      -0.09660489      -0.22503555
H       -1.65417457       0.00953356      -1.69606937
H       -2.40325409      -2.16976149      -1.28305093
18
Properties=species:S:1:pos:R:3 relative_energy_eV=0.008417847115197219 branch=left pbc="F F F"
O        0.29872714       2.28478404       0.42265190
C       -0.61248369       1.49207636       0.52751910
O       -1.80613687       1.82717570       1.04648716
C       -0.54833519       0.02495607       0.14053744
O        0.63621905      -0.23167611      -0.59700247
P        2.01193057      -0.53256810       0.23044191
O        1.80766285      -1.19952366       1.53372010
O        2.85801560      -1.35308697      -0.86142317
O        2.79655031       0.85930001       0.21526328
C       -1.72759347      -0.43753858      -0.69955642
O       -1.66421216      -1.85152053      -0.75346356
H       -1.75435977       2.76692923       1.28689099
H       -0.54282821      -0.55598176       1.06852629
H        2.84189559      -2.29440711      -0.65118328
H        2.16040460       1.59227679       0.31373020
H       -2.65034497      -0.09751664      -0.22574436
H       -1.65382416       0.00996824      -1.69567658
H       -2.40224002      -2.17060088      -1.28207417
18
Properties=species:S:1:pos:R:3 relative_energy_eV=0.008663752360007493 branch=left pbc="F F F"
O        0.29719806       2.28472883       0.42283401
C       -0.61392802       1.49240827       0.52835398
O       -1.80809786       1.83001445       1.04440926
C       -0.54942827       0.02457776       0.14205342
O        0.63579300      -0.23106538      -0.59470933
P        2.01245412      -0.53305531       0.23052007
O        1.80971941      -1.20015282       1.53394653
O        2.85594970      -1.35342952      -0.86387143
O        2.79894387       0.85806441       0.21545497
C       -1.72703440      -0.43761333      -0.69964607
O       -1.66186313      -1.85095784      -0.75456215
H       -1.75613730       2.76901175       1.28720664
H       -0.54560948      -0.55729825       1.06922083
H        2.84169073      -2.29453939      -0.65243606
H        2.16376917       1.59182037       0.31325797
H       -2.65033355      -0.09877361      -0.22726935
H       -1.65316530       0.01135817      -1.69455524
H       -2.40087355      -2.17205242      -1.28056370
18
Properties=species:S:1:pos:R:3 relative_energy_eV=0.009021749388921307 branch=left pbc="F F F"
O        0.29526153       2.28481664       0.42267780
C       -0.61565850       1.49275958       0.52979268
O       -1.81104688       1.83233043       1.04197055
C       -0.55047128       0.02475782       0.14440084
O        0.63539950      -0.23078970      -0.59109450
P        2.01347359      -0.53355339       0.23094671
O        1.81232797      -1.20147907       1.53417499
O        2.85254083      -1.35405031      -0.86722323
O        2.80254325       0.85679107       0.21565697
C       -1.72621064      -0.43743608      -0.69945054
O       -1.65899195      -1.85073176      -0.75575968
H       -1.75909552       2.77072622       1.28613833
H       -0.54938025      -0.55868073       1.07004075
H        2.84173411      -2.29491120      -0.65431860
H        2.16887724       1.59187749       0.31252603
H       -2.65062716      -0.09975499      -0.22911904
H       -1.65227455       0.01386375      -1.69300875
H       -2.39935405      -2.17348960      -1.27870694
18
Properties=species:S:1:pos:R:3 relative_energy_eV=0.009386360503413016 branch=left pbc="F F F"
O        0.29395715       2.28498693       0.42255080
C       -0.61703250       1.49316279       0.53106343
O       -1.81384237       1.83325604       1.04016790
C       -0.55118856       0.02540975       0.14666757
O        0.63512278      -0.23084021      -0.58757381
P        2.01443323      -0.53389249       0.23154310
O        1.81459750      -1.20294558       1.53435057
O        2.84893211      -1.35459279      -0.87017718
O        2.80581775       0.85582767       0.21582671
C       -1.72557231      -0.43715225      -0.69924227
O       -1.65627615      -1.85084534      -0.75665553
H       -1.76172595       2.77165890       1.28428066
H       -0.55291115      -0.55951722       1.07092633
H        2.84192879      -2.29525916      -0.65614651
H        2.17386064       1.59241054       0.31176421
H       -2.65135505      -0.10038193      -0.23062226
H       -1.65148918       0.01639695      -1.69191742
H       -2.39820949      -2.17463636      -1.27716193
18
Properties=species:S:1:pos:R:3 relative_energy_eV=0.009701706923806341 branch=left pbc="F F F"
O        0.29336659       2.28525561       0.42259006
C       -0.61786767       1.49360927       0.53183631
O       -1.81591582       1.83285160       1.03931684
C       -0.55157639       0.02619906       0.14848272
O        0.63502473      -0.23085976      -0.58476615
P        2.01510638      -0.53412806       0.23214583
O        1.81646611      -1.20431608       1.53449729
O        2.84577426      -1.35497972      -0.87229209
O        2.80823418       0.85503558       0.21587908
C       -1.72526193      -0.43673967      -0.69906525
O       -1.65438447      -1.85102537      -0.75733475
H       -1.76411418       2.77166455       1.28176883
H       -0.55560396      -0.55975482       1.07198370
H        2.84221120      -2.29551361      -0.65766267
H        2.17808140       1.59315790       0.31111551
H       -2.65230306      -0.10069141      -0.23145345
H       -1.65076182       0.01846233      -1.69137936
H       -2.39742831      -2.17518112      -1.27601805
18
Properties=species:S:1:pos:R:3 relative_energy_eV=0.009987425502913538 branch=left pbc="F F F"
O        0.29332023       2.28553536       0.42299537
C       -0.61842244       1.49411605       0.53198757
O       -1.81742686       1.83175992       1.03893504
C       -0.55201922       0.02691077       0.14992213
O        0.63495458      -0.23056538      -0.58228955
P        2.01540963      -0.53432650       0.23286557
O        1.81836179      -1.20572472       1.53476443
O        2.84264501      -1.35516772      -0.87385542
O        2.80998822       0.85421026       0.21585549
C       -1.72535367      -0.43633854      -0.69909671
O       -1.65271053      -1.85096422      -0.75797407
H       -1.76598635       2.77130328       1.27915366
H       -0.55801077      -0.55948358       1.07335377
H        2.84256117      -2.29562084      -0.65910825
H        2.18211370       1.59419039       0.31044656
H       -2.65359603      -0.10122419      -0.23190924
H       -1.64989779       0.02007415      -1.69130698
H       -2.39688346      -2.17563818      -1.27509497
18
Properties=species:S:1:pos:R:3 relative_energy_eV=0.010335318627767265 branch=left pbc="F F F"
O        0.29319471       2.28594438       0.42369684
C       -0.61891572       1.49457633       0.53155311
O       -1.81854705       1.83017756       1.03871022
C       -0.55267130       0.02735171       0.15115759
O        0.63490997      -0.22959427      -0.57982452
P        2.01540166      -0.53466027       0.23376667
O        1.82087110      -1.20742886       1.53527993
O        2.83935600      -1.35527643      -0.87514803
O        2.81143395       0.85304712       0.21566494
C       -1.72577531      -0.43578912      -0.69920226
O       -1.65155560      -1.85041109      -0.75887072
H       -1.76818488       2.77053572       1.27606960
H       -0.56021337      -0.55876409       1.07524319
H        2.84305640      -2.29569525      -0.66070070
H        2.18665735       1.59547286       0.30971826
H       -2.65506075      -0.10206149      -0.23194914
H       -1.64851362       0.02138071      -1.69134142
H       -2.39639632      -2.17575920      -1.27417918
18
Properties=species:S:1:pos:R:3 relative_energy_eV=0.010718783960328437 branch=left pbc="F F F"
O        0.29262737       2.28634254       0.42456939
C       -0.61949424       1.49474560       0.53069313
O       -1.81921081       1.82902873       1.03820276
C       -0.55360557       0.02730204       0.15193865
O        0.63473615      -0.22813721      -0.57773254
P        2.01505155      -0.53510702       0.23472590
O        1.82366222      -1.20910857       1.53606072
O        2.83650507      -1.35527667      -0.87610262
O        2.81242096       0.85175284       0.21541496
C       -1.72638337      -0.43536147      -0.69942485
O       -1.65071840      -1.84934192      -0.75984685
H       -1.76978677       2.77000820       1.27384497
H       -0.56194354      -0.55769449       1.07716012
H        2.84357297      -2.29569265      -0.66218603
H        2.19097154       1.59676535       0.30901397
H       -2.65631538      -0.10334622      -0.23181437
H       -1.64681981       0.02202231      -1.69134611
H       -2.39622270      -2.17585506      -1.27352682
18
Properties=species:S:1:pos:R:3 relative_energy_eV=0.01108515026862733 branch=left pbc="F F F"
O        0.29116787       2.28680834       0.42516670
C       -0.62025664       1.49455599       0.53000286
O       -1.81975975       1.82854575       1.03740553
C       -0.55444788       0.02695267       0.15241891
O        0.63450850      -0.22672961      -0.57625579
P        2.01469043      -0.53569165       0.23547872
O        1.82638153      -1.21050421       1.53691128
O        2.83465387      -1.35531573      -0.87686672
O        2.81321724       0.85048367       0.21517675
C       -1.72674158      -0.43502865      -0.69945460
O       -1.65067718      -1.84827318      -0.76087283
H       -1.77123351       2.76968075       1.27241710
H       -0.56274505      -0.55646654       1.07876195
H        2.84403709      -2.29574571      -0.66331856
H        2.19457935       1.59765022       0.30848074
H       -2.65684526      -0.10452792      -0.23156158
H       -1.64508837       0.02212277      -1.69103607
H       -2.39639341      -2.17547061      -1.27321000
18
Properties=species:S:1:pos:R:3 relative_energy_eV=0.011488675325381337 branch=left pbc="F F F"
O        0.28871252       2.28736484       0.42564448
C       -0.62149140       1.49411879       0.52969139
O       -1.82066555       1.82894205       1.03618957
C       -0.55525523       0.02657355       0.15278026
O        0.63407377      -0.22580590      -0.57512917
P        2.01435538      -0.53643617       0.23609630
O        1.82925898      -1.21164405       1.53789700
O        2.83339033      -1.35533587      -0.87778063
O        2.81410104       0.84912489       0.21515760
C       -1.72673282      -0.43506212      -0.69938898
O       -1.65076213      -1.84748890      -0.76205580
H       -1.77198424       2.76985077       1.27203708
H       -0.56292902      -0.55455813       1.08026229
H        2.84442922      -2.29571249      -0.66421592
H        2.19800814       1.59827657       0.30794601
H       -2.65681310      -0.10593296      -0.23154643
H       -1.64337151       0.02162283      -1.69054972
H       -2.39727711      -2.17485137      -1.27339096
18
Properties=species:S:1:pos:R:3 relative_energy_eV=0.012147109118814114 branch=left pbc="F F F"
O        0.28414785       2.28853792       0.42607007
C       -0.62395038       1.49369041       0.53022456
O       -1.82313869       1.83003938       1.03457046
C       -0.55591031       0.02662227       0.15361574
O        0.63339280      -0.22595710      -0.57372922
P        2.01436519      -0.53771319       0.23660022
O        1.83350680      -1.21284295       1.53917470
O        2.83207883      -1.35542290      -0.87966153
O        2.81598318       0.84702163       0.21561202
C       -1.72589436      -0.43563697      -0.69897203
O       -1.65133623      -1.84768637      -0.76424217
H       -1.77306528       2.77024227       1.27164599
H       -0.56235519      -0.55059756       1.08273464
H        2.84488614      -2.29556703      -0.66518803
H        2.20312657       1.59863093       0.30712470
H       -2.65605924      -0.10777582      -0.23197333
H       -1.64122931       0.02046375      -1.68971322
H       -2.39950106      -2.17300228      -1.27424920
18
Properties=species:S:1:pos:R:3 relative_energy_eV=0.01322888890717877 branch=left pbc="F F F"
O        0.27896136       2.29029466       0.42672450
C       -0.62738145       1.49402592       0.53155923
O       -1.82734187       1.83147283       1.03334968
C       -0.55621464       0.02752271       0.15502655
O        0.63264185      -0.22799575      -0.57193104
P        2.01496731      -0.53917345       0.23682764
O        1.83833247      -1.21370572       1.54030539
O        2.83042447      -1.35547853      -0.88251746
O        2.81888816       0.84445270       0.21682080
C       -1.72430245      -0.43724548      -0.69851804
O       -1.65159120      -1.84955394      -0.76723976
H       -1.77390309       2.77095341       1.27126471
H       -0.56140006      -0.54446536       1.08645093
H        2.84527341      -2.29508297      -0.66610715
H        2.20946306       1.59870321       0.30595657
H       -2.65506931      -0.11006042      -0.23328379
H       -1.63940509       0.01870002      -1.68908628
H       -2.40329562      -2.17031746      -1.27595809
18
Properties=species:S:1:pos:R:3 relative_energy_eV=0.014534334626659984 branch=left pbc="F F F"
O        0.27540335       2.29231992       0.42732539
C       -0.63039637       1.49545561       0.53290024
O       -1.83189552       1.83193070       1.03340375
C       -0.55594021       0.02888352       0.15678537
O        0.63247318      -0.23088782      -0.56989935
P        2.01628356      -0.54028062       0.23663679
O        1.84216696      -1.21411821       1.54065642
O        2.82875184      -1.35564812      -0.88540668
O        2.82214451       0.84227198       0.21821502
C       -1.72261117      -0.43921790      -0.69808975
O       -1.65203743      -1.85249563      -0.77016386
H       -1.77581821       2.77123316       1.26985961
H       -0.56035418      -0.53851761       1.09072722
H        2.84558265      -2.29463555      -0.66681095
H        2.21522537       1.59831089       0.30488166
H       -2.65431366      -0.11170307      -0.23481303
H       -1.63839219       0.01728665      -1.68876958
H       -2.40722517      -2.16714149      -1.27779387
18
Properties=species:S:1:pos:R:3 relative_energy_eV=0.01573125986760715 branch=left pbc="F F F"
O        0.27423278       2.29421337       0.42775920
C       -0.63222375       1.49753462       0.53337974
O       -1.83536573       1.83135344       1.03434561
C       -0.55543849       0.02985055       0.15841842
O        0.63298914      -0.23310360      -0.56781296
P        2.01797057      -0.54076115       0.23624629
O        1.84438837      -1.21423776       1.54022966
O        2.82742049      -1.35599918      -0.88756975
O        2.82511222       0.84089273       0.21924138
C       -1.72147422      -0.44109982      -0.69785071
O       -1.65251215      -1.85513206      -0.77218235
H       -1.77886499       2.77121873       1.26804106
H       -0.55947510      -0.53436978       1.09473531
H        2.84585987      -2.29446694      -0.66730705
H        2.21917055       1.59763157       0.30418100
H       -2.65402823      -0.11260271      -0.23607742
H       -1.63805319       0.01648329      -1.68863078
H       -2.41066083      -2.16435888      -1.27950228
18
Properties=species:S:1:pos:R:3 relative_energy_eV=0.01721263835861464 branch=left pbc="F F F"
O        0.27382947       2.29703039       0.42763532
C       -0.63350639       1.50048552       0.53270314
O       -1.83866630       1.82916526       1.03581431
C       -0.55454809       0.03001643       0.16072655
O        0.63462907      -0.23400830      -0.56456583
P        2.02086518      -0.54105323       0.23560166
O        1.84642456      -1.21467604       1.53898484
O        2.82634173      -1.35707103      -0.88977254
O        2.82932531       0.83975894       0.21971371
C       -1.72045737      -0.44295701      -0.69719552
O       -1.65448554      -1.85751587      -0.77396847
H       -1.78660193       2.77057771       1.26441855
H       -0.55783653      -0.53127800       1.10003452
H        2.84648264      -2.29511767      -0.66798972
H        2.22313426       1.59609490       0.30382342
H       -2.65361537      -0.11263899      -0.23684120
H       -1.63740953       0.01633426      -1.68777901
H       -2.41485787      -2.16010084      -1.28169935
18
Properties=species:S:1:pos:R:3 relative_energy_eV=0.019416937237110687 branch=left pbc="F F F"
O        0.27229545       2.30138217       0.42637995
C       -0.63462449       1.50355503       0.53054787
O       -1.84172186       1.82521485       1.03674688
C       -0.55320396       0.02873666       0.16423349
O        0.63755274      -0.23238521      -0.55970152
P        2.02533919      -0.54149852       0.23487574
O        1.84923044      -1.21604909       1.53710468
O        2.82594539      -1.35941412      -0.89236661
O        2.83580576       0.83851571       0.21915938
C       -1.71929920      -0.44443706      -0.69552072
O       -1.65866766      -1.85870636      -0.77525994
H       -1.80163479       2.76927124       1.25853392
H       -0.55464178      -0.52942009       1.10701193
H        2.84775675      -2.29715052      -0.66911354
H        2.22782166       1.59343279       0.30397814
H       -2.65242117      -0.11153174      -0.23659699
H       -1.63550982       0.01697910      -1.68528469
H       -2.42097533      -2.15344838      -1.28508360
18
Properties=species:S:1:pos:R:3 relative_energy_eV=0.02321213081086171 branch=left pbc="F F F"
O        0.26658420       2.30782086       0.42296945
C       -0.63579361       1.50524323       0.52766060
O       -1.84445547       1.81869036       1.03609272
C       -0.55078645       0.02593966       0.16971330
O        0.64184939      -0.22730978      -0.55347196
P        2.03167962      -0.54280550       0.23417178
O        1.85389714      -1.21916181       1.53503516
O        2.82679846      -1.36359518      -0.89580666
O        2.84532642       0.83689109       0.21698015
C       -1.71734907      -0.44425352      -0.69167691
O       -1.66655441      -1.85768511      -0.77577472
H       -1.82739344       2.76626319       1.24827703
H       -0.54895220      -0.52917618       1.11556917
H        2.84996632      -2.30124380      -0.67084431
H        2.23433219       1.58921775       0.30489916
H       -2.64941044      -0.10802711      -0.23432073
H       -1.63134440       0.01911109      -1.67999613
H       -2.42934694      -2.14287274      -1.28983273
18
Properties=species:S:1:pos:R:3 relative_energy_eV=0.026112151685083518 branch=left pbc="F F F"
O        0.26086930       2.31166401       0.41999419
C       -0.63647529       1.50464262       0.52671995
O       -1.84559905       1.81439474       1.03429240
C       -0.54889178       0.02422653       0.17335514
O        0.64435604      -0.22329251      -0.55052236
P        2.03537659      -0.54401190       0.23402283
O        1.85716993      -1.22159409       1.53431431
O        2.82792881      -1.36642550      -0.89784988
O        2.85108493       0.83575871       0.21507571
C       -1.71586078      -0.44299096      -0.68862196
O       -1.67175882      -1.85585740      -0.77535611
H       -1.84410668       2.76413666       1.24155211
H       -0.54513112      -0.52982587       1.11984979
H        2.85141817      -2.30408449      -0.67191668
H        2.23826179       1.58668732       0.30573104
H       -2.64698670      -0.10503984      -0.23210393
H       -1.62816874       0.02088154      -1.67609912
H       -2.43443929      -2.13622310      -1.29279309
18
Properties=species:S:1:pos:R:3 relative_energy_eV=0.030995163087936817 branch=left pbc="F F F"
O        0.24968238       2.31584720       0.41373283
C       -0.63743175       1.50161947       0.52889684
O       -1.84734995       1.80817254       1.02933098
C       -0.54508135       0.02326688       0.17872754
O        0.64773864      -0.21678833      -0.54908893
P        2.03981671      -0.54661507       0.23439167
O        1.86260968      -1.22564605       1.53451448
O        2.83027102      -1.37030142      -0.90008419
O        2.85765161       0.83373439       0.21159425
C       -1.71324342      -0.43929378      -0.68326502
O       -1.67940502      -1.85222416      -0.77392044
H       -1.86680337       2.76075513       1.23191568
H       -0.53982804      -0.53175496       1.12330632
H        2.85343679      -2.30809610      -0.67335246
H        2.24371577       1.58336861       0.30721372
H       -2.64318190      -0.09964876      -0.22758032
H       -1.62271712       0.02400637      -1.67006811
H       -2.44083339      -2.12735541      -1.29662049
18
Properties=species:S:1:pos:R:3 relative_energy_eV=0.03666696102663991 branch=left pbc="F F F"
O        0.24040126       2.31794902       0.40651454
C       -0.63976201       1.50003914       0.53295646
O       -1.85161335       1.80440092       1.02323826
C       -0.54155470       0.02383697       0.18287961
O        0.65104950      -0.21059802      -0.54919614
P        2.04300160      -0.54883662       0.23435851
O        1.86840034      -1.22937163       1.53574953
O        2.83261692      -1.37313524      -0.90049706
O        2.86135236       0.83097424       0.20832206
C       -1.71113825      -0.43654903      -0.67875319
O       -1.68552075      -1.85003104      -0.77281959
H       -1.88249300       2.75936783       1.22694016
H       -0.53539661      -0.53419388       1.12423960
H        2.85520424      -2.31122064      -0.67475534
H        2.24803260       1.58082869       0.30852808
H       -2.64049195      -0.09572885      -0.22299490
H       -1.61666313       0.02635289      -1.66502649
H       -2.44637775      -2.12103822      -1.30003975
18
Properties=species:S:1:pos:R:3 relative_energy_eV=0.04347867763863178 branch=left pbc="F F F"
O        0.23423498       2.31919241       0.39524259
C       -0.64354610       1.50241613       0.53933472
O       -1.86136320       1.80243517       1.02222599
C       -0.53713581       0.02643373       0.18769187
O        0.65615856      -0.20116657      -0.54918747
P        2.04564057      -0.55348543       0.23530215
O        1.87904339      -1.23344025       1.53523278
O        2.83669125      -1.37706077      -0.89879759
O        2.86400117       0.82565495       0.20327410
C       -1.70917477      -0.43314191      -0.67267002
O       -1.69476420      -1.84767677      -0.77091475
H       -1.90929579       2.75122866       1.21286096
H       -0.52773829      -0.53983704       1.12247639
H        2.85810213      -2.31581153      -0.67716811
H        2.25494110       1.57666022       0.31066556
H       -2.63685059      -0.08910029      -0.21368485
H       -1.60581386       0.03110337      -1.65736715
H       -2.45408320      -2.11135749      -1.30487283
18
Properties=species:S:1:pos:R:3 relative_energy_eV=0.04921259023831226 branch=left pbc="F F F"
O        0.22691322       2.32069784       0.38639399
C       -0.65246066       1.50563118       0.53919501
O       -1.87681985       1.80383959       1.01425692
C       -0.53590303       0.02625762       0.18980930
O        0.65956941      -0.19516259      -0.54719744
P        2.04753701      -0.55553736       0.23422298
O        1.88768533      -1.23641868       1.53606021
O        2.84008323      -1.37942280      -0.89609232
O        2.86477545       0.82165284       0.20058156
C       -1.70774415      -0.43406248      -0.66975686
O       -1.69996744      -1.84877214      -0.77063474
H       -1.91401341       2.75481811       1.21755052
H       -0.52106785      -0.54596019       1.12066768
H        2.86023008      -2.31911059      -0.67920128
H        2.25922401       1.57411838       0.31181047
H       -2.63383825      -0.08673395      -0.20768006
H       -1.59593132       0.03310822      -1.65237559
H       -2.45922442      -2.10589641      -1.30796600
18
Properties=species:S:1:pos:R:3 relative_energy_eV=0.054194954867853085 branch=left pbc="F F F"
O        0.22336959       2.32240629       0.38221441
C       -0.65788922       1.50777776       0.53698833
O       -1.88625189       1.80431556       1.01437706
C       -0.53561955       0.02570977       0.19095798
O        0.66104953      -0.19297397      -0.54487409
P        2.04855181      -0.55633082       0.23190512
O        1.89286774      -1.23833414       1.53627774
O        2.84234610      -1.38129582      -0.89440248
O        2.86535410       0.81864586       0.19915622
C       -1.70699577      -0.43375511      -0.66781958
O       -1.70309401      -1.84798348      -0.76894039
H       -1.92120515       2.75178311       1.21292076
H       -0.51565046      -0.55119842       1.11898924
H        2.86162513      -2.32165956      -0.68037882
H        2.26244717       1.57257023       0.31273946
H       -2.63045317      -0.08244011      -0.20247720
H       -1.58992415       0.03638253      -1.64872205
H       -2.46148043      -2.10057311      -1.30926737
18
Properties=species:S:1:pos:R:3 relative_energy_eV=0.06094372458392172 branch=left pbc="F F F"
O        0.21240262       2.32664782       0.37876187
C       -0.66813927       1.50812130       0.52896615
O       -1.90062584       1.80294354       1.01073524
C       -0.53628042       0.02249669       0.19247929
O        0.66116622      -0.19358969      -0.54094238
P        2.04917377      -0.55942311       0.23262909
O        1.89858771      -1.23862128       1.53289693
O        2.84566666      -1.38420252      -0.89391087
O        2.86700335       0.81672711       0.19833074
C       -1.70535170      -0.43344672      -0.66585033
O       -1.70540575      -1.84601239      -0.76538871
H       -1.92241339       2.75087515       1.21091441
H       -0.50752761      -0.55962786       1.11733408
H        2.86299882      -2.32506843      -0.68137818
H        2.26662629       1.57116145       0.31373887
H       -2.62360520      -0.07480282      -0.19611161
H       -1.58305976       0.04169951      -1.64417716
H       -2.46216907      -2.09283117      -1.30938310
18
Properties=species:S:1:pos:R:3 relative_energy_eV=0.0723269866357441 branch=left pbc="F F F"
O        0.19264584       2.33418439       0.37677847
C       -0.67835423       1.50345177       0.52014733
O       -1.91267539       1.79301809       1.00880500
C       -0.53484108       0.01781645       0.19559072
O        0.66079117      -0.19924902      -0.53725663
P        2.05163694      -0.56083475       0.22826297
O        1.90192552      -1.24102191       1.53183549
O        2.84859075      -1.38826721      -0.89560215
O        2.87053165       0.81434053       0.19782759
C       -1.70229481      -0.42844009      -0.66184876
O       -1.70763069      -1.83855851      -0.75729118
H       -1.92962410       2.74227036       1.19511149
H       -0.49771565      -0.57011950       1.11672962
H        2.86409081      -2.32956249      -0.68164327
H        2.27243217       1.57028754       0.31528567
H       -2.61213916      -0.05840344      -0.18746689
H       -1.57833118       0.05208590      -1.63805626
H       -2.45999114      -2.07995150      -1.30756486
18
Properties=species:S:1:pos:R:3 relative_energy_eV=0.08534603197767865 branch=left pbc="F F F"
O        0.17135227       2.34147691       0.37553067
C       -0.68392464       1.49594396       0.51682856
O       -1.91813526       1.77728169       1.00747677
C       -0.53073674       0.01400426       0.19948610
O        0.66074010      -0.20664995      -0.53700256
P        2.05422175      -0.56388717       0.22721596
O        1.90236984      -1.24234856       1.52904810
O        2.85018947      -1.39221307      -0.89949269
O        2.87462620       0.81327568       0.19720280
C       -1.69873284      -0.42046234      -0.65704519
O       -1.70922163      -1.82865806      -0.74804864
H       -1.94001747       2.73038296       1.17274108
H       -0.49068815      -0.57791474       1.11770064
H        2.86440873      -2.33288721      -0.68107005
H        2.27786671       1.57003876       0.31679398
H       -2.60130371      -0.04001553      -0.18003859
H       -1.57747289       0.06305634      -1.63267940
H       -2.45649429      -2.06737734      -1.30500320
18
Properties=species:S:1:pos:R:3 relative_energy_eV=0.1028450741287088 branch=left pbc="F F F"
O        0.14946713       2.34857263       0.37388922
C       -0.68339230       1.48600928       0.52240271
O       -1.91636217       1.75286933       1.00914627
C       -0.52237114       0.01170073       0.20441432
O        0.66256460      -0.21598527      -0.54099171
P        2.05826911      -0.56651949       0.22468972
O        1.89950170      -1.24474930       1.52781943
O        2.84975451      -1.39596080      -0.90501820
O        2.87883614       0.81213510       0.19609384
C       -1.69449007      -0.40787860      -0.65049593
O       -1.71114548      -1.81508618      -0.73684176
H       -1.95922768       2.71124403       1.13695848
H       -0.48665623      -0.58295442       1.12054949
H        2.86405130      -2.33523801      -0.67968567
H        2.28366643       1.57017001       0.31852172
H       -2.59107996      -0.01745738      -0.17274043
H       -1.58074976       0.07590781      -1.62740447
H       -2.45158867      -2.05373286      -1.30166268
18
Properties=species:S:1:pos:R:3 relative_energy_eV=0.1154297365937964 branch=left pbc="F F F"
O        0.14075674       2.35166738       0.37245463
C       -0.67941586       1.48110899       0.53102938
O       -1.91174508       1.73612260       1.01283385
C       -0.51587007       0.01153710       0.20705548
O        0.66499385      -0.22110203      -0.54548712
P        2.06063453      -0.56834146       0.22412497
O        1.89663258      -1.24580060       1.52671142
O        2.84837074      -1.39768461      -0.90836125
O        2.88066661       0.81133840       0.19509410
C       -1.69224620      -0.39953135      -0.64649567
O       -1.71238801      -1.80657462      -0.73043482
H       -1.97470010       2.69730102       1.11113579
H       -0.48655536      -0.58369410       1.12298259
H        2.86354244      -2.33562722      -0.67864883
H        2.28668351       1.57035222       0.31950432
H       -2.58705732      -0.00444796      -0.16910616
H       -1.58449878       0.08308866      -1.62489850
H       -2.44875677      -2.04666579      -1.29984984
18
Properties=species:S:1:pos:R:3 relative_energy_eV=0.1394823902119242 branch=left pbc="F F F"
O        0.14213380       2.35458332       0.36941455
C       -0.66643751       1.47866991       0.55306395
O       -1.89968897       1.70888653       1.02764319
C       -0.50362394       0.01210125       0.20876221
O        0.67097250      -0.22672007      -0.55425412
P        2.06333873      -0.57031162       0.22273469
O        1.89082388      -1.24693461       1.52510909
O        2.84417467      -1.39878248      -0.91203323
O        2.88122453       0.80950162       0.19312530
C       -1.69053897      -0.38690481      -0.64121943
O       -1.71497858      -1.79385711      -0.72229075
H       -2.00749117       2.67071827       1.06294881
H       -0.49049034      -0.58049923       1.12742862
H        2.86248288      -2.33457728      -0.67699572
H        2.29038068       1.57022749       0.32080614
H       -2.58577261       0.01285194      -0.16476138
H       -1.59266018       0.09243784      -1.62232851
H       -2.44480195      -2.03834432      -1.29750906
18
Properties=species:S:1:pos:R:3 relative_energy_eV=0.15465696291357744 branch=left pbc="F F F"
O        0.14942752       2.35587895       0.36861081
C       -0.65735532       1.47821224       0.56368781
O       -1.89255127       1.69837395       1.04000566
C       -0.49805201       0.01249423       0.20849718
O        0.67338789      -0.22804621      -0.55774320
P        2.06362791      -0.57088794       0.22211601
O        1.88812079      -1.24701488       1.52398982
O        2.84199280      -1.39886994      -0.91305007
O        2.88091598       0.80845640       0.19218132
C       -1.69091485      -0.38159122      -0.63941796
O       -1.71627348      -1.78848072      -0.71930343
H       -2.02702036       2.65624621       1.03745193
H       -0.49313781      -0.57777791       1.12904064
H        2.86203082      -2.33375105      -0.67632466
H        2.29156711       1.57001146       0.32134335
H       -2.58658049       0.01923761      -0.16311278
H       -1.59678747       0.09600266      -1.62158436
H       -2.44335037      -2.03544719      -1.29674371
18
Properties=species:S:1:pos:R:3 relative_energy_eV=0.19826990558431135 branch=left pbc="F F F"
O        0.16958508       2.36181201       0.36775493
C       -0.62469661       1.47000764       0.57614299
O       -1.88798362       1.68313679       1.07322952
C       -0.48872264       0.01213839       0.20665923
O        0.67635261      -0.22724059      -0.56075128
P        2.06160592      -0.57087367       0.22042235
O        1.88418162      -1.24647613       1.52153466
O        2.83814712      -1.39808208      -0.91334625
O        2.87931473       0.80648445       0.19077567
C       -1.69438667      -0.37382907      -0.63768037
O       -1.71837350      -1.78054366      -0.71546727
H       -2.06738744       2.63543289       0.99093171
H       -0.49843477      -0.57112448       1.13075765
H        2.86138024      -2.33223847      -0.67539657
H        2.29281583       1.56902505       0.32204008
H       -2.58922314       0.02690775      -0.16145747
H       -1.60364818       0.10048536      -1.62059118
H       -2.44147923      -2.03197551      -1.29591406
18
Properties=species:S:1:pos:R:3 relative_energy_eV=0.2526096669207618 branch=left pbc="F F F"
O        0.16485129       2.36981254       0.36230210
C       -0.61323647       1.45999846       0.57853861
O       -1.90180214       1.67015330       1.07260366
C       -0.48333288       0.00804307       0.20597105
O        0.67907183      -0.22720387      -0.56103071
P        2.06140162      -0.57132476       0.22046583
O        1.88403578      -1.24644184       1.52075613
O        2.83695953      -1.39778534      -0.91328171
O        2.87862463       0.80581672       0.19054729
C       -1.69493267      -0.37285693      -0.63705125
O       -1.71833171      -1.77889518      -0.71416507
H       -2.06608482       2.64743495       0.99100441
H       -0.49958289      -0.57014523       1.13305653
H        2.86104125      -2.33179679      -0.67522537
H        2.29356274       1.56887981       0.32201546
H       -2.58856583       0.02921773      -0.16210408
H       -1.60401774       0.10107982      -1.61947056
H       -2.44061414      -2.03093978      -1.29528794
18
Properties=species:S:1:pos:R:3 relative_energy_eV=0.2797528391783999 branch=left pbc="F F F"
O        0.20424573       2.35738139       0.37717191
C       -0.59345449       1.47045479       0.58335533
O       -1.86288300       1.69216274       1.12051407
C       -0.48653476       0.01904472       0.20436085
O        0.67444290      -0.22471934      -0.56194160
P        2.05745813      -0.56953471       0.21849979
O        1.88009832      -1.24531868       1.51908805
O        2.83569560      -1.39735000      -0.91335796
O        2.87836883       0.80499309       0.18952546
C       -1.69946673      -0.36658739      -0.63716539
O       -1.72081823      -1.77404887      -0.71346967
H       -2.12249064       2.58875631       0.93290792
H       -0.50312428      -0.56380418       1.12842986
H        2.86124767      -2.33120321      -0.67465351
H        2.29249245       1.56789985       0.32287837
H       -2.59387382       0.03078449      -0.15888386
H       -1.61127365       0.10425630      -1.62130040
H       -2.44108274      -2.03012059      -1.29631487
18
Properties=species:S:1:pos:R:3 relative_energy_eV=0.37095983043764136 branch=left pbc="F F F"
O        0.24900806       2.34648536       0.38945292
C       -0.57577073       1.48661543       0.58908954
O       -1.81497396       1.67932513       1.17232217
C       -0.49157512       0.03454137       0.20738066
O        0.66756647      -0.22017981      -0.56028415
P        2.05186321      -0.56771497       0.21592748
O        1.87608974      -1.24399466       1.51723691
O        2.83463409      -1.39691770      -0.91359663
O        2.87832040       0.80417818       0.18844556
C       -1.70363281      -0.35949504      -0.63684612
O       -1.72394350      -1.76915869      -0.71166063
H       -2.18411055       2.54920050       0.86560226
H       -0.50690331      -0.55764668       1.12394164
H        2.86140107      -2.33070190      -0.67398827
H        2.29140817       1.56645894       0.32380872
H       -2.59906078       0.03244603      -0.15625071
H       -1.61962585       0.10864450      -1.62354315
H       -2.44164739      -2.02903923      -1.29739384
18
Properties=species:S:1:pos:R:3 relative_energy_eV=0.4753999211534392 branch=left pbc="F F F"
O        0.28955320       2.33045118       0.40625708
C       -0.56881428       1.50345670       0.59565836
O       -1.76516506       1.70666845       1.21635293
C       -0.49825239       0.04670793       0.20660403
O        0.66171506      -0.21826725      -0.56175856
P        2.04891258      -0.56631040       0.21448638
O        1.87231451      -1.24283501       1.51592840
O        2.83404500      -1.39665558      -0.91381918
O        2.87834791       0.80416233       0.18762372
C       -1.70742765      -0.35380463      -0.63726272
O       -1.72631208      -1.76556578      -0.71182250
H       -2.23910381       2.48710898       0.80974186
H       -0.50948394      -0.55222281       1.11804605
H        2.86177752      -2.33041471      -0.67350075
H        2.29023355       1.56552163       0.32462779
H       -2.60446921       0.03246230      -0.15289250
H       -1.62632605       0.11134679      -1.62599870
H       -2.44249772      -2.02876331      -1.29862735
18
Properties=species:S:1:pos:R:3 relative_energy_eV=0.5552443501546804 branch=left pbc="F F F"
O        0.32353800       2.31290580       0.42476952
C       -0.56156457       1.51638634       0.60185524
O       -1.72310836       1.76129888       1.25433491
C       -0.50351812       0.05470741       0.20218202
O        0.65783578      -0.21823101      -0.56534436
P        2.04755651      -0.56499495       0.21367146
O        1.86878856      -1.24188254       1.51485503
O        2.83341529      -1.39644394      -0.91391943
O        2.87825458       0.80417535       0.18691015
C       -1.71129879      -0.34928170      -0.63810572
O       -1.72800280      -1.76226539      -0.71302476
H       -2.28764757       2.41245801       0.76423651
H       -0.51161926      -0.54702819       1.11209814
H        2.86220513      -2.33009730      -0.67312580
H        2.28904324       1.56507672       0.32535914
H       -2.60975773       0.03223249      -0.14922097
H       -1.63176505       0.11285428      -1.62807017
H       -2.44330778      -2.02882342      -1.29981655
18
Properties=species:S:1:pos:R:3 relative_energy_eV=0.5736541681035305 branch=left pbc="F F F"
O        0.32835660       2.30866820       0.42828122
C       -0.55947488       1.52003207       0.60288517
O       -1.71531726       1.77102075       1.26098040
C       -0.50450019       0.05598559       0.20137567
O        0.65710788      -0.21826764      -0.56602954
P        2.04743789      -0.56469164       0.21353411
O        1.86816077      -1.24174350       1.51470686
O        2.83331500      -1.39643367      -0.91394066
O        2.87826621       0.80408470       0.18678189
C       -1.71194066      -0.34855989      -0.63830010
O       -1.72828545      -1.76169299      -0.71326104
H       -2.29630570       2.39933465       0.75620276
H       -0.51196779      -0.54615573       1.11101897
H        2.86228602      -2.33003616      -0.67306767
H        2.28877193       1.56507638       0.32549708
H       -2.61070266       0.03218736      -0.14854830
H       -1.63269785       0.11309386      -1.62843627
H       -2.44346279      -2.02885550      -1.30003620
18
Properties=species:S:1:pos:R:3 relative_energy_eV=0.5856045877299039 branch=left pbc="F F F"
O        0.34576991       2.30078141       0.43962214
C       -0.55463456       1.51945047       0.60564682
O       -1.70118200       1.82437667       1.27908794
C       -0.50560734       0.05711397       0.19545901
O        0.65694549      -0.21968442      -0.56975575
P        2.04755618      -0.56402701       0.21337903
O        1.86629572      -1.24134547       1.51420828
O        2.83276331      -1.39627571      -0.91381919
O        2.87800228       0.80414671       0.18642384
C       -1.71448748      -0.34666691      -0.63901897
O       -1.72878189      -1.75981263      -0.71470038
H       -2.31887220       2.34640983       0.73839117
H       -0.51309611      -0.54297518       1.10774256
H        2.86254181      -2.32974791      -0.67292735
H        2.28820336       1.56507505       0.32583900
H       -2.61364647       0.03219202      -0.14610332
H       -1.63493623       0.11307453      -1.62920756
H       -2.44378676      -2.02903856      -1.30062291
18
Properties=species:S:1:pos:R:3 relative_energy_eV=0.5954225333844079 branch=left pbc="F F F"
O        0.35180765       2.29719975       0.44450020
C       -0.55058653       1.51848769       0.60588064
O       -1.69815293       1.84861426       1.28627512
C       -0.50569372       0.05715411       0.19252150
O        0.65706379      -0.22036130      -0.57138653
P        2.04763089      -0.56369827       0.21336374
O        1.86556073      -1.24120252       1.51399464
O        2.83250486      -1.39617840      -0.91375664
O        2.87788060       0.80412306       0.18627760
C       -1.71563190      -0.34592885      -0.63935273
O       -1.72889106      -1.75900017      -0.71530906
H       -2.32692747       2.32395817       0.73245415
H       -0.51357633      -0.54162953       1.10647370
H        2.86264544      -2.32964326      -0.67287070
H        2.28795094       1.56510940       0.32597121
H       -2.61485124       0.03221141      -0.14506742
H       -1.63575095       0.11295951      -1.62944060
H       -2.44393574      -2.02912816      -1.30088447
18
Properties=species:S:1:pos:R:3 relative_energy_eV=0.5975635903050716 branch=left pbc="F F F"
O        0.35275932       2.29701165       0.44510776
C       -0.54988890       1.51774625       0.60571509
O       -1.69866758       1.85237592       1.28696217
C       -0.50566758       0.05723207       0.19204686
O        0.65711690      -0.22046240      -0.57159232
P        2.04759921      -0.56363001       0.21336014
O        1.86547589      -1.24119046       1.51397205
O        2.83247811      -1.39617551      -0.91375355
O        2.87787572       0.80410667       0.18625717
C       -1.71577063      -0.34583377      -0.63938628
O       -1.72890500      -1.75889578      -0.71539555
H       -2.32747420       2.32073296       0.73218518
H       -0.51363845      -0.54147249       1.10635273
H        2.86265842      -2.32962524      -0.67286540
H        2.28790884       1.56512211       0.32598878
H       -2.61501417       0.03221407      -0.14493034
H       -1.63584389       0.11293282      -1.62946058
H       -2.44395499      -2.02914195      -1.30091955
18
Properties=species:S:1:pos:R:3 relative_energy_eV=0.6023849816519942 branch=left pbc="F F F"
O        0.35289471       2.29639222       0.44614498
C       -0.54966582       1.51768228       0.60525713
O       -1.69169370       1.85110837       1.29299144
C       -0.50568092       0.05745191       0.19155353
O        0.65708351      -0.22049722      -0.57173828
P        2.04769079      -0.56358170       0.21339124
O        1.86537664      -1.24116603       1.51392850
O        2.83242948      -1.39615214      -0.91373922
O        2.87780776       0.80411213       0.18624561
C       -1.71607721      -0.34573305      -0.63938553
O       -1.72892566      -1.75881472      -0.71552360
H       -2.33415796       2.32224502       0.72621465
H       -0.51370393      -0.54142751       1.10638660
H        2.86267334      -2.32961715      -0.67285917
H        2.28792016       1.56509273       0.32599507
H       -2.61508676       0.03219678      -0.14482993
H       -1.63589965       0.11289505      -1.62946484
H       -2.44393777      -2.02914009      -1.30092381
18
Properties=species:S:1:pos:R:3 relative_energy_eV=0.6151307061118132 branch=ts pbc="F F F"
O        0.35405373       2.29470523       0.44940815
C       -0.54999041       1.51713125       0.60453854
O       -1.68756007       1.86105945       1.29369090
C       -0.50616121       0.05833232       0.18966218
O        0.65687418      -0.22071458      -0.57210728
P        2.04781351      -0.56344173       0.21341941
O        1.86508272      -1.24109324       1.51387123
O        2.83232929      -1.39610333      -0.91374010
O        2.87761956       0.80414202       0.18618615
C       -1.71686836      -0.34578583      -0.63928386
O       -1.72920435      -1.75855271      -0.71589707
H       -2.37958934       2.18180647       0.70367767
H       -0.51457831      -0.53995131       1.10524518
H        2.86253856      -2.32954602      -0.67277425
H        2.28736374       1.56482483       0.32687087
H       -2.61687195       0.02844038      -0.14161822
H       -1.64030987       0.11535718      -1.62841777
H       -2.44251536      -2.03056451      -1.30268664
18
Properties=species:S:1:pos:R:3 relative_energy_eV=0.6051820510110701 branch=right pbc="F F F"
O        0.35521276       2.29301824       0.45267131
C       -0.55031500       1.51658022       0.60381995
O       -1.68342645       1.87101052       1.29439036
C       -0.50664150       0.05921274       0.18777083
O        0.65666484      -0.22093193      -0.57247627
P        2.04793624      -0.56330176       0.21344758
O        1.86478881      -1.24102045       1.51381396
O        2.83222910      -1.39605452      -0.91374098
O        2.87743136       0.80417192       0.18612669
C       -1.71765952      -0.34583861      -0.63918218
O       -1.72948304      -1.75829071      -0.71627054
H       -2.42502072       2.04136791       0.68114069
H       -0.51545269      -0.53847512       1.10410375
H        2.86240377      -2.32947489      -0.67268932
H        2.28680733       1.56455692       0.32774666
H       -2.61865714       0.02468398      -0.13840650
H       -1.64472008       0.11781932      -1.62737070
H       -2.44109295      -2.03198893      -1.30444947
18
Properties=species:S:1:pos:R:3 relative_energy_eV=0.6007992261984327 branch=right pbc="F F F"
O        0.35586306       2.29262833       0.45352484
C       -0.55064062       1.51649745       0.60395150
O       -1.68884981       1.87520139       1.28848268
C       -0.50680025       0.05929728       0.18742573
O        0.65651644      -0.22100672      -0.57256333
P        2.04799205      -0.56318567       0.21345639
O        1.86471035      -1.24099834       1.51382024
O        2.83222468      -1.39605213      -0.91375620
O        2.87737797       0.80418399       0.18610558
C       -1.71767943      -0.34606124      -0.63914982
O       -1.72961331      -1.75816251      -0.71634098
H       -2.41937542       2.03780860       0.68673586
H       -0.51539823      -0.53850155       1.10402890
H        2.86238698      -2.32948298      -0.67269307
H        2.28677579       1.56457548       0.32777323
H       -2.61860371       0.02436391      -0.13850652
H       -1.64481910       0.11791150      -1.62736121
H       -2.44106231      -2.03197194      -1.30448801
18
Properties=species:S:1:pos:R:3 relative_energy_eV=0.5991556194094301 branch=right pbc="F F F"
O        0.35589008       2.29191673       0.45463965
C       -0.55133185       1.51716099       0.60395215
O       -1.68597258       1.87727988       1.28836664
C       -0.50701014       0.05927102       0.18741607
O        0.65637057      -0.22100487      -0.57261516
P        2.04803277      -0.56316608       0.21348461
O        1.86463098      -1.24095029       1.51379436
O        2.83220408      -1.39603269      -0.91375574
O        2.87733490       0.80423026       0.18608047
C       -1.71776171      -0.34617780      -0.63925600
O       -1.72966203      -1.75814572      -0.71637440
H       -2.42091627       2.03594754       0.68616906
H       -0.51534232      -0.53849586       1.10389610
H        2.86236810      -2.32948236      -0.67269500
H        2.28675593       1.56458670       0.32779930
H       -2.61859078       0.02410267      -0.13857320
H       -1.64491851       0.11796835      -1.62732646
H       -2.44107609      -2.03196363      -1.30455665
18
Properties=species:S:1:pos:R:3 relative_energy_eV=0.5943950100627262 branch=right pbc="F F F"
O        0.35817458       2.28940466       0.45999756
C       -0.55377968       1.51859062       0.60339298
O       -1.67695215       1.88985923       1.28581283
C       -0.50828840       0.05958552       0.18709409
O        0.65563761      -0.22095028      -0.57274104
P        2.04796857      -0.56286400       0.21347220
O        1.86422135      -1.24075045       1.51375727
O        2.83212278      -1.39598361      -0.91376031
O        2.87719753       0.80437039       0.18592981
C       -1.71793889      -0.34672859      -0.63971935
O       -1.72998810      -1.75821420      -0.71661643
H       -2.42569959       2.02488588       0.68626465
H       -0.51505797      -0.53851419       1.10331268
H        2.86226103      -2.32944118      -0.67271477
H        2.28651398       1.56471648       0.32796566
H       -2.61877488       0.02273767      -0.13886700
H       -1.64546404       0.11828800      -1.62720607
H       -2.44114862      -2.03194713      -1.30492893
18
Properties=species:S:1:pos:R:3 relative_energy_eV=0.5861746308510192 branch=right pbc="F F F"
O        0.36489629       2.28224896       0.47267736
C       -0.55536864       1.52309166       0.60151384
O       -1.66059646       1.92201982       1.27873986
C       -0.51143029       0.06039946       0.18600917
O        0.65366724      -0.22060777      -0.57285206
P        2.04754672      -0.56202355       0.21349554
O        1.86316967      -1.24018438       1.51353876
O        2.83185202      -1.39579315      -0.91375978
O        2.87684504       0.80469688       0.18553423
C       -1.71847230      -0.34795989      -0.64076090
O       -1.73067457      -1.75858026      -0.71721470
H       -2.43578522       1.99605713       0.68849686
H       -0.51445251      -0.53846797       1.10192717
H        2.86197270      -2.32934532      -0.67274326
H        2.28575963       1.56500598       0.32840608
H       -2.61962689       0.01938571      -0.13954776
H       -1.64684784       0.11908643      -1.62704553
H       -2.44144953      -2.03198492      -1.30596909
18
Properties=species:S:1:pos:R:3 relative_energy_eV=0.5758327251933224 branch=right pbc="F F F"
O        0.38133519       2.27315565       0.49079595
C       -0.55753096       1.52826175       0.59950632
O       -1.64143908       1.97143531       1.26651522
C       -0.51622844       0.06212634       0.18443915
O        0.65069323      -0.21986007      -0.57291879
P        2.04657340      -0.56066962       0.21332346
O        1.86140827      -1.23925364       1.51319511
O        2.83125659      -1.39540346      -0.91366207
O        2.87617262       0.80532398       0.18489896
C       -1.71952807      -0.34955748      -0.64218811
O       -1.73164951      -1.75939740      -0.71827166
H       -2.44979280       1.95033187       0.69381783
H       -0.51374132      -0.53808417       1.09981876
H        2.86148034      -2.32911264      -0.67276529
H        2.28454012       1.56527584       0.32911360
H       -2.62148567       0.01430499      -0.14054425
H       -1.64908584       0.12029492      -1.62698793
H       -2.44197308      -2.03212739      -1.30764044
18
Properties=species:S:1:pos:R:3 relative_energy_eV=0.5521254011327983 branch=right pbc="F F F"
O        0.39739291       2.26334590       0.50509883
C       -0.55370630       1.53560979       0.59898446
O       -1.63390215       2.01076475       1.25218840
C       -0.52023143       0.06403363       0.18335214
O        0.64801137      -0.21884279      -0.57282966
P        2.04553815      -0.55926142       0.21310049
O        1.85967630      -1.23836131       1.51280526
O        2.83050085      -1.39499581      -0.91350042
O        2.87553180       0.80567469       0.18429173
C       -1.72073933      -0.35061367      -0.64325800
O       -1.73230689      -1.76021209      -0.71929756
H       -2.45812448       1.91153963       0.70191110
H       -0.51344792      -0.53738398       1.09814305
H        2.86099958      -2.32879200      -0.67275024
H        2.28323634       1.56543031       0.32978317
H       -2.62378488       0.01022753      -0.14129925
H       -1.65113601       0.12125226      -1.62713382
H       -2.44250296      -2.03237064      -1.30914387
18
Properties=species:S:1:pos:R:3 relative_energy_eV=0.48320690719992854 branch=right pbc="F F F"
O        0.44707983       2.24030725       0.53811329
C       -0.54136707       1.55388519       0.60141253
O       -1.63004562       2.10009847       1.20741549
C       -0.52958348       0.07048842       0.18173392
O        0.64139209      -0.21551527      -0.57241603
P        2.04207086      -0.55571218       0.21245414
O        1.85487884      -1.23579081       1.51152277
O        2.82806575      -1.39373424      -0.91299334
O        2.87374522       0.80671516       0.18266188
C       -1.72441706      -0.35221378      -0.64534001
O       -1.73355328      -1.76233660      -0.72218013
H       -2.47164649       1.81704886       0.72870778
H       -0.51350796      -0.53466358       1.09438461
H        2.85964116      -2.32773147      -0.67258870
H        2.27976746       1.56529293       0.33153665
H       -2.63098930       0.00071647      -0.14309281
H       -1.65660316       0.12342114      -1.62791748
H       -2.44392296      -2.03323124      -1.31296876
18
Properties=species:S:1:pos:R:3 relative_energy_eV=0.4124598983617034 branch=right pbc="F F F"
O        0.47991123       2.22610272       0.54965495
C       -0.51918883       1.56970744       0.60822914
O       -1.66148803       2.12467609       1.16696495
C       -0.53247369       0.07599411       0.18279153
O        0.63786742      -0.21212360      -0.57168937
P        2.03900968      -0.55311996       0.21146288
O        1.85155941      -1.23414928       1.51074232
O        2.82570126      -1.39269043      -0.91247325
O        2.87269138       0.80668626       0.18158366
C       -1.72748291      -0.35096470      -0.64531620
O       -1.73333018      -1.76349335      -0.72416405
H       -2.46011877       1.77662151       0.75674777
H       -0.51517021      -0.53133914       1.09341756
H        2.85866882      -2.32664809      -0.67229069
H        2.27714107       1.56455396       0.33263424
H       -2.63758708      -0.00266333      -0.14384011
H       -1.65994853       0.12400750      -1.62906042
H       -2.44475728      -2.03411297      -1.31494913
18
Properties=species:S:1:pos:R:3 relative_energy_eV=0.40214486307741026 branch=right pbc="F F F"
O        0.52337200       2.20948533       0.58052408
C       -0.51539011       1.58436975       0.61475742
O       -1.65328370       2.18814895       1.10953124
C       -0.53757588       0.08520620       0.18462663
O        0.63220505      -0.20775909      -0.57165204
P        2.03454685      -0.55031068       0.21080269
O        1.84632636      -1.23118371       1.50930076
O        2.82238623      -1.39115979      -0.91217515
O        2.87113900       0.80768859       0.17984734
C       -1.73159561      -0.35012263      -0.64586812
O       -1.73380171      -1.76369637      -0.72722891
H       -2.46428528       1.69473381       0.78768876
H       -0.51693927      -0.52683738       1.09155617
H        2.85707225      -2.32510075      -0.67180121
H        2.27383459       1.56332903       0.33430632
H       -2.64580978      -0.01014062      -0.14608254
H       -1.66568383       0.12539403      -1.62978931
H       -2.44551253      -2.03499993      -1.31789838
18
Properties=species:S:1:pos:R:3 relative_energy_eV=0.35688578846747987 branch=right pbc="F F F"
O        0.50189012       2.22205645       0.57041310
C       -0.52517065       1.57355272       0.61369920
O       -1.64764913       2.14786026       1.11809160
C       -0.53242590       0.08490215       0.18710953
O        0.63468579      -0.20797452      -0.57202773
P        2.03508861      -0.55185334       0.21101580
O        1.84741591      -1.23166036       1.50961718
O        2.82247326      -1.39141015      -0.91257533
O        2.87184265       0.80724969       0.18023785
C       -1.73033873      -0.34814767      -0.64433382
O       -1.73289844      -1.76149115      -0.72633142
H       -2.45512095       1.72898630       0.78050769
H       -0.51801522      -0.52640413       1.09416371
H        2.85726929      -2.32506457      -0.67160693
H        2.27501734       1.56269276       0.33375523
H       -2.64427218      -0.00601348      -0.14584774
H       -1.66426214       0.12438350      -1.62931567
H       -2.44452496      -2.03461969      -1.31612649
18
Properties=species:S:1:pos:R:3 relative_energy_eV=0.3314736219654151 branch=right pbc="F F F"
O        0.50037288       2.22020058       0.58100709
C       -0.51814006       1.57430836       0.61337035
O       -1.64040649       2.14947003       1.09151939
C       -0.53231652       0.08911282       0.18959476
O        0.63290171      -0.20473951      -0.57175501
P        2.03344022      -0.55008285       0.20999127
O        1.84463782      -1.23058447       1.50973783
O        2.82004920      -1.39084313      -0.91291009
O        2.87161625       0.80624640       0.17941787
C       -1.73106793      -0.34544084      -0.64290275
O       -1.73193528      -1.75891081      -0.72709507
H       -2.44880646       1.70957684       0.79290767
H       -0.52019908      -0.52271837       1.09626488
H        2.85632353      -2.32392255      -0.67103721
H        2.27333732       1.56169458       0.33450564
H       -2.64843727      -0.00632496      -0.14704389
H       -1.66660032       0.12453507      -1.62905672
H       -2.44376488      -2.03453244      -1.31607026
18
Properties=species:S:1:pos:R:3 relative_energy_eV=0.2988740311047877 branch=right pbc="F F F"
O        0.51686187       2.21720371       0.61224565
C       -0.50368980       1.57324438       0.61034801
O       -1.63042001       2.16702758       1.02075897
C       -0.53324945       0.09768307       0.19444149
O        0.62765972      -0.19599702      -0.57097562
P        2.02778403      -0.54742570       0.20959831
O        1.83675342      -1.22624441       1.50785529
O        2.81313720      -1.38899978      -0.91419383
O        2.87035083       0.80592929       0.17714954
C       -1.73441510      -0.33871608      -0.63983536
O       -1.72907570      -1.75267103      -0.72896277
H       -2.43284990       1.64669862       0.82780030
H       -0.52580845      -0.51228121       1.10149410
H        2.85348646      -2.32099938      -0.66931414
H        2.26920238       1.55843563       0.33669447
H       -2.65993613      -0.00797743      -0.15038108
H       -1.67323689       0.12588412      -1.62815962
H       -2.44154993      -2.03374961      -1.31611800
18
Properties=species:S:1:pos:R:3 relative_energy_eV=0.2861252461625554 branch=right pbc="F F F"
O        0.52771391       2.21727721       0.62997678
C       -0.49245036       1.57128330       0.60556013
O       -1.63278564       2.17264384       0.98250115
C       -0.53317324       0.09891258       0.19468485
O        0.62551630      -0.19161200      -0.57045591
P        2.02521657      -0.54493689       0.20753985
O        1.83099167      -1.22421868       1.50816071
O        2.80780069      -1.38800527      -0.91526105
O        2.86928019       0.80540526       0.17579093
C       -1.73727727      -0.33477285      -0.63803502
O       -1.72651415      -1.74830913      -0.72927241
H       -2.41955144       1.61241074       0.84663806
H       -0.52940634      -0.50530560       1.10652646
H        2.85142507      -2.31912467      -0.66802685
H        2.26647317       1.55676257       0.33837945
H       -2.66644636      -0.00730274      -0.15234907
H       -1.67689779       0.12792051      -1.62690309
H       -2.43891049      -2.03198343      -1.31500931
18
Properties=species:S:1:pos:R:3 relative_energy_eV=0.27862474307767116 branch=right pbc="F F F"
O        0.53252160       2.21903463       0.64100998
C       -0.48716659       1.57054098       0.60032594
O       -1.63739209       2.16872828       0.95924677
C       -0.53188681       0.09673190       0.19283918
O        0.62549617      -0.19062117      -0.57136384
P        2.02349544      -0.54532138       0.20885306
O        1.82634717      -1.22156995       1.50647626
O        2.80298908      -1.38776373      -0.91713178
O        2.86835443       0.80591005       0.17472233
C       -1.73954549      -0.33242432      -0.63708879
O       -1.72370906      -1.74451492      -0.72833244
H       -2.40588736       1.59280930       0.85720981
H       -0.53196660      -0.49972043       1.11191852
H        2.84947138      -2.31769993      -0.66671434
H        2.26464306       1.55576008       0.34003856
H       -2.67009844      -0.00459492      -0.15351910
H       -1.67905802       0.13105928      -1.62510921
H       -2.43560343      -2.02929900      -1.31293522
18
Properties=species:S:1:pos:R:3 relative_energy_eV=0.27528808240094804 branch=right pbc="F F F"
O        0.53900467       2.21699437       0.65289594
C       -0.48441741       1.57435330       0.59694233
O       -1.63995757       2.17328074       0.93488546
C       -0.53109034       0.09614261       0.19118674
O        0.62548460      -0.19174008      -0.57304702
P        2.02280864      -0.54397850       0.20727775
O        1.82133953      -1.22018132       1.50720648
O        2.79806665      -1.38767977      -0.91867271
O        2.86703629       0.80607559       0.17374318
C       -1.74125998      -0.33112472      -0.63683329
O       -1.72126131      -1.74179687      -0.72731345
H       -2.39437453       1.56663388       0.86892491
H       -0.53373253      -0.49458000       1.11585326
H        2.84749794      -2.31660195      -0.66550483
H        2.26268084       1.55533720       0.34201089
H       -2.67300411      -0.00240216      -0.15438395
H       -1.68126831       0.13503262      -1.62345858
H       -2.43254870      -2.02672018      -1.31126743
18
Properties=species:S:1:pos:R:3 relative_energy_eV=0.2727374995156424 branch=right pbc="F F F"
O        0.53612489       2.21655025       0.65285849
C       -0.48695967       1.57591243       0.59493195
O       -1.64244016       2.17052835       0.93610995
C       -0.53037839       0.09576666       0.18978114
O        0.62644172      -0.19597016      -0.57501354
P        2.02369651      -0.54406693       0.20668418
O        1.81981493      -1.22010681       1.50806458
O        2.79621797      -1.38848937      -0.91976068
O        2.86632102       0.80644531       0.17363698
C       -1.74033912      -0.33156224      -0.63711337
O       -1.72008063      -1.74151040      -0.72577561
H       -2.38995197       1.56449803       0.86766427
H       -0.53307802      -0.49323153       1.11669671
H        2.84666204      -2.31678302      -0.66497248
H        2.26236030       1.55597978       0.34319588
H       -2.67136566       0.00015247      -0.15395258
H       -1.68111235       0.13811628      -1.62249748
H       -2.43092901      -2.02518433      -1.31009273
18
Properties=species:S:1:pos:R:3 relative_energy_eV=0.27069288621714804 branch=right pbc="F F F"
O        0.53375063       2.21502099       0.65467561
C       -0.48919218       1.57765713       0.59254715
O       -1.64486047       2.17111957       0.93298869
C       -0.52967768       0.09733450       0.18867457
O        0.62608544      -0.20157262      -0.57766217
P        2.02341731      -0.54562180       0.20843676
O        1.81792299      -1.21856648       1.50705785
O        2.79372817      -1.38986782      -0.92160092
O        2.86531717       0.80751093       0.17328282
C       -1.73860437      -0.33119153      -0.63709012
O       -1.71844306      -1.74106658      -0.72377907
H       -2.38444404       1.55499679       0.86859107
H       -0.53180609      -0.49055076       1.11680279
H        2.84528850      -2.31720266      -0.66410308
H        2.26168442       1.55675938       0.34525803
H       -2.66896289       0.00322055      -0.15340817
H       -1.68126362       0.14255631      -1.62130504
H       -2.42893584      -2.02349111      -1.30892110
18
Properties=species:S:1:pos:R:3 relative_energy_eV=0.2694265877835278 branch=right pbc="F F F"
O        0.53149812       2.21539852       0.65347700
C       -0.49123491       1.57700328       0.59164386
O       -1.64584207       2.17020091       0.93472146
C       -0.52911277       0.09871614       0.18815229
O        0.62499374      -0.20508091      -0.57843539
P        2.02317906      -0.54579302       0.20747270
O        1.81753742      -1.21843556       1.50783023
O        2.79276360      -1.39084462      -0.92211784
O        2.86444215       0.80773204       0.17327198
C       -1.73691012      -0.33020089      -0.63678154
O       -1.71776740      -1.74083528      -0.72258211
H       -2.38350268       1.55223548       0.86727786
H       -0.53018449      -0.48906243       1.11551743
H        2.84463047      -2.31812776      -0.66368864
H        2.26151361       1.55734384       0.34666708
H       -2.66608475       0.00497347      -0.15274385
H       -1.68082752       0.14484772      -1.62073914
H       -2.42808708      -2.02302619      -1.30849770
18
Properties=species:S:1:pos:R:3 relative_energy_eV=0.26797524803259876 branch=right pbc="F F F"
O        0.52861143       2.21708595       0.65039444
C       -0.49251154       1.57575404       0.59093146
O       -1.64740683       2.16781188       0.93786643
C       -0.52831920       0.10016171       0.18712449
O        0.62292484      -0.20926128      -0.57887699
P        2.02192635      -0.54629603       0.20631518
O        1.81769826      -1.21786498       1.50835406
O        2.79164321      -1.39257337      -0.92239054
O        2.86272301       0.80765494       0.17311466
C       -1.73449894      -0.32814003      -0.63631886
O       -1.71713911      -1.73962237      -0.72111740
H       -2.38435741       1.54815197       0.86508310
H       -0.52728949      -0.48666727       1.11317778
H        2.84363035      -2.31978579      -0.66312422
H        2.26125984       1.55806438       0.34907645
H       -2.66136533       0.00749996      -0.15132683
H       -1.67979930       0.14769671      -1.61996111
H       -2.42672578      -2.02262570      -1.30787645
18
Properties=species:S:1:pos:R:3 relative_energy_eV=0.2667771021806402 branch=right pbc="F F F"
O        0.52657819       2.22001050       0.64692958
C       -0.49280662       1.57491941       0.59030183
O       -1.64898684       2.16352952       0.93985217
C       -0.52733902       0.10092679       0.18593377
O        0.62150866      -0.21225587      -0.57939747
P        2.02035380      -0.54698458       0.20528336
O        1.81798334      -1.21701941       1.50855793
O        2.79029376      -1.39428336      -0.92228562
O        2.86048247       0.80723305       0.17263070
C       -1.73273762      -0.32601283      -0.63608588
O       -1.71652787      -1.73729802      -0.71984687
H       -2.38592123       1.54311280       0.86343915
H       -0.52445356      -0.48417066       1.11162278
H        2.84245476      -2.32155211      -0.66247299
H        2.26090584       1.55841561       0.35179942
H       -2.65716787       0.01033383      -0.14945923
H       -1.67856356       0.15025421      -1.61925329
H       -2.42505228      -2.02211415      -1.30710368
18
Properties=species:S:1:pos:R:3 relative_energy_eV=0.2654291267026565 branch=right pbc="F F F"
O        0.52437927       2.22486485       0.64179436
C       -0.49222602       1.57461062       0.58923661
O       -1.65131719       2.15629007       0.94198068
C       -0.52567258       0.10148270       0.18441071
O        0.62081675      -0.21488097      -0.58072502
P        2.01843986      -0.54811244       0.20428023
O        1.81833892      -1.21580733       1.50868752
O        2.78834579      -1.39674435      -0.92183498
O        2.85716947       0.80641084       0.17151051
C       -1.73116708      -0.32331293      -0.63601222
O       -1.71576151      -1.73357034      -0.71843591
H       -2.38852099       1.53564834       0.86159827
H       -0.52090867      -0.48119671       1.11077455
H        2.84068098      -2.32381344      -0.66153554
H        2.26024695       1.55843936       0.35571071
H       -2.65258943       0.01450725      -0.14645005
H       -1.67672655       0.15340046      -1.61860711
H       -2.42252362      -2.02117128      -1.30593770
18
Properties=species:S:1:pos:R:3 relative_energy_eV=0.2644750290855882 branch=right pbc="F F F"
O        0.52275761       2.22939477       0.63704166
C       -0.49153522       1.57511073       0.58808017
O       -1.65312475       2.14977697       0.94416737
C       -0.52390621       0.10167803       0.18355182
O        0.62155104      -0.21542714      -0.58251024
P        2.01752897      -0.54923568       0.20391958
O        1.81856980      -1.21503100       1.50886094
O        2.78695628      -1.39869040      -0.92128171
O        2.85467033       0.80572360       0.17014472
C       -1.73056965      -0.32139692      -0.63604706
O       -1.71515347      -1.73058116      -0.71755140
H       -2.39094522       1.52990102       0.86011432
H       -0.51844299      -0.47963593       1.11122953
H        2.83916918      -2.32567482      -0.66070459
H        2.25953255       1.55794587       0.35889182
H       -2.65023856       0.01797928      -0.14372023
H       -1.67517534       0.15545916      -1.61854865
H       -2.42063999      -2.02025167      -1.30519242
18
Properties=species:S:1:pos:R:3 relative_energy_eV=0.26376538049953524 branch=right pbc="F F F"
O        0.52118231       2.23321953       0.63259400
C       -0.49130553       1.57606227       0.58688549
O       -1.65435792       2.14495606       0.94728283
C       -0.52220595       0.10174249       0.18334183
O        0.62320567      -0.21432323      -0.58436684
P        2.01767821      -0.55016333       0.20404011
O        1.81865497      -1.21483031       1.50919290
O        2.78639455      -1.40035770      -0.92074767
O        2.85335409       0.80535014       0.16870808
C       -1.73046966      -0.32015652      -0.63595917
O       -1.71484908      -1.72884783      -0.71716794
H       -2.39289167       1.52634340       0.85859577
H       -0.51688830      -0.47945656       1.11232324
H        2.83798317      -2.32711580      -0.66003450
H        2.25877341       1.55703082       0.36123321
H       -2.64969262       0.02050711      -0.14160338
H       -1.67403842       0.15647770      -1.61892161
H       -2.41952284      -2.01939352      -1.30495070
18
Properties=species:S:1:pos:R:3 relative_energy_eV=0.26321778793862904 branch=right pbc="F F F"
O        0.51935522       2.23630380       0.62846458
C       -0.49180401       1.57705211       0.58577447
O       -1.65512631       2.14204910       0.95125781
C       -0.52078795       0.10186017       0.18355677
O        0.62507511      -0.21230752      -0.58577064
P        2.01858217      -0.55081998       0.20431249
O        1.81855293      -1.21505317       1.50957911
O        2.78655888      -1.40168938      -0.92032569
O        2.85321403       0.80532073       0.16739968
C       -1.73042579      -0.31940905      -0.63564838
O       -1.71472889      -1.72817746      -0.71698970
H       -2.39397991       1.52439830       0.85699268
H       -0.51587439      -0.48009445       1.11330574
H        2.83706948      -2.32848574      -0.65942852
H        2.25797377       1.55583925       0.36286629
H       -2.65010582       0.02209885      -0.14033087
H       -1.67338538       0.15676278      -1.61932877
H       -2.41915876      -2.01860365      -1.30524141
18
Properties=species:S:1:pos:R:3 relative_energy_eV=0.2627049276343314 branch=right pbc="F F F"
O        0.51690855       2.23945136       0.62388550
C       -0.49294652       1.57803801       0.58467962
O       -1.65584407       2.14006154       0.95612572
C       -0.51955271       0.10220885       0.18393103
O        0.62691410      -0.20972495      -0.58659125
P        2.01990155      -0.55123985       0.20450187
O        1.81821076      -1.21544230       1.50987501
O        2.78721505      -1.40328802      -0.91988876
O        2.85387674       0.80552427       0.16614232
C       -1.73015445      -0.31878060      -0.63506363
O       -1.71481690      -1.72800587      -0.71686201
H       -2.39416432       1.52248072       0.85524116
H       -0.51480608      -0.48091463       1.11384602
H        2.83608863      -2.33004769      -0.65873644
H        2.25700831       1.55425750       0.36436852
H       -2.65069735       0.02326693      -0.13970836
H       -1.67307915       0.15678868      -1.61945142
H       -2.41905773      -2.01758929      -1.30584923
18
Properties=species:S:1:pos:R:3 relative_energy_eV=0.262185196588689 branch=right pbc="F F F"
O        0.51397460       2.24293611       0.61882754
C       -0.49442970       1.57903256       0.58375230
O       -1.65672613       2.13845794       0.96108849
C       -0.51861117       0.10289210       0.18430130
O        0.62841150      -0.20689044      -0.58660867
P        2.02128505      -0.55145298       0.20440584
O        1.81759480      -1.21573105       1.50984658
O        2.78811250      -1.40505048      -0.91936205
O        2.85507445       0.80580722       0.16506005
C       -1.72961575      -0.31821666      -0.63429315
O       -1.71498219      -1.72785145      -0.71657960
H       -2.39325061       1.51952049       0.85374739
H       -0.51344261      -0.48137066       1.11371369
H        2.83488807      -2.33205556      -0.65782452
H        2.25590968       1.55231274       0.36590956
H       -2.65100391       0.02413621      -0.13977354
H       -1.67312260       0.15681445      -1.61903519
H       -2.41906152      -2.01624588      -1.30673035
18
Properties=species:S:1:pos:R:3 relative_energy_eV=0.26172917831718223 branch=right pbc="F F F"
O        0.51121910       2.24648923       0.61397161
C       -0.49570693       1.58003741       0.58325401
O       -1.65777847       2.13697578       0.96477459
C       -0.51813225       0.10390693       0.18454704
O        0.62924925      -0.20429618      -0.58583521
P        2.02224799      -0.55141243       0.20398253
O        1.81680762      -1.21572041       1.50935754
O        2.78901222      -1.40693475      -0.91867814
O        2.85638992       0.80595525       0.16443581
C       -1.72894709      -0.31777834      -0.63354992
O       -1.71529593      -1.72755856      -0.71623470
H       -2.39137302       1.51527012       0.85318774
H       -0.51188888      -0.48110067       1.11295296
H        2.83350296      -2.33404510      -0.65681079
H        2.25494304       1.55030329       0.36730444
H       -2.65084191       0.02462122      -0.14049416
H       -1.67348550       0.15696399      -1.61809892
H       -2.41891765      -2.01463212      -1.30762077
18
Properties=species:S:1:pos:R:3 relative_energy_eV=0.2614372175085009 branch=right pbc="F F F"
O        0.50962529       2.24918228       0.61061935
C       -0.49619700       1.58093504       0.58330265
O       -1.65871880       2.13573305       0.96607995
C       -0.51813538       0.10492248       0.18461925
O        0.62933406      -0.20266023      -0.58487430
P        2.02243342      -0.55128818       0.20342184
O        1.81616938      -1.21541755       1.50861278
O        2.78957836      -1.40812126      -0.91798776
O        2.85726214       0.80577094       0.16449449
C       -1.72846964      -0.31764744      -0.63318199
O       -1.71554461      -1.72714262      -0.71586629
H       -2.38945692       1.51104993       0.85393730
H       -0.51063734      -0.48024044       1.11205883
H        2.83229377      -2.33551698      -0.65592708
H        2.25453169       1.54893230       0.36808857
H       -2.65039076       0.02461184      -0.14146423
H       -1.67393785       0.15720616      -1.61714402
H       -2.41873531      -2.01326468      -1.30834367
18
Properties=species:S:1:pos:R:3 relative_energy_eV=0.2612546958444 branch=right pbc="F F F"
O        0.50909007       2.25089732       0.60868432
C       -0.49609550       1.58168781       0.58354701
O       -1.65937444       2.13475619       0.96598446
C       -0.51828289       0.10569822       0.18457952
O        0.62910720      -0.20191465      -0.58440342
P        2.02207888      -0.55120940       0.20301106
O        1.81581569      -1.21509763       1.50801320
O        2.78987135      -1.40876163      -0.91737946
O        2.85759524       0.80532090       0.16502290
C       -1.72824163      -0.31772101      -0.63318231
O       -1.71577659      -1.72689991      -0.71566907
H       -2.38826184       1.50799452       0.85546141
H       -0.50986293      -0.47932602       1.11152324
H        2.83137916      -2.33615371      -0.65532646
H        2.25471554       1.54835902       0.36823518
H       -2.65001742       0.02429989      -0.14221582
H       -1.67422702       0.15743726      -1.61663657
H       -2.41850833      -2.01232254      -1.30880351
18
Properties=species:S:1:pos:R:3 relative_energy_eV=0.26108328725604224 branch=right pbc="F F F"
O        0.50876562       2.25255662       0.60681833
C       -0.49584718       1.58254282       0.58366238
O       -1.65994890       2.13375478       0.96582775
C       -0.51834125       0.10640329       0.18448366
O        0.62890647      -0.20138560      -0.58447800
P        2.02152553      -0.55127616       0.20271834
O        1.81552286      -1.21487599       1.50757839
O        2.79012922      -1.40907772      -0.91672881
O        2.85777860       0.80463746       0.16588896
C       -1.72809808      -0.31789507      -0.63337813
O       -1.71593967      -1.72680939      -0.71549632
H       -2.38745399       1.50532286       0.85766201
H       -0.50920458      -0.47839856       1.11129176
H        2.83038391      -2.33661670      -0.65467931
H        2.25535283       1.54818181       0.36800141
H       -2.64980722       0.02379427      -0.14285192
H       -1.67437334       0.15764977      -1.61649636
H       -2.41834630      -2.01146385      -1.30937848
18
Properties=species:S:1:pos:R:3 relative_energy_eV=0.260829998213012 branch=right pbc="F F F"
O        0.50797572       2.25532051       0.60351688
C       -0.49566730       1.58390451       0.58339075
O       -1.66070599       2.13224843       0.96638778
C       -0.51819226       0.10737802       0.18424873
O        0.62882289      -0.20060354      -0.58522833
P        2.02069104      -0.55150958       0.20249280
O        1.81498892      -1.21481707       1.50721626
O        2.79063166      -1.40959939      -0.91567239
O        2.85811761       0.80345175       0.16750360
C       -1.72786094      -0.31813965      -0.63375443
O       -1.71622004      -1.72696358      -0.71539130
H       -2.38656842       1.50169867       0.86162653
H       -0.50821347      -0.47706689       1.11126119
H        2.82865017      -2.33712062      -0.65361517
H        2.25679911       1.54824484       0.36727767
H       -2.64973826       0.02288672      -0.14368868
H       -1.67440644       0.15787868      -1.61669820
H       -2.41809942      -2.01014717      -1.31042803
18
Properties=species:S:1:pos:R:3 relative_energy_eV=0.26042684072308475 branch=right pbc="F F F"
O        0.50596775       2.26005451       0.59745358
C       -0.49587102       1.58598981       0.58222292
O       -1.66172790       2.12999834       0.96875210
C       -0.51765709       0.10872556       0.18370369
O        0.62905252      -0.19933606      -0.58696335
P        2.01960986      -0.55205441       0.20243735
O        1.81385106      -1.21515563       1.50701677
O        2.79154438      -1.41033163      -0.91398080
O        2.85894035       0.80155199       0.17030297
C       -1.72741082      -0.31844528      -0.63435556
O       -1.71656035      -1.72740353      -0.71537949
H       -2.38546530       1.49653210       0.86851055
H       -0.50656592      -0.47505371       1.11143663
H        2.82562177      -2.33803968      -0.65175818
H        2.25957782       1.54869657       0.36575091
H       -2.64987001       0.02139998      -0.14487109
H       -1.67422372       0.15803731      -1.61739465
H       -2.41780877      -2.00812157      -1.31243871
18
Properties=species:S:1:pos:R:3 relative_energy_eV=0.2598546734734555 branch=right pbc="F F F"
O        0.50202961       2.26712017       0.58773737
C       -0.49688367       1.58868724       0.57960920
O       -1.66292169       2.12700128       0.97397357
C       -0.51661885       0.11037611       0.18261128
O        0.62982634      -0.19758874      -0.58968040
P        2.01846340      -0.55288582       0.20279740
O        1.81167753      -1.21621211       1.50712349
O        2.79292896      -1.41160966      -0.91153185
O        2.86055217       0.79899914       0.17448361
C       -1.72665967      -0.31869001      -0.63514703
O       -1.71700394      -1.72814935      -0.71578341
H       -2.38417508       1.48987899       0.87902926
H       -0.50407623      -0.47221532       1.11171690
H        2.82100431      -2.33933907      -0.64903743
H        2.26405565       1.54973542       0.36316220
H       -2.65019115       0.01940241      -0.14637786
H       -1.67368090       0.15793085      -1.61866554
H       -2.41732209      -2.00539682      -1.31557510
18
Properties=species:S:1:pos:R:3 relative_energy_eV=0.2591528355369519 branch=right pbc="F F F"
O        0.49606326       2.27574585       0.57479433
C       -0.49891380       1.59150098       0.57544343
O       -1.66403623       2.12359451       0.98210934
C       -0.51520944       0.11205112       0.18085685
O        0.63126171      -0.19565504      -0.59270275
P        2.01763256      -0.55388481       0.20377341
O        1.80820541      -1.21811526       1.50755095
O        2.79447874      -1.41317639      -0.90853612
O        2.86306055       0.79626051       0.17960467
C       -1.72569518      -0.31877400      -0.63604511
O       -1.71728531      -1.72884904      -0.71680311
H       -2.38287749       1.48258150       0.89263525
H       -0.50090942      -0.46869671       1.11180407
H        2.81519342      -2.34116883      -0.64572202
H        2.26993702       1.55141616       0.35962261
H       -2.65052589       0.01739405      -0.14796563
H       -1.67272686       0.15735516      -1.62030960
H       -2.41664825      -2.00253503      -1.31966490
18
Properties=species:S:1:pos:R:3 relative_energy_eV=0.25832663374967524 branch=right pbc="F F F"
O        0.48843384       2.28501254       0.55927481
C       -0.50188705       1.59405874       0.56999094
O       -1.66491133       2.11990468       0.99234258
C       -0.51369019       0.11366620       0.17842819
O        0.63332413      -0.19377693      -0.59515249
P        2.01727544      -0.55477216       0.20550380
O        1.80325711      -1.22079329       1.50816013
O        2.79583223      -1.41517572      -0.90508084
O        2.86639243       0.79374667       0.18517075
C       -1.72464475      -0.31860917      -0.63702121
O       -1.71728906      -1.72918823      -0.71875160
H       -2.38164247       1.47503225       0.90888540
H       -0.49731030      -0.46456727       1.11135362
H        2.80865957      -2.34328624      -0.64226162
H        2.27678573       1.55363208       0.35535766
H       -2.65060340       0.01597337      -0.14942443
H       -1.67142155       0.15624609      -1.62205540
H       -2.41555548      -2.00005883      -1.32427463
18
Properties=species:S:1:pos:R:3 relative_energy_eV=0.2573529090441298 branch=right pbc="F F F"
O        0.47954849       2.29452388       0.54110852
C       -0.50554560       1.59639892       0.56360304
O       -1.66563750       2.11568236       1.00369087
C       -0.51229969       0.11540333       0.17539266
O        0.63594646      -0.19184016      -0.59638556
P        2.01732037      -0.55543450       0.20802374
O        1.79660742      -1.22404268       1.50873861
O        2.79667203      -1.41736493      -0.90103608
O        2.87051754       0.79153483       0.19095494
C       -1.72361448      -0.31823435      -0.63820904
O       -1.71671729      -1.72885160      -0.72169291
H       -2.38028911       1.46665526       0.92825852
H       -0.49341896      -0.45969068       1.11009719
H        2.80154549      -2.34593949      -0.63879940
H        2.28435305       1.55619410       0.35050229
H       -2.65015356       0.01561976      -0.15072955
H       -1.66990566       0.15471330      -1.62374449
H       -2.41392399      -1.99828254      -1.32932771
18
Properties=species:S:1:pos:R:3 relative_energy_eV=0.2562458458887704 branch=right pbc="F F F"
O        0.47013185       2.30382519       0.52049297
C       -0.50945104       1.59867758       0.55685547
O       -1.66639089       2.11072318       1.01478653
C       -0.51126404       0.11751669       0.17198828
O        0.63891703      -0.18957938      -0.59609361
P        2.01743517      -0.55572902       0.21128127
O        1.78832223      -1.22748385       1.50915868
O        2.79682548      -1.41984597      -0.89623305
O        2.87521113       0.78954096       0.19678164
C       -1.72265725      -0.31772009      -0.63978833
O       -1.71547473      -1.72787573      -0.72563810
H       -2.37849270       1.45683374       0.95112867
H       -0.48956390      -0.45410390       1.10800770
H        2.79405312      -2.34889564      -0.63560581
H        2.29231594       1.55877305       0.34521794
H       -2.64896282       0.01666372      -0.15195855
H       -1.66843644       0.15309799      -1.62537631
H       -2.41151300      -1.99737369      -1.33455976
18
Properties=species:S:1:pos:R:3 relative_energy_eV=0.25513369399050134 branch=right pbc="F F F"
O        0.46205455       2.31132536       0.50047193
C       -0.51268498       1.60077417       0.55120529
O       -1.66725151       2.10571718       1.02323194
C       -0.51085244       0.11985460       0.16902287
O        0.64159755      -0.18688412      -0.59452835
P        2.01723118      -0.55569143       0.21465720
O        1.77989261      -1.23019084       1.50941512
O        2.79630447      -1.42190848      -0.89126573
O        2.87955473       0.78777844       0.20178633
C       -1.72187312      -0.31728975      -0.64175445
O       -1.71358810      -1.72663846      -0.72970780
H       -2.37609307       1.44669012       0.97442137
H       -0.48670982      -0.44888561       1.10560335
H        2.78740269      -2.35180101      -0.63322927
H        2.29926994       1.56064275       0.34034119
H       -2.64708495       0.01898414      -0.15314786
H       -1.66750282       0.15208382      -1.62691574
H       -2.40866171      -1.99751603      -1.33916177
18
Properties=species:S:1:pos:R:3 relative_energy_eV=0.2540698182856431 branch=right pbc="F F F"
O        0.45641299       2.31620647       0.48358808
C       -0.51477599       1.60251459       0.54742180
O       -1.66820588       2.10154389       1.02802355
C       -0.51103183       0.12206025       0.16704525
O        0.64350407      -0.18379665      -0.59264213
P        2.01638941      -0.55545643       0.21758003
O        1.77276555      -1.23153967       1.50980397
O        2.79544550      -1.42336258      -0.88673505
O        2.88275324       0.78609237       0.20553147
C       -1.72119055      -0.31702077      -0.64400016
O       -1.71140622      -1.72571814      -0.73310293
H       -2.37301857       1.43754769       0.99528581
H       -0.48555770      -0.44507467       1.10361278
H        2.78242410      -2.35400060      -0.63200643
H        2.30429125       1.56139058       0.33644070
H       -2.64477356       0.02197840      -0.15439158
H       -1.66736144       0.15221103      -1.62852058
H       -2.40565906      -1.99853085      -1.34248896
18
Properties=species:S:1:pos:R:3 relative_energy_eV=0.25294595121522434 branch=right pbc="F F F"
O        0.45162545       2.32047520       0.46681048
C       -0.51637635       1.60435168       0.54433264
O       -1.66943269       2.09785692       1.03142144
C       -0.51142034       0.12424989       0.16565445
O        0.64495636      -0.17976472      -0.59147990
P        2.01467999      -0.55539109       0.22022739
O        1.76624383      -1.23178588       1.51079737
O        2.79471348      -1.42436880      -0.88205177
O        2.88526313       0.78373870       0.20919728
C       -1.72024407      -0.31680387      -0.64681897
O       -1.70891289      -1.72526053      -0.73586740
H       -2.36868503       1.42797172       1.01689100
H       -0.48570575      -0.44225765       1.10220274
H        2.77785054      -2.35602635      -0.63123018
H        2.30856518       1.56128004       0.33272657
H       -2.64201845       0.02511148      -0.15617700
H       -1.66781432       0.15356117      -1.63075034
H       -2.40228273      -1.99989301      -1.34544020
18
Properties=species:S:1:pos:R:3 relative_energy_eV=0.25163452538618003 branch=right pbc="F F F"
O        0.44664888       2.32419836       0.44908460
C       -0.51803655       1.60608635       0.54106090
O       -1.67042007       2.09527522       1.03417141
C       -0.51205309       0.12612187       0.16452202
O        0.64608782      -0.17483557      -0.59129869
P        2.01200316      -0.55554626       0.22300388
O        1.75964018      -1.23097442       1.51297145
O        2.79418979      -1.42499501      -0.87698108
O        2.88727902       0.78055914       0.21353092
C       -1.71887910      -0.31652193      -0.65056588
O       -1.70592013      -1.72531972      -0.73834548
H       -2.36230462       1.41823765       1.04187183
H       -0.48769530      -0.44056250       1.10134151
H        2.77336614      -2.35756626      -0.63101541
H        2.31278555       1.56054568       0.32833619
H       -2.63875272       0.02817963      -0.15892861
H       -1.66879738       0.15614056      -1.63408237
H       -2.39813617      -2.00197789      -1.34823162
18
Properties=species:S:1:pos:R:3 relative_energy_eV=0.2502507965582481 branch=right pbc="F F F"
O        0.43799537       2.33160030       0.42406760
C       -0.52124478       1.60836613       0.53575070
O       -1.67137779       2.09184324       1.04238747
C       -0.51222204       0.12802203       0.16275459
O        0.64779282      -0.16860917      -0.59275191
P        2.00865969      -0.55645536       0.22627172
O        1.75185856      -1.22981560       1.51652810
O        2.79468859      -1.42619309      -0.87051056
O        2.88971203       0.77582634       0.22002485
C       -1.71654907      -0.31579768      -0.65536210
O       -1.70266830      -1.72540072      -0.74089017
H       -2.35428166       1.40707565       1.07349779
H       -0.48985974      -0.43915658       1.10029022
H        2.76686798      -2.36011282      -0.63012102
H        2.31864443       1.55961601       0.32255839
H       -2.63473991       0.03068546      -0.16287092
H       -1.66936105       0.15936997      -1.63884700
H       -2.39290958      -2.00381920      -1.35233221
18
Properties=species:S:1:pos:R:3 relative_energy_eV=0.24918703917501261 branch=right pbc="F F F"
O        0.43307869       2.33140624       0.41294542
C       -0.52306475       1.60833639       0.53217766
O       -1.66949201       2.09452842       1.04274145
C       -0.51349186       0.12745334       0.16196555
O        0.64791162      -0.16554207      -0.59391935
P        2.00569321      -0.55699633       0.22869595
O        1.74717235      -1.22665119       1.52100359
O        2.79456751      -1.42533877      -0.86728301
O        2.88965865       0.77294212       0.22432920
C       -1.71506560      -0.31503993      -0.65976334
O       -1.69944293      -1.72557832      -0.74208743
H       -2.34482118       1.40334802       1.09704174
H       -0.49640996      -0.44148956       1.10004046
H        2.76505017      -2.35970718      -0.63190515
H        2.32069042       1.55817515       0.31789897
H       -2.63222192       0.03191536      -0.16698906
H       -1.67047962       0.16295809      -1.64325811
H       -2.38832718      -2.00767484      -1.35318901
18
Properties=species:S:1:pos:R:3 relative_energy_eV=0.24834708853813936 branch=right pbc="F F F"
O        0.41630797       2.34799468       0.37514768
C       -0.52949586       1.61202883       0.52273463
O       -1.66982369       2.08761595       1.06453079
C       -0.51217781       0.12976176       0.15817752
O        0.65135033      -0.15944787      -0.59700132
P        2.00311266      -0.55920229       0.23254343
O        1.73775663      -1.22617921       1.52549725
O        2.79712992      -1.42917976      -0.85898493
O        2.89328107       0.76689298       0.23408527
C       -1.71163449      -0.31314359      -0.66488359
O       -1.69689191      -1.72429589      -0.74499905
H       -2.33690559       1.39060285       1.13516113
H       -0.49587911      -0.43941505       1.09696173
H        2.75450904      -2.36498192      -0.62881955
H        2.32923792       1.55779490       0.31091785
H       -2.62830348       0.03259528      -0.17179491
H       -1.66847166       0.16500222      -1.64894086
H       -2.38209614      -2.00739891      -1.35988757
18
Properties=species:S:1:pos:R:3 relative_energy_eV=0.24740844322514022 branch=right pbc="F F F"
O        0.41769072       2.34545440       0.38290873
C       -0.52887507       1.61097603       0.52389663
O       -1.66775216       2.08994544       1.06302417
C       -0.51245916       0.12854326       0.15848407
O        0.65068259      -0.16255288      -0.59631388
P        2.00435888      -0.55917480       0.23165674
O        1.74058816      -1.22512896       1.52542027
O        2.79722686      -1.42870706      -0.86126195
O        2.89163449       0.76862971       0.23224073
C       -1.71241403      -0.31281316      -0.66393964
O       -1.69756671      -1.72354153      -0.74389323
H       -2.33766162       1.39622933       1.12656514
H       -0.49715958      -0.44177624       1.09624398
H        2.75726760      -2.36426810      -0.62997699
H        2.32601870       1.55749904       0.31276265
H       -2.63004557       0.03121669      -0.17135603
H       -1.66757577       0.16413373      -1.64803910
H       -2.38295258      -2.00761997      -1.35797676
18
Properties=species:S:1:pos:R:3 relative_energy_eV=0.2468381793187291 branch=right pbc="F F F"
O        0.40862739       2.35426175       0.36947487
C       -0.53083002       1.61418895       0.51673770
O       -1.66363162       2.08994837       1.06716785
C       -0.51234223       0.13002101       0.15472220
O        0.65198119      -0.16514180      -0.59619151
P        2.00454961      -0.56005889       0.23387821
O        1.73459640      -1.22332651       1.52787463
O        2.79737016      -1.43110869      -0.85833004
O        2.89255442       0.76748924       0.23794235
C       -1.71267872      -0.31044862      -0.66624291
O       -1.69569214      -1.71993069      -0.74553232
H       -2.32844751       1.38434412       1.15273368
H       -0.49892708      -0.44029348       1.09179332
H        2.75188461      -2.36695917      -0.62862086
H        2.32776184       1.55830679       0.30945047
H       -2.63300531       0.02899625      -0.17538372
H       -1.66418888       0.16342100      -1.65038342
H       -2.37857627      -2.00666471      -1.36064499
18
Properties=species:S:1:pos:R:3 relative_energy_eV=0.24540120991514414 branch=right pbc="F F F"
O        0.40377303       2.35702463       0.35998370
C       -0.53212690       1.61411303       0.51664294
O       -1.66091686       2.08800365       1.07893553
C       -0.51272452       0.12978115       0.15423403
O        0.65242004      -0.16632470      -0.59510220
P        2.00514448      -0.56092999       0.23463296
O        1.73595800      -1.22076078       1.53005137
O        2.79872876      -1.43268177      -0.85703398
O        2.89087234       0.76793166       0.23784293
C       -1.71234050      -0.30919312      -0.66779774
O       -1.69492015      -1.71859853      -0.74526003
H       -2.32813698       1.39126514       1.15411742
H       -0.50142675      -0.44484308       1.08789221
H        2.75268759      -2.36884718      -0.63041659
H        2.32453839       1.55636146       0.31038787
H       -2.63238979       0.02955189      -0.17632148
H       -1.66151099       0.16354246      -1.65225958
H       -2.37662331      -2.00835106      -1.36008388
18
Properties=species:S:1:pos:R:3 relative_energy_eV=0.24449380652004038 branch=right pbc="F F F"
O        0.39944728       2.36101579       0.34550322
C       -0.53282768       1.61559818       0.51472420
O       -1.65979377       2.08558248       1.08499161
C       -0.51331159       0.13120755       0.15313766
O        0.65294111      -0.16484679      -0.59482054
P        2.00379765      -0.56138996       0.23668727
O        1.73286528      -1.21911002       1.53253773
O        2.79895678      -1.43352771      -0.85335359
O        2.89116493       0.76645717       0.24047569
C       -1.71185147      -0.30844497      -0.67080195
O       -1.69263397      -1.71823858      -0.74652891
H       -2.32325688       1.38743348       1.17129810
H       -0.50417021      -0.44550112       1.08533747
H        2.75017232      -2.37083550      -0.63089164
H        2.32477779       1.55555030       0.30823669
H       -2.63159715       0.03109577      -0.17909801
H       -1.66040640       0.16474445      -1.65536356
H       -2.37326809      -2.00974564      -1.36162597
18
Properties=species:S:1:pos:R:3 relative_energy_eV=0.2430302756583842 branch=right pbc="F F F"
O        0.38945280       2.37098076       0.31235236
C       -0.53327647       1.61968815       0.50920334
O       -1.65479064       2.08118710       1.09781331
C       -0.51503999       0.13474112       0.14948761
O        0.65348593      -0.16488332      -0.59402476
P        2.00094424      -0.56243255       0.24198261
O        1.72571256      -1.21402634       1.53954321
O        2.79907361      -1.43604322      -0.84475831
O        2.89038793       0.76441501       0.24684135
C       -1.71162948      -0.30593448      -0.67835258
O       -1.68645515      -1.71635038      -0.74927758
H       -2.30763125       1.37646352       1.21690545
H       -0.51297616      -0.44731241       1.07765252
H        2.74430802      -2.37542595      -0.63248333
H        2.32262568       1.55392034       0.30349619
H       -2.63270501       0.03371165      -0.18772189
H       -1.65615949       0.16696302      -1.66336691
H       -2.36432103      -2.01261720      -1.36484715
18
Properties=species:S:1:pos:R:3 relative_energy_eV=0.2423140251703444 branch=right pbc="F F F"
O        0.39138970       2.36995560       0.31155833
C       -0.53106549       1.61996140       0.50962351
O       -1.65198396       2.08228175       1.09696490
C       -0.51615060       0.13509097       0.14887193
O        0.65211589      -0.16828761      -0.59361325
P        2.00051550      -0.56226365       0.24301988
O        1.72666634      -1.21208987       1.54163816
O        2.79856193      -1.43544267      -0.84398225
O        2.88813115       0.76590350       0.24630286
C       -1.71271910      -0.30547230      -0.67995861
O       -1.68485502      -1.71623543      -0.74917715
H       -2.30216759       1.37667457       1.22423781
H       -0.51763777      -0.44862314       1.07563071
H        2.74523986      -2.37550813      -0.63394313
H        2.31787360       1.55401098       0.30379618
H       -2.63558610       0.03370679      -0.19117248
H       -1.65459380       0.16674270      -1.66529630
H       -2.36272844      -2.01336067      -1.36405565
18
Properties=species:S:1:pos:R:3 relative_energy_eV=0.24108677797266864 branch=right pbc="F F F"
O        0.39104773       2.37226584       0.30119311
C       -0.52867550       1.62094244       0.50678696
O       -1.64623147       2.08291787       1.10174920
C       -0.51768519       0.13591921       0.14601988
O        0.65027143      -0.17475690      -0.59402113
P        1.99930708      -0.56232458       0.24630536
O        1.72602863      -1.20956817       1.54675744
O        2.79814806      -1.43540876      -0.84033527
O        2.88403002       0.76851246       0.24769268
C       -1.71387412      -0.30421140      -0.68406180
O       -1.68148348      -1.71559142      -0.75001502
H       -2.28834643       1.37308430       1.24912550
H       -0.52595476      -0.44864616       1.07175603
H        2.74354701      -2.37638638      -0.63508818
H        2.31126855       1.55509131       0.30223317
H       -2.64084404       0.03351672      -0.20039573
H       -1.65090604       0.16563301      -1.67033463
H       -2.35864134      -2.01394466      -1.36492218
18
Properties=species:S:1:pos:R:3 relative_energy_eV=0.2398878339008661 branch=right pbc="F F F"
O        0.39546343       2.36969884       0.30144398
C       -0.52587966       1.61988710       0.50610897
O       -1.64086126       2.08509304       1.10346462
C       -0.51917866       0.13531794       0.14443113
O        0.64776920      -0.18175503      -0.59413156
P        1.99871665      -0.56167835       0.24836552
O        1.72861962      -1.20928583       1.54966374
O        2.79787720      -1.43377052      -0.83883792
O        2.87902608       0.77240954       0.24611519
C       -1.71508578      -0.30421350      -0.68630114
O       -1.68043578      -1.71604552      -0.75049945
H       -2.27829899       1.37456623       1.26040328
H       -0.53225332      -0.44722790       1.07112076
H        2.74387934      -2.37517392      -0.63558497
H        2.30401640       1.55757586       0.30199275
H       -2.64572931       0.03296193      -0.20878953
H       -1.64874454       0.16272615      -1.67343737
H       -2.35789449      -2.01404135      -1.36508262
18
Properties=species:S:1:pos:R:3 relative_energy_eV=0.2385755124996649 branch=right pbc="F F F"
O        0.39431705       2.37120062       0.28631816
C       -0.52513915       1.61984607       0.50119817
O       -1.63375293       2.08482790       1.11339132
C       -0.52096090       0.13543750       0.14122954
O        0.64627713      -0.18686097      -0.59386100
P        1.99676391      -0.56138737       0.25257036
O        1.72739697      -1.20927046       1.55430736
O        2.79841076      -1.43291435      -0.83308236
O        2.87375837       0.77513771       0.24744272
C       -1.71498858      -0.30383124      -0.69162003
O       -1.67851335      -1.71589441      -0.75309403
H       -2.26214672       1.37012967       1.29113487
H       -0.53943042      -0.44333403       1.07025665
H        2.73970304      -2.37520817      -0.63454470
H        2.29881096       1.56051495       0.29853381
H       -2.64870945       0.03402743      -0.22155259
H       -1.64603862       0.15956087      -1.67969728
H       -2.35475182      -2.01493704      -1.36848564
18
Properties=species:S:1:pos:R:3 relative_energy_eV=0.23717971941368887 branch=right pbc="F F F"
O        0.39642866       2.36828000       0.28071834
C       -0.52415477       1.61841485       0.49909586
O       -1.62672090       2.08439908       1.12212056
C       -0.52261202       0.13435049       0.14008098
O        0.64457933      -0.19127806      -0.59212837
P        1.99575852      -0.56070710       0.25442005
O        1.73032123      -1.21062426       1.55600197
O        2.79979290      -1.43150468      -0.82969795
O        2.86696692       0.77893381       0.24452374
C       -1.71465799      -0.30445174      -0.69509625
O       -1.67990076      -1.71608581      -0.75468799
H       -2.25148916       1.37045912       1.30352719
H       -0.54319402      -0.43883906       1.07278668
H        2.73769165      -2.37362994      -0.63250225
H        2.29160763       1.56353308       0.29819054
H       -2.64972350       0.03606052      -0.23196566
H       -1.64445819       0.15517617      -1.68392191
H       -2.35522926      -2.01544180      -1.37102021
18
Properties=species:S:1:pos:R:3 relative_energy_eV=0.23593291797442362 branch=right pbc="F F F"
O        0.38968121       2.37171540       0.25686338
C       -0.52549806       1.61942541       0.49299973
O       -1.61816044       2.08071332       1.13801840
C       -0.52450231       0.13498062       0.13771978
O        0.64448478      -0.19223095      -0.58984590
P        1.99347238      -0.56090395       0.25800311
O        1.72797919      -1.21008175       1.55961732
O        2.80224796      -1.43180220      -0.82224397
O        2.86173252       0.77974339       0.24596062
C       -1.71320200      -0.30396682      -0.70199320
O       -1.68005254      -1.71530265      -0.75788198
H       -2.23538330       1.36263087       1.33698088
H       -0.54781414      -0.43415640       1.07333294
H        2.73095043      -2.37450782      -0.62936263
H        2.28697300       1.56535729       0.29470869
H       -2.64834890       0.03994737      -0.24423274
H       -1.64155092       0.15258065      -1.69173162
H       -2.35200244      -2.01709718      -1.37646753
18
Properties=species:S:1:pos:R:3 relative_energy_eV=0.23472497868351638 branch=right pbc="F F F"
O        0.38629043       2.37173136       0.24868858
C       -0.52587394       1.61966706       0.49184659
O       -1.61215602       2.07717985       1.14709122
C       -0.52537435       0.13485313       0.13825995
O        0.64430832      -0.19235147      -0.58729921
P        1.99327020      -0.56102448       0.25757820
O        1.73004619      -1.20960159       1.55945917
O        2.80494585      -1.43241544      -0.81990846
O        2.85713550       0.78134842       0.24308904
C       -1.71228205      -0.30391401      -0.70496451
O       -1.68357057      -1.71479855      -0.75813734
H       -2.22939566       1.35907098       1.34185101
H       -0.54741943      -0.43139268       1.07608729
H        2.72811953      -2.37430032      -0.62593680
H        2.28097049       1.56535655       0.29628974
H       -2.64586356       0.04417205      -0.24872314
H       -1.63927547       0.15087879      -1.69551721
H       -2.35286898      -2.01741504      -1.37930886
18
Properties=species:S:1:pos:R:3 relative_energy_eV=0.2337746553494071 branch=right pbc="F F F"
O        0.37765807       2.37665501       0.23116988
C       -0.52682912       1.62134891       0.48904179
O       -1.60542887       2.07257720       1.16047304
C       -0.52599116       0.13569119       0.13729305
O        0.64467903      -0.19323774      -0.58600763
P        1.99315366      -0.56158353       0.25854237
O        1.72924924      -1.20755458       1.56129768
O        2.80784021      -1.43426049      -0.81606238
O        2.85459234       0.78197117       0.24366910
C       -1.71166360      -0.30285228      -0.70927004
O       -1.68580953      -1.71413205      -0.75860804
H       -2.22109176       1.35284551       1.35779715
H       -0.54852000      -0.43015376       1.07544475
H        2.72342958      -2.37580699      -0.62268878
H        2.27610407       1.56488346       0.29594689
H       -2.64452279       0.04818583      -0.25322515
H       -1.63444180       0.15025495      -1.70113282
H       -2.35140098      -2.01778724      -1.38323560
18
Properties=species:S:1:pos:R:3 relative_energy_eV=0.2330170328132226 branch=right pbc="F F F"
O        0.37270345       2.37855618       0.22344658
C       -0.52649784       1.62146227       0.48896699
O       -1.59982751       2.07004557       1.16718300
C       -0.52629856       0.13559438       0.13706450
O        0.64428622      -0.19539379      -0.58591050
P        1.99379007      -0.56138948       0.25858627
O        1.72994796      -1.20566553       1.56228778
O        2.80982155      -1.43499195      -0.81466086
O        2.85293460       0.78388909       0.24305160
C       -1.71196219      -0.30216476      -0.71168042
O       -1.68905654      -1.71442370      -0.75784477
H       -2.21561464       1.34916143       1.36375366
H       -0.54955871      -0.42992286       1.07546591
H        2.72126713      -2.37583264      -0.61998898
H        2.27092543       1.56423335       0.29647635
H       -2.64436989       0.05188144      -0.25509353
H       -1.62970463       0.14982844      -1.70483980
H       -2.35177922      -2.01782290      -1.38581852
18
Properties=species:S:1:pos:R:3 relative_energy_eV=0.23248149822029518 branch=right pbc="F F F"
O        0.36553176       2.38250275       0.20811981
C       -0.52661598       1.62153350       0.48697134
O       -1.59320564       2.06693035       1.17939525
C       -0.52670604       0.13530653       0.13522937
O        0.64411799      -0.19882898      -0.58655960
P        1.99404721      -0.56096933       0.26041179
O        1.72902769      -1.20378078       1.56490925
O        2.81175946      -1.43564626      -0.81101683
O        2.85148391       0.78601376       0.24448077
C       -1.71211518      -0.30133293      -0.71536138
O       -1.69170403      -1.71459971      -0.75795990
H       -2.20664145       1.34500748       1.38007872
H       -0.55252996      -0.42942239       1.07383122
H        2.71756330      -2.37638868      -0.61715741
H        2.26635951       1.56445499       0.29467480
H       -2.64482750       0.05568986      -0.25995441
H       -1.62362155       0.14861598      -1.70975990
H       -2.35091679      -2.01804166      -1.38988768
18
Properties=species:S:1:pos:R:3 relative_energy_eV=0.23187286702159327 branch=right pbc="F F F"
O        0.36327049       2.38191855       0.20292438
C       -0.52564224       1.61961595       0.48706631
O       -1.58836657       2.06591105       1.18385472
C       -0.52706262       0.13367738       0.13427747
O        0.64336295      -0.20236194      -0.58781121
P        1.99435560      -0.55940808       0.26151224
O        1.72911090      -1.20245354       1.56616014
O        2.81249579      -1.43442971      -0.80917681
O        2.85083028       0.78872391       0.24489710
C       -1.71270458      -0.30137307      -0.71711068
O       -1.69584930      -1.71553964      -0.75744991
H       -2.20006085       1.34300693       1.38785233
H       -0.55541321      -0.42921415       1.07378295
H        2.71628889      -2.37472523      -0.61472608
H        2.26273286       1.56523389       0.29268346
H       -2.64527331       0.05948229      -0.26325994
H       -1.61893749       0.14718893      -1.71206435
H       -2.35213085      -2.01820908      -1.39296691
18
Properties=species:S:1:pos:R:3 relative_energy_eV=0.23108433767629322 branch=right pbc="F F F"
O        0.36013385       2.38150903       0.19306239
C       -0.52469805       1.61699061       0.48605718
O       -1.58249674       2.06342913       1.19100525
C       -0.52748719       0.13128519       0.13268808
O        0.64277789      -0.20629195      -0.58926632
P        1.99425368      -0.55711579       0.26339223
O        1.72826913      -1.20025598       1.56803443
O        2.81325509      -1.43256499      -0.80553529
O        2.84987073       0.79208589       0.24625550
C       -1.71304748      -0.30144051      -0.71943847
O       -1.70190626      -1.71608106      -0.75692367
H       -2.18992651       1.33891611       1.40167316
H       -0.55966137      -0.42924792       1.07325120
H        2.71414268      -2.37256984      -0.61128831
H        2.25902736       1.56639771       0.28881408
H       -2.64510931       0.06520287      -0.26905100
H       -1.61289687       0.14502479      -1.71444356
H       -2.35349383      -2.01822888      -1.39784166
18
Properties=species:S:1:pos:R:3 relative_energy_eV=0.22998524451395497 branch=right pbc="F F F"
O        0.35901261       2.37843639       0.18570758
C       -0.52302530       1.61299559       0.48516108
O       -1.57688033       2.06011236       1.19604562
C       -0.52785913       0.12750896       0.13149068
O        0.64212151      -0.21045386      -0.59083436
P        1.99398868      -0.55361284       0.26502069
O        1.72752749      -1.19686076       1.56934563
O        2.81389183      -1.42915287      -0.80184141
O        2.84913810       0.79587968       0.24785733
C       -1.71351839      -0.30193667      -0.72074007
O       -1.71200414      -1.71654249      -0.75538167
H       -2.17906673       1.33392759       1.41340680
H       -0.56421372      -0.43081133       1.07297185
H        2.71296200      -2.36860879      -0.60675615
H        2.25577667       1.56860295       0.28322532
H       -2.64408683       0.07296501      -0.27531584
H       -1.60595609       0.14204834      -1.71501819
H       -2.35680145      -2.01745289      -1.40389974
18
Properties=species:S:1:pos:R:3 relative_energy_eV=0.2286900120525388 branch=right pbc="F F F"
O        0.35702869       2.37566459       0.17249600
C       -0.52125172       1.60898601       0.48251083
O       -1.56940811       2.05399015       1.20354964
C       -0.52855047       0.12353285       0.13017708
O        0.64151359      -0.21477482      -0.59152713
P        1.99308465      -0.54982689       0.26720941
O        1.72601971      -1.19091942       1.57202747
O        2.81533087      -1.42562122      -0.79633580
O        2.84659443       0.80030517       0.25006835
C       -1.71386144      -0.30180231      -0.72301561
O       -1.72503776      -1.71594095      -0.75296927
H       -2.16313995       1.32444880       1.43267417
H       -0.57021317      -0.43428620       1.07158730
H        2.71110175      -2.36443005      -0.60098682
H        2.25131195       1.57125598       0.27596983
H       -2.64244701       0.08373978      -0.28454368
H       -1.59701907       0.13853851      -1.71647145
H       -2.36005016      -2.01581569      -1.41197515
18
Properties=species:S:1:pos:R:3 relative_energy_eV=0.2271843778216862 branch=right pbc="F F F"
O        0.35820697       2.36971005       0.16575464
C       -0.51869410       1.60421851       0.48053044
O       -1.56277958       2.04704196       1.20821312
C       -0.52918386       0.11863126       0.13017360
O        0.64070643      -0.21958033      -0.59133874
P        1.99269807      -0.54574124       0.26832394
O        1.72619683      -1.18333740       1.57430628
O        2.81761054      -1.42117470      -0.79261660
O        2.84325277       0.80512187       0.25120694
C       -1.71481046      -0.30158116      -0.72345612
O       -1.74278314      -1.71497896      -0.74834608
H       -2.14993611       1.31575035       1.44239686
H       -0.57454338      -0.44152212       1.06983372
H        2.71193078      -2.35922907      -0.59463269
H        2.24688084       1.57559406       0.26840720
H       -2.64058685       0.09595573      -0.29216844
H       -1.58735123       0.13413155      -1.71615870
H       -2.36580778      -2.01196616      -1.41998424
18
Properties=species:S:1:pos:R:3 relative_energy_eV=0.2258300876346766 branch=right pbc="F F F"
O        0.35546738       2.36643584       0.14581318
C       -0.51665089       1.60039198       0.47567481
O       -1.55123160       2.03784238       1.22005488
C       -0.53104270       0.11465979       0.12906541
O        0.63947996      -0.22596652      -0.58958126
P        1.99136553      -0.54247552       0.27175242
O        1.72509205      -1.17343338       1.58066988
O        2.82166042      -1.41810825      -0.78542042
O        2.83614529       0.81094131       0.25290820
C       -1.71583656      -0.29982587      -0.72806080
O       -1.76035767      -1.71290032      -0.74383031
H       -2.12738205       1.30141335       1.47115429
H       -0.58179872      -0.44968468       1.06602467
H        2.71065861      -2.35549309      -0.58777318
H        2.23895951       1.58090644       0.25922177
H       -2.63951019       0.11097677      -0.30553667
H       -1.57516103       0.12913900      -1.72156973
H       -2.36885057      -2.00777512      -1.43012204
18
Properties=species:S:1:pos:R:3 relative_energy_eV=0.22452871290443 branch=right pbc="F F F"
O        0.35921399       2.35983281       0.14796686
C       -0.51450376       1.59643589       0.47605837
O       -1.54697934       2.03302172       1.22094013
C       -0.53182974       0.11093657       0.13061257
O        0.63837849      -0.23060150      -0.58749317
P        1.99213971      -0.54068426       0.27205871
O        1.72813909      -1.16680529       1.58387495
O        2.82497248      -1.41572983      -0.78498747
O        2.83095308       0.81565911       0.25047162
C       -1.71775317      -0.29835927      -0.72761011
O       -1.77571662      -1.71110934      -0.73777752
H       -2.12237040       1.29694897       1.46699626
H       -0.58182220      -0.45994654       1.06352721
H        2.71564173      -2.35283676      -0.58441962
H        2.23464573       1.58600035       0.25517702
H       -2.63928710       0.12083275      -0.30857793
H       -1.56866660       0.12509913      -1.72245426
H       -2.37414867      -2.00165049      -1.43391851
18
Properties=species:S:1:pos:R:3 relative_energy_eV=0.2232746589143062 branch=right pbc="F F F"
O        0.35737120       2.35707213       0.13881238
C       -0.51348025       1.59347829       0.47482987
O       -1.53983213       2.02938657       1.22924523
C       -0.53333227       0.10805315       0.13009177
O        0.63736653      -0.23628703      -0.58578656
P        1.99230365      -0.53961182       0.27503780
O        1.72937493      -1.16203178       1.58932186
O        2.82872937      -1.41457897      -0.78102113
O        2.82584173       0.81981388       0.24935059
C       -1.71930497      -0.29656852      -0.73120553
O       -1.78631899      -1.70960001      -0.73417152
H       -2.11243251       1.29161926       1.47993528
H       -0.58372022      -0.46652142       1.06073486
H        2.71755455      -2.35212484      -0.58163656
H        2.22947685       1.59151685       0.24985383
H       -2.63992613       0.12974138      -0.31554926
H       -1.56246785       0.12083542      -1.72862485
H       -2.37619680      -1.99714859      -1.43877298
18
Properties=species:S:1:pos:R:3 relative_energy_eV=0.22165169585787226 branch=right pbc="F F F"
O        0.35611359       2.35317941       0.13476441
C       -0.51225018       1.58853959       0.47665846
O       -1.53442668       2.02626993       1.23461918
C       -0.53428406       0.10385567       0.13005976
O        0.63659565      -0.24269413      -0.58435218
P        1.99334495      -0.53844277       0.27842059
O        1.73234439      -1.15795544       1.59549873
O        2.83265976      -1.41397640      -0.77676078
O        2.82071204       0.82541978       0.24519160
C       -1.72148238      -0.29376824      -0.73421917
O       -1.79851053      -1.70693043      -0.72881196
H       -2.10672671       1.28665071       1.48499113
H       -0.58272942      -0.47494268       1.05825632
H        2.72326557      -2.35240137      -0.58005839
H        2.22483197       1.59751079       0.24479065
H       -2.64061751       0.14078686      -0.32068384
H       -1.55856076       0.11589982      -1.73554121
H       -2.37927304      -1.98995719      -1.44237822
18
Properties=species:S:1:pos:R:3 relative_energy_eV=0.2205043658032082 branch=right pbc="F F F"
O        0.35260908       2.35127917       0.12991390
C       -0.51169628       1.58430937       0.47820820
O       -1.53127974       2.02298854       1.24086594
C       -0.53409139       0.09993609       0.12948444
O        0.63697790      -0.24715204      -0.58462401
P        1.99426389      -0.53680357       0.28125787
O        1.73411488      -1.15581865       1.59911171
O        2.83574188      -1.41307577      -0.77165625
O        2.81948032       0.82875064       0.24296562
C       -1.72260500      -0.29206922      -0.73604904
O       -1.80911662      -1.70492424      -0.72515546
H       -2.10419167       1.28312785       1.48939368
H       -0.58107340      -0.48003181       1.05708325
H        2.72729541      -2.35254296      -0.57807848
H        2.22351553       1.60191255       0.23906098
H       -2.63987761       0.14972828      -0.32485440
H       -1.55651638       0.11159705      -1.74009040
H       -2.38254416      -1.98416739      -1.44639243
18
Properties=species:S:1:pos:R:3 relative_energy_eV=0.21917855513311224 branch=right pbc="F F F"
O        0.34921085       2.34859428       0.12811886
C       -0.51077603       1.57879317       0.48097366
O       -1.53032452       2.01794354       1.24332647
C       -0.53274154       0.09508768       0.12921113
O        0.63808071      -0.25136268      -0.58580899
P        1.99533313      -0.53433585       0.28382887
O        1.73625052      -1.15278738       1.60226776
O        2.83876323      -1.41182583      -0.76496791
O        2.81940839       0.83237024       0.23961168
C       -1.72344562      -0.28990736      -0.73658701
O       -1.82299249      -1.70155214      -0.72056575
H       -2.10325275       1.27675407       1.49106108
H       -0.57866592      -0.48585833       1.05654708
H        2.73371482      -2.35237862      -0.57593975
H        2.22365516       1.60513079       0.23196638
H       -2.63759670       0.16166342      -0.32921538
H       -1.55669946       0.10728722      -1.74304708
H       -2.38691522      -1.97657238      -1.45033596
18
Properties=species:S:1:pos:R:3 relative_energy_eV=0.21810528211062774 branch=right pbc="F F F"
O        0.34221629       2.34739096       0.11761068
C       -0.51010791       1.57354034       0.48154282
O       -1.52521111       2.00889483       1.25351673
C       -0.53143828       0.09002607       0.12825127
O        0.63933546      -0.25720163      -0.58690430
P        1.99651594      -0.53123766       0.28642657
O        1.73828803      -1.14671834       1.60597853
O        2.84393835      -1.41023435      -0.75599819
O        2.81837843       0.83665257       0.23751137
C       -1.72384795      -0.28773659      -0.73830138
O       -1.84141993      -1.69770749      -0.71564545
H       -2.09613063       1.26736317       1.50161893
H       -0.57922007      -0.49191945       1.05497881
H        2.73802636      -2.35126698      -0.57080060
H        2.22076380       1.60763492       0.22296616
H       -2.63415328       0.17688347      -0.33802504
H       -1.55278114       0.10199369      -1.74653893
H       -2.39214583      -1.96931372      -1.45774281
18
Properties=species:S:1:pos:R:3 relative_energy_eV=0.21700270787187037 branch=right pbc="F F F"
O        0.33792005       2.34467642       0.11475424
C       -0.50950080       1.56916489       0.48238974
O       -1.52245630       2.00171546       1.25750049
C       -0.53024174       0.08605277       0.12768851
O        0.64053815      -0.26256766      -0.58745158
P        1.99792418      -0.52893262       0.28801977
O        1.74095415      -1.14043484       1.60901569
O        2.84933320      -1.40847539      -0.74872311
O        2.81809451       0.83926660       0.23462182
C       -1.72424264      -0.28579934      -0.73902859
O       -1.85774823      -1.69336762      -0.71222661
H       -2.09218507       1.26020877       1.50885237
H       -0.58101169      -0.49707333       1.05366860
H        2.74440975      -2.35006064      -0.56738964
H        2.21857089       1.60833225       0.21474898
H       -2.63056502       0.18986070      -0.34607668
H       -1.55235296       0.09792343      -1.74805415
H       -2.39643396      -1.96344613      -1.46186469
18
Properties=species:S:1:pos:R:3 relative_energy_eV=0.21595489352330333 branch=right pbc="F F F"
O        0.32960651       2.34129826       0.09754985
C       -0.50799992       1.56255017       0.48086973
O       -1.50934143       1.98822290       1.27419173
C       -0.53069960       0.07981539       0.12593197
O        0.64054213      -0.27439369      -0.58652556
P        1.99993748      -0.52535779       0.29132550
O        1.74513257      -1.12711602       1.61686943
O        2.85963771      -1.40591896      -0.73731915
O        2.81164452       0.84708475       0.23044091
C       -1.72553530      -0.28231254      -0.74411303
O       -1.88525221      -1.68736895      -0.70553410
H       -2.07245300       1.24487312       1.53385088
H       -0.58881337      -0.50589672       1.04973954
H        2.74989059      -2.34720258      -0.55872332
H        2.20646980       1.61052074       0.20288890
H       -2.62664468       0.21354542      -0.36375494
H       -1.54225659       0.09061910      -1.75470664
H       -2.40285875      -1.95591902      -1.47253656
18
Properties=species:S:1:pos:R:3 relative_energy_eV=0.21485568887146655 branch=right pbc="F F F"
O        0.32448594       2.33905088       0.09051744
C       -0.50793827       1.55892757       0.48035622
O       -1.50054719       1.98105541       1.28518923
C       -0.53198165       0.07681488       0.12438982
O        0.64044417      -0.28344530      -0.58427220
P        2.00262901      -0.52475753       0.29298738
O        1.74993665      -1.11765704       1.62287655
O        2.86915120      -1.40511816      -0.73138896
O        2.80697109       0.85103962       0.22526594
C       -1.72703614      -0.27960242      -0.74820008
O       -1.90126069      -1.68216238      -0.70325930
H       -2.06229193       1.23919650       1.54892259
H       -0.59637879      -0.51038201       1.04630310
H        2.75598995      -2.34634199      -0.55454313
H        2.19608952       1.60979441       0.19639322
H       -2.62407058       0.22759131      -0.37562172
H       -1.53747072       0.08635790      -1.75950325
H       -2.40571510      -1.95331813      -1.47596771
18
Properties=species:S:1:pos:R:3 relative_energy_eV=0.2140659604447137 branch=right pbc="F F F"
O        0.32258576       2.33245817       0.08566681
C       -0.50600915       1.55232530       0.48067482
O       -1.48960589       1.97378126       1.29497912
C       -0.53448236       0.07122089       0.12258338
O        0.63900797      -0.29606302      -0.58173072
P        2.00547895      -0.52283517       0.29583688
O        1.75604935      -1.10626952       1.63091973
O        2.87985582      -1.40232234      -0.72482936
O        2.80000091       0.85774281       0.21825753
C       -1.72994438      -0.27651368      -0.75373630
O       -1.92307514      -1.67680167      -0.69832266
H       -2.04721023       1.23054242       1.56670174
H       -0.60581536      -0.51679974       1.04290163
H        2.76435643      -2.34348873      -0.54852126
H        2.18271887       1.61232902       0.18707706
H       -2.62214883       0.24679847      -0.38986052
H       -1.52932589       0.08015009      -1.76625177
H       -2.41143041      -1.94921118      -1.48190099
18
Properties=species:S:1:pos:R:3 relative_energy_eV=0.2134490748940152 branch=right pbc="F F F"
O        0.32284634       2.33106292       0.08643036
C       -0.50567382       1.55001749       0.48187681
O       -1.48670591       1.97214425       1.29918137
C       -0.53611631       0.06978313       0.12124847
O        0.63835406      -0.30131963      -0.57976047
P        2.00752316      -0.52342766       0.29665543
O        1.76006621      -1.10257707       1.63439023
O        2.88523299      -1.40240579      -0.72334290
O        2.79677949       0.85982971       0.21249900
C       -1.73163415      -0.27458110      -0.75674892
O       -1.92875034      -1.67377131      -0.69801043
H       -2.04407308       1.22907397       1.57127858
H       -0.61068957      -0.51678671       1.04161291
H        2.76929699      -2.34377640      -0.54709357
H        2.17579367       1.61150092       0.18531787
H       -2.62147410       0.25330081      -0.39406230
H       -1.52708974       0.07860164      -1.76963174
H       -2.41267946      -1.94962583      -1.48139558
18
Properties=species:S:1:pos:R:3 relative_energy_eV=0.2127712254805374 branch=right pbc="F F F"
O        0.32679550       2.32788031       0.09315786
C       -0.50425647       1.54684703       0.48430417
O       -1.48730981       1.97055849       1.29883226
C       -0.53708870       0.06746794       0.12044575
O        0.63763098      -0.30602563      -0.57866229
P        2.00935548      -0.52299909       0.29693367
O        1.76450558      -1.09960644       1.63647799
O        2.88960007      -1.40145947      -0.72229604
O        2.79500258       0.86165298       0.20638625
C       -1.73356073      -0.27295933      -0.75813850
O       -1.93668068      -1.67110726      -0.69613589
H       -2.04423026       1.22678861       1.56939381
H       -0.61404320      -0.51737985       1.04136011
H        2.77611431      -2.34294360      -0.54502821
H        2.17153072       1.61200655       0.18213820
H       -2.62065583       0.26016166      -0.39586833
H       -1.52516627       0.07690132      -1.77132953
H       -2.41653691      -1.94874093      -1.48152616
18
Properties=species:S:1:pos:R:3 relative_energy_eV=0.211772642476717 branch=right pbc="F F F"
O        0.33697730       2.32378237       0.10973120
C       -0.50170112       1.54334186       0.48873355
O       -1.49445463       1.96883194       1.29264521
C       -0.53752788       0.06511206       0.11985954
O        0.63682848      -0.31066719      -0.57772799
P        2.01170703      -0.52250510       0.29608631
O        1.77106537      -1.09712928       1.63738542
O        2.89421403      -1.40015830      -0.72187794
O        2.79459612       0.86272755       0.19677146
C       -1.73604166      -0.27067967      -0.75835222
O       -1.94662389      -1.66751282      -0.69344382
H       -2.05048592       1.22281261       1.55973626
H       -0.61765228      -0.51707501       1.04211119
H        2.78783140      -2.34214864      -0.54228217
H        2.16928241       1.61214587       0.17744062
H       -2.61946973       0.26767740      -0.39430628
H       -1.52429747       0.07599334      -1.77189095
H       -2.42324129      -1.94750571      -1.48017424
18
Properties=species:S:1:pos:R:3 relative_energy_eV=0.21129739993193652 branch=right pbc="F F F"
O        0.34395738       2.32194359       0.12302188
C       -0.50054286       1.54240125       0.49180820
O       -1.50152236       1.96769057       1.28635585
C       -0.53663737       0.06451536       0.12064354
O        0.63685383      -0.31163006      -0.57768508
P        2.01311974      -0.52214926       0.29445772
O        1.77481119      -1.09643655       1.63611677
O        2.89587589      -1.39986491      -0.72253958
O        2.79631799       0.86236526       0.19177145
C       -1.73678391      -0.26966634      -0.75667100
O       -1.95233361      -1.66588009      -0.69115697
H       -2.05899380       1.22127868       1.54785348
H       -0.61774881      -0.51799474       1.04286806
H        2.79551174      -2.34183688      -0.54073677
H        2.17099610       1.61185994       0.17464935
H       -2.61852598       0.27012539      -0.39068578
H       -1.52510792       0.07621358      -1.77066035
H       -2.42824105      -1.94589147      -1.47896557
18
Properties=species:S:1:pos:R:3 relative_energy_eV=0.21096887341263937 branch=right pbc="F F F"
O        0.34730142       2.32156512       0.12991321
C       -0.50027980       1.54267291       0.49308833
O       -1.50565943       1.96645718       1.28351671
C       -0.53569097       0.06463362       0.12147214
O        0.63715114      -0.31203911      -0.57758100
P        2.01405930      -0.52188290       0.29335362
O        1.77681703      -1.09573943       1.63511361
O        2.89670187      -1.39999073      -0.72242279
O        2.79791292       0.86212996       0.18918357
C       -1.73649904      -0.26904312      -0.75585608
O       -1.95627905      -1.66502536      -0.68972771
H       -2.06445911       1.21997100       1.54294757
H       -0.61824586      -0.51938967       1.04313238
H        2.80036382      -2.34205390      -0.53915775
H        2.17256501       1.61147739       0.17187791
H       -2.61769722       0.27136581      -0.38924431
H       -1.52556371       0.07647804      -1.77060056
H       -2.43149219      -1.94454350      -1.47856367
18
Properties=species:S:1:pos:R:3 relative_energy_eV=0.21075465278772754 branch=right pbc="F F F"
O        0.34856531       2.32220797       0.13454093
C       -0.50081083       1.54380114       0.49391193
O       -1.50810653       1.96669743       1.28167683
C       -0.53493385       0.06545462       0.12252004
O        0.63751043      -0.31109874      -0.57731434
P        2.01474992      -0.52202128       0.29215546
O        1.77770253      -1.09621768       1.63360774
O        2.89607634      -1.40091375      -0.72366833
O        2.79949223       0.86155981       0.18812643
C       -1.73561370      -0.26907237      -0.75512314
O       -1.95596987      -1.66512466      -0.68931933
H       -2.06968580       1.22131423       1.53817719
H       -0.61801011      -0.52025521       1.04340474
H        2.80268193      -2.34276838      -0.53851982
H        2.17400994       1.61062487       0.17141345
H       -2.61718441       0.26970920      -0.38750084
H       -1.52658586       0.07738960      -1.77026024
H       -2.43288156      -1.94424344      -1.47738351
18
Properties=species:S:1:pos:R:3 relative_energy_eV=0.21052603534189984 branch=right pbc="F F F"
O        0.34855367       2.32246295       0.13626396
C       -0.50116899       1.54410626       0.49451264
O       -1.50781266       1.96618733       1.28319827
C       -0.53469806       0.06547089       0.12316634
O        0.63764856      -0.31181037      -0.57650949
P        2.01575300      -0.52180703       0.29157061
O        1.77914313      -1.09562045       1.63321761
O        2.89587970      -1.40181766      -0.72428238
O        2.79971324       0.86242439       0.18626676
C       -1.73466269      -0.26884617      -0.75582983
O       -1.95733832      -1.66502297      -0.68874947
H       -2.07198066       1.22201775       1.53822925
H       -0.61955734      -0.52183761       1.04323297
H        2.80531497      -2.34345889      -0.53640023
H        2.17289390       1.61042328       0.16984161
H       -2.61634408       0.27027119      -0.38871516
H       -1.52574358       0.07745523      -1.77159077
H       -2.43458772      -1.94355481      -1.47697750
18
Properties=species:S:1:pos:R:3 relative_energy_eV=0.21020357142333523 branch=right pbc="F F F"
O        0.35026565       2.32292920       0.14229167
C       -0.50155462       1.54489754       0.49623804
O       -1.50905788       1.96752933       1.28269193
C       -0.53456237       0.06603145       0.12426765
O        0.63767277      -0.31117692      -0.57528576
P        2.01701425      -0.52193560       0.28997586
O        1.78124687      -1.09653457       1.63145272
O        2.89349021      -1.40368656      -0.72784229
O        2.80034738       0.86280777       0.18326992
C       -1.73315591      -0.26911590      -0.75623569
O       -1.95460669      -1.66549754      -0.68894582
H       -2.07811611       1.22545932       1.53382819
H       -0.62130362      -0.52253772       1.04362446
H        2.80876761      -2.34476931      -0.53383252
H        2.17185378       1.60970436       0.16975262
H       -2.61534648       0.26798642      -0.38846812
H       -1.52557500       0.07871148      -1.77206034
H       -2.43637381      -1.94375945      -1.47427734
18
Properties=species:S:1:pos:R:3 relative_energy_eV=0.20975323971288162 branch=right pbc="F F F"
O        0.35192082       2.32099726       0.14739123
C       -0.50059448       1.54257596       0.49932671
O       -1.50682713       1.96585294       1.28666134
C       -0.53498706       0.06397253       0.12498126
O        0.63725751      -0.31441975      -0.57327636
P        2.01927253      -0.52084695       0.28883635
O        1.78652534      -1.09409110       1.63165073
O        2.89231294      -1.40523949      -0.73049448
O        2.79814986       0.86643284       0.17651241
C       -1.73202159      -0.26842955      -0.75841837
O       -1.95905787      -1.66446989      -0.68736794
H       -2.08093395       1.22614771       1.53343639
H       -0.62624218      -0.52605634       1.04319077
H        2.81613776      -2.34519102      -0.52663622
H        2.16565136       1.61062444       0.16610889
H       -2.61295102       0.27290278      -0.39373980
H       -1.52115264       0.07762574      -1.77463155
H       -2.44145427      -1.94134490      -1.47308616
18
Properties=species:S:1:pos:R:3 relative_energy_eV=0.2091894560107903 branch=right pbc="F F F"
O        0.35634224       2.31820249       0.15734751
C       -0.49883741       1.53977492       0.50405878
O       -1.50678847       1.96519495       1.28801965
C       -0.53545890       0.06189247       0.12595354
O        0.63661070      -0.31643133      -0.57136364
P        2.02131403      -0.51989338       0.28655749
O        1.79321523      -1.09245186       1.63066265
O        2.88848907      -1.40730904      -0.73601400
O        2.79565894       0.86944581       0.16821491
C       -1.73075747      -0.26806292      -0.75988099
O       -1.96058795      -1.66321731      -0.68664374
H       -2.08710885       1.22792843       1.52850454
H       -0.63127991      -0.52878476       1.04322213
H        2.82499379      -2.34540635      -0.51771507
H        2.15948202       1.61154274       0.16312252
H       -2.61024826       0.27657619      -0.39838463
H       -1.51664909       0.07699865      -1.77551373
H       -2.44738390      -1.93895656      -1.46970274
18
Properties=species:S:1:pos:R:3 relative_energy_eV=0.20852324021689128 branch=right pbc="F F F"
O        0.36006090       2.31232768       0.16447702
C       -0.49558718       1.53328138       0.50996704
O       -1.50351905       1.95993166       1.29357759
C       -0.53609657       0.05695266       0.12650191
O        0.63563757      -0.32224010      -0.56967526
P        2.02358737      -0.51757428       0.28490718
O        1.80296552      -1.08613742       1.63221387
O        2.88676335      -1.40841831      -0.73881567
O        2.79009500       0.87506346       0.15736044
C       -1.73055210      -0.26621832      -0.76226328
O       -1.97197282      -1.65927277      -0.68389341
H       -2.08821900       1.22428319       1.52801819
H       -0.63782202      -0.53514326       1.04195696
H        2.83731060      -2.34353387      -0.50426083
H        2.14928278       1.61416072       0.15578109
H       -2.60642069       0.28943856      -0.40879374
H       -1.50773264       0.07289160      -1.77757117
H       -2.45677537      -1.93274961      -1.46904275
18
Properties=species:S:1:pos:R:3 relative_energy_eV=0.2078332985038287 branch=right pbc="F F F"
O        0.36386538       2.30660089       0.17183742
C       -0.49272581       1.52743055       0.51580264
O       -1.50235711       1.95469208       1.29759783
C       -0.53633004       0.05286021       0.12729493
O        0.63478346      -0.32624553      -0.56901940
P        2.02492232      -0.51561299       0.28268769
O        1.81244044      -1.08008781       1.63298468
O        2.88417342      -1.40951517      -0.74157590
O        2.78532441       0.87871277       0.14793072
C       -1.73056486      -0.26416289      -0.76346920
O       -1.98196226      -1.65449298      -0.68215947
H       -2.09052029       1.21967376       1.52596487
H       -0.64208121      -0.54098146       1.04070207
H        2.84890776      -2.34107194      -0.49073715
H        2.14168552       1.61609386       0.14856809
H       -2.60307723       0.30096386      -0.41786946
H       -1.49951577       0.06861812      -1.77804633
H       -2.46596262      -1.92643248      -1.46804887
18
Properties=species:S:1:pos:R:3 relative_energy_eV=0.20716667895248975 branch=right pbc="F F F"
O        0.36501707       2.30017632       0.17490237
C       -0.49049208       1.52071068       0.52109521
O       -1.49918241       1.94636552       1.30518715
C       -0.53654354       0.04805554       0.12800457
O        0.63390449      -0.33217716      -0.56869992
P        2.02630108      -0.51310347       0.28115913
O        1.82268685      -1.07098799       1.63543525
O        2.88434873      -1.41002084      -0.74077121
O        2.78014630       0.88300428       0.13850289
C       -1.73121686      -0.26066239      -0.76546579
O       -1.99854701      -1.64765407      -0.67950389
H       -2.08884823       1.21097017       1.52907734
H       -0.64592812      -0.54923319       1.03845017
H        2.86176197      -2.33760339      -0.47555527
H        2.13329624       1.61786264       0.13816739
H       -2.59969366       0.31735847      -0.42983800
H       -1.48939672       0.06217331      -1.78011678
H       -2.47660876      -1.91819172      -1.46958543
18
Properties=species:S:1:pos:R:3 relative_energy_eV=0.20660336389119038 branch=right pbc="F F F"
O        0.36559724       2.29635528       0.17961152
C       -0.49037752       1.51734441       0.52535438
O       -1.49928855       1.94095753       1.31028752
C       -0.53661358       0.04600389       0.12933882
O        0.63318653      -0.33439668      -0.56865075
P        2.02711247      -0.51169978       0.27874551
O        1.83079351      -1.06511221       1.63555664
O        2.88245683      -1.41165655      -0.74176474
O        2.77822227       0.88437339       0.13140546
C       -1.73107788      -0.25765753      -0.76671788
O       -2.00760204      -1.64186374      -0.67903037
H       -2.09132097       1.20525726       1.52921696
H       -0.64700897      -0.55505606       1.03708313
H        2.87246339      -2.33538391      -0.46236499
H        2.12933916       1.61739053       0.13015083
H       -2.59743202       0.32657944      -0.43750184
H       -1.48218728       0.05803178      -1.78122369
H       -2.48525735      -1.91242447      -1.46905134
18
Properties=species:S:1:pos:R:3 relative_energy_eV=0.2061222399752296 branch=right pbc="F F F"
O        0.36329751       2.29231334       0.17922114
C       -0.49097540       1.51323416       0.52836633
O       -1.49577862       1.93374464       1.31961149
C       -0.53757349       0.04303245       0.13006476
O        0.63210541      -0.33934016      -0.56788313
P        2.02833105      -0.50962376       0.27786531
O        1.83842623      -1.05719639       1.63789686
O        2.88329894      -1.41287977      -0.73946344
O        2.77593993       0.88752825       0.12408015
C       -1.73138685      -0.25389798      -0.77020842
O       -2.02142829      -1.63558105      -0.67770119
H       -2.08773229       1.19743162       1.53777453
H       -0.64967095      -0.56226790       1.03506212
H        2.88375146      -2.33268988      -0.44880933
H        2.12323756       1.61705047       0.11961692
H       -2.59539725       0.33958016      -0.44871528
H       -1.47326096       0.05287069      -1.78551764
H       -2.49417888      -1.90626644      -1.47081600
18
Properties=species:S:1:pos:R:3 relative_energy_eV=0.20570550950287725 branch=right pbc="F F F"
O        0.36202575       2.29163702       0.18294850
C       -0.49325448       1.51310054       0.53042198
O       -1.49714611       1.93210312       1.32293766
C       -0.53861711       0.04331260       0.13123660
O        0.63115936      -0.33855201      -0.56726986
P        2.02856487      -0.50903618       0.27588609
O        1.84197181      -1.05536232       1.63666994
O        2.87947699      -1.41552408      -0.74159427
O        2.77757272       0.88719288       0.12004542
C       -1.73056084      -0.25212922      -0.77232447
O       -2.02177138      -1.63274593      -0.67923567
H       -2.08980658       1.19564743       1.54000751
H       -0.64927113      -0.56462788       1.03489091
H        2.89087895      -2.33179048      -0.43928823
H        2.12311745       1.61475296       0.11435831
H       -2.59493137       0.34104211      -0.45306308
H       -1.46909871       0.05230915      -1.78736762
H       -2.49930513      -1.90428726      -1.46881453
18
Properties=species:S:1:pos:R:3 relative_energy_eV=0.2052497980876069 branch=right pbc="F F F"
O        0.35926672       2.29100439       0.18328846
C       -0.49544264       1.51217631       0.53148394
O       -1.49667771       1.92985850       1.32766093
C       -0.54041646       0.04272150       0.13145159
O        0.63005637      -0.33911620      -0.56628001
P        2.02868715      -0.50801351       0.27533406
O        1.84373087      -1.05298700       1.63701749
O        2.87676259      -1.41766279      -0.74178108
O        2.77902515       0.88788645       0.11652927
C       -1.73030165      -0.25058317      -0.77577047
O       -2.02399784      -1.63079898      -0.68021450
H       -2.08653890       1.19256316       1.54844993
H       -0.65004773      -0.56674037       1.03452302
H        2.89753476      -2.33044318      -0.43044415
H        2.12251744       1.61334734       0.10788643
H       -2.59491295       0.34424180      -0.45945638
H       -1.46435002       0.05201721      -1.79089878
H       -2.50389016      -1.90242906      -1.46833459
18
Properties=species:S:1:pos:R:3 relative_energy_eV=0.20478083636407973 branch=right pbc="F F F"
O        0.35709356       2.29168317       0.18643544
C       -0.49778516       1.51212114       0.53291460
O       -1.49923453       1.92932258       1.32895579
C       -0.54209002       0.04298896       0.13154570
O        0.62923309      -0.33699031      -0.56556854
P        2.02826092      -0.50756776       0.27428212
O        1.84341281      -1.05288201       1.63601735
O        2.87124895      -1.42059892      -0.74420329
O        2.78196835       0.88713069       0.11372168
C       -1.72975446      -0.25010333      -0.77844235
O       -2.02127848      -1.63070427      -0.68199059
H       -2.08495163       1.19065956       1.55411029
H       -0.64951184      -0.56675385       1.03484127
H        2.90376474      -2.32966206      -0.42200256
H        2.12522706       1.61195892       0.10275114
H       -2.59548228       0.34363252      -0.46365887
H       -1.46126614       0.05416393      -1.79296371
H       -2.50785000      -1.90135659      -1.46630031
18
Properties=species:S:1:pos:R:3 relative_energy_eV=0.2044365239671606 branch=right pbc="F F F"
O        0.35269954       2.29515704       0.18464012
C       -0.50043838       1.51407513       0.53195633
O       -1.50283638       1.93064107       1.32787918
C       -0.54308438       0.04490197       0.13061598
O        0.62932530      -0.33221887      -0.56611943
P        2.02639994      -0.50840500       0.27453525
O        1.83783811      -1.05543309       1.63510642
O        2.86630113      -1.42336993      -0.74502211
O        2.78605543       0.88387655       0.11604721
C       -1.72959385      -0.25097460      -0.77968877
O       -2.01353212      -1.63306034      -0.68488099
H       -2.08093035       1.18947851       1.56138484
H       -0.64654416      -0.56325094       1.03525284
H        2.90382540      -2.32938960      -0.41998559
H        2.13259348       1.61105332       0.10127273
H       -2.59765891       0.33833313      -0.46413626
H       -1.46224095       0.05821585      -1.79332664
H       -2.50717389      -1.90258779      -1.46508593
18
Properties=species:S:1:pos:R:3 relative_energy_eV=0.20429297813097946 branch=right pbc="F F F"
O        0.35105354       2.29456818       0.19501046
C       -0.50173564       1.51098549       0.53814100
O       -1.50838052       1.92546067       1.33059016
C       -0.54404221       0.04339750       0.13077303
O        0.62896905      -0.33101122      -0.56550315
P        2.02698419      -0.50770168       0.27182572
O        1.84181856      -1.05115603       1.63470097
O        2.85841685      -1.42872657      -0.74928069
O        2.78770077       0.88389320       0.10562386
C       -1.72900994      -0.24903880      -0.78303468
O       -2.01789457      -1.63074704      -0.68549493
H       -2.08105593       1.18175102       1.56664802
H       -0.64809850      -0.56647187       1.03403849
H        2.92198952      -2.32845746      -0.40032342
H        2.13490282       1.61154503       0.08901373
H       -2.59670909       0.34528630      -0.47428708
H       -1.45450777       0.05974491      -1.79582970
H       -2.51939636      -1.89627931      -1.46216661
18
Properties=species:S:1:pos:R:3 relative_energy_eV=0.20381317639476038 branch=right pbc="F F F"
O        0.34954940       2.29716665       0.18992611
C       -0.50178793       1.51342541       0.53552890
O       -1.50832879       1.92739357       1.32841289
C       -0.54282154       0.04528215       0.13019584
O        0.62999940      -0.32918676      -0.56682360
P        2.02606870      -0.50917475       0.27299795
O        1.83775693      -1.05350261       1.63484500
O        2.86116550      -1.42785120      -0.74709202
O        2.78791696       0.88179862       0.11081674
C       -1.72927230      -0.25006940      -0.78088872
O       -2.01413128      -1.63252651      -0.68607649
H       -2.08056404       1.18344375       1.56517217
H       -0.64598006      -0.56361676       1.03394168
H        2.91471700      -2.32970236      -0.40887849
H        2.13803643       1.61179914       0.09440204
H       -2.59789761       0.34085299      -0.46895484
H       -1.45930932       0.06051971      -1.79369899
H       -2.51411261      -1.89900928      -1.46338100
18
Properties=species:S:1:pos:R:3 relative_energy_eV=0.20349108611480915 branch=right pbc="F F F"
O        0.34644616       2.29961822       0.18911052
C       -0.50292337       1.51474787       0.53595812
O       -1.51018508       1.92632925       1.32944415
C       -0.54198601       0.04680122       0.12992654
O        0.63076981      -0.32689011      -0.56802715
P        2.02545778      -0.51034138       0.27252711
O        1.83663295      -1.05319154       1.63469961
O        2.86031178      -1.43033927      -0.74669769
O        2.78854366       0.87962157       0.11038309
C       -1.72900370      -0.24964553      -0.78054927
O       -2.01289251      -1.63228342      -0.68745005
H       -2.08080270       1.18120505       1.56659910
H       -0.64472473      -0.56288750       1.03285054
H        2.91696040      -2.33058023      -0.40679111
H        2.14178011       1.61210417       0.09371639
H       -2.59833663       0.34028176      -0.46893419
H       -1.45958469       0.06114141      -1.79302348
H       -2.51545839      -1.89864914      -1.46329702
18
Properties=species:S:1:pos:R:3 relative_energy_eV=0.20312563072366174 branch=right pbc="F F F"
O        0.34096759       2.30332166       0.19016712
C       -0.50539646       1.51626713       0.53804765
O       -1.51335551       1.92348361       1.33298922
C       -0.54139375       0.04885173       0.12959914
O        0.63145839      -0.32334042      -0.56964107
P        2.02474436      -0.51178810       0.27096055
O        1.83630967      -1.05143226       1.63438286
O        2.85724945      -1.43586767      -0.74671667
O        2.78994159       0.87675648       0.10643280
C       -1.72836438      -0.24829653      -0.78146980
O       -2.01238455      -1.63133330      -0.69005741
H       -2.08094595       1.17611659       1.57085995
H       -0.64389196      -0.56294443       1.03077896
H        2.92572443      -2.33190641      -0.39814323
H        2.14758090       1.61266472       0.08966176
H       -2.59870754       0.34131894      -0.47150389
H       -1.45741931       0.06206093      -1.79335105
H       -2.52111222      -1.89689030      -1.46255168
18
Properties=species:S:1:pos:R:3 relative_energy_eV=0.2029182490950916 branch=right pbc="F F F"
O        0.33666881       2.30586401       0.19157463
C       -0.50769048       1.51720717       0.53983128
O       -1.51518096       1.92136253       1.33690319
C       -0.54178138       0.05012604       0.12935253
O        0.63135252      -0.32057525      -0.57071031
P        2.02405757      -0.51234221       0.26938212
O        1.83643607      -1.04989581       1.63380153
O        2.85347885      -1.44066978      -0.74719203
O        2.79143684       0.87506052       0.10235886
C       -1.72780160      -0.24729078      -0.78309188
O       -2.01164990      -1.63077014      -0.69263924
H       -2.08042124       1.17234595       1.57546741
H       -0.64397624      -0.56342968       1.02928525
H        2.93411215      -2.33262876      -0.38917338
H        2.15182615       1.61310604       0.08572497
H       -2.59888568       0.34226069      -0.47447031
H       -1.45430217       0.06274739      -1.79437172
H       -2.52667465      -1.89543560      -1.46158769
18
Properties=species:S:1:pos:R:3 relative_energy_eV=0.20273068828464602 branch=right pbc="F F F"
O        0.33310643       2.30794306       0.19163744
C       -0.50967132       1.51804706       0.54054677
O       -1.51537807       1.92010642       1.34067588
C       -0.54278774       0.05097067       0.12889221
O        0.63075533      -0.31833895      -0.57169752
P        2.02313286      -0.51237685       0.26819079
O        1.83586449      -1.04876783       1.63326668
O        2.85027469      -1.44436678      -0.74700674
O        2.79289749       0.87408972       0.09937912
C       -1.72756731      -0.24685815      -0.78480478
O       -2.01053600      -1.63098382      -0.69518207
H       -2.07856675       1.16977302       1.58026042
H       -0.64470123      -0.56376856       1.02814029
H        2.94041016      -2.33314259      -0.38231869
H        2.15533913       1.61373252       0.08341341
H       -2.59910655       0.34254659      -0.47644536
H       -1.45164250       0.06320816      -1.79549243
H       -2.53081848      -1.89477139      -1.46101023
18
Properties=species:S:1:pos:R:3 relative_energy_eV=0.20254207325706375 branch=right pbc="F F F"
O        0.33071605       2.30936542       0.18987724
C       -0.51095360       1.51875821       0.53983475
O       -1.51381639       1.91984364       1.34378184
C       -0.54414253       0.05131370       0.12818473
O        0.62983073      -0.31682152      -0.57267146
P        2.02193493      -0.51190247       0.26755072
O        1.83438260      -1.04816680       1.63274950
O        2.84820397      -1.44629667      -0.74608462
O        2.79405988       0.87377907       0.09823236
C       -1.72776187      -0.24723088      -0.78606820
O       -2.00897625      -1.63192502      -0.69736408
H       -2.07563665       1.16869595       1.58417542
H       -0.64581886      -0.56377484       1.02740825
H        2.94323538      -2.33344776      -0.37886539
H        2.15800510       1.61462095       0.08368762
H       -2.59925649       0.34185068      -0.47677429
H       -1.45028374       0.06328446      -1.79617453
H       -2.53271766      -1.89490383      -1.46103466
18
Properties=species:S:1:pos:R:3 relative_energy_eV=0.20240672824002104 branch=right pbc="F F F"
O        0.32986032       2.30945353       0.18768442
C       -0.51118984       1.51853817       0.53878893
O       -1.51154693       1.91936293       1.34587778
C       -0.54526085       0.05081335       0.12747555
O        0.62899490      -0.31670048      -0.57332042
P        2.02098475      -0.51103398       0.26735110
O        1.83325640      -1.04707727       1.63261969
O        2.84759270      -1.44647157      -0.74486826
O        2.79446806       0.87412601       0.09780015
C       -1.72830586      -0.24776240      -0.78676633
O       -2.00901155      -1.63235146      -0.69833769
H       -2.07262740       1.16779754       1.58667955
H       -0.64710713      -0.56417533       1.02688946
H        2.94416090      -2.33319804      -0.37730481
H        2.15913034       1.61553275       0.08482478
H       -2.59897717       0.34199802      -0.47692337
H       -1.44993738       0.06271336      -1.79647432
H       -2.53347968      -1.89452287      -1.46155103
18
Properties=species:S:1:pos:R:3 relative_energy_eV=0.2022593193942157 branch=right pbc="F F F"
O        0.32941381       2.30878417       0.18544108
C       -0.51091275       1.51752549       0.53789324
O       -1.50901673       1.91788097       1.34803340
C       -0.54619245       0.04974462       0.12660746
O        0.62827305      -0.31758825      -0.57389695
P        2.02024168      -0.50994681       0.26725718
O        1.83239089      -1.04480394       1.63290378
O        2.84785433      -1.44608293      -0.74326760
O        2.79459372       0.87471066       0.09678597
C       -1.72912972      -0.24808145      -0.78739619
O       -2.01101604      -1.63202354      -0.69861715
H       -2.06926785       1.16584070       1.58915406
H       -0.64868190      -0.56512126       1.02609753
H        2.94566624      -2.33245002      -0.37523447
H        2.15997824       1.61665960       0.08575006
H       -2.59836246       0.34344104      -0.47769041
H       -1.45006695       0.06165072      -1.79691940
H       -2.53476054      -1.89309747      -1.46245639
18
Properties=species:S:1:pos:R:3 relative_energy_eV=0.20204228642978705 branch=right pbc="F F F"
O        0.32877936       2.30744232       0.18287522
C       -0.51029946       1.51555719       0.53720488
O       -1.50582124       1.91466843       1.35123167
C       -0.54714425       0.04805257       0.12525583
O        0.62752930      -0.31953196      -0.57471766
P        2.01953217      -0.50846698       0.26701056
O        1.83131553      -1.04031804       1.63365623
O        2.84876176      -1.44567476      -0.74094767
O        2.79488888       0.87533582       0.09416134
C       -1.73038262      -0.24804103      -0.78837728
O       -2.01550445      -1.63076012      -0.69860150
H       -2.06478141       1.16184342       1.59263320
H       -0.65099891      -0.56688709       1.02454943
H        2.94944479      -2.33090471      -0.37087770
H        2.16169404       1.61833328       0.08653804
H       -2.59741918       0.34644107      -0.47932832
H       -1.45080728       0.06002580      -1.79799244
H       -2.53778252      -1.89007297      -1.46382864
18
Properties=species:S:1:pos:R:3 relative_energy_eV=0.20173155541488086 branch=right pbc="F F F"
O        0.32771638       2.30548192       0.18070876
C       -0.50951204       1.51263731       0.53723294
O       -1.50237402       1.90938439       1.35582366
C       -0.54800006       0.04595075       0.12335131
O        0.62684927      -0.32244964      -0.57593026
P        2.01896896      -0.50671480       0.26627740
O        1.82992059      -1.03305500       1.63483568
O        2.84977752      -1.44600695      -0.73827247
O        2.79581465       0.87563594       0.08883221
C       -1.73194325      -0.24727938      -0.79002259
O       -2.02236063      -1.62836597      -0.69867614
H       -2.05964456       1.15541789       1.59723621
H       -0.65410648      -0.56956962       1.02193978
H        2.95709878      -2.32824843      -0.36261119
H        2.16518040       1.62049848       0.08707479
H       -2.59640982       0.35082080      -0.48188120
H       -1.45231330       0.05815785      -1.80020441
H       -2.54365793      -1.88525333      -1.46526928
18
Properties=species:S:1:pos:R:3 relative_energy_eV=0.20138437884816085 branch=right pbc="F F F"
O        0.32654905       2.30338722       0.18036076
C       -0.50884558       1.50955636       0.53844031
O       -1.49991380       1.90335961       1.36070528
C       -0.54845303       0.04420995       0.12130828
O        0.62644660      -0.32537469      -0.57744131
P        2.01874978      -0.50521851       0.26485648
O        1.82833249      -1.02443677       1.63596848
O        2.84987225      -1.44775772      -0.73640966
O        2.79769929       0.87515513       0.08116905
C       -1.73330855      -0.24571978      -0.79217005
O       -2.02918266      -1.62548935      -0.69933512
H       -2.05583528       1.14825225       1.60142999
H       -0.65721618      -0.57255669       1.01865405
H        2.96800027      -2.32474078      -0.35118928
H        2.17053748       1.62251298       0.08764613
H       -2.59600277       0.35481896      -0.48428656
H       -1.45457852       0.05703992      -1.80341555
H       -2.55184651      -1.87995592      -1.46584606
18
Properties=species:S:1:pos:R:3 relative_energy_eV=0.20113865378152695 branch=right pbc="F F F"
O        0.32630169       2.30209301       0.18219105
C       -0.50849348       1.50792968       0.54014636
O       -1.49957113       1.89998931       1.36321605
C       -0.54827483       0.04376288       0.12004309
O        0.62648165      -0.32674908      -0.57868098
P        2.01892568      -0.50468476       0.26334697
O        1.82710109      -1.01878172       1.63634089
O        2.84864877      -1.45020879      -0.73641189
O        2.79978431       0.87407513       0.07491142
C       -1.73382498      -0.24420442      -0.79375513
O       -2.03177285      -1.62390227      -0.70053875
H       -2.05555736       1.14446047       1.60254132
H       -0.65873402      -0.57429111       1.01625415
H        2.97649936      -2.32187652      -0.34246078
H        2.17540049       1.62335421       0.08894959
H       -2.59672400       0.35571240      -0.48459964
H       -1.45696069       0.05763687      -1.80606015
H       -2.55822546      -1.87727313      -1.46498833
18
Properties=species:S:1:pos:R:3 relative_energy_eV=0.20099130277958466 branch=right pbc="F F F"
O        0.32691861       2.30167055       0.18535995
C       -0.50852332       1.50769814       0.54175524
O       -1.50075657       1.89946422       1.36353936
C       -0.54794672       0.04420154       0.11967092
O        0.62661552      -0.32630357      -0.57950770
P        2.01911393      -0.50475382       0.26198269
O        1.82688038      -1.01678513       1.63585024
O        2.84615888      -1.45275835      -0.73778540
O        2.80141213       0.87300042       0.07123638
C       -1.73366954      -0.24329482      -0.79456294
O       -2.03038328      -1.62379300      -0.70202200
H       -2.05782270       1.14411426       1.60117779
H       -0.65868837      -0.57494056       1.01510051
H        2.98130977      -2.32025021      -0.33739590
H        2.17842783       1.62320460       0.09019458
H       -2.59792528       0.35432259      -0.48367286
H       -1.45820228       0.05934863      -1.80729704
H       -2.56191478      -1.87710336      -1.46317858
18
Properties=species:S:1:pos:R:3 relative_energy_eV=0.20086855159752304 branch=right pbc="F F F"
O        0.32842572       2.30122207       0.18917402
C       -0.50845399       1.50773869       0.54314147
O       -1.50215872       1.89999487       1.36290563
C       -0.54768168       0.04464581       0.11952143
O        0.62669600      -0.32538625      -0.58025823
P        2.01929843      -0.50483442       0.26069737
O        1.82746231      -1.01598903       1.63509922
O        2.84343999      -1.45512207      -0.73929330
O        2.80265737       0.87226900       0.06858425
C       -1.73352351      -0.24279641      -0.79494679
O       -2.02797001      -1.62434709      -0.70348029
H       -2.06098884       1.14519298       1.59852141
H       -0.65806983      -0.57548481       1.01434022
H        2.98448196      -2.31900249      -0.33402637
H        2.18025049       1.62285519       0.09162574
H       -2.59920318       0.35248551      -0.48231737
H       -1.45908207       0.06143210      -1.80773040
H       -2.56457625      -1.87783155      -1.46111276
18
Properties=species:S:1:pos:R:3 relative_energy_eV=0.20073279940334032 branch=right pbc="F F F"
O        0.33042033       2.30023167       0.19508445
C       -0.50850486       1.50718546       0.54523273
O       -1.50384229       1.89973288       1.36292496
C       -0.54774561       0.04467958       0.11913744
O        0.62654097      -0.32393713      -0.58156582
P        2.01933934      -0.50444013       0.25848861
O        1.82925087      -1.01385786       1.63390794
O        2.83898432      -1.45897079      -0.74106111
O        2.80437644       0.87156786       0.06389426
C       -1.73365846      -0.24222007      -0.79566324
O       -2.02577413      -1.62469046      -0.70566327
H       -2.06500671       1.14554055       1.59535347
H       -0.65722021      -0.57718551       1.01288560
H        2.99076059      -2.31706984      -0.32692171
H        2.18279070       1.62270661       0.09251977
H       -2.60038817       0.35138814      -0.48184776
H       -1.45942415       0.06406063      -1.80799774
H       -2.56989484      -1.87767951      -1.45826332
18
Properties=species:S:1:pos:R:3 relative_energy_eV=0.20060876323623233 branch=right pbc="F F F"
O        0.33497404       2.29806556       0.20129114
C       -0.50740445       1.50618005       0.54630533
O       -1.50462397       1.90021931       1.36096482
C       -0.54753038       0.04404283       0.11831164
O        0.62666441      -0.32337666      -0.58317250
P        2.01979909      -0.50377923       0.25677095
O        1.83150277      -1.01165130       1.63307174
O        2.83665249      -1.46142678      -0.74154913
O        2.80559137       0.87162812       0.06046084
C       -1.73463110      -0.24233282      -0.79534615
O       -2.02432298      -1.62582110      -0.70712248
H       -2.07010073       1.14767951       1.58904983
H       -0.65555443      -0.57914375       1.01132700
H        2.99382141      -2.31482305      -0.32368555
H        2.18409692       1.62274624       0.09613874
H       -2.60186040       0.34996493      -0.47929089
H       -1.46236786       0.06729360      -1.80729683
H       -2.57370206      -1.87842339      -1.45578324
18
Properties=species:S:1:pos:R:3 relative_energy_eV=0.20049013648895198 branch=right pbc="F F F"
O        0.33548879       2.29624105       0.20566571
C       -0.50755003       1.50388606       0.54813172
O       -1.50451432       1.89641319       1.36397542
C       -0.54825824       0.04259135       0.11701032
O        0.62626672      -0.32305090      -0.58500559
P        2.01959537      -0.50234998       0.25443777
O        1.83376690      -1.00580095       1.63267797
O        2.83328986      -1.46540359      -0.74115364
O        2.80718244       0.87154176       0.05372444
C       -1.73575235      -0.24166295      -0.79676015
O       -2.02726960      -1.62446215      -0.70898115
H       -2.07090777       1.14379696       1.58955848
H       -0.65552557      -0.58266813       1.00861581
H        3.00382156      -2.31229090      -0.31201068
H        2.18740467       1.62372952       0.09491620
H       -2.60162881       0.35300117      -0.48200124
H       -1.46220743       0.06845246      -1.80797416
H       -2.58219814      -1.87492194      -1.45438196
18
Properties=species:S:1:pos:R:3 relative_energy_eV=0.2004291804114473 branch=right pbc="F F F"
O        0.33477139       2.29605957       0.20366583
C       -0.50746206       1.50334546       0.54722971
O       -1.50339539       1.89517933       1.36464976
C       -0.54835028       0.04199201       0.11652010
O        0.62642575      -0.32363805      -0.58518015
P        2.01954828      -0.50201510       0.25496129
O        1.83327763      -1.00470684       1.63323936
O        2.83514641      -1.46444931      -0.73959990
O        2.80691275       0.87185506       0.05443771
C       -1.73630288      -0.24200019      -0.79659178
O       -2.02957343      -1.62398121      -0.70840440
H       -2.06908724       1.14240393       1.59102058
H       -0.65538595      -0.58289076       1.00833705
H        3.00294522      -2.31249850      -0.31249522
H        2.18754747       1.62420485       0.09469054
H       -2.60097281       0.35426930      -0.48252721
H       -1.46300142       0.06773677      -1.80779432
H       -2.58203936      -1.87382430      -1.45571367
18
Properties=species:S:1:pos:R:3 relative_energy_eV=0.2003935912725865 branch=right pbc="F F F"
O        0.33449360       2.29547770       0.20278520
C       -0.50722939       1.50238473       0.54688649
O       -1.50229321       1.89336178       1.36575887
C       -0.54838876       0.04121179       0.11576671
O        0.62663556      -0.32438504      -0.58568555
P        2.01970400      -0.50148213       0.25504425
O        1.83329122      -1.00240594       1.63386498
O        2.83656277      -1.46433290      -0.73808579
O        2.80689233       0.87221687       0.05358358
C       -1.73695452      -0.24200419      -0.79681773
O       -2.03235614      -1.62330577      -0.70822464
H       -2.06777008       1.14050436       1.59236730
H       -0.65538642      -0.58369061       1.00752175
H        3.00384964      -2.31228092      -0.31088166
H        2.18791911       1.62482106       0.09447766
H       -2.60051878       0.35586392      -0.48312833
H       -1.46390349       0.06745623      -1.80810904
H       -2.58354337      -1.87236893      -1.45667877
18
Properties=species:S:1:pos:R:3 relative_energy_eV=0.20036681176861748 branch=right pbc="F F F"
O        0.33442376       2.29517025       0.20236713
C       -0.50708143       1.50192668       0.54660302
O       -1.50174852       1.89243417       1.36614189
C       -0.54826188       0.04087650       0.11520444
O        0.62693694      -0.32455890      -0.58617121
P        2.01986235      -0.50118032       0.25508488
O        1.83306810      -1.00101592       1.63418932
O        2.83745372      -1.46433566      -0.73717928
O        2.80698876       0.87243530       0.05327301
C       -1.73730192      -0.24207845      -0.79688628
O       -2.03347025      -1.62310072      -0.70835808
H       -2.06717840       1.13957332       1.59286466
H       -0.65491493      -0.58393999       1.00701889
H        3.00371875      -2.31243843      -0.31007675
H        2.18825251       1.62513876       0.09470877
H       -2.60041380       0.35612681      -0.48281861
H       -1.46492402       0.06766944      -1.80825379
H       -2.58440563      -1.87166082      -1.45726673
18
Properties=species:S:1:pos:R:3 relative_energy_eV=0.20029731832255493 branch=right pbc="F F F"
O        0.33447460       2.29450056       0.20153537
C       -0.50669907       1.50103098       0.54597991
O       -1.50060805       1.89074519       1.36674366
C       -0.54780859       0.04029655       0.11383695
O        0.62778318      -0.32463958      -0.58744374
P        2.02029035      -0.50043123       0.25521398
O        1.83240601      -0.99791288       1.63498513
O        2.83942087      -1.46442508      -0.73510995
O        2.80721090       0.87309033       0.05278710
C       -1.73791822      -0.24223138      -0.79711535
O       -2.03511544      -1.62299965      -0.70920726
H       -2.06587034       1.13791674       1.59406600
H       -0.65358001      -0.58429685       1.00585620
H        3.00246348      -2.31339171      -0.30853245
H        2.18855258       1.62576821       0.09536381
H       -2.60044008       0.35589166      -0.48133295
H       -1.46739323       0.06861416      -1.80868591
H       -2.58616481      -1.87048401      -1.45849522
18
Properties=species:S:1:pos:R:3 relative_energy_eV=0.2002133300411515 branch=right pbc="F F F"
O        0.33481482       2.29436045       0.20087070
C       -0.50641235       1.50089690       0.54503830
O       -1.50009221       1.89034627       1.36610064
C       -0.54702943       0.04039108       0.11236737
O        0.62895275      -0.32336721      -0.58914254
P        2.02057225      -0.49972808       0.25536313
O        1.83065654      -0.99566336       1.63540063
O        2.84082288      -1.46465109      -0.73329878
O        2.80787115       0.87360462       0.05351520
C       -1.73819503      -0.24277855      -0.79704095
O       -2.03362425      -1.62402620      -0.71121397
H       -2.06486318       1.13751042       1.59459124
H       -0.65109879      -0.58372554       1.00485344
H        2.99848646      -2.31557294      -0.30825486
H        2.18906041       1.62615799       0.09704217
H       -2.60108169       0.35282404      -0.47759916
H       -1.47087194       0.07081363      -1.80871557
H       -2.58696416      -1.87035038      -1.45943168
18
Properties=species:S:1:pos:R:3 relative_energy_eV=0.20011391199659556 branch=right pbc="F F F"
O        0.33540019       2.29461616       0.20007278
C       -0.50611474       1.50138561       0.54393906
O       -1.49993925       1.89123502       1.36470264
C       -0.54610171       0.04096353       0.11109137
O        0.63010945      -0.32146282      -0.59084356
P        2.02065092      -0.49903995       0.25566473
O        1.82830453      -0.99443277       1.63569699
O        2.84165265      -1.46474116      -0.73173701
O        2.80842396       0.87426033       0.05517293
C       -1.73801177      -0.24343987      -0.79687587
O       -2.02963206      -1.62590303      -0.71409936
H       -2.06358516       1.13818900       1.59520081
H       -0.64846896      -0.58263712       1.00411881
H        2.99231255      -2.31872478      -0.30939212
H        2.18876230       1.62626799       0.09898026
H       -2.60208518       0.34814410      -0.47269509
H       -1.47420632       0.07361671      -1.80855467
H       -2.58646710      -1.87125488      -1.45999735
18
Properties=species:S:1:pos:R:3 relative_energy_eV=0.2000523037968378 branch=right pbc="F F F"
O        0.33601955       2.29534872       0.20027161
C       -0.50609650       1.50242327       0.54341019
O       -1.50065043       1.89311922       1.36290009
C       -0.54557570       0.04189071       0.11074206
O        0.63056065      -0.31945295      -0.59176025
P        2.02028868      -0.49880547       0.25567636
O        1.82627837      -0.99501465       1.63528038
O        2.84080289      -1.46503921      -0.73158516
O        2.80909214       0.87422416       0.05664730
C       -1.73751023      -0.24401684      -0.79652421
O       -2.02429090      -1.62784314      -0.71661379
H       -2.06327046       1.13980751       1.59477972
H       -0.64682878      -0.58160451       1.00397562
H        2.98771797      -2.32080091      -0.31084516
H        2.18894106       1.62603987       0.10052645
H       -2.60305505       0.34359178      -0.46889426
H       -1.47608437       0.07589465      -1.80800269
H       -2.58533453      -1.87272007      -1.45953890
18
Properties=species:S:1:pos:R:3 relative_energy_eV=0.2000030640338082 branch=right pbc="F F F"
O        0.33637290       2.29568041       0.20052887
C       -0.50598293       1.50287085       0.54338912
O       -1.50089826       1.89407832       1.36241513
C       -0.54542898       0.04225668       0.11068263
O        0.63049192      -0.31878401      -0.59214991
P        2.01990450      -0.49850324       0.25560787
O        1.82523139      -0.99492497       1.63518950
O        2.83994711      -1.46538752      -0.73129879
O        2.80917508       0.87437681       0.05661813
C       -1.73708549      -0.24408344      -0.79664156
O       -2.02096912      -1.62881799      -0.71857712
H       -2.06233386       1.14030849       1.59549055
H       -0.64663956      -0.58161642       1.00368993
H        2.98564068      -2.32167745      -0.31075254
H        2.18858069       1.62592097       0.10062518
H       -2.60345113       0.34161861      -0.46743650
H       -1.47645963       0.07708698      -1.80792240
H       -2.58509088      -1.87336094      -1.45901276
18
Properties=species:S:1:pos:R:3 relative_energy_eV=0.19993678163882578 branch=right pbc="F F F"
O        0.33662510       2.29599154       0.20141115
C       -0.50583751       1.50300118       0.54380562
O       -1.50105280       1.89437070       1.36244109
C       -0.54539809       0.04238222       0.11056167
O        0.63026679      -0.31832910      -0.59266820
P        2.01937485      -0.49796107       0.25527026
O        1.82399028      -0.99371366       1.63506034
O        2.83888129      -1.46624272      -0.73057107
O        2.80943249       0.87437992       0.05522523
C       -1.73670851      -0.24403483      -0.79701882
O       -2.01756789      -1.62962523      -0.72125312
H       -2.06088655       1.13993435       1.59680792
H       -0.64672448      -0.58240709       1.00295032
H        2.98459140      -2.32196498      -0.30865089
H        2.18888187       1.62602519       0.09990224
H       -2.60367102       0.33996996      -0.46640807
H       -1.47688556       0.07850779      -1.80802803
H       -2.58630723      -1.87324203      -1.45839226
18
Properties=species:S:1:pos:R:3 relative_energy_eV=0.19981635706062661 branch=right pbc="F F F"
O        0.33653678       2.29558081       0.20214260
C       -0.50517932       1.50180498       0.54473250
O       -1.49980977       1.89237297       1.36471437
C       -0.54539444       0.04137241       0.10987505
O        0.63000709      -0.31957825      -0.59352652
P        2.01900720      -0.49650683       0.25493680
O        1.82284873      -0.98882061       1.63595206
O        2.83924093      -1.46744662      -0.72749836
O        2.80891163       0.87531496       0.05093599
C       -1.73645781      -0.24343238      -0.79844247
O       -2.01612092      -1.62953410      -0.72537007
H       -2.05675302       1.13668249       1.60147623
H       -0.64763961      -0.58516770       1.00100005
H        2.98419527      -2.32186957      -0.30252319
H        2.18823201       1.62678258       0.09648865
H       -2.60309536       0.34051885      -0.46671589
H       -1.47703537       0.08000286      -1.80917097
H       -2.59048956      -1.87103468      -1.45856142
18
Properties=species:S:1:pos:R:3 relative_energy_eV=0.19966648873014492 branch=right pbc="F F F"
O        0.33625846       2.29439251       0.20365296
C       -0.50404492       1.49903608       0.54643385
O       -1.49730869       1.88755720       1.36899094
C       -0.54527647       0.03913829       0.10830281
O        0.63007190      -0.32197279      -0.59516584
P        2.01894692      -0.49397579       0.25434538
O        1.82154320      -0.97938089       1.63761917
O        2.84125330      -1.46948954      -0.72170276
O        2.80827343       0.87690963       0.04316796
C       -1.73653119      -0.24250604      -0.80082183
O       -2.01664045      -1.62869946      -0.73130987
H       -2.05067556       1.13032503       1.60859030
H       -0.64850812      -0.59007237       0.99751129
H        2.98457893      -2.32127943      -0.29115303
H        2.18782915       1.62846647       0.09036021
H       -2.60185140       0.34240260      -0.46749609
H       -1.47787619       0.08237986      -1.81118922
H       -2.59903778      -1.86618921      -1.45969074
18
Properties=species:S:1:pos:R:3 relative_energy_eV=0.199516852349916 branch=right pbc="F F F"
O        0.33559495       2.29170717       0.20428128
C       -0.50238230       1.49442315       0.54841880
O       -1.49290887       1.87990313       1.37570531
C       -0.54514385       0.03539115       0.10622296
O        0.63045826      -0.32665098      -0.59667930
P        2.01974282      -0.49076001       0.25416963
O        1.82172581      -0.96685438       1.64059364
O        2.84608526      -1.47096470      -0.71377378
O        2.80643705       0.87983744       0.03350448
C       -1.73702541      -0.24099850      -0.80400477
O       -2.02275861      -1.62609258      -0.73633290
H       -2.04324922       1.12132466       1.61779520
H       -0.65009434      -0.59647652       0.99340635
H        2.98597863      -2.32019388      -0.27746878
H        2.18551295       1.63080893       0.08157442
H       -2.59953347       0.34800583      -0.47041488
H       -1.47765937       0.08373529      -1.81415436
H       -2.60977567      -1.85910310      -1.46239775
18
Properties=species:S:1:pos:R:3 relative_energy_eV=0.19938960669242078 branch=right pbc="F F F"
O        0.33513507       2.28892240       0.20553011
C       -0.50108184       1.49006330       0.55038212
O       -1.48921961       1.87276959       1.38144250
C       -0.54501969       0.03205597       0.10428633
O        0.63108867      -0.33004623      -0.59818182
P        2.02062485      -0.48791934       0.25373679
O        1.82213092      -0.95570951       1.64279173
O        2.84995556      -1.47266467      -0.70707933
O        2.80551907       0.88207012       0.02472586
C       -1.73763472      -0.23981836      -0.80661557
O       -2.02886178      -1.62366803      -0.74012836
H       -2.03830723       1.11351724       1.62412994
H       -0.65090147      -0.60194058       0.98981934
H        2.98821808      -2.31880522      -0.26486354
H        2.18469635       1.63301153       0.07423881
H       -2.59772189       0.35231500      -0.47260456
H       -1.47755621       0.08543165      -1.81642868
H       -2.62005946      -1.85254277      -1.46473602
18
Properties=species:S:1:pos:R:3 relative_energy_eV=0.19926474349631462 branch=right pbc="F F F"
O        0.33453636       2.28501236       0.20590752
C       -0.49963816       1.48482923       0.55250258
O       -1.48464210       1.86478219       1.38828571
C       -0.54508187       0.02813462       0.10262351
O        0.63157443      -0.33454307      -0.59904062
P        2.02184978      -0.48491122       0.25363318
O        1.82383271      -0.94423644       1.64555067
O        2.85437383      -1.47373995      -0.70020500
O        2.80378102       0.88498724       0.01550056
C       -1.73822438      -0.23809899      -0.80947584
O       -2.03799554      -1.62002398      -0.74239840
H       -2.03337201       1.10506868       1.63068322
H       -0.65297556      -0.60781405       0.98646283
H        2.99159901      -2.31703587      -0.25264274
H        2.18224338       1.63521443       0.06587493
H       -2.59544959       0.35877257      -0.47648573
H       -1.47539353       0.08607933      -1.81894834
H       -2.63001307      -1.84543507      -1.46738236
18
Properties=species:S:1:pos:R:3 relative_energy_eV=0.1990969583930564 branch=right pbc="F F F"
O        0.33412110       2.28013378       0.20800422
C       -0.49813736       1.47852586       0.55563411
O       -1.47985806       1.85520566       1.39634727
C       -0.54516868       0.02379719       0.10046556
O        0.63216630      -0.33815698      -0.60079564
P        2.02280251      -0.48085437       0.25276116
O        1.82474093      -0.92939461       1.64815218
O        2.85728185      -1.47670672      -0.69192437
O        2.80297210       0.88781310       0.00261219
C       -1.73858007      -0.23609028      -0.81299726
O       -2.04547515      -1.61628916      -0.74713494
H       -2.02837072       1.09481805       1.63740201
H       -0.65505004      -0.61506373       0.98181345
H        2.99625193      -2.31486101      -0.23550857
H        2.18156606       1.63798529       0.05602418
H       -2.59343141       0.36354920      -0.47955391
H       -1.47312277       0.08921060      -1.82150215
H       -2.64370381      -1.83657994      -1.46935373
18
Properties=species:S:1:pos:R:3 relative_energy_eV=0.19887356578328763 branch=right pbc="F F F"
O        0.33357454       2.27284716       0.21033499
C       -0.49605512       1.46958375       0.56019514
O       -1.47302751       1.84224609       1.40781797
C       -0.54552650       0.01779541       0.09810136
O        0.63243828      -0.34360861      -0.60258511
P        2.02386082      -0.47506571       0.25190579
O        1.82605279      -0.90893036       1.65215348
O        2.86066520      -1.48039973      -0.68044380
O        2.80132209       0.89192810      -0.01552150
C       -1.73858732      -0.23279736      -0.81795957
O       -2.05525939      -1.61087103      -0.75387189
H       -2.02089688       1.08075716       1.64722012
H       -0.65956056      -0.62534911       0.97561151
H        3.00260722      -2.31203940      -0.21298588
H        2.17939671       1.64152792       0.04137364
H       -2.59060295       0.37060774      -0.48451054
H       -1.46812816       0.09333880      -1.82494045
H       -2.66126850      -1.82452902      -1.47144935
18
Properties=species:S:1:pos:R:3 relative_energy_eV=0.19865830118578742 branch=right pbc="F F F"
O        0.33314898       2.26610157       0.21366674
C       -0.49427456       1.46132871       0.56485883
O       -1.46716996       1.83014053       1.41865645
C       -0.54584471       0.01262103       0.09561593
O        0.63259714      -0.34685239      -0.60527228
P        2.02390191      -0.46880486       0.25057523
O        1.82449163      -0.88726706       1.65547537
O        2.86146267      -1.48553003      -0.66839210
O        2.80111922       0.89491928      -0.03458167
C       -1.73792137      -0.22988159      -0.82284971
O       -2.05816102      -1.60725006      -0.76466171
H       -2.01304507       1.06698563       1.65719065
H       -0.66337268      -0.63534031       0.96883881
H        3.00670591      -2.31000842      -0.18907233
H        2.18003813       1.64498110       0.02678022
H       -2.58888676       0.37287153      -0.48667379
H       -1.46446092       0.10069713      -1.82761074
H       -2.67932371      -1.81267008      -1.47209783
18
Properties=species:S:1:pos:R:3 relative_energy_eV=0.19844000273951679 branch=right pbc="F F F"
O        0.33271739       2.26015377       0.21554110
C       -0.49268725       1.45420015       0.56871491
O       -1.46175447       1.82007534       1.42793564
C       -0.54627594       0.00815737       0.09396463
O        0.63235566      -0.35021734      -0.60703085
P        2.02366383      -0.46326135       0.25003621
O        1.82232013      -0.86802646       1.65884722
O        2.86254610      -1.48892032      -0.65729776
O        2.80066136       0.89734127      -0.05031853
C       -1.73710428      -0.22728818      -0.82687177
O       -2.05952612      -1.60459138      -0.77486687
H       -2.00520519       1.05537494       1.66661273
H       -0.66764459      -0.64384198       0.96340706
H        3.00820495      -2.30884902      -0.17071455
H        2.17999907       1.64763148       0.01311325
H       -2.58763725       0.37463416      -0.48851045
H       -1.46074837       0.10708418      -1.82958294
H       -2.69288012      -1.80261498      -1.47253283
18
Properties=species:S:1:pos:R:3 relative_energy_eV=0.19822161838237662 branch=right pbc="F F F"
O        0.33226624       2.25023040       0.22159073
C       -0.48965176       1.44131650       0.57592202
O       -1.45208453       1.80025793       1.44597025
C       -0.54688767      -0.00003601       0.08886796
O        0.63235093      -0.35552980      -0.61280424
P        2.02296431      -0.45258782       0.24738395
O        1.81721440      -0.82828027       1.66471463
O        2.86368526      -1.49820385      -0.63593924
O        2.80174683       0.90109775      -0.08216661
C       -1.73670341      -0.22309673      -0.83516606
O       -2.05975000      -1.60108009      -0.79772186
H       -1.98992176       1.03212892       1.68569793
H       -0.67294864      -0.66015448       0.95132520
H        3.01339018      -2.30648380      -0.12970559
H        2.18403238       1.65314927      -0.01003456
H       -2.58641538       0.37623444      -0.49025707
H       -1.45892130       0.12110991      -1.83419535
H       -2.72336099      -1.78303077      -1.47303561
18
Properties=species:S:1:pos:R:3 relative_energy_eV=0.19772800055579864 branch=right pbc="F F F"
O        0.33189155       2.24533074       0.22319864
C       -0.48836071       1.43548489       0.57901622
O       -1.44695756       1.79162293       1.45433367
C       -0.54750947      -0.00351698       0.08744607
O        0.63187569      -0.35765234      -0.61474598
P        2.02163010      -0.44685139       0.24715912
O        1.81070298      -0.80608264       1.66747287
O        2.86389559      -1.50089778      -0.62346676
O        2.80318350       0.90110847      -0.09594136
C       -1.73560917      -0.22188095      -0.83838415
O       -2.05254372      -1.60183209      -0.81408498
H       -1.98140325       1.02190641       1.69566136
H       -0.67588433      -0.66659148       0.94684290
H        3.00792565      -2.30705205      -0.11400650
H        2.18806803       1.65494526      -0.02418025
H       -2.58738832       0.37185236      -0.48868526
H       -1.45844944       0.13066498      -1.83459999
H       -2.73406187      -1.77351686      -1.47258895
18
Properties=species:S:1:pos:R:3 relative_energy_eV=0.1970800910894468 branch=right pbc="F F F"
O        0.33071574       2.22433523       0.23126831
C       -0.48172819       1.40884760       0.59272150
O       -1.42396713       1.75162174       1.49171866
C       -0.54994981      -0.02155192       0.07966127
O        0.63086686      -0.37567574      -0.62132143
P        2.02188708      -0.42706517       0.24451870
O        1.80455413      -0.72590437       1.68065780
O        2.87315934      -1.51197447      -0.58127322
O        2.80255255       0.90818214      -0.15367159
C       -1.73629355      -0.21376732      -0.85392887
O       -2.06410368      -1.59261944      -0.85471415
H       -1.95174791       0.97756441       1.73343078
H       -0.68978210      -0.69736157       0.92751694
H        3.01608455      -2.30130925      -0.04356833
H        2.19156107       1.66417843      -0.07339779
H       -2.58427531       0.38336828      -0.49900206
H       -1.45225814       0.15111649      -1.84376334
H       -2.78626988      -1.73494383      -1.47640597
18
Properties=species:S:1:pos:R:3 relative_energy_eV=0.19657144207667443 branch=right pbc="F F F"
O        0.32959800       2.22085660       0.23227982
C       -0.48094813       1.40405519       0.59554373
O       -1.41750163       1.74316946       1.50137869
C       -0.55200751      -0.02564840       0.07973167
O        0.62977707      -0.38362761      -0.61906934
P        2.02261281      -0.42481020       0.24470641
O        1.80571988      -0.70648779       1.68260769
O        2.87751472      -1.51058685      -0.57414846
O        2.80297203       0.90620911      -0.16178509
C       -1.73800138      -0.21330500      -0.85659927
O       -2.07157194      -1.59054411      -0.86264633
H       -1.94893350       0.97039607       1.74000605
H       -0.69356236      -0.70058627       0.92806494
H        3.01853952      -2.29878493      -0.03503475
H        2.19476979       1.66404982      -0.08498032
H       -2.58500716       0.38923687      -0.50641724
H       -1.45125418       0.15126310      -1.84523980
H       -2.79171033      -1.72781390      -1.47795110
18
Properties=species:S:1:pos:R:3 relative_energy_eV=0.19622201089805458 branch=right pbc="F F F"
O        0.32744250       2.20853968       0.24229417
C       -0.47734730       1.38679258       0.60663576
O       -1.40119663       1.71324180       1.52888377
C       -0.55351877      -0.03685457       0.07321931
O        0.63121387      -0.38988192      -0.62570263
P        2.02087496      -0.40884301       0.24198363
O        1.78959431      -0.63534685       1.68701142
O        2.88080375      -1.52137192      -0.53662141
O        2.80953920       0.90365072      -0.20564243
C       -1.73666296      -0.21177688      -0.86792847
O       -2.05814614      -1.59173090      -0.91187343
H       -1.93007248       0.93796369       1.76672132
H       -0.69530162      -0.71874169       0.91552882
H        3.00669243      -2.29760023       0.02205817
H        2.21419977       1.67061039      -0.12627015
H       -2.58801139       0.37563251      -0.50195673
H       -1.45564231       0.18067691      -1.84832000
H       -2.83345490      -1.69791929      -1.47957330
18
Properties=species:S:1:pos:R:3 relative_energy_eV=0.19527955580269918 branch=right pbc="F F F"
O        0.32717299       2.21931386       0.23280018
C       -0.47991583       1.40042163       0.59804995
O       -1.41156306       1.73511401       1.50955458
C       -0.55181182      -0.02842806       0.07793262
O        0.63142682      -0.38459323      -0.62032742
P        2.02235167      -0.42087174       0.24467328
O        1.80044208      -0.68849649       1.68223957
O        2.87906952      -1.51323004      -0.56288725
O        2.80354290       0.90537075      -0.17248523
C       -1.73674147      -0.21371173      -0.86004871
O       -2.06729020      -1.59051119      -0.87514576
H       -1.94396702       0.96190705       1.74670304
H       -0.69187449      -0.70441302       0.92568824
H        3.01003121      -2.29928050      -0.02087524
H        2.20017796       1.66661913      -0.09533208
H       -2.58506079       0.38228273      -0.50325551
H       -1.45229960       0.16054567      -1.84623441
H       -2.80268495      -1.72099772      -1.48060242
18
Properties=species:S:1:pos:R:3 relative_energy_eV=0.195132466735231 branch=right pbc="F F F"
O        0.32301122       2.20664119       0.23131101
C       -0.47566218       1.38312374       0.60554920
O       -1.39347072       1.70870639       1.53606581
C       -0.55405522      -0.04117202       0.07393231
O        0.63025731      -0.40027435      -0.62180979
P        2.02317863      -0.40955324       0.24420905
O        1.80070905      -0.64205116       1.69138879
O        2.88683447      -1.51720169      -0.53823068
O        2.79926679       0.91138315      -0.20593569
C       -1.73780525      -0.20743512      -0.87058891
O       -2.08746881      -1.58024871      -0.89098920
H       -1.92200124       0.93268771       1.77338721
H       -0.70386648      -0.72446720       0.91475941
H        3.02009398      -2.29344136       0.01968705
H        2.19702171       1.67295327      -0.12466736
H       -2.58013032       0.39936724      -0.51717477
H       -1.44267722       0.16621004      -1.85390349
H       -2.83222972      -1.69818703      -1.48654226
18
Properties=species:S:1:pos:R:3 relative_energy_eV=0.19450738213708973 branch=right pbc="F F F"
O        0.32250133       2.20901432       0.23267557
C       -0.47636495       1.38530923       0.60531895
O       -1.39450730       1.71067339       1.53368596
C       -0.55420669      -0.03966597       0.07418914
O        0.63039786      -0.39742138      -0.62196149
P        2.02202027      -0.41016479       0.24347612
O        1.79761531      -0.64209415       1.68871082
O        2.88323552      -1.51775663      -0.53950218
O        2.80167835       0.90800413      -0.20397571
C       -1.73761416      -0.20896733      -0.86973068
O       -2.08087502      -1.58304248      -0.89395685
H       -1.92373922       0.93488284       1.77017470
H       -0.70120714      -0.72196683       0.91602612
H        3.01715991      -2.29374307       0.01805190
H        2.20313121       1.67247605      -0.12126488
H       -2.58211014       0.39288028      -0.51348471
H       -1.44558749       0.16920764      -1.85230485
H       -2.83052162      -1.70058435      -1.48568024
18
Properties=species:S:1:pos:R:3 relative_energy_eV=0.19408283579832641 branch=right pbc="F F F"
O        0.31596511       2.20769505       0.22556793
C       -0.47540891       1.38032774       0.60649562
O       -1.38337770       1.69974463       1.54755430
C       -0.55562275      -0.04385664       0.07195894
O        0.63018740      -0.40246915      -0.62236668
P        2.02018257      -0.40495039       0.24461214
O        1.79100747      -0.61879428       1.69115144
O        2.88445896      -1.51886027      -0.52536424
O        2.80051584       0.90789359      -0.21552412
C       -1.73728634      -0.20812055      -0.87508383
O       -2.08121549      -1.58187354      -0.90721472
H       -1.90701422       0.92138006       1.78932685
H       -0.70420960      -0.72759232       0.91219083
H        3.01096173      -2.29385627       0.03382407
H        2.20686001       1.67567984      -0.13332105
H       -2.58178950       0.39264529      -0.51712306
H       -1.44330295       0.17518667      -1.85541669
H       -2.83990540      -1.69313864      -1.49081990
18
Properties=species:S:1:pos:R:3 relative_energy_eV=0.1935955853696214 branch=right pbc="F F F"
O        0.31015278       2.20258435       0.22095065
C       -0.47258995       1.37110028       0.61006090
O       -1.36667611       1.68410428       1.56428815
C       -0.55807836      -0.05156711       0.06967501
O        0.62883687      -0.41278182      -0.62186396
P        2.01847436      -0.39698106       0.24535783
O        1.78619015      -0.58534300       1.69490968
O        2.88626662      -1.51905881      -0.50760499
O        2.79716908       0.90949697      -0.23509316
C       -1.73781737      -0.20580798      -0.88217488
O       -2.08955380      -1.57755957      -0.92076233
H       -1.88377769       0.90293175       1.81052226
H       -0.71131051      -0.73881808       0.90627729
H        3.00905424      -2.29117938       0.05647245
H        2.20792757       1.68027295      -0.14789239
H       -2.58005053       0.39813291      -0.52468739
H       -1.43861512       0.18037882      -1.85981814
H       -2.85459588      -1.68286480      -1.49816898
18
Properties=species:S:1:pos:R:3 relative_energy_eV=0.1932636778583401 branch=right pbc="F F F"
O        0.29630506       2.20454691       0.20091591
C       -0.47269731       1.36757952       0.60773348
O       -1.34938404       1.67419771       1.58204892
C       -0.56057994      -0.05561624       0.06766959
O        0.62779566      -0.41969098      -0.62024178
P        2.01531534      -0.39195646       0.24876503
O        1.77894716      -0.56655576       1.69867101
O        2.88755319      -1.51655361      -0.49385402
O        2.79182930       0.91137351      -0.24116903
C       -1.73734338      -0.20453521      -0.88872658
O       -2.09674765      -1.57435629      -0.92758395
H       -1.85246859       0.88802667       1.84235585
H       -0.71765852      -0.74414856       0.90232868
H        3.00010554      -2.29237999       0.06726769
H        2.20528478       1.68392537      -0.15601540
H       -2.57723198       0.40386811      -0.53503168
H       -1.43127422       0.17926249      -1.86501657
H       -2.85674389      -1.67994655      -1.50966907
18
Properties=species:S:1:pos:R:3 relative_energy_eV=0.1930170584055304 branch=right pbc="F F F"
O        0.29802023       2.20348567       0.20274795
C       -0.47202826       1.36756230       0.60754692
O       -1.34901225       1.67616366       1.57922316
C       -0.56024215      -0.05583049       0.06771797
O        0.62796486      -0.42035178      -0.61991111
P        2.01578420      -0.39150252       0.24951860
O        1.77927426      -0.56705055       1.69962206
O        2.88981276      -1.51454649      -0.49313186
O        2.79048512       0.91308363      -0.24100736
C       -1.73738599      -0.20484716      -0.88799675
O       -2.09705261      -1.57453054      -0.92668047
H       -1.85033857       0.89017683       1.84094039
H       -0.71802038      -0.74453926       0.90206525
H        2.99583460      -2.29436305       0.06329869
H        2.20141993       1.68378854      -0.15474125
H       -2.57672893       0.40320778      -0.53292251
H       -1.43256635       0.17870031      -1.86459042
H       -2.85421395      -1.68156623      -1.51125122
18
Properties=species:S:1:pos:R:3 relative_energy_eV=0.19279484347134712 branch=right pbc="F F F"
O        0.29466569       2.20189072       0.20046522
C       -0.47224590       1.36471012       0.60857797
O       -1.34434328       1.67181471       1.58488119
C       -0.56085034      -0.05783337       0.06663627
O        0.62804996      -0.42177085      -0.62032544
P        2.01534542      -0.38816127       0.25043200
O        1.77637081      -0.55584264       1.70225225
O        2.89205378      -1.51438733      -0.48543104
O        2.79008651       0.91438949      -0.24774523
C       -1.73694217      -0.20443472      -0.89036689
O       -2.09780653      -1.57390459      -0.93306853
H       -1.83904053       0.88406488       1.85271087
H       -0.72039596      -0.74831813       0.89906022
H        2.99021942      -2.29633138       0.07097936
H        2.20013263       1.68477309      -0.16288052
H       -2.57584073       0.40333029      -0.53457031
H       -1.43109553       0.18075502      -1.86583256
H       -2.85735661      -1.67770340      -1.51532668
18
Properties=species:S:1:pos:R:3 relative_energy_eV=0.19254719015589217 branch=right pbc="F F F"
O        0.29102258       2.20514148       0.19677580
C       -0.47444648       1.36771804       0.60695217
O       -1.34543844       1.67596198       1.58342027
C       -0.56084133      -0.05551450       0.06673522
O        0.62840543      -0.41768903      -0.62042707
P        2.01456320      -0.38841324       0.25176149
O        1.77401581      -0.56045124       1.70254139
O        2.89118159      -1.51333550      -0.48540632
O        2.79079018       0.91410130      -0.24389544
C       -1.73605389      -0.20591311      -0.88981940
O       -2.09262057      -1.57638887      -0.93359269
H       -1.83289065       0.88695118       1.85952344
H       -0.71917083      -0.74578696       0.89915638
H        2.98045601      -2.30069666       0.06610756
H        2.19906457       1.68373595      -0.16230950
H       -2.57646177       0.39883890      -0.53319511
H       -1.43114107       0.18025393      -1.86512357
H       -2.84942762      -1.68147292      -1.51875649
18
Properties=species:S:1:pos:R:3 relative_energy_eV=0.19225533322241972 branch=right pbc="F F F"
O        0.28619646       2.20631028       0.19320523
C       -0.47579914       1.36736116       0.60715625
O       -1.34245030       1.67390878       1.58870045
C       -0.56151141      -0.05581962       0.06603253
O        0.62847084      -0.41675826      -0.62081502
P        2.01370689      -0.38616519       0.25283102
O        1.77128411      -0.55271175       1.70414295
O        2.89086921      -1.51386070      -0.47888487
O        2.79118543       0.91359961      -0.24855000
C       -1.73539568      -0.20639142      -0.89172545
O       -2.08940930      -1.57738979      -0.93947974
H       -1.82333055       0.88359042       1.87198954
H       -0.71958794      -0.74729579       0.89730671
H        2.97047047      -2.30360625       0.07044953
H        2.20045564       1.68419611      -0.16836781
H       -2.57719289       0.39567279      -0.53388175
H       -1.42985129       0.18275935      -1.86578612
H       -2.84710368      -1.68035901      -1.52387524
18
Properties=species:S:1:pos:R:3 relative_energy_eV=0.19168862689548405 branch=right pbc="F F F"
O        0.28095850       2.20741516       0.19384785
C       -0.47792818       1.36646032       0.60968022
O       -1.34101243       1.66968060       1.59594117
C       -0.56233070      -0.05625918       0.06596462
O        0.62834418      -0.41446168      -0.62132601
P        2.01307071      -0.38249584       0.25246858
O        1.77078791      -0.53956490       1.70462376
O        2.88811851      -1.51691788      -0.47060978
O        2.79295318       0.91126157      -0.26020609
C       -1.73437316      -0.20684020      -0.89349482
O       -2.08539241      -1.57852514      -0.94758400
H       -1.81614652       0.87820394       1.88405255
H       -0.71881786      -0.75006299       0.89532933
H        2.95616995      -2.30607691       0.08036150
H        2.20630485       1.68454511      -0.17754245
H       -2.57850307       0.39110464      -0.53386642
H       -1.42770388       0.18731431      -1.86530480
H       -2.84349255      -1.67774020      -1.53188689
18
Properties=species:S:1:pos:R:3 relative_energy_eV=0.1909882845066022 branch=right pbc="F F F"
O        0.27840029       2.20576376       0.19955528
C       -0.47864685       1.36289030       0.61471991
O       -1.33931545       1.66166656       1.60424414
C       -0.56338695      -0.05844840       0.06606907
O        0.62758791      -0.41493033      -0.62124641
P        2.01308420      -0.37705810       0.25065384
O        1.77313680      -0.51769583       1.70501404
O        2.88528948      -1.52109675      -0.45977964
O        2.79374839       0.90860873      -0.28049208
C       -1.73379593      -0.20624974      -0.89551872
O       -2.08419273      -1.57766668      -0.95676744
H       -1.81016145       0.86826955       1.89629406
H       -0.72003158      -0.75547469       0.89280208
H        2.94003620      -2.30667327       0.09650212
H        2.21429142       1.68614426      -0.18980425
H       -2.57908574       0.38881614      -0.53399236
H       -1.42516493       0.19285751      -1.86488527
H       -2.84078590      -1.67268232      -1.54291992
18
Properties=species:S:1:pos:R:3 relative_energy_eV=0.19025286895339377 branch=right pbc="F F F"
O        0.28216609       2.20060604       0.21442491
C       -0.47802556       1.35760244       0.62285399
O       -1.34160290       1.65339987       1.61101276
C       -0.56358639      -0.06151074       0.06783798
O        0.62662731      -0.41647378      -0.62060147
P        2.01526680      -0.37175940       0.24541613
O        1.78317594      -0.49700769       1.70202957
O        2.88140336      -1.52713930      -0.45401276
O        2.79498728       0.90580108      -0.30533876
C       -1.73369474      -0.20502519      -0.89454948
O       -2.08771494      -1.57522978      -0.96052979
H       -1.82072240       0.86231483       1.89123782
H       -0.72094228      -0.76224176       0.89144708
H        2.92910363      -2.30373968       0.11429558
H        2.22487531       1.68854384      -0.19788053
H       -2.57797348       0.39006855      -0.53118743
H       -1.42365420       0.19588917      -1.86244933
H       -2.83868158      -1.66705792      -1.55355773
18
Properties=species:S:1:pos:R:3 relative_energy_eV=0.18958212220240966 branch=right pbc="F F F"
O        0.28673078       2.19537401       0.22568506
C       -0.47652724       1.35256293       0.62892870
O       -1.34452078       1.64698572       1.61229310
C       -0.56401515      -0.06462459       0.06949594
O        0.62550985      -0.42029840      -0.61878379
P        2.01695585      -0.36791878       0.24156161
O        1.79098006      -0.48047329       1.70030726
O        2.88025372      -1.53012289      -0.44986694
O        2.79414981       0.90480215      -0.32318536
C       -1.73449007      -0.20291961      -0.89360486
O       -2.09459764      -1.57143911      -0.95927699
H       -1.82614974       0.85406058       1.89104376
H       -0.72461880      -0.76768183       0.89072574
H        2.92239481      -2.30121309       0.12589858
H        2.23267570       1.69108923      -0.20467784
H       -2.57561044       0.39630774      -0.53047531
H       -1.42269652       0.19618793      -1.86146236
H       -2.83541697      -1.66363819      -1.56415768
18
Properties=species:S:1:pos:R:3 relative_energy_eV=0.18890312825533329 branch=right pbc="F F F"
O        0.29170630       2.19041789       0.23279294
C       -0.47522863       1.34932422       0.63217218
O       -1.34756150       1.64553854       1.61169295
C       -0.56446382      -0.06668037       0.07112928
O        0.62431760      -0.42446269      -0.61687755
P        2.01858446      -0.36693343       0.23826567
O        1.79817740      -0.47570947       1.69779877
O        2.87969197      -1.53100226      -0.45242902
O        2.79388399       0.90491934      -0.33051827
C       -1.73615765      -0.20141385      -0.89125938
O       -2.10328307      -1.56819524      -0.95102781
H       -1.83581669       0.85399465       1.88346548
H       -0.72913561      -0.77038815       0.89100954
H        2.92638665      -2.29823838       0.12821309
H        2.23820239       1.69373828      -0.20240114
H       -2.57320365       0.40449468      -0.53004650
H       -1.42323513       0.19167957      -1.86107864
H       -2.83185797      -1.66404294      -1.57045297
18
Properties=species:S:1:pos:R:3 relative_energy_eV=0.18808060829542228 branch=right pbc="F F F"
O        0.29427273       2.18371736       0.23760471
C       -0.47461601       1.34405810       0.63643046
O       -1.34951770       1.64290516       1.61318245
C       -0.56620059      -0.07031346       0.07377402
O        0.62226433      -0.43202883      -0.61305448
P        2.02026832      -0.36454559       0.23529528
O        1.80619827      -0.46550951       1.69634205
O        2.88186839      -1.53046951      -0.45287972
O        2.79303703       0.90651749      -0.34024547
C       -1.73889615      -0.19876801      -0.88899381
O       -2.11855859      -1.56287243      -0.93726757
H       -1.83941764       0.85197041       1.88246632
H       -0.73850743      -0.77531629       0.89073398
H        2.92989347      -2.29774074       0.12916060
H        2.24440539       1.69780407      -0.20249663
H       -2.56943466       0.41931829      -0.53250831
H       -1.42284419       0.18340463      -1.86218659
H       -2.82320819      -1.66509086      -1.58490874
18
Properties=species:S:1:pos:R:3 relative_energy_eV=0.18771580798056675 branch=right pbc="F F F"
O        0.29348158       2.18475593       0.23538307
C       -0.47603580       1.34634839       0.63501748
O       -1.35213500       1.64768480       1.61018373
C       -0.56732009      -0.06861950       0.07515770
O        0.62115263      -0.43248123      -0.61120996
P        2.02009712      -0.36624507       0.23569529
O        1.80701612      -0.46980543       1.69641407
O        2.88254135      -1.52873663      -0.45676294
O        2.79356662       0.90598759      -0.33531113
C       -1.74002768      -0.19885567      -0.88717860
O       -2.11885815      -1.56312113      -0.92929097
H       -1.83856238       0.85678488       1.88373472
H       -0.74126654      -0.77187367       0.89300871
H        2.92832737      -2.30163893       0.11805463
H        2.24495421       1.69747463      -0.19715112
H       -2.57058466       0.42123108      -0.53309340
H       -1.42435916       0.17923733      -1.86228205
H       -2.81098084      -1.67108703      -1.58992075
18
Properties=species:S:1:pos:R:3 relative_energy_eV=0.1873487056182057 branch=right pbc="F F F"
O        0.28750025       2.18447163       0.22957219
C       -0.47753593       1.34512709       0.63554233
O       -1.34673941       1.64526838       1.61763412
C       -0.56975345      -0.06977754       0.07635667
O        0.61953180      -0.43648876      -0.60844564
P        2.01950636      -0.36308012       0.23820987
O        1.80499628      -0.45518211       1.70006219
O        2.88637792      -1.52710126      -0.44873158
O        2.79260428       0.90691160      -0.34085528
C       -1.74022767      -0.19824120      -0.88889999
O       -2.11868714      -1.56275326      -0.93156372
H       -1.82250817       0.85270133       1.90165452
H       -0.74627639      -0.77258565       0.89394293
H        2.91389636      -2.31008103       0.11560393
H        2.24227005       1.69797554      -0.20578619
H       -2.57220825       0.42255715      -0.53789450
H       -1.42180745       0.17935510      -1.86366686
H       -2.79993261      -1.67203657      -1.60228644
18
Properties=species:S:1:pos:R:3 relative_energy_eV=0.18708594735653605 branch=right pbc="F F F"
O        0.28579104       2.18918182       0.22785122
C       -0.47983394       1.35022104       0.63418091
O       -1.35165650       1.65180551       1.61283188
C       -0.56964463      -0.06594047       0.07883315
O        0.61941891      -0.43200124      -0.60690990
P        2.01951389      -0.36571722       0.23969177
O        1.80510277      -0.46427527       1.70010955
O        2.88579899      -1.52654126      -0.45293138
O        2.79375821       0.90550852      -0.33320944
C       -1.73946338      -0.19918020      -0.88625981
O       -2.11243700      -1.56543475      -0.92723060
H       -1.82504399       0.85924421       1.90034657
H       -0.74324459      -0.76708949       0.89878324
H        2.90443539      -2.31649253       0.10139644
H        2.24046019       1.69552179      -0.20391697
H       -2.57488226       0.41815350      -0.53672940
H       -1.42127730       0.17887653      -1.86104420
H       -2.78578893      -1.67880010      -1.60534454
18
Properties=species:S:1:pos:R:3 relative_energy_eV=0.18680303604560322 branch=right pbc="F F F"
O        0.28455972       2.19041805       0.22837624
C       -0.48041097       1.35122030       0.63521169
O       -1.35188301       1.65200863       1.61446794
C       -0.56988986      -0.06537500       0.08072355
O        0.61894907      -0.43098343      -0.60569202
P        2.01951762      -0.36478428       0.24024067
O        1.80491480      -0.45867978       1.70110544
O        2.88471030      -1.52727471      -0.45035840
O        2.79456844       0.90399361      -0.33674439
C       -1.73874726      -0.19951522      -0.88520194
O       -2.10816039      -1.56665045      -0.92951210
H       -1.82537253       0.85940584       1.90227215
H       -0.74178653      -0.76617437       0.90174791
H        2.89154216      -2.32093322       0.09764644
H        2.24151570       1.69531455      -0.20818492
H       -2.57668416       0.41433384      -0.53558357
H       -1.41951489       0.18193392      -1.85836104
H       -2.77682120      -1.68121789      -1.61170514
18
Properties=species:S:1:pos:R:3 relative_energy_eV=0.18643105068986188 branch=right pbc="F F F"
O        0.28421379       2.19088542       0.22822475
C       -0.47972839       1.35205517       0.63729950
O       -1.35040884       1.65337397       1.61715500
C       -0.56935560      -0.06580567       0.08568182
O        0.61848743      -0.43121209      -0.60221927
P        2.02056148      -0.36108921       0.24264151
O        1.80541134      -0.44730051       1.70368438
O        2.88683360      -1.52543181      -0.44397703
O        2.79346629       0.90507177      -0.34197772
C       -1.73709215      -0.20096995      -0.88134967
O       -2.10236297      -1.56906005      -0.93227950
H       -1.82598166       0.86146883       1.90460801
H       -0.73774570      -0.76489667       0.90922416
H        2.85560617      -2.33268775       0.08566993
H        2.23832968       1.69568498      -0.21852359
H       -2.57799025       0.40825972      -0.53132757
H       -1.41596845       0.18582490      -1.85178901
H       -2.75526843      -1.68713062      -1.63029706
18
Properties=species:S:1:pos:R:3 relative_energy_eV=0.18612936252247891 branch=right pbc="F F F"
O        0.28872266       2.19011957       0.23320246
C       -0.47846675       1.35274446       0.63931137
O       -1.35281676       1.65617190       1.61515740
C       -0.56852453      -0.06582646       0.08874802
O        0.61834761      -0.43024809      -0.60100170
P        2.02072305      -0.36083423       0.24304338
O        1.80457863      -0.44610271       1.70427810
O        2.88488652      -1.52581005      -0.44515150
O        2.79674557       0.90376921      -0.34288783
C       -1.73710542      -0.20233796      -0.87763753
O       -2.09783978      -1.57129300      -0.93444546
H       -1.84077171       0.86735231       1.89158631
H       -0.73350721      -0.76363636       0.91445312
H        2.84965687      -2.33463944       0.07694830
H        2.24256467       1.69512235      -0.22061976
H       -2.57971693       0.40369408      -0.52632503
H       -1.41698311       0.18960558      -1.84618723
H       -2.74948598      -1.69081071      -1.63202374
18
Properties=species:S:1:pos:R:3 relative_energy_eV=0.18594028240113403 branch=right pbc="F F F"
O        0.29015805       2.19079107       0.23130481
C       -0.47792873       1.35439364       0.63816597
O       -1.35259891       1.66054258       1.61277259
C       -0.56812172      -0.06516424       0.08980844
O        0.61834353      -0.43027874      -0.60024103
P        2.02032245      -0.36029002       0.24434054
O        1.80121010      -0.44535563       1.70565966
O        2.88725077      -1.52291101      -0.44486312
O        2.79810206       0.90362683      -0.34000144
C       -1.73766294      -0.20418982      -0.87480141
O       -2.09489654      -1.57376774      -0.93327289
H       -1.84241635       0.87270192       1.88905715
H       -0.73274425      -0.76099957       0.91710829
H        2.83792278      -2.34032641       0.06510278
H        2.24448077       1.69585404      -0.21695906
H       -2.58059004       0.39913686      -0.52013670
H       -1.42166363       0.18963104      -1.84362701
H       -2.73815991      -1.69635429      -1.63896891
18
Properties=species:S:1:pos:R:3 relative_energy_eV=0.18585482214257354 branch=right pbc="F F F"
O        0.29337807       2.19057998       0.23113264
C       -0.47732279       1.35604186       0.63651806
O       -1.35365486       1.66527085       1.60902909
C       -0.56789474      -0.06422976       0.08966920
O        0.61816146      -0.42998075      -0.60047917
P        2.02003991      -0.36146289       0.24495570
O        1.80062014      -0.45272833       1.70565596
O        2.88742017      -1.52108852      -0.44859362
O        2.79815208       0.90447439      -0.33464887
C       -1.73846611      -0.20562546      -0.87340441
O       -2.09412539      -1.57534299      -0.93012498
H       -1.84585329       0.87870797       1.88478007
H       -0.73234488      -0.75874223       0.91775436
H        2.83978248      -2.34023244       0.05844835
H        2.24451126       1.69602526      -0.21110414
H       -2.58125101       0.39734845      -0.51810165
H       -1.42473618       0.18763773      -1.84329135
H       -2.73540887      -1.69961257      -1.63774664
18
Properties=species:S:1:pos:R:3 relative_energy_eV=0.18583160997877712 branch=right pbc="F F F"
O        0.29436404       2.19122957       0.23087981
C       -0.47733568       1.35713979       0.63572574
O       -1.35404080       1.66718264       1.60759594
C       -0.56768585      -0.06347318       0.08939857
O        0.61831352      -0.42870356      -0.60104408
P        2.01961749      -0.36196649       0.24519968
O        1.79919555      -0.45562003       1.70584948
O        2.88715343      -1.52070275      -0.44981670
O        2.79861728       0.90436536      -0.33238529
C       -1.73864280      -0.20651111      -0.87291211
O       -2.09253462      -1.57678566      -0.93049707
H       -1.84707994       0.88111871       1.88290778
H       -0.73110161      -0.75769354       0.91779363
H        2.84021240      -2.34051070       0.05633986
H        2.24545183       1.69577403      -0.20882213
H       -2.58203446       0.39488573      -0.51639293
H       -1.42659427       0.18804385      -1.84283240
H       -2.73486806      -1.70073210      -1.63653918
18
Properties=species:S:1:pos:R:3 relative_energy_eV=0.1858042204839876 branch=right pbc="F F F"
O        0.29536271       2.19157125       0.23234963
C       -0.47764666       1.35790895       0.63600041
O       -1.35541707       1.66828383       1.60678289
C       -0.56790340      -0.06278885       0.08973329
O        0.61791768      -0.42776063      -0.60101894
P        2.01944402      -0.36231060       0.24463524
O        1.79997006      -0.45720098       1.70545601
O        2.88569820      -1.52142976      -0.45148674
O        2.79914553       0.90373285      -0.33339202
C       -1.73916309      -0.20680239      -0.87217424
O       -2.09312178      -1.57725534      -0.92867375
H       -1.84951365       0.88252355       1.88101875
H       -0.73072536      -0.75712453       0.91812847
H        2.84147532      -2.34024364       0.05590833
H        2.24813384       1.69598235      -0.20676543
H       -2.58276393       0.39451707      -0.51588955
H       -1.42747053       0.18755042      -1.84230151
H       -2.73241449      -1.70211296      -1.63786228
18
Properties=species:S:1:pos:R:3 relative_energy_eV=0.18578388565947535 branch=right pbc="F F F"
O        0.29589418       2.19225418       0.23283681
C       -0.47776712       1.35893859       0.63572280
O       -1.35592163       1.66925776       1.60631175
C       -0.56809023      -0.06195128       0.08987201
O        0.61749954      -0.42701025      -0.60112488
P        2.01925207      -0.36293629       0.24438664
O        1.80051203      -0.45910929       1.70522003
O        2.88437618      -1.52197102      -0.45314742
O        2.79887243       0.90329103      -0.33320147
C       -1.73940849      -0.20693803      -0.87190521
O       -2.09238123      -1.57768457      -0.92806365
H       -1.85036483       0.88360311       1.88034799
H       -0.73008219      -0.75595044       0.91881580
H        2.84211195      -2.34030714       0.05546967
H        2.24836617       1.69573121      -0.20502306
H       -2.58368098       0.39381428      -0.51616270
H       -1.42761590       0.18751278      -1.84201301
H       -2.73056455      -1.70350404      -1.63789356
18
Properties=species:S:1:pos:R:3 relative_energy_eV=0.18574272051773733 branch=right pbc="F F F"
O        0.29629851       2.19316279       0.23391872
C       -0.47807302       1.36002418       0.63565455
O       -1.35710600       1.67001827       1.60557230
C       -0.56841787      -0.06084421       0.08996869
O        0.61685595      -0.42607390      -0.60140581
P        2.01907295      -0.36431726       0.24343879
O        1.80203694      -0.46242291       1.70449479
O        2.88245387      -1.52324193      -0.45640427
O        2.79832111       0.90245798      -0.33304079
C       -1.73993835      -0.20644332      -0.87172700
O       -2.09283037      -1.57731233      -0.92608659
H       -1.85218252       0.88444639       1.87875037
H       -0.72971345      -0.75472773       0.91936413
H        2.84695368      -2.33948532       0.05652056
H        2.24874898       1.69521240      -0.20224233
H       -2.58444730       0.39468566      -0.51728266
H       -1.42766052       0.18679162      -1.84215142
H       -2.72936526      -1.70488978      -1.63689353
18
Properties=species:S:1:pos:R:3 relative_energy_eV=0.18571940017136512 branch=right pbc="F F F"
O        0.29679150       2.19345861       0.23512896
C       -0.47818771       1.36049585       0.63586428
O       -1.35820383       1.67053600       1.60486528
C       -0.56859728      -0.06025652       0.09010133
O        0.61642257      -0.42555317      -0.60161558
P        2.01902575      -0.36533355       0.24265009
O        1.80317287      -0.46525015       1.70372045
O        2.88123797      -1.52417905      -0.45901189
O        2.79815894       0.90203826      -0.33292111
C       -1.74035949      -0.20597657      -0.87144891
O       -2.09385596      -1.57675895      -0.92432937
H       -1.85444993       0.88514412       1.87666954
H       -0.72961256      -0.75398631       0.91973362
H        2.85189522      -2.33862009       0.05765953
H        2.24904111       1.69491374      -0.20053980
H       -2.58461896       0.39604618      -0.51787470
H       -1.42777411       0.18603266      -1.84224161
H       -2.72907883      -1.70571051      -1.63596165
18
Properties=species:S:1:pos:R:3 relative_energy_eV=0.1857031914005347 branch=right pbc="F F F"
O        0.29756480       2.19314063       0.23658367
C       -0.47810752       1.36042964       0.63637610
O       -1.35926876       1.67094558       1.60414617
C       -0.56867465      -0.06011365       0.09031550
O        0.61606465      -0.42526993      -0.60191667
P        2.01903726      -0.36616660       0.24170330
O        1.80426163      -0.46773137       1.70286213
O        2.88014820      -1.52498143      -0.46148072
O        2.79820870       0.90178762      -0.33266796
C       -1.74075659      -0.20544240      -0.87103867
O       -2.09532276      -1.57595254      -0.92250991
H       -1.85757969       0.88606303       1.87387511
H       -0.72971498      -0.75402393       0.91984594
H        2.85743205      -2.33732833       0.05921769
H        2.24934362       1.69468687      -0.19965256
H       -2.58440593       0.39774574      -0.51809370
H       -1.42782074       0.18535296      -1.84219213
H       -2.72940208      -1.70610131      -1.63492488
18
Properties=species:S:1:pos:R:3 relative_energy_eV=0.18567633390193805 branch=right pbc="F F F"
O        0.29815987       2.19256348       0.23752755
C       -0.47791487       1.36002940       0.63687591
O       -1.35973859       1.67102407       1.60385926
C       -0.56863971      -0.06035312       0.09045744
O        0.61594197      -0.42523059      -0.60220237
P        2.01901328      -0.36638705       0.24115895
O        1.80441999      -0.46875581       1.70224070
O        2.87969496      -1.52538450      -0.46236863
O        2.79858691       0.90179973      -0.33265279
C       -1.74094290      -0.20515847      -0.87072561
O       -2.09627478      -1.57543504      -0.92182912
H       -1.85960393       0.88653041       1.87205633
H       -0.72982281      -0.75445656       0.91971586
H        2.86069173      -2.33642964       0.06062811
H        2.24950326       1.69464356      -0.20008210
H       -2.58411656       0.39868381      -0.51766964
H       -1.42802056       0.18528315      -1.84199090
H       -2.72993009      -1.70592625      -1.63455056
18
Properties=species:S:1:pos:R:3 relative_energy_eV=0.18564574154879665 branch=right pbc="F F F"
O        0.29882941       2.19170611       0.23829683
C       -0.47759406       1.35936678       0.63744848
O       -1.35980640       1.67093426       1.60387255
C       -0.56858421      -0.06082561       0.09052728
O        0.61582916      -0.42522666      -0.60274859
P        2.01883680      -0.36636236       0.24054424
O        1.80398594      -0.46905918       1.70156837
O        2.87922705      -1.52579823      -0.46253904
O        2.79906467       0.90184397      -0.33272233
C       -1.74117013      -0.20488240      -0.87036406
O       -2.09701840      -1.57493829      -0.92165041
H       -1.86110275       0.88689404       1.87078538
H       -0.72990416      -0.75544256       0.91925902
H        2.86348917      -2.33535232       0.06284820
H        2.24955192       1.69458520      -0.20155629
H       -2.58393040       0.39920173      -0.51671799
H       -1.42845649       0.18582317      -1.84159660
H       -2.73023989      -1.70542702      -1.63480665
18
Properties=species:S:1:pos:R:3 relative_energy_eV=0.18558887385006528 branch=right pbc="F F F"
O        0.29959631       2.19074962       0.23881244
C       -0.47708486       1.35858617       0.63799280
O       -1.35916505       1.67053762       1.60442306
C       -0.56858098      -0.06134679       0.09029990
O        0.61558786      -0.42507599      -0.60393916
P        2.01824249      -0.36620752       0.23969119
O        1.80237012      -0.46885327       1.70052535
O        2.87843495      -1.52664338      -0.46187501
O        2.79960353       0.90172614      -0.33319876
C       -1.74164358      -0.20452033      -0.86999453
O       -2.09739699      -1.57447814      -0.92234022
H       -1.86135307       0.88678396       1.87052901
H       -0.72978523      -0.75666523       0.91832689
H        2.86678810      -2.33381349       0.06721085
H        2.24942607       1.69439644      -0.20403818
H       -2.58420315       0.39907597      -0.51487720
H       -1.42981342       0.18743469      -1.84100335
H       -2.73001581      -1.70464583      -1.63609673
18
Properties=species:S:1:pos:R:3 relative_energy_eV=0.18549117941438453 branch=right pbc="F F F"
O        0.30049754       2.18978166       0.23874240
C       -0.47620366       1.35777896       0.63853526
O       -1.35703502       1.66984645       1.60609310
C       -0.56876876      -0.06177779       0.08975302
O        0.61490136      -0.42465278      -0.60619712
P        2.01680095      -0.36598924       0.23837164
O        1.79868042      -0.46745225       1.69895747
O        2.87689133      -1.52836741      -0.45978983
O        2.79985802       0.90110374      -0.33446738
C       -1.74274329      -0.20389313      -0.86932903
O       -2.09680905      -1.57406882      -0.92437895
H       -1.85934598       0.88624691       1.87231319
H       -0.72920350      -0.75817740       0.91696121
H        2.87020215      -2.33180443       0.07491894
H        2.24882083       1.69373047      -0.20854129
H       -2.58561553       0.39763487      -0.51134073
H       -1.43290727       0.19120280      -1.83975637
H       -2.72701302      -1.70410188      -1.64039719
18
Properties=species:S:1:pos:R:3 relative_energy_eV=0.18535453916774713 branch=right pbc="F F F"
O        0.30092312       2.18958902       0.23738782
C       -0.47510764       1.35748899       0.63858848
O       -1.35291285       1.66873325       1.60919674
C       -0.56929210      -0.06160760       0.08859100
O        0.61368425      -0.42398355      -0.60938873
P        2.01444031      -0.36596240       0.23688423
O        1.79296691      -0.46492367       1.69713060
O        2.87478371      -1.53103804      -0.45624949
O        2.79916561       0.89970782      -0.33677504
C       -1.74449264      -0.20301441      -0.86877316
O       -2.09480786      -1.57393388      -0.92810388
H       -1.85339361       0.88468441       1.87733754
H       -0.72822067      -0.75887723       0.91533265
H        2.87325572      -2.32965774       0.08555692
H        2.24747649       1.69245744      -0.21365876
H       -2.58843171       0.39466702      -0.50670400
H       -1.43797475       0.19687971      -1.83833880
H       -2.72105446      -1.70416831      -1.64756588
18
Properties=species:S:1:pos:R:3 relative_energy_eV=0.18524473869911162 branch=right pbc="F F F"
O        0.30049471       2.19048567       0.23528665
C       -0.47438547       1.35808238       0.63820041
O       -1.34866031       1.66802625       1.61237871
C       -0.57002395      -0.06072156       0.08770042
O        0.61235582      -0.42354311      -0.61148590
P        2.01235507      -0.36627833       0.23613931
O        1.78847042      -0.46224477       1.69625845
O        2.87321325      -1.53325922      -0.45305864
O        2.79740350       0.89807018      -0.33921946
C       -1.74608423      -0.20229089      -0.86839231
O       -2.09216714      -1.57416190      -0.93134382
H       -1.84643860       0.88329330       1.88331902
H       -0.72746713      -0.75807267       0.91481074
H        2.87316469      -2.32895742       0.09269282
H        2.24578711       1.69098467      -0.21697655
H       -2.59140923       0.39160614      -0.50344747
H       -1.44232331       0.20150109      -1.83725391
H       -2.71327708      -1.70547887      -1.65516029
18
Properties=species:S:1:pos:R:3 relative_energy_eV=0.18519774216474616 branch=right pbc="F F F"
O        0.29972597       2.19155815       0.23417431
C       -0.47435583       1.35883844       0.63779306
O       -1.34665332       1.66766726       1.61399825
C       -0.57063500      -0.05977113       0.08718607
O        0.61152559      -0.42347683      -0.61197579
P        2.01149422      -0.36701354       0.23589311
O        1.78763295      -0.46203178       1.69606099
O        2.87236943      -1.53446319      -0.45267719
O        2.79569114       0.89700190      -0.34059397
C       -1.74685618      -0.20177810      -0.86862697
O       -2.09146222      -1.57407828      -0.93212302
H       -1.84265722       0.88239288       1.88641603
H       -0.72768104      -0.75669445       0.91479861
H        2.87472069      -2.32844564       0.09573020
H        2.24460853       1.69004636      -0.21688371
H       -2.59269529       0.39106822      -0.50335862
H       -1.44389276       0.20250533      -1.83747630
H       -2.70987143      -1.70628464      -1.65788694
18
Properties=species:S:1:pos:R:3 relative_energy_eV=0.18518314734683372 branch=right pbc="F F F"
O        0.29907874       2.19215985       0.23344417
C       -0.47446324       1.35933775       0.63774877
O       -1.34575033       1.66793976       1.61479718
C       -0.57096159      -0.05938038       0.08768156
O        0.61116794      -0.42403164      -0.61094937
P        2.01148063      -0.36712138       0.23654468
O        1.78817437      -0.46094230       1.69688423
O        2.87275081      -1.53426141      -0.45223638
O        2.79466428       0.89661604      -0.34143627
C       -1.74694265      -0.20180061      -0.86837740
O       -2.09111402      -1.57427120      -0.93195884
H       -1.84161948       0.88269157       1.88756506
H       -0.72815878      -0.75562358       0.91591664
H        2.87179235      -2.32971451       0.09345687
H        2.24378345       1.68965147      -0.21722588
H       -2.59300090       0.39093454      -0.50354282
H       -1.44376645       0.20226064      -1.83725316
H       -2.70610686      -1.70740364      -1.66061093
18
Properties=species:S:1:pos:R:3 relative_energy_eV=0.1851533465051034 branch=right pbc="F F F"
O        0.29839548       2.19234355       0.23334458
C       -0.47471000       1.35936634       0.63795712
O       -1.34519539       1.66761162       1.61570917
C       -0.57142578      -0.05922327       0.08786448
O        0.61073840      -0.42469460      -0.61011522
P        2.01153520      -0.36758215       0.23659815
O        1.78979626      -0.46127371       1.69718346
O        2.87238556      -1.53457839      -0.45311900
O        2.79356347       0.89627129      -0.34240571
C       -1.74709149      -0.20138765      -0.86863572
O       -2.09272255      -1.57360812      -0.93093813
H       -1.84121003       0.88239712       1.88821923
H       -0.72941800      -0.75524248       0.91611260
H        2.87440365      -2.32916391       0.09426308
H        2.24283071       1.68922442      -0.21745566
H       -2.59264910       0.39269037      -0.50486928
H       -1.44300350       0.20108068      -1.83787617
H       -2.70521462      -1.70719014      -1.66138888
18
Properties=species:S:1:pos:R:3 relative_energy_eV=0.18511138254325488 branch=right pbc="F F F"
O        0.29769140       2.19199096       0.23315211
C       -0.47483523       1.35890956       0.63856091
O       -1.34417145       1.66709325       1.61723680
C       -0.57192096      -0.05962278       0.08849378
O        0.61029568      -0.42605846      -0.60866370
P        2.01168168      -0.36762468       0.23696667
O        1.79171966      -0.46036181       1.69787182
O        2.87217830      -1.53465232      -0.45323156
O        2.79253661       0.89604418      -0.34393454
C       -1.74716227      -0.20096962      -0.86859124
O       -2.09514692      -1.57270237      -0.92995020
H       -1.84119773       0.88218048       1.88900558
H       -0.73124695      -0.75547702       0.91651143
H        2.87615608      -2.32876271       0.09489393
H        2.24118486       1.68869484      -0.22001044
H       -2.59188886       0.39488011      -0.50561100
H       -1.44192477       0.19997418      -1.83811305
H       -2.70294081      -1.70649484      -1.66413921
18
Properties=species:S:1:pos:R:3 relative_energy_eV=0.18507172097088187 branch=right pbc="F F F"
O        0.29724156       2.19106920       0.23316357
C       -0.47479119       1.35797310       0.63958318
O       -1.34273952       1.66625830       1.61939019
C       -0.57250011      -0.06046360       0.08929504
O        0.60968432      -0.42775496      -0.60720798
P        2.01164025      -0.36752208       0.23714113
O        1.79368906      -0.45878661       1.69843565
O        2.87123054      -1.53518457      -0.45284581
O        2.79160788       0.89569414      -0.34611253
C       -1.74746740      -0.20031096      -0.86822062
O       -2.09847389      -1.57130219      -0.92915708
H       -1.84122433       0.88181168       1.89020790
H       -0.73343952      -0.75659359       0.91661279
H        2.87939069      -2.32754194       0.09782498
H        2.23872515       1.68773740      -0.22532697
H       -2.59107233       0.39738229      -0.50542673
H       -1.44118361       0.19957194      -1.83788390
H       -2.69930914      -1.70499661      -1.66902472
18
Properties=species:S:1:pos:R:3 relative_energy_eV=0.18505486790309078 branch=right pbc="F F F"
O        0.29739949       2.19060374       0.23324138
C       -0.47464067       1.35756200       0.63991651
O       -1.34223825       1.66589245       1.62006784
C       -0.57259937      -0.06086394       0.08945854
O        0.60953304      -0.42821293      -0.60701611
P        2.01147520      -0.36741864       0.23714651
O        1.79392458      -0.45800417       1.69852167
O        2.87045541      -1.53571243      -0.45227447
O        2.79157153       0.89548908      -0.34679680
C       -1.74767278      -0.20008448      -0.86794244
O       -2.09934374      -1.57083426      -0.92968206
H       -1.84096447       0.88150331       1.89079523
H       -0.73391145      -0.75724895       0.91640936
H        2.88097579      -2.32674641       0.10006999
H        2.23752240       1.68714091      -0.22831654
H       -2.59098312       0.39760886      -0.50438651
H       -1.44162239       0.20037185      -1.83743996
H       -2.69787273      -1.70400505      -1.67132408
18
Properties=species:S:1:pos:R:3 relative_energy_eV=0.18504104380190256 branch=right pbc="F F F"
O        0.29803176       2.19036727       0.23376715
C       -0.47453460       1.35759931       0.64017924
O       -1.34250085       1.66614495       1.62003880
C       -0.57272747      -0.06085842       0.08970298
O        0.60919451      -0.42808204      -0.60713075
P        2.01116861      -0.36766118       0.23680098
O        1.79418815      -0.45808892       1.69826515
O        2.86883852      -1.53678625      -0.45252150
O        2.79172035       0.89502160      -0.34725443
C       -1.74819394      -0.19985797      -0.86727002
O       -2.09980424      -1.57052195      -0.92979170
H       -1.84117932       0.88175778       1.89085275
H       -0.73385716      -0.75748792       0.91649093
H        2.88311186      -2.32593049       0.10242023
H        2.23694631       1.68643308      -0.23046595
H       -2.59146812       0.39731011      -0.50283519
H       -1.44280635       0.20153810      -1.83659128
H       -2.69511947      -1.70385607      -1.67420940
18
Properties=species:S:1:pos:R:3 relative_energy_eV=0.18501720947460853 branch=right pbc="F F F"
O        0.29862336       2.19038566       0.23397732
C       -0.47444352       1.35781296       0.63998543
O       -1.34314631       1.66647711       1.61930059
C       -0.57261796      -0.06073364       0.08957774
O        0.60921203      -0.42764934      -0.60747682
P        2.01098265      -0.36791949       0.23670630
O        1.79411713      -0.45841850       1.69816982
O        2.86745588      -1.53777165      -0.45270319
O        2.79210272       0.89475059      -0.34681487
C       -1.74845068      -0.19988089      -0.86698633
O       -2.09911652      -1.57064349      -0.93104901
H       -1.84081524       0.88175578       1.89088271
H       -0.73338362      -0.75740048       0.91645363
H        2.88474820      -2.32529100       0.10412972
H        2.23656581       1.68593405      -0.23140662
H       -2.59195892       0.39603408      -0.50122111
H       -1.44419492       0.20304038      -1.83601599
H       -2.69467148      -1.70344116      -1.67506130
18
Properties=species:S:1:pos:R:3 relative_energy_eV=0.18499698263258324 branch=right pbc="F F F"
O        0.29913618       2.19073415       0.23423350
C       -0.47454318       1.35848276       0.63975074
O       -1.34423526       1.66744870       1.61822501
C       -0.57274153      -0.06020526       0.08971251
O        0.60890500      -0.42701692      -0.60758825
P        2.01077275      -0.36859810       0.23641629
O        1.79474383      -0.45964972       1.69796948
O        2.86544731      -1.53916474      -0.45407340
O        2.79225242       0.89425159      -0.34637199
C       -1.74892340      -0.19987104      -0.86651793
O       -2.09847621      -1.57082332      -0.93149597
H       -1.84078265       0.88239915       1.89064056
H       -0.73305147      -0.75658554       0.91702449
H        2.88705950      -2.32478801       0.10526310
H        2.23677552       1.68549319      -0.23095692
H       -2.59273570       0.39490130      -0.49986936
H       -1.44568030       0.20408816      -1.83540995
H       -2.69291416      -1.70405531      -1.67650391
18
Properties=species:S:1:pos:R:3 relative_energy_eV=0.1849718207740807 branch=right pbc="F F F"
O        0.29895886       2.19133730       0.23366385
C       -0.47481565       1.35927015       0.63926007
O       -1.34507981       1.66860865       1.61715160
C       -0.57296415      -0.05963909       0.08986852
O        0.60863944      -0.42658446      -0.60729201
P        2.01070833      -0.36934032       0.23642280
O        1.79567505      -0.46102265       1.69810548
O        2.86377347      -1.54034674      -0.45565986
O        2.79215729       0.89394896      -0.34551432
C       -1.74913420      -0.20002056      -0.86646180
O       -2.09728677      -1.57124502      -0.93243779
H       -1.84010333       0.88318493       1.89088846
H       -0.73313516      -0.75533601       0.91791925
H        2.88882871      -2.32461889       0.10530476
H        2.23706738       1.68534930      -0.22942671
H       -2.59335430       0.39356262      -0.49917165
H       -1.44660052       0.20472049      -1.83523011
H       -2.69232601      -1.70478764      -1.67694256
18
Properties=species:S:1:pos:R:3 relative_energy_eV=0.18496097961178748 branch=right pbc="F F F"
O        0.29831689       2.19170217       0.23268926
C       -0.47505922       1.35964793       0.63893521
O       -1.34496623       1.66925932       1.61698615
C       -0.57326682      -0.05942466       0.09004651
O        0.60836923      -0.42665675      -0.60687233
P        2.01065656      -0.36977254       0.23646916
O        1.79633823      -0.46184175       1.69825551
O        2.86299403      -1.54095229      -0.45657281
O        2.79186726       0.89384215      -0.34509902
C       -1.74918614      -0.20010821      -0.86661092
O       -2.09660070      -1.57148984      -0.93319026
H       -1.83932095       0.88375149       1.89153207
H       -0.73366083      -0.75456081       0.91857047
H        2.89004556      -2.32444360       0.10546874
H        2.23710214       1.68536229      -0.22852958
H       -2.59364499       0.39291990      -0.49908718
H       -1.44674573       0.20491560      -1.83528662
H       -2.69222967      -1.70510934      -1.67725639
18
Properties=species:S:1:pos:R:3 relative_energy_eV=0.18494243969325908 branch=right pbc="F F F"
O        0.29711380       2.19200058       0.23083506
C       -0.47533506       1.35985540       0.63852415
O       -1.34404529       1.66981502       1.61736691
C       -0.57367461      -0.05947939       0.09035565
O        0.60806508      -0.42719580      -0.60616514
P        2.01059697      -0.37001089       0.23672009
O        1.79684016      -0.46208600       1.69863549
O        2.86270077      -1.54128505      -0.45681903
O        2.79144808       0.89385417      -0.34485634
C       -1.74912518      -0.20028179      -0.86684264
O       -2.09553024      -1.57185940      -0.93467052
H       -1.83794101       0.88438487       1.89289304
H       -0.73454166      -0.75394387       0.91937406
H        2.89031594      -2.32444414       0.10558065
H        2.23686122       1.68543631      -0.22827931
H       -2.59396872       0.39193337      -0.49889549
H       -1.44663107       0.20544501      -1.83522424
H       -2.69214056      -1.70509733      -1.67808441
18
Properties=species:S:1:pos:R:3 relative_energy_eV=0.1849151258575148 branch=right pbc="F F F"
O        0.29549837       2.19211909       0.22815989
C       -0.47560289       1.35982638       0.63799403
O       -1.34227880       1.67014472       1.61831137
C       -0.57426005      -0.05982887       0.09066041
O        0.60758126      -0.42816447      -0.60548246
P        2.01036251      -0.37027834       0.23683196
O        1.79722846      -0.46218268       1.69891598
O        2.86231238      -1.54188398      -0.45663187
O        2.79086774       0.89374034      -0.34502880
C       -1.74921393      -0.20034259      -0.86709025
O       -2.09423707      -1.57214655      -0.93719159
H       -1.83591994       0.88492009       1.89494179
H       -0.73578139      -0.75369877       0.92005457
H        2.89190688      -2.32378170       0.10766742
H        2.23626348       1.68533241      -0.22899716
H       -2.59460297       0.39057024      -0.49816255
H       -1.44680173       0.20698029      -1.83486606
H       -2.69231365      -1.70428451      -1.67963870
18
Properties=species:S:1:pos:R:3 relative_energy_eV=0.18487184428522596 branch=right pbc="F F F"
O        0.29318973       2.19206215       0.22393671
C       -0.47586331       1.35955742       0.63715383
O       -1.33944895       1.67038883       1.61978236
C       -0.57492348      -0.06070553       0.09127601
O        0.60708770      -0.43000043      -0.60428740
P        2.01011939      -0.37018403       0.23743402
O        1.79732077      -0.46074201       1.69973225
O        2.86276991      -1.54212544      -0.45472749
O        2.79018798       0.89357663      -0.34584502
C       -1.74927208      -0.20056779      -0.86711119
O       -2.09165428      -1.57277284      -0.94177429
H       -1.83283681       0.88551719       1.89806736
H       -0.73726608      -0.75383591       0.92111972
H        2.89130992      -2.32366101       0.10980803
H        2.23525665       1.68512117      -0.23134719
H       -2.59574878       0.38771879      -0.49615039
H       -1.44735971       0.21037079      -1.83358241
H       -2.69185980      -1.70267680      -1.68303689
18
Properties=species:S:1:pos:R:3 relative_energy_eV=0.18482407659394084 branch=right pbc="F F F"
O        0.29133500       2.19147123       0.22000470
C       -0.47593691       1.35886490       0.63637977
O       -1.33658969       1.67005092       1.62132697
C       -0.57564276      -0.06190217       0.09171598
O        0.60639632      -0.43215873      -0.60350330
P        2.00966544      -0.37031925       0.23754835
O        1.79761644      -0.45912872       1.70012417
O        2.86266184      -1.54310723      -0.45248166
O        2.78933321       0.89283754      -0.34785587
C       -1.74983137      -0.20029825      -0.86688601
O       -2.08936801      -1.57280744      -0.94733796
H       -1.82982640       0.88548839       1.90101755
H       -0.73880567      -0.75488392       0.92153032
H        2.89446328      -2.32214325       0.11584437
H        2.23396808       1.68433858      -0.23514687
H       -2.59743266       0.38478216      -0.49304664
H       -1.44901295       0.21568582      -1.83162952
H       -2.69198426      -1.69972932      -1.68715631
18
Properties=species:S:1:pos:R:3 relative_energy_eV=0.18478722903091693 branch=right pbc="F F F"
O        0.29057281       2.19067056       0.21762197
C       -0.47582072       1.35814961       0.63587517
O       -1.33527063       1.66968040       1.62180754
C       -0.57583544      -0.06309081       0.09232729
O        0.60621433      -0.43418459      -0.60248552
P        2.00966578      -0.36996031       0.23820997
O        1.79794633      -0.45606334       1.70096946
O        2.86382901      -1.54308171      -0.44929621
O        2.78882544       0.89210266      -0.35030305
C       -1.75014548      -0.20017123      -0.86621993
O       -2.08694910      -1.57293003      -0.95221071
H       -1.82829459       0.88524837       1.90241978
H       -0.73947778      -0.75609793       0.92201872
H        2.89358313      -2.32229529       0.11846256
H        2.23322556       1.68366246      -0.23886668
H       -2.59884295       0.38176195      -0.48969866
H       -1.45069500       0.22094355      -1.82920889
H       -2.69152162      -1.69730300      -1.69097473
18
Properties=species:S:1:pos:R:3 relative_energy_eV=0.18475690304330783 branch=right pbc="F F F"
O        0.29142001       2.18983846       0.21826486
C       -0.47556698       1.35761126       0.63608074
O       -1.33606112       1.66928934       1.62126247
C       -0.57578191      -0.06361498       0.09259308
O        0.60611952      -0.43509032      -0.60211126
P        2.00979178      -0.36994846       0.23822859
O        1.79884927      -0.45433924       1.70110974
O        2.86406172      -1.54342552      -0.44811253
O        2.78846487       0.89125373      -0.35257306
C       -1.75054255      -0.19970276      -0.86563500
O       -2.08646528      -1.57240737      -0.95408247
H       -1.82890754       0.88472148       1.90176040
H       -0.73965658      -0.75705009       0.92188919
H        2.89514771      -2.32201184       0.12070865
H        2.23320362       1.68303778      -0.24079321
H       -2.59952850       0.38089836      -0.48782193
H       -1.45204655       0.22396722      -1.82776624
H       -2.69149237      -1.69598572      -1.69255394
18
Properties=species:S:1:pos:R:3 relative_energy_eV=0.1847517062778934 branch=right pbc="F F F"
O        0.29217486       2.18949630       0.21929119
C       -0.47544559       1.35746564       0.63638887
O       -1.33717462       1.66933617       1.62059654
C       -0.57565458      -0.06367622       0.09279120
O        0.60619262      -0.43532985      -0.60175330
P        2.01003331      -0.36981936       0.23837269
O        1.79942745      -0.45329050       1.70128003
O        2.86443400      -1.54328097      -0.44781406
O        2.78829976       0.89096388      -0.35358312
C       -1.75051239      -0.19957858      -0.86543534
O       -2.08630043      -1.57227995      -0.95427116
H       -1.82967909       0.88459483       1.90107319
H       -0.73969413      -0.75717545       0.92199292
H        2.89442716      -2.32262711       0.11993273
H        2.23360292       1.68300882      -0.24087684
H       -2.59952333       0.38077440      -0.48746694
H       -1.45223503       0.22455384      -1.82740554
H       -2.69136377      -1.69609455      -1.69266494
18
Properties=species:S:1:pos:R:3 relative_energy_eV=0.18474388980030199 branch=right pbc="F F F"
O        0.29243319       2.18932761       0.21972474
C       -0.47542611       1.35740303       0.63660170
O       -1.33766194       1.66948207       1.62037230
C       -0.57568436      -0.06369219       0.09295833
O        0.60613917      -0.43554106      -0.60144036
P        2.01013666      -0.36977758       0.23840512
O        1.79982315      -0.45280087       1.70134632
O        2.86451966      -1.54325043      -0.44787394
O        2.78806208       0.89086700      -0.35412231
C       -1.75043040      -0.19952296      -0.86545617
O       -2.08623000      -1.57222911      -0.95432983
H       -1.82988295       0.88465912       1.90102601
H       -0.73997139      -0.75711205       0.92216857
H        2.89416241      -2.32295973       0.11948042
H        2.23375442       1.68306672      -0.24075879
H       -2.59943695       0.38081279      -0.48754571
H       -1.45204901       0.22458653      -1.82740157
H       -2.69124850      -1.69627759      -1.69270669
