18
Properties=species:S:1:pos:R:3 relative_energy_eV=0.09229971981767449 branch=ts pbc="F F F"
O       -0.27138002       2.23269473      -0.18509778
C       -0.51311990       1.32538110       0.57846238
O       -0.60855187       1.53440091       1.90081337
C       -0.70652080      -0.11598979       0.09334677
O        0.50552053      -0.56453102      -0.54527920
P        1.87902407      -0.36213700       0.30809953
O        1.64862544      -0.40815726       1.77424833
O        2.85470846      -1.46803224      -0.31804303
O        2.56059332       0.94737565      -0.30730997
C       -1.81425800      -0.17130536      -0.93074231
O       -2.10252106      -1.53230033      -1.19995612
H       -0.41255746       0.70582083       2.37127379
H       -0.94448604      -0.79163516       0.91545084
H        2.86143695      -2.27261766       0.21547628
H        1.91795526       1.66367612      -0.42960840
H       -2.69115657       0.33806741      -0.51899852
H       -1.48071890       0.38002385      -1.81332688
H       -2.73155557      -1.57371102      -1.92831807
