18
Properties=species:S:1:pos:R:3 relative_energy_eV=0.0 branch=left pbc="F F F"
O        0.29642471       2.18192608       0.25353071
C       -0.45363971       1.34167981       0.68578752
O       -1.27576967       1.63504001       1.70886048
C       -0.57680723      -0.06866716       0.11909431
O        0.57664457      -0.42951482      -0.62696409
P        2.01327301      -0.37426425       0.15612641
O        1.86156509      -0.47797440       1.62497681
O        2.84067651      -1.53599764      -0.58133161
O        2.76541845       0.89597406      -0.44879403
C       -1.78620450      -0.18161134      -0.79837774
O       -2.13435181      -1.55037283      -0.89931025
H       -1.75485973       0.84454434       1.99620860
H       -0.71112556      -0.77760253       0.94050502
H        2.88924575      -2.32616826      -0.02998018
H        2.21958599       1.68662472      -0.29197529
H       -2.61730263       0.39750347      -0.38095758
H       -1.51775224       0.25703030      -1.76264625
H       -2.77129965      -1.65610453      -1.61324448
18
Properties=species:S:1:pos:R:3 relative_energy_eV=6.734691851306707e-06 branch=left pbc="F F F"
O        0.29630677       2.18196398       0.25339003
C       -0.45370609       1.34165059       0.68563990
O       -1.27582109       1.63502049       1.70874313
C       -0.57664339      -0.06869429       0.11899524
O        0.57684166      -0.42958705      -0.62703247
P        2.01340421      -0.37422974       0.15619315
O        1.86163187      -0.47816477       1.62497578
O        2.84116737      -1.53576685      -0.58108805
O        2.76545217       0.89614731      -0.44849622
C       -1.78603817      -0.18168287      -0.79850125
O       -2.13393080      -1.55057395      -0.89960505
H       -1.75497529       0.84471662       1.99624535
H       -0.71101985      -0.77758222       0.94041056
H        2.88863524      -2.32641825      -0.03038244
H        2.21946935       1.68671913      -0.29178149
H       -2.61728997       0.39730210      -0.38099465
H       -1.51756745       0.25709483      -1.76277592
H       -2.77219518      -1.65587004      -1.61242727
18
Properties=species:S:1:pos:R:3 relative_energy_eV=1.426876406185329e-05 branch=left pbc="F F F"
O        0.29594220       2.18182656       0.25300499
C       -0.45382689       1.34138320       0.68549096
O       -1.27560715       1.63472218       1.70889676
C       -0.57645495      -0.06894926       0.11889928
O        0.57710410      -0.42994327      -0.62703252
P        2.01361792      -0.37400275       0.15633127
O        1.86173999      -0.47779045       1.62509430
O        2.84182154      -1.53555602      -0.58030465
O        2.76551797       0.89635870      -0.44861974
C       -1.78573433      -0.18171313      -0.79865668
O       -2.13327136      -1.55070095      -0.90050659
H       -1.75486634       0.84467686       1.99667644
H       -0.71125622      -0.77800957       0.94005790
H        2.88800096      -2.32668435      -0.03020642
H        2.21921369       1.68683406      -0.29230711
H       -2.61722718       0.39686000      -0.38090700
H       -1.51740691       0.25759952      -1.76278034
H       -2.77358568      -1.65486629      -1.61162253
18
Properties=species:S:1:pos:R:3 relative_energy_eV=2.6458161300979555e-05 branch=left pbc="F F F"
O        0.29532857       2.18149804       0.25242734
C       -0.45394867       1.34085128       0.68543722
O       -1.27510697       1.63402002       1.70939553
C       -0.57639473      -0.06945561       0.11884586
O        0.57730476      -0.43052047      -0.62687982
P        2.01381163      -0.37355768       0.15656260
O        1.86179142      -0.47638800       1.62537469
O        2.84234616      -1.53553595      -0.57897206
O        2.76560567       0.89645884      -0.44949277
C       -1.78542508      -0.18163246      -0.79879726
O       -2.13264522      -1.55055542      -0.90195899
H       -1.75414056       0.84397639       1.99751806
H       -0.71197232      -0.77898256       0.93944482
H        2.88769719      -2.32681209      -0.02897927
H        2.21904506       1.68691883      -0.29385426
H       -2.61712503       0.39626262      -0.38061565
H       -1.51742775       0.25858432      -1.76255128
H       -2.77502281      -1.65308508      -1.61139645
18
Properties=species:S:1:pos:R:3 relative_energy_eV=4.4923748646397144e-05 branch=left pbc="F F F"
O        0.29481098       2.18115918       0.25202466
C       -0.45397248       1.34032482       0.68552381
O       -1.27464373       1.63319827       1.70993774
C       -0.57646993      -0.06994249       0.11881416
O        0.57740245      -0.43094187      -0.62666100
P        2.01393065      -0.37308085       0.15677053
O        1.86174727      -0.47460277       1.62570566
O        2.84257815      -1.53567902      -0.57770927
O        2.76573256       0.89638079      -0.45068072
C       -1.78527702      -0.18149237      -0.79887812
O       -2.13234005      -1.55023516      -0.90323040
H       -1.75324060       0.84283341       1.99817513
H       -0.71276060      -0.78000797       0.93883468
H        2.88768783      -2.32677215      -0.02734366
H        2.21923534       1.68700971      -0.29562260
H       -2.61703886       0.39578689      -0.38023687
H       -1.51766536       0.25954085      -1.76225104
H       -2.77599528      -1.65143426      -1.61166436
18
Properties=species:S:1:pos:R:3 relative_energy_eV=4.794645792571828e-05 branch=left pbc="F F F"
O        0.29449488       2.18090087       0.25182407
C       -0.45388417       1.33990797       0.68568357
O       -1.27429753       1.63246686       1.71036224
C       -0.57660474      -0.07031483       0.11878752
O        0.57743936      -0.43116263      -0.62643690
P        2.01397572      -0.37270373       0.15696173
O        1.86163706      -0.47293482       1.62600527
O        2.84265791      -1.53585028      -0.57674203
O        2.76583390       0.89620909      -0.45172510
C       -1.78527967      -0.18134980      -0.79895084
O       -2.13230130      -1.54990298      -0.90416991
H       -1.75235432       0.84163085       1.99854510
H       -0.71340056      -0.78080827       0.93838362
H        2.88778469      -2.32663010      -0.02584044
H        2.21960583       1.68708218      -0.29716003
H       -2.61700245       0.39547898      -0.37987349
H       -1.51798528       0.26031550      -1.76201062
H       -2.77659800      -1.65028981      -1.61213543
18
Properties=species:S:1:pos:R:3 relative_energy_eV=7.200636900961399e-05 branch=left pbc="F F F"
O        0.29433739       2.18066489       0.25176096
C       -0.45366465       1.33951375       0.68590644
O       -1.27398408       1.63172774       1.71071626
C       -0.57671486      -0.07064434       0.11871727
O        0.57753326      -0.43126929      -0.62621986
P        2.01403424      -0.37235450       0.15717521
O        1.86148115      -0.47130100       1.62633640
O        2.84285420      -1.53593906      -0.57584504
O        2.76594782       0.89600126      -0.45260016
C       -1.78535629      -0.18121716      -0.79909457
O       -2.13235259      -1.54962645      -0.90507927
H       -1.75154225       0.84038268       1.99867009
H       -0.71391149      -0.78148277       0.93800091
H        2.88769773      -2.32644473      -0.02444703
H        2.22010613       1.68720589      -0.29863541
H       -2.61700303       0.39520750      -0.37948483
H       -1.51836945       0.26109804      -1.76187929
H       -2.77737191      -1.64947740      -1.61248976
18
Properties=species:S:1:pos:R:3 relative_energy_eV=8.586879994254559e-05 branch=left pbc="F F F"
O        0.29426913       2.18033912       0.25166479
C       -0.45327590       1.33898216       0.68617992
O       -1.27348790       1.63086484       1.71112574
C       -0.57674532      -0.07108012       0.11859190
O        0.57775858      -0.43150433      -0.62596650
P        2.01414774      -0.37197281       0.15752513
O        1.86129478      -0.46943596       1.62677153
O        2.84341314      -1.53585310      -0.57469906
O        2.76601386       0.89582335      -0.45331264
C       -1.78542511      -0.18107421      -0.79942408
O       -2.13231138      -1.54941776      -0.90647469
H       -1.75062344       0.83910720       1.99880685
H       -0.71439700      -0.78219046       0.93762972
H        2.88728993      -2.32620977      -0.02299282
H        2.22044962       1.68734175      -0.30044217
H       -2.61702958       0.39481548      -0.37900044
H       -1.51875482       0.26225537      -1.76185325
H       -2.77886500      -1.64874567      -1.61262161
18
Properties=species:S:1:pos:R:3 relative_energy_eV=0.00011224874469917268 branch=left pbc="F F F"
O        0.29424772       2.17995440       0.25146833
C       -0.45285828       1.33840048       0.68638800
O       -1.27282286       1.63007227       1.71155205
C       -0.57662301      -0.07155565       0.11839047
O        0.57813791      -0.43188575      -0.62579975
P        2.01434320      -0.37159132       0.15794681
O        1.86110789      -0.46785513       1.62724659
O        2.84435609      -1.53550896      -0.57344592
O        2.76608431       0.89580444      -0.45360003
C       -1.78538798      -0.18097497      -0.79991853
O       -2.13205198      -1.54938306      -0.90823101
H       -1.74988833       0.83824942       1.99904745
H       -0.71468578      -0.78280905       0.93728557
H        2.88643561      -2.32605692      -0.02190479
H        2.22044801       1.68749661      -0.30216794
H       -2.61703079       0.39430062      -0.37854528
H       -1.51901001       0.26359127      -1.76198419
H       -2.78108042      -1.64820359      -1.61221954
18
Properties=species:S:1:pos:R:3 relative_energy_eV=0.00011534525037859567 branch=left pbc="F F F"
O        0.29421344       2.17956105       0.25114971
C       -0.45257395       1.33787979       0.68646315
O       -1.27211662       1.62952877       1.71196562
C       -0.57644893      -0.07199848       0.11821260
O        0.57848372      -0.43243164      -0.62570541
P        2.01452105      -0.37128828       0.15833175
O        1.86099105      -0.46679456       1.62762474
O        2.84527630      -1.53510394      -0.57234359
O        2.76609011       0.89593108      -0.45359486
C       -1.78525186      -0.18090923      -0.80040496
O       -2.13165154      -1.54942176      -0.90994764
H       -1.74937100       0.83796179       1.99952576
H       -0.71481386      -0.78326775       0.93705245
H        2.88563042      -2.32597669      -0.02125106
H        2.21999657       1.68754469      -0.30354318
H       -2.61698391       0.39380918      -0.37821195
H       -1.51905332       0.26481562      -1.76212699
H       -2.78321638      -1.64779456      -1.61168788
18
Properties=species:S:1:pos:R:3 relative_energy_eV=0.0001416911545675248 branch=left pbc="F F F"
O        0.29413353       2.17924523       0.25080843
C       -0.45248179       1.33751129       0.68640095
O       -1.27149531       1.62919548       1.71231289
C       -0.57629139      -0.07231375       0.11800828
O        0.57875900      -0.43289819      -0.62574679
P        2.01465529      -0.37102575       0.15861532
O        1.86085324      -0.46624343       1.62789302
O        2.84599600      -1.53471025      -0.57147829
O        2.76617318       0.89614475      -0.45341043
C       -1.78509449      -0.18088609      -0.80081301
O       -2.13126546      -1.54949752      -0.91129038
H       -1.74898902       0.83797430       2.00010978
H       -0.71476187      -0.78353854       0.93684887
H        2.88488746      -2.32601646      -0.02095343
H        2.21950448       1.68758378      -0.30439236
H       -2.61688948       0.39342055      -0.37802184
H       -1.51902859       0.26568408      -1.76228701
H       -2.78494347      -1.64758436      -1.61109572
18
Properties=species:S:1:pos:R:3 relative_energy_eV=0.000143925026350189 branch=left pbc="F F F"
O        0.29404151       2.17890379       0.25047348
C       -0.45249560       1.33718076       0.68629071
O       -1.27090705       1.62891097       1.71269795
C       -0.57624184      -0.07260550       0.11784505
O        0.57888227      -0.43343367      -0.62576080
P        2.01470567      -0.37076928       0.15882362
O        1.86075374      -0.46570446       1.62807995
O        2.84639963      -1.53448030      -0.57068107
O        2.76621701       0.89633802      -0.45342079
C       -1.78498454      -0.18083346      -0.80112275
O       -2.13096171      -1.54945483      -0.91244255
H       -1.74855114       0.83797988       2.00084815
H       -0.71472795      -0.78376113       0.93670116
H        2.88454273      -2.32601387      -0.02054841
H        2.21894243       1.68752828      -0.30519609
H       -2.61677529       0.39316111      -0.37784623
H       -1.51899252       0.26643651      -1.76232839
H       -2.78612606      -1.64733770      -1.61090476
18
Properties=species:S:1:pos:R:3 relative_energy_eV=0.00015103493569768034 branch=left pbc="F F F"
O        0.29391193       2.17864189       0.25020249
C       -0.45262134       1.33695682       0.68610627
O       -1.27038990       1.62860457       1.71304926
C       -0.57629211      -0.07278774       0.11759647
O        0.57893640      -0.43374196      -0.62587176
P        2.01469106      -0.37046582       0.15897340
O        1.86051473      -0.46520398       1.62823032
O        2.84658795      -1.53430809      -0.56994035
O        2.76640989       0.89651091      -0.45348237
C       -1.78497760      -0.18080339      -0.80137760
O       -2.13083043      -1.54939110      -0.91326797
H       -1.74788484       0.83773920       2.00158870
H       -0.71461455      -0.78387069       0.93649715
H        2.88423787      -2.32609001      -0.02009338
H        2.21871764       1.68754667      -0.30576514
H       -2.61666574       0.39301232      -0.37772099
H       -1.51908708       0.26691503      -1.76237943
H       -2.78692259      -1.64721952      -1.61083683
18
Properties=species:S:1:pos:R:3 relative_energy_eV=0.00016157059508259408 branch=left pbc="F F F"
O        0.29391125       2.17832132       0.25012227
C       -0.45268640       1.33671308       0.68601479
O       -1.26993783       1.62821329       1.71344468
C       -0.57646466      -0.07297886       0.11743242
O        0.57883879      -0.43405848      -0.62587868
P        2.01460010      -0.37017021       0.15902294
O        1.86032904      -0.46436921       1.62829927
O        2.84648708      -1.53438518      -0.56922538
O        2.76648644       0.89655006      -0.45396265
C       -1.78509265      -0.18073092      -0.80150222
O       -2.13085412      -1.54919587      -0.91391884
H       -1.74724833       0.83723709       2.00219896
H       -0.71461806      -0.78399883       0.93637527
H        2.88441655      -2.32602338      -0.01926492
H        2.21858244       1.68749366      -0.30653595
H       -2.61661913       0.39301058      -0.37753103
H       -1.51924020       0.26737789      -1.76225296
H       -2.78716905      -1.64696096      -1.61132975
18
Properties=species:S:1:pos:R:3 relative_energy_eV=0.00017387191473972052 branch=left pbc="F F F"
O        0.29391706       2.17808140       0.25012955
C       -0.45274034       1.33652519       0.68591823
O       -1.26945373       1.62772160       1.71384074
C       -0.57670198      -0.07308751       0.11718890
O        0.57871538      -0.43408117      -0.62600961
P        2.01443959      -0.36984809       0.15902590
O        1.85989668      -0.46339077       1.62833885
O        2.84634966      -1.53448821      -0.56849654
O        2.76662863       0.89653695      -0.45447378
C       -1.78532992      -0.18071681      -0.80159301
O       -2.13105919      -1.54907798      -0.91438768
H       -1.74625796       0.83641313       2.00275781
H       -0.71457617      -0.78403297       0.93621412
H        2.88452385      -2.32601975      -0.01825611
H        2.21878208       1.68755238      -0.30720405
H       -2.61667620       0.39304716      -0.37741006
H       -1.51951541       0.26764431      -1.76214577
H       -2.78722072      -1.64673379      -1.61192925
18
Properties=species:S:1:pos:R:3 relative_energy_eV=0.00018541565805207938 branch=left pbc="F F F"
O        0.29425245       2.17760989       0.25045698
C       -0.45253072       1.33613888       0.68604659
O       -1.26871567       1.62695868       1.71449981
C       -0.57700200      -0.07331475       0.11702397
O        0.57846098      -0.43419963      -0.62615149
P        2.01418376      -0.36948833       0.15884975
O        1.85934097      -0.46159880       1.62822853
O        2.84613817      -1.53488282      -0.56751323
O        2.76648343       0.89639542      -0.45560227
C       -1.78569274      -0.18068895      -0.80156967
O       -2.13134466      -1.54891131      -0.91506063
H       -1.74536659       0.83531510       2.00322102
H       -0.71462855      -0.78417668       0.93613940
H        2.88506846      -2.32581363      -0.01645450
H        2.21884347       1.68754846      -0.30843729
H       -2.61691270       0.39311461      -0.37720548
H       -1.51980930       0.26813891      -1.76178413
H       -2.78704746      -1.64610000      -1.61317912
18
Properties=species:S:1:pos:R:3 relative_energy_eV=0.0002063325882772915 branch=left pbc="F F F"
O        0.29467711       2.17707174       0.25078069
C       -0.45209562       1.33560735       0.68628551
O       -1.26745660       1.62598687       1.71544541
C       -0.57723592      -0.07359238       0.11679112
O        0.57822169      -0.43418954      -0.62662143
P        2.01381097      -0.36910801       0.15857279
O        1.85823253      -0.45930798       1.62801104
O        2.84623038      -1.53528144      -0.56622115
O        2.76611091       0.89627840      -0.45678609
C       -1.78607204      -0.18076025      -0.80157569
O       -2.13163380      -1.54894804      -0.91608804
H       -1.74396197       0.83414146       2.00397905
H       -0.71460771      -0.78435434       0.93601703
H        2.88538316      -2.32563083      -0.01411712
H        2.21869046       1.68762611      -0.30985214
H       -2.61738053       0.39295952      -0.37715182
H       -1.52006998       0.26869565      -1.76141992
H       -2.78712174      -1.64514930      -1.61454101
18
Properties=species:S:1:pos:R:3 relative_energy_eV=0.00022646510115009733 branch=left pbc="F F F"
O        0.29527508       2.17651523       0.25116691
C       -0.45143986       1.33501092       0.68670848
O       -1.26611508       1.62519409       1.71641483
C       -0.57719357      -0.07390661       0.11666426
O        0.57809759      -0.43431724      -0.62725265
P        2.01351199      -0.36885654       0.15818875
O        1.85713115      -0.45727608       1.62765387
O        2.84660222      -1.53564114      -0.56508003
O        2.76549067       0.89626072      -0.45781387
C       -1.78620250      -0.18083810      -0.80157763
O       -2.13161748      -1.54908381      -0.91718369
H       -1.74333982       0.83367585       2.00457423
H       -0.71448081      -0.78467380       0.93588972
H        2.88544637      -2.32540468      -0.01207217
H        2.21804433       1.68765546      -0.31102512
H       -2.61784901       0.39257701      -0.37717934
H       -1.52009955       0.26927755      -1.76112333
H       -2.78754042      -1.64412386      -1.61544499
18
Properties=species:S:1:pos:R:3 relative_energy_eV=0.00024978307919809595 branch=left pbc="F F F"
O        0.29554596       2.17622376       0.25113971
C       -0.45091905       1.33458971       0.68700125
O       -1.26491789       1.62476619       1.71717897
C       -0.57697401      -0.07412357       0.11651972
O        0.57812800      -0.43442695      -0.62795247
P        2.01329040      -0.36871261       0.15794659
O        1.85605316      -0.45616566       1.62738246
O        2.84715217      -1.53570071      -0.56422490
O        2.76495766       0.89640239      -0.45818326
C       -1.78607988      -0.18091230      -0.80171283
O       -2.13139312      -1.54927073      -0.91812597
H       -1.74268398       0.83377864       2.00536976
H       -0.71424432      -0.78499280       0.93565371
H        2.88497580      -2.32530432      -0.01086178
H        2.21722653       1.68768146      -0.31151165
H       -2.61815639       0.39200939      -0.37735750
H       -1.52000363       0.26962394      -1.76114653
H       -2.78823609      -1.64342091      -1.61560705
18
Properties=species:S:1:pos:R:3 relative_energy_eV=0.00027424665677244775 branch=left pbc="F F F"
O        0.29576079       2.17611575       0.25107746
C       -0.45047196       1.33433318       0.68724869
O       -1.26402107       1.62458051       1.71773524
C       -0.57663282      -0.07422979       0.11632358
O        0.57826504      -0.43448621      -0.62868862
P        2.01315738      -0.36857310       0.15774423
O        1.85509410      -0.45570372       1.62711634
O        2.84766429      -1.53560590      -0.56359558
O        2.76461424       0.89663305      -0.45828837
C       -1.78581067      -0.18093604      -0.80191485
O       -2.13103552      -1.54938988      -0.91869766
H       -1.74247032       0.83416488       2.00596707
H       -0.71383560      -0.78534831       0.93525807
H        2.88412649      -2.32524969      -0.01027169
H        2.21655436       1.68771437      -0.31139587
H       -2.61826591       0.39140869      -0.37752782
H       -1.51994759       0.26972466      -1.76141950
H       -2.78902391      -1.64310757      -1.61516251
18
Properties=species:S:1:pos:R:3 relative_energy_eV=0.0002903939202951733 branch=left pbc="F F F"
O        0.29566875       2.17617368       0.25065846
C       -0.45012976       1.33417461       0.68737067
O       -1.26302317       1.62439402       1.71835905
C       -0.57636929      -0.07429110       0.11598663
O        0.57838130      -0.43450430      -0.62945726
P        2.01292505      -0.36831784       0.15765983
O        1.85387384      -0.45537984       1.62693837
O        2.84806330      -1.53538159      -0.56274706
O        2.76437389       0.89687757      -0.45837668
C       -1.78555231      -0.18089319      -0.80227703
O       -2.13074850      -1.54936645      -0.91923887
H       -1.74134401       0.83424861       2.00705657
H       -0.71338224      -0.78577335       0.93464752
H        2.88303661      -2.32514888      -0.00958756
H        2.21601398       1.68771617      -0.31109564
H       -2.61829984       0.39074672      -0.37770621
H       -1.52005763       0.26971992      -1.76193302
H       -2.78970865      -1.64294986      -1.61474961
18
Properties=species:S:1:pos:R:3 relative_energy_eV=0.0003143929388897959 branch=left pbc="F F F"
O        0.29568141       2.17635437       0.25042127
C       -0.44979917       1.33415952       0.68744834
O       -1.26223791       1.62416965       1.71887340
C       -0.57617380      -0.07423123       0.11548897
O        0.57849717      -0.43426328      -0.63026488
P        2.01266289      -0.36791429       0.15757034
O        1.85251617      -0.45509918       1.62673999
O        2.84826257      -1.53509703      -0.56183866
O        2.76439765       0.89709393      -0.45858523
C       -1.78540812      -0.18082866      -0.80267907
O       -2.13055270      -1.54927128      -0.91936698
H       -1.74016586       0.83388113       2.00785381
H       -0.71275389      -0.78619756       0.93383095
H        2.88171192      -2.32506582      -0.00894425
H        2.21602897       1.68777812      -0.31046801
H       -2.61825987       0.39020900      -0.37779605
H       -1.52043187       0.26948475      -1.76260859
H       -2.79025425      -1.64311727      -1.61416718
18
Properties=species:S:1:pos:R:3 relative_energy_eV=0.00034238867010571994 branch=left pbc="F F F"
O        0.29548670       2.17650169       0.25000461
C       -0.44960020       1.33414353       0.68744050
O       -1.26140815       1.62381405       1.71946937
C       -0.57627577      -0.07423777       0.11505774
O        0.57842147      -0.43406939      -0.63074204
P        2.01228005      -0.36747732       0.15757058
O        1.85123758      -0.45444804       1.62666427
O        2.84817478      -1.53492170      -0.56078061
O        2.76438268       0.89709587      -0.45912402
C       -1.78550547      -0.18073290      -0.80305208
O       -2.13064044      -1.54907099      -0.91960975
H       -1.73812995       0.83291527       2.00892436
H       -0.71240978      -0.78662012       0.93313830
H        2.88094681      -2.32480431      -0.00780275
H        2.21619432       1.68773328      -0.31035637
H       -2.61830116       0.38990831      -0.37778337
H       -1.52085936       0.26942744      -1.76311015
H       -2.79027278      -1.64311205      -1.61440042
18
Properties=species:S:1:pos:R:3 relative_energy_eV=0.0003599208066589199 branch=left pbc="F F F"
O        0.29551322       2.17667370       0.24980926
C       -0.44943956       1.33426202       0.68732517
O       -1.26098503       1.62364134       1.71969471
C       -0.57639938      -0.07416307       0.11467235
O        0.57837398      -0.43365253      -0.63106700
P        2.01197376      -0.36712293       0.15758833
O        1.85011100      -0.45407862       1.62660537
O        2.84809722      -1.53465586      -0.56011965
O        2.76451918       0.89709728      -0.45932907
C       -1.78565316      -0.18075771      -0.80332432
O       -2.13060571      -1.54907433      -0.91952036
H       -1.73668707       0.83199785       2.00937076
H       -0.71202576      -0.78690567       0.93255356
H        2.88016385      -2.32470658      -0.00727534
H        2.21658851       1.68773833      -0.30997154
H       -2.61828318       0.38983496      -0.37775083
H       -1.52117501       0.26924210      -1.76350552
H       -2.79036553      -1.64332544      -1.61424775
18
Properties=species:S:1:pos:R:3 relative_energy_eV=0.00037732273995061405 branch=left pbc="F F F"
O        0.29523266       2.17665064       0.24924728
C       -0.44942465       1.33418142       0.68717066
O       -1.26015383       1.62328423       1.72028091
C       -0.57681757      -0.07434548       0.11448647
O        0.57804549      -0.43350953      -0.63109225
P        2.01145093      -0.36683477       0.15759059
O        1.84895018      -0.45298044       1.62657508
O        2.84778010      -1.53462450      -0.55922300
O        2.76433600       0.89674245      -0.46007777
C       -1.78596841      -0.18073802      -0.80353574
O       -2.13081429      -1.54904173      -0.92000056
H       -1.73432370       0.83073811       2.01065145
H       -0.71207927      -0.78751927       0.93206163
H        2.88015669      -2.32412000      -0.00572617
H        2.21672269       1.68754601      -0.31057145
H       -2.61829724       0.39002761      -0.37751013
H       -1.52123201       0.26960902      -1.76355433
H       -2.78984243      -1.64302091      -1.61526456
18
Properties=species:S:1:pos:R:3 relative_energy_eV=0.00041570764369680546 branch=left pbc="F F F"
O        0.29477681       2.17671660       0.24800629
C       -0.44948443       1.33425441       0.68652292
O       -1.25932928       1.62348442       1.72033694
C       -0.57706984      -0.07451039       0.11430141
O        0.57785520      -0.43338202      -0.63111117
P        2.01093502      -0.36682027       0.15775655
O        1.84736021      -0.45288759       1.62665374
O        2.84806408      -1.53412682      -0.55890577
O        2.76393960       0.89673687      -0.45945092
C       -1.78592145      -0.18093368      -0.80386024
O       -2.13007120      -1.54944574      -0.92059944
H       -1.73178629       0.83032189       2.01235531
H       -0.71219668      -0.78813351       0.93147727
H        2.87937233      -2.32383539      -0.00545046
H        2.21605221       1.68738696      -0.31041061
H       -2.61791938       0.39026737      -0.37742473
H       -1.52067358       0.26998963      -1.76359214
H       -2.79018201      -1.64303788      -1.61509686
18
Properties=species:S:1:pos:R:3 relative_energy_eV=0.0004684316118073184 branch=left pbc="F F F"
O        0.29434485       2.17645101       0.24720133
C       -0.44965474       1.33383210       0.68619386
O       -1.25842005       1.62309039       1.72088069
C       -0.57725562      -0.07492190       0.11425065
O        0.57748305      -0.43379331      -0.63138001
P        2.01037936      -0.36692461       0.15744972
O        1.84630134      -0.45177758       1.62634665
O        2.84800626      -1.53438570      -0.55845104
O        2.76325326       0.89634378      -0.46008668
C       -1.78584526      -0.18079196      -0.80391102
O       -2.12981375      -1.54951181      -0.92147338
H       -1.73011611       0.82998310       2.01460920
H       -0.71285781      -0.78917946       0.93074430
H        2.87938249      -2.32287482      -0.00344013
H        2.21555990       1.68734462      -0.31132144
H       -2.61729770       0.39089307      -0.37679525
H       -1.52016004       0.27102416      -1.76325385
H       -2.78956807      -1.64275620      -1.61605550
18
Properties=species:S:1:pos:R:3 relative_energy_eV=0.0005350343453756068 branch=left pbc="F F F"
O        0.29322494       2.17618569       0.24543632
C       -0.44979605       1.33332425       0.68561605
O       -1.25706889       1.62277022       1.72133304
C       -0.57729208      -0.07538245       0.11414620
O        0.57718644      -0.43500564      -0.63162474
P        2.00986205      -0.36718304       0.15733607
O        1.84534943      -0.45143661       1.62627333
O        2.84850215      -1.53452177      -0.55792431
O        2.76192251       0.89645166      -0.46012723
C       -1.78542464      -0.18047005      -0.80416070
O       -2.12891841      -1.54928013      -0.92286969
H       -1.72714664       0.83014255       2.01799031
H       -0.71422602      -0.78987514       0.93009853
H        2.87914005      -2.32212586      -0.00154494
H        2.21383829       1.68735813      -0.31214422
H       -2.61649599       0.39131397      -0.37640499
H       -1.51959087       0.27233899      -1.76291389
H       -2.78934492      -1.64255990      -1.61700704
18
Properties=species:S:1:pos:R:3 relative_energy_eV=0.0006202077966008801 branch=left pbc="F F F"
O        0.29334880       2.17569122       0.24590685
C       -0.44952501       1.33239133       0.68590871
O       -1.25661975       1.62120638       1.72201822
C       -0.57704416      -0.07566417       0.11366805
O        0.57685022      -0.43621985      -0.63276569
P        2.00944967      -0.36706166       0.15633235
O        1.84518177      -0.44964410       1.62538936
O        2.84820653      -1.53565795      -0.55689825
O        2.76091914       0.89625924      -0.46257368
C       -1.78530756      -0.17955298      -0.80397361
O       -2.12905647      -1.54830027      -0.92308235
H       -1.72662422       0.82912272       2.01969316
H       -0.71574175      -0.79051134       0.92896438
H        2.87922253      -2.32100237       0.00256938
H        2.21412311       1.68796652      -0.31327337
H       -2.61558289       0.39233062      -0.37521102
H       -1.52036847       0.27366391      -1.76255795
H       -2.78771014      -1.64297239      -1.61860645
18
Properties=species:S:1:pos:R:3 relative_energy_eV=0.0007482270557375159 branch=left pbc="F F F"
O        0.29255203       2.17493222       0.24533512
C       -0.44901054       1.33117308       0.68639072
O       -1.25493697       1.61910489       1.72347227
C       -0.57735074      -0.07623958       0.11327537
O        0.57608315      -0.43848411      -0.63328730
P        2.00872645      -0.36666294       0.15559697
O        1.84517882      -0.44702745       1.62488972
O        2.84767749      -1.53699225      -0.55453636
O        2.75897346       0.89602875      -0.46626698
C       -1.78561386      -0.17826025      -0.80400572
O       -2.12955452      -1.54654049      -0.92437284
H       -1.72257610       0.82669842       2.02271675
H       -0.71844970      -0.79088450       0.92827143
H        2.88054313      -2.31948904       0.00875534
H        2.21335871       1.68821013      -0.31594433
H       -2.61526363       0.39327417      -0.37413584
H       -1.52152072       0.27581528      -1.76194114
H       -2.78509505      -1.64261145      -1.62270510
18
Properties=species:S:1:pos:R:3 relative_energy_eV=0.0008937822567531839 branch=left pbc="F F F"
O        0.29363850       2.17411615       0.24706142
C       -0.44792737       1.33004576       0.68757447
O       -1.25491350       1.61668783       1.72438065
C       -0.57756524      -0.07644996       0.11268755
O        0.57534698      -0.43978275      -0.63420077
P        2.00816840      -0.36579673       0.15435283
O        1.84541885      -0.44367527       1.62384321
O        2.84640750      -1.53850460      -0.55221715
O        2.75805517       0.89562977      -0.47105226
C       -1.78646740      -0.17691913      -0.80367068
O       -2.13078540      -1.54482336      -0.92393723
H       -1.72125957       0.82299316       2.02253762
H       -0.72036252      -0.79099465       0.92755478
H        2.88190229      -2.31831742       0.01489138
H        2.21477628       1.68874008      -0.31800025
H       -2.61532171       0.39462211      -0.37267989
H       -1.52348949       0.27740912      -1.76149641
H       -2.78190033      -1.64293523      -1.62612113
18
Properties=species:S:1:pos:R:3 relative_energy_eV=0.001013803976093186 branch=left pbc="F F F"
O        0.29319930       2.17294354       0.24667972
C       -0.44714429       1.32878711       0.68861161
O       -1.25330824       1.61489762       1.72601868
C       -0.57855369      -0.07728670       0.11293398
O        0.57415086      -0.44196786      -0.63363070
P        2.00740088      -0.36515371       0.15380129
O        1.84573671      -0.44011102       1.62352642
O        2.84513155      -1.53983908      -0.54951634
O        2.75636008       0.89494188      -0.47561300
C       -1.78752185      -0.17573463      -0.80359770
O       -2.13204378      -1.54317317      -0.92543518
H       -1.71691913       0.81957081       2.02442360
H       -0.72288831      -0.79147466       0.92789152
H        2.88506923      -2.31668855       0.02130306
H        2.21389166       1.68830762      -0.32194939
H       -2.61616467       0.39547541      -0.37169396
H       -1.52416733       0.28004408      -1.76056789
H       -2.77850748      -1.64149378      -1.63167758
18
Properties=species:S:1:pos:R:3 relative_energy_eV=0.0011819342653325293 branch=left pbc="F F F"
O        0.29388199       2.17163679       0.24676638
C       -0.44622778       1.32760095       0.68957193
O       -1.25343807       1.61387635       1.72640709
C       -0.57937111      -0.07798691       0.11331006
O        0.57310006      -0.44353667      -0.63312023
P        2.00690325      -0.36450536       0.15309636
O        1.84547873      -0.43697348       1.62296933
O        2.84391421      -1.54085572      -0.54779550
O        2.75570345       0.89466345      -0.47888964
C       -1.78859660      -0.17459997      -0.80353258
O       -2.13292428      -1.54209560      -0.92568826
H       -1.71410484       0.81636829       2.02512996
H       -0.72441850      -0.79204670       0.92839077
H        2.88781654      -2.31604065       0.02589076
H        2.21339120       1.68804775      -0.32481577
H       -2.61739518       0.39626509      -0.37076774
H       -1.52426346       0.28276849      -1.76005392
H       -2.77572809      -1.64054120      -1.63536081
18
Properties=species:S:1:pos:R:3 relative_energy_eV=0.00140658486270695 branch=left pbc="F F F"
O        0.29178748       2.16909165       0.24410294
C       -0.44598933       1.32522752       0.69088243
O       -1.25052212       1.61260773       1.72921311
C       -0.58126423      -0.08022239       0.11523479
O        0.57101374      -0.44794032      -0.63065374
P        2.00606528      -0.36440284       0.15251954
O        1.84636048      -0.43126362       1.62274854
O        2.84197508      -1.54347964      -0.54499622
O        2.75319025       0.89337700      -0.48443234
C       -1.78978501      -0.17279213      -0.80354557
O       -2.13469859      -1.53997902      -0.92955801
H       -1.70810027       0.81391697       2.03102581
H       -0.72769396      -0.79446046       0.92997460
H        2.89493927      -2.31321153       0.03468341
H        2.20937472       1.68642229      -0.33287449
H       -2.61942311       0.39673046      -0.36960294
H       -1.52268173       0.28853738      -1.75829171
H       -2.77082640      -1.63611410      -1.64492195
18
Properties=species:S:1:pos:R:3 relative_energy_eV=0.0017356274074700195 branch=left pbc="F F F"
O        0.28840978       2.16785921       0.23991922
C       -0.44702865       1.32360429       0.69048079
O       -1.24866122       1.61191833       1.73080555
C       -0.58246170      -0.08173694       0.11609869
O        0.57005833      -0.45059947      -0.62944586
P        2.00577046      -0.36464852       0.15238262
O        1.84593045      -0.42729725       1.62296216
O        2.84133445      -1.54550421      -0.54347581
O        2.75254048       0.89310304      -0.48581869
C       -1.79051481      -0.17114153      -0.80429563
O       -2.13580571      -1.53849196      -0.93182338
H       -1.70038344       0.81256986       2.03977627
H       -0.72891407      -0.79695563       0.93001373
H        2.89861959      -2.31253321       0.04063540
H        2.20646447       1.68576655      -0.33755447
H       -2.62139547       0.39658605      -0.36963838
H       -1.52199448       0.29302208      -1.75843552
H       -2.76824683      -1.63347574      -1.65107849
18
Properties=species:S:1:pos:R:3 relative_energy_eV=0.002090972015139414 branch=left pbc="F F F"
O        0.28416693       2.16601917       0.23621352
C       -0.44830912       1.32120251       0.69097922
O       -1.24465286       1.60967630       1.73527227
C       -0.58420264      -0.08414078       0.11783789
O        0.56833419      -0.45511449      -0.62713695
P        2.00513992      -0.36515603       0.15195074
O        1.84805696      -0.41994950       1.62310405
O        2.83932527      -1.54969758      -0.54049554
O        2.75003889       0.89106906      -0.49168330
C       -1.79143084      -0.16902121      -0.80438538
O       -2.13872831      -1.53552656      -0.93671732
H       -1.69354716       0.81128696       2.05032970
H       -0.73152057      -0.80068967       0.93042499
H        2.90626046      -2.30894273       0.05134971
H        2.20277245       1.68388957      -0.34676434
H       -2.62316271       0.39676267      -0.36885015
H       -1.52190433       0.29859521      -1.75702603
H       -2.76291483      -1.62821795      -1.66289483
18
Properties=species:S:1:pos:R:3 relative_energy_eV=0.002556958992499858 branch=left pbc="F F F"
O        0.27789249       2.16649862       0.23136784
C       -0.45063886       1.32025669       0.68988350
O       -1.23995412       1.60648320       1.73990882
C       -0.58569448      -0.08513247       0.11723108
O        0.56777145      -0.45677480      -0.62662432
P        2.00460052      -0.36533509       0.15241832
O        1.84944653      -0.41360277       1.62422075
O        2.83856675      -1.55271141      -0.53646338
O        2.74873139       0.88923124      -0.49557911
C       -1.79299269      -0.16748087      -0.80534479
O       -2.14224979      -1.53291924      -0.94028383
H       -1.68106749       0.80780100       2.06353127
H       -0.73281233      -0.80327410       0.92833425
H        2.90964944      -2.30715184       0.06200597
H        2.20210447       1.68293935      -0.35243522
H       -2.62491717       0.39710288      -0.36952781
H       -1.52571892       0.30139842      -1.75767338
H       -2.75899543      -1.62528385      -1.67346171
18
Properties=species:S:1:pos:R:3 relative_energy_eV=0.0030472439248114824 branch=left pbc="F F F"
O        0.27475458       2.16607634       0.23048292
C       -0.45166193       1.31875977       0.69075307
O       -1.23573973       1.60210574       1.74571093
C       -0.58743078      -0.08646257       0.11742497
O        0.56632484      -0.45916896      -0.62539255
P        2.00363692      -0.36507552       0.15215154
O        1.85308893      -0.40441783       1.62463787
O        2.83578114      -1.55696780      -0.53149396
O        2.74611003       0.88572123      -0.50457234
C       -1.79505458      -0.16591631      -0.80495816
O       -2.14710328      -1.52972567      -0.94433489
H       -1.67407860       0.80317173       2.07140862
H       -0.73514079      -0.80587277       0.92724878
H        2.91650347      -2.30296756       0.07504234
H        2.20235352       1.68095589      -0.36085043
H       -2.62627025       0.39852625      -0.36863515
H       -1.52995310       0.30432147      -1.75634561
H       -2.75239854      -1.62101847      -1.68676968
18
Properties=species:S:1:pos:R:3 relative_energy_eV=0.0035134743520757183 branch=left pbc="F F F"
O        0.27160218       2.16641557       0.22944264
C       -0.45225060       1.31824543       0.69149095
O       -1.23172599       1.59844175       1.75061528
C       -0.58911883      -0.08694076       0.11677300
O        0.56527228      -0.45983025      -0.62494696
P        2.00260524      -0.36440080       0.15234886
O        1.85554142      -0.39761300       1.62535856
O        2.83382453      -1.55918807      -0.52649270
O        2.74420935       0.88280140      -0.51176581
C       -1.79745636      -0.16533102      -0.80489390
O       -2.15138664      -1.52786336      -0.94745082
H       -1.66548101       0.79748630       2.07748305
H       -0.73714197      -0.80693613       0.92590796
H        2.92076488      -2.30014966       0.08592386
H        2.20388194       1.67946627      -0.36671393
H       -2.62748907       0.40015185      -0.36831297
H       -1.53454869       0.30552855      -1.75561614
H       -2.74738074      -1.61823912      -1.69764264
18
Properties=species:S:1:pos:R:3 relative_energy_eV=0.0038543585033039562 branch=left pbc="F F F"
O        0.27174261       2.16579353       0.23089835
C       -0.45164427       1.31734558       0.69333495
O       -1.22993730       1.59582440       1.75409460
C       -0.59043123      -0.08767509       0.11717224
O        0.56387739      -0.46095388      -0.62405485
P        2.00161271      -0.36369161       0.15199246
O        1.85805352      -0.39131778       1.62538024
O        2.83111857      -1.56135573      -0.52294875
O        2.74240850       0.88001735      -0.51913597
C       -1.79933307      -0.16492537      -0.80399609
O       -2.15464319      -1.52664465      -0.94980233
H       -1.66314721       0.79325852       2.07814731
H       -0.73920024      -0.80783110       0.92602527
H        2.92618136      -2.29704567       0.09393553
H        2.20475589       1.67774369      -0.37244033
H       -2.62820555       0.40191692      -0.36696163
H       -1.53689572       0.30694699      -1.75381171
H       -2.74259080      -1.61536115      -1.70632097
18
Properties=species:S:1:pos:R:3 relative_energy_eV=0.004110801062779501 branch=left pbc="F F F"
O        0.27061603       2.16530018       0.23026800
C       -0.45115611       1.31678272       0.69465125
O       -1.22796921       1.59472593       1.75658827
C       -0.59166810      -0.08834202       0.11766151
O        0.56272757      -0.46192848      -0.62318864
P        2.00072542      -0.36322361       0.15210601
O        1.85905607      -0.38770577       1.62571457
O        2.82952002      -1.56212748      -0.52031677
O        2.74106826       0.87835043      -0.52338502
C       -1.80068411      -0.16504232      -0.80366153
O       -2.15657922      -1.52640450      -0.95246211
H       -1.65896922       0.79036150       2.08011628
H       -0.74130892      -0.80817585       0.92657794
H        2.93011766      -2.29515064       0.09928131
H        2.20427528       1.67632541      -0.37688619
H       -2.62871988       0.40300668      -0.36613367
H       -1.53751632       0.30813999      -1.75246155
H       -2.73981325      -1.61284721      -1.71296132
18
Properties=species:S:1:pos:R:3 relative_energy_eV=0.004343715369031997 branch=left pbc="F F F"
O        0.27023339       2.16423793       0.22999466
C       -0.45043169       1.31571357       0.69642726
O       -1.22671574       1.59421881       1.75872793
C       -0.59278245      -0.08949341       0.11896909
O        0.56131765      -0.46362986      -0.62191413
P        1.99986832      -0.36293463       0.15193238
O        1.85997274      -0.38392198       1.62574664
O        2.82743457      -1.56338636      -0.51848604
O        2.73979430       0.87674588      -0.52758826
C       -1.80155070      -0.16511240      -0.80302440
O       -2.15808470      -1.52628964      -0.95546315
H       -1.65716699       0.78888798       2.08136833
H       -0.74380877      -0.80889108       0.92799625
H        2.93536614      -2.29290573       0.10369995
H        2.20265608       1.67466853      -0.38219016
H       -2.62886079       0.40387407      -0.36456051
H       -1.53640129       0.30990278      -1.75055199
H       -2.73711809      -1.60963946      -1.71957549
18
Properties=species:S:1:pos:R:3 relative_energy_eV=0.0046150322414177936 branch=left pbc="F F F"
O        0.26747409       2.16300390       0.22720888
C       -0.45025360       1.31433441       0.69797957
O       -1.22410111       1.59438671       1.76144889
C       -0.59418484      -0.09123582       0.12088184
O        0.55971507      -0.46617380      -0.62014094
P        1.99895348      -0.36300833       0.15199697
O        1.86014137      -0.38075896       1.62598154
O        2.82566772      -1.56467702      -0.51679969
O        2.73836376       0.87552574      -0.53075792
C       -1.80191115      -0.16531302      -0.80281143
O       -2.15942983      -1.52620970      -0.96038627
H       -1.65279395       0.78883250       2.08649069
H       -0.74735799      -0.80988269       0.93010658
H        2.94145049      -2.29054977       0.10843537
H        2.19912833       1.67281587      -0.38903473
H       -2.62864703       0.40394839      -0.36279708
H       -1.53349180       0.31223824      -1.74856066
H       -2.73500098      -1.60523164      -1.72773322
18
Properties=species:S:1:pos:R:3 relative_energy_eV=0.004917741254757857 branch=left pbc="F F F"
O        0.26455328       2.16161351       0.22454040
C       -0.45047675       1.31260829       0.69942483
O       -1.22141597       1.59449238       1.76436731
C       -0.59542510      -0.09333789       0.12323442
O        0.55812471      -0.46917045      -0.61811611
P        1.99827092      -0.36333061       0.15171579
O        1.86042648      -0.37760005       1.62588936
O        2.82390194      -1.56674421      -0.51567619
O        2.73696085       0.87442205      -0.53404576
C       -1.80169475      -0.16524932      -0.80254157
O       -2.16083630      -1.52553319      -0.96562489
H       -1.65005739       0.79018376       2.09230183
H       -0.75118450      -0.81125823       0.93262012
H        2.94811274      -2.28781684       0.11322802
H        2.19514060       1.67108401      -0.39660031
H       -2.62798135       0.40340039      -0.36051093
H       -1.52973527       0.31471637      -1.74648469
H       -2.73296210      -1.60043492      -1.73621319
18
Properties=species:S:1:pos:R:3 relative_energy_eV=0.0051996955553477164 branch=left pbc="F F F"
O        0.26138968       2.16058195       0.22199265
C       -0.45123016       1.31124151       0.70015449
O       -1.21857522       1.59437590       1.76709218
C       -0.59641117      -0.09511745       0.12519459
O        0.55698744      -0.47171173      -0.61628299
P        1.99797221      -0.36379268       0.15136076
O        1.86067375      -0.37574002       1.62563144
O        2.82306147      -1.56860667      -0.51496519
O        2.73570475       0.87375504      -0.53664071
C       -1.80114361      -0.16502720      -0.80252830
O       -2.16222111      -1.52436450      -0.97022407
H       -1.64782977       0.79196784       2.09830098
H       -0.75447666      -0.81232942       0.93482887
H        2.95321314      -2.28551600       0.11761036
H        2.19189415       1.67000816      -0.40302084
H       -2.62718820       0.40226400      -0.35863554
H       -1.52655635       0.31653619      -1.74505849
H       -2.73154230      -1.59647984      -1.74330171
18
Properties=species:S:1:pos:R:3 relative_energy_eV=0.005443714129796717 branch=left pbc="F F F"
O        0.26014834       2.15981628       0.22168427
C       -0.45191857       1.31031055       0.70061665
O       -1.21686472       1.59369091       1.76911834
C       -0.59697366      -0.09628618       0.12658652
O        0.55626559      -0.47339658      -0.61485904
P        1.99801604      -0.36408861       0.15064906
O        1.86131633      -0.37443819       1.62499489
O        2.82259265      -1.57034479      -0.51466523
O        2.73473755       0.87313059      -0.53952773
C       -1.80063832      -0.16460409      -0.80231859
O       -2.16363875      -1.52284598      -0.97278809
H       -1.64855049       0.79319815       2.10103845
H       -0.75665178      -0.81293150       0.93656568
H        2.95672426      -2.28351806       0.12121083
H        2.19058379       1.66961523      -0.40758980
H       -2.62651721       0.40118612      -0.35700759
H       -1.52471663       0.31749595      -1.74407380
H       -2.73019239      -1.59394476      -1.74812629
18
Properties=species:S:1:pos:R:3 relative_energy_eV=0.005662101455527591 branch=left pbc="F F F"
O        0.26011276       2.15916293       0.22268228
C       -0.45244861       1.30986228       0.70088844
O       -1.21572476       1.59267953       1.77067054
C       -0.59739116      -0.09690480       0.12749670
O        0.55575221      -0.47451616      -0.61367083
P        1.99815515      -0.36421725       0.14987772
O        1.86207911      -0.37383016       1.62420415
O        2.82252446      -1.57148967      -0.51445480
O        2.73378527       0.87252923      -0.54252621
C       -1.80035330      -0.16415892      -0.80203472
O       -2.16506948      -1.52130315      -0.97398078
H       -1.65039411       0.79348094       2.10133567
H       -0.75795549      -0.81297211       0.93799262
H        2.95886515      -2.28177523       0.12437235
H        2.19076729       1.66971603      -0.41080329
H       -2.62618898       0.40026667      -0.35590898
H       -1.52396060       0.31792015      -1.74336800
H       -2.72883285      -1.59240523      -1.75126431
18
Properties=species:S:1:pos:R:3 relative_energy_eV=0.005879473472305108 branch=left pbc="F F F"
O        0.26208928       2.15817027       0.22568993
C       -0.45248544       1.30953148       0.70154654
O       -1.21550247       1.59128738       1.77189776
C       -0.59775012      -0.09727558       0.12838764
O        0.55506255      -0.47569516      -0.61244911
P        1.99817797      -0.36413939       0.14880341
O        1.86324733      -0.37298272       1.62315772
O        2.82216665      -1.57244952      -0.51431822
O        2.73262510       0.87153793      -0.54660441
C       -1.80037666      -0.16363944      -0.80130157
O       -2.16655396      -1.51974311      -0.97387735
H       -1.65465259       0.79282287       2.09809001
H       -0.75859520      -0.81274696       0.93954678
H        2.96090212      -2.27958788       0.12746258
H        2.19222113       1.67000714      -0.41371662
H       -2.62628165       0.39977880      -0.35495224
H       -1.52374824       0.31838193      -1.74228677
H       -2.72682376      -1.59121298      -1.75356747
18
Properties=species:S:1:pos:R:3 relative_energy_eV=0.006139972087112255 branch=left pbc="F F F"
O        0.26487103       2.15626894       0.22902127
C       -0.45203231       1.30896501       0.70276936
O       -1.21513420       1.58993622       1.77334370
C       -0.59844115      -0.09790171       0.12983141
O        0.55372906      -0.47816333      -0.61059446
P        1.99770951      -0.36411150       0.14781236
O        1.86482763      -0.37197343       1.62218709
O        2.82151489      -1.57296029      -0.51404619
O        2.73045511       0.87007087      -0.55168563
C       -1.80062168      -0.16307073      -0.80018290
O       -2.16777765      -1.51824022      -0.97402069
H       -1.65945114       0.79174208       2.09313085
H       -0.75915597      -0.81257425       0.94180150
H        2.96396158      -2.27642439       0.13110631
H        2.19324680       1.67001973      -0.41788966
H       -2.62699911       0.39965031      -0.35449502
H       -1.52304128       0.31997212      -1.74018101
H       -2.72393909      -1.58916033      -1.75639962
18
Properties=species:S:1:pos:R:3 relative_energy_eV=0.006481134161731461 branch=left pbc="F F F"
O        0.26804896       2.15338133       0.23195312
C       -0.45098737       1.30773958       0.70481898
O       -1.21476711       1.58909974       1.77488639
C       -0.59931602      -0.09912123       0.13206116
O        0.55172837      -0.48231781      -0.60822872
P        1.99673641      -0.36429959       0.14692702
O        1.86705276      -0.37036359       1.62153902
O        2.82025123      -1.57345172      -0.51383212
O        2.72741110       0.86818039      -0.55725212
C       -1.80089893      -0.16242953      -0.79863655
O       -2.16817291      -1.51702538      -0.97488085
H       -1.66506116       0.79134441       2.08762326
H       -0.75974642      -0.81308059       0.94461133
H        2.96869792      -2.27232519       0.13472431
H        2.19260526       1.66934047      -0.42353704
H       -2.62814968       0.40011432      -0.35440248
H       -1.52126732       0.32315758      -1.73683309
H       -2.72044306      -1.58589806      -1.76003290
18
Properties=species:S:1:pos:R:3 relative_energy_eV=0.006827925557445269 branch=left pbc="F F F"
O        0.26927531       2.15029555       0.23218369
C       -0.44997945       1.30599850       0.70691531
O       -1.21355967       1.58921767       1.77647574
C       -0.60024227      -0.10087101       0.13458262
O        0.54963579      -0.48721879      -0.60591922
P        1.99553290      -0.36483923       0.14669083
O        1.86923455      -0.36893970       1.62156378
O        2.81898212      -1.57377720      -0.51369764
O        2.72415426       0.86661618      -0.56124152
C       -1.80090951      -0.16184394      -0.79734824
O       -2.16747179      -1.51629631      -0.97724658
H       -1.66840512       0.79252241       2.08538039
H       -0.76056452      -0.81442358       0.94719589
H        2.97392947      -2.26853800       0.13762413
H        2.18948756       1.66802209      -0.42951705
H       -2.62929069       0.40080958      -0.35488109
H       -1.51851229       0.32729692      -1.73321273
H       -2.71757463      -1.58198597      -1.76403957
18
Properties=species:S:1:pos:R:3 relative_energy_eV=0.0071194108968484215 branch=left pbc="F F F"
O        0.26916601       2.14788913       0.23115055
C       -0.44922610       1.30420791       0.70867521
O       -1.21240061       1.58981023       1.77768829
C       -0.60078250      -0.10258087       0.13668300
O        0.54813724      -0.49114560      -0.60442866
P        1.99468765      -0.36545377       0.14658764
O        1.87117181      -0.36776259       1.62182912
O        2.81787756      -1.57437473      -0.51382058
O        2.72184662       0.86564848      -0.56352283
C       -1.80068099      -0.16131831      -0.79640691
O       -2.16627088      -1.51588525      -0.97970454
H       -1.67098886       0.79486953       2.08553784
H       -0.76117228      -0.81629226       0.94883537
H        2.97822271      -2.26587439       0.13935923
H        2.18588229       1.66667546      -0.43408628
H       -2.62998257       0.40162644      -0.35534779
H       -1.51594911       0.33084800      -1.73034453
H       -2.71581598      -1.57884221      -1.76717532
18
Properties=species:S:1:pos:R:3 relative_energy_eV=0.007335907688684529 branch=left pbc="F F F"
O        0.26772270       2.14626299       0.22887499
C       -0.44891943       1.30262143       0.70970765
O       -1.21089286       1.59053914       1.77864457
C       -0.60113795      -0.10411990       0.13826168
O        0.54724427      -0.49378700      -0.60347982
P        1.99419465      -0.36603873       0.14681254
O        1.87251126      -0.36719941       1.62228164
O        2.81723481      -1.57488779      -0.51396489
O        2.72025257       0.86528693      -0.56433885
C       -1.80032240      -0.16083272      -0.79594069
O       -2.16488498      -1.51549487      -0.98231479
H       -1.67164355       0.79761071       2.08787622
H       -0.76179198      -0.81820660       0.94979747
H        2.98125836      -2.26438166       0.14037658
H        2.18217161       1.66551264      -0.43723467
H       -2.63036473       0.40226636      -0.35589516
H       -1.51384075       0.33349413      -1.72840551
H       -2.71506961      -1.57660041      -1.76955014
18
Properties=species:S:1:pos:R:3 relative_energy_eV=0.007524708827986615 branch=left pbc="F F F"
O        0.26623697       2.14498423       0.22682677
C       -0.44863397       1.30105946       0.71051264
O       -1.20948886       1.59113441       1.77940390
C       -0.60127728      -0.10559968       0.13967627
O        0.54678008      -0.49544499      -0.60277359
P        1.99415322      -0.36651726       0.14681788
O        1.87399956      -0.36677334       1.62257605
O        2.81675163      -1.57575787      -0.51415571
O        2.71909062       0.86519015      -0.56513893
C       -1.79997207      -0.16015226      -0.79548513
O       -2.16343168      -1.51480067      -0.98471216
H       -1.67309446       0.80062550       2.09031118
H       -0.76235933      -0.82042110       0.95047704
H        2.98377387      -2.26341036       0.14118334
H        2.17874539       1.66447245      -0.43950158
H       -2.63061505       0.40309920      -0.35623188
H       -1.51227978       0.33548866      -1.72688383
H       -2.71465685      -1.57513128      -1.77139342
18
Properties=species:S:1:pos:R:3 relative_energy_eV=0.007762430290313205 branch=left pbc="F F F"
O        0.26442078       2.14369485       0.22390797
C       -0.44840589       1.29941310       0.71078955
O       -1.20719493       1.59160961       1.78020059
C       -0.60164511      -0.10733899       0.14135529
O        0.54645589      -0.49662585      -0.60141087
P        1.99437108      -0.36693815       0.14717992
O        1.87550817      -0.36675288       1.62307773
O        2.81669730      -1.57651914      -0.51398364
O        2.71730431       0.86534246      -0.56621768
C       -1.79972953      -0.15912084      -0.79514547
O       -2.16152173      -1.51346901      -0.98801808
H       -1.67300424       0.80354857       2.09329788
H       -0.76367098      -0.82281446       0.95164577
H        2.98648800      -2.26277111       0.14225104
H        2.17403710       1.66318002      -0.44169077
H       -2.63116396       0.40401205      -0.35669060
H       -1.51084128       0.33745640      -1.72539329
H       -2.71438298      -1.57386135      -1.77364648
18
Properties=species:S:1:pos:R:3 relative_energy_eV=0.008069944607996149 branch=left pbc="F F F"
O        0.26456664       2.14244768       0.22302663
C       -0.44770533       1.29822672       0.71104210
O       -1.20540208       1.59159019       1.78073090
C       -0.60196609      -0.10866273       0.14300657
O        0.54637117      -0.49700072      -0.59959605
P        1.99512887      -0.36706111       0.14709388
O        1.87768022      -0.36645630       1.62313367
O        2.81682451      -1.57755498      -0.51353324
O        2.71524694       0.86544018      -0.56887166
C       -1.79984996      -0.15779365      -0.79456565
O       -2.15996539      -1.51173477      -0.99053866
H       -1.67493749       0.80519102       2.09309224
H       -0.76534017      -0.82490062       0.95305539
H        2.98916196      -2.26231569       0.14361910
H        2.16986880       1.66189117      -0.44306839
H       -2.63192539       0.40522003      -0.35655653
H       -1.51038597       0.33894786      -1.72411630
H       -2.71364922      -1.57342900      -1.77544513
18
Properties=species:S:1:pos:R:3 relative_energy_eV=0.008393315692956094 branch=left pbc="F F F"
O        0.26566817       2.14135907       0.22236458
C       -0.44704774       1.29782933       0.71079531
O       -1.20345122       1.59138317       1.78121411
C       -0.60262697      -0.10942821       0.14439003
O        0.54617103      -0.49742515      -0.59711975
P        1.99575694      -0.36706071       0.14747488
O        1.87943286      -0.36609043       1.62347504
O        2.81735135      -1.57792990      -0.51253676
O        2.71242079       0.86554113      -0.57162048
C       -1.80019024      -0.15667377      -0.79434030
O       -2.15872978      -1.51020293      -0.99281094
H       -1.67423927       0.80493332       2.09143805
H       -0.76782774      -0.82573765       0.95468793
H        2.99168351      -2.26215417       0.14494270
H        2.16517997       1.66040909      -0.44402326
H       -2.63286383       0.40584828      -0.35629862
H       -1.51017979       0.34050977      -1.72315560
H       -2.71278601      -1.57306494      -1.77736806
18
Properties=species:S:1:pos:R:3 relative_energy_eV=0.008749951895879349 branch=left pbc="F F F"
O        0.26871700       2.14024864       0.22396082
C       -0.44603101       1.29816771       0.71103174
O       -1.20243537       1.59102142       1.78174030
C       -0.60308702      -0.10932982       0.14529139
O        0.54603415      -0.49799743      -0.59475081
P        1.99661533      -0.36702643       0.14736634
O        1.88215124      -0.36459810       1.62336960
O        2.81767568      -1.57866888      -0.51157719
O        2.70949035       0.86542853      -0.57527234
C       -1.80055560      -0.15572382      -0.79409570
O       -2.15835092      -1.50915576      -0.99362311
H       -1.67595679       0.80362741       2.08658681
H       -0.77048121      -0.82588978       0.95554230
H        2.99419507      -2.26212993       0.14625626
H        2.16101258       1.65873517      -0.44406572
H       -2.63339690       0.40621450      -0.35516668
H       -1.51051903       0.34225194      -1.72247641
H       -2.71135550      -1.57313004      -1.77860877
18
Properties=species:S:1:pos:R:3 relative_energy_eV=0.009217777889716672 branch=left pbc="F F F"
O        0.27140643       2.13889137       0.22402647
C       -0.44533251       1.29885143       0.71112745
O       -1.20040522       1.59114691       1.78296201
C       -0.60389984      -0.10901687       0.14600357
O        0.54557823      -0.50020752      -0.59165455
P        1.99719549      -0.36744481       0.14798811
O        1.88552610      -0.36225000       1.62404531
O        2.81828833      -1.57925176      -0.51025159
O        2.70501154       0.86537029      -0.57828446
C       -1.80051619      -0.15501379      -0.79454810
O       -2.15781097      -1.50849555      -0.99518640
H       -1.67440767       0.80232868       2.08272979
H       -0.77465852      -0.82533181       0.95584979
H        2.99768316      -2.26228293       0.14744442
H        2.15340270       1.65589526      -0.44435036
H       -2.63348761       0.40542847      -0.35382510
H       -1.50992573       0.34568456      -1.72167468
H       -2.70992567      -1.57225658      -1.78089288
18
Properties=species:S:1:pos:R:3 relative_energy_eV=0.009818185502808774 branch=left pbc="F F F"
O        0.27326404       2.13745300       0.22395262
C       -0.44479167       1.29934778       0.71189223
O       -1.19846177       1.59186229       1.78474153
C       -0.60432749      -0.10857352       0.14621092
O        0.54525031      -0.50349948      -0.58928781
P        1.99790946      -0.36839862       0.14832410
O        1.89039671      -0.35903787       1.62456134
O        2.81871685      -1.58062760      -0.50953810
O        2.70065710       0.86532102      -0.58068371
C       -1.79979263      -0.15447354      -0.79525899
O       -2.15755265      -1.50823894      -0.99658327
H       -1.67507905       0.80296654       2.08036907
H       -0.77873997      -0.82512621       0.95463039
H        3.00144160      -2.26251823       0.14849780
H        2.14479901       1.65254810      -0.44445414
H       -2.63250686       0.40405092      -0.35202845
H       -1.50888012       0.34999800      -1.72087973
H       -2.70858083      -1.57100828      -1.78295702
18
Properties=species:S:1:pos:R:3 relative_energy_eV=0.010415707340143854 branch=left pbc="F F F"
O        0.27243846       2.13650662       0.22145368
C       -0.44496415       1.29912654       0.71228450
O       -1.19599290       1.59311270       1.78648772
C       -0.60467701      -0.10878896       0.14615250
O        0.54495477      -0.50745073      -0.58758490
P        1.99820441      -0.36972239       0.14913369
O        1.89448887      -0.35676286       1.62569676
O        2.81936217      -1.58173031      -0.50921638
O        2.69687297       0.86545747      -0.58087875
C       -1.79859534      -0.15420485      -0.79636366
O       -2.15674743      -1.50800828      -0.99894041
H       -1.67342591       0.80554577       2.08283941
H       -0.78226803      -0.82512377       0.95319144
H        3.00472039      -2.26267542       0.14896164
H        2.13579583       1.64938897      -0.44523436
H       -2.63116128       0.40213939      -0.35099977
H       -1.50705048       0.35422236      -1.72010723
H       -2.70823328      -1.56898684      -1.78536710
18
Properties=species:S:1:pos:R:3 relative_energy_eV=0.010903153066465165 branch=left pbc="F F F"
O        0.27037454       2.13614349       0.21883537
C       -0.44510981       1.29842544       0.71248840
O       -1.19400240       1.59441842       1.78756099
C       -0.60468087      -0.10938113       0.14588913
O        0.54490682      -0.51114322      -0.58658073
P        1.99846663      -0.37104764       0.14983484
O        1.89788090      -0.35567017       1.62664226
O        2.82004150      -1.58260854      -0.50942598
O        2.69425462       0.86565517      -0.58015480
C       -1.79731391      -0.15400165      -0.79729940
O       -2.15585381      -1.50759906      -1.00146787
H       -1.67267342       0.80911247       2.08753109
H       -0.78452937      -0.82533005       0.95199968
H        3.00707212      -2.26272163       0.14912730
H        2.12866684       1.64704717      -0.44624863
H       -2.62977894       0.40048972      -0.35045946
H       -1.50557232       0.35721714      -1.71958794
H       -2.70842706      -1.56696050      -1.78717549
18
Properties=species:S:1:pos:R:3 relative_energy_eV=0.011437918183219153 branch=left pbc="F F F"
O        0.26726107       2.13648311       0.21474394
C       -0.44512359       1.29721418       0.71174006
O       -1.19148255       1.59602327       1.78766989
C       -0.60476385      -0.11074583       0.14571259
O        0.54475007      -0.51655280      -0.58453643
P        1.99845449      -0.37268386       0.15141924
O        1.90076843      -0.35580427       1.62861431
O        2.82138549      -1.58270952      -0.50953008
O        2.69065845       0.86593662      -0.57832864
C       -1.79583247      -0.15374707      -0.79849598
O       -2.15390311      -1.50662223      -1.00586504
H       -1.66867752       0.81323868       2.09554603
H       -0.78732623      -0.82471251       0.95218181
H        3.00989643      -2.26248469       0.14870253
H        2.11943546       1.64442711      -0.44851066
H       -2.62860865       0.39833100      -0.35045734
H       -1.50391030       0.36004399      -1.71909282
H       -2.70925958      -1.56358972      -1.79000467
18
Properties=species:S:1:pos:R:3 relative_energy_eV=0.012073327303369297 branch=left pbc="F F F"
O        0.26465824       2.13740599       0.21084905
C       -0.44423414       1.29614802       0.71013782
O       -1.18902461       1.59763893       1.78639325
C       -0.60483807      -0.11236354       0.14583293
O        0.54443360      -0.52365258      -0.58089576
P        1.99837795      -0.37442744       0.15379023
O        1.90324257      -0.35695043       1.63113854
O        2.82321959      -1.58185062      -0.50942613
O        2.68580478       0.86626436      -0.57647680
C       -1.79439652      -0.15336837      -0.79964775
O       -2.15124187      -1.50523160      -1.01180622
H       -1.66268885       0.81643951       2.10425124
H       -0.79072816      -0.82283149       0.95418530
H        3.01333653      -2.26207436       0.14790594
H        2.10874710       1.64164537      -0.45177620
H       -2.62788389       0.39607969      -0.35059862
H       -1.50289203       0.36231647      -1.71889597
H       -2.71017016      -1.55914241      -1.79345216
18
Properties=species:S:1:pos:R:3 relative_energy_eV=0.01302967550145695 branch=left pbc="F F F"
O        0.26497673       2.13899673       0.20831851
C       -0.44211006       1.29562718       0.70742681
O       -1.18733696       1.59899676       1.78294035
C       -0.60499113      -0.11411117       0.14670373
O        0.54360086      -0.53338431      -0.57455108
P        1.99800137      -0.37613270       0.15729827
O        1.90485015      -0.35844099       1.63486271
O        2.82531059      -1.57979205      -0.50874809
O        2.67863713       0.86642012      -0.57526511
C       -1.79319698      -0.15281341      -0.80062999
O       -2.14744353      -1.50356681      -1.01923931
H       -1.65335080       0.81693053       2.11102942
H       -0.79556782      -0.81862790       0.95923982
H        3.01838321      -2.26131982       0.14610782
H        2.09545722       1.63843263      -0.45638397
H       -2.62790304       0.39375695      -0.35044607
H       -1.50282020       0.36416199      -1.71910033
H       -2.71077467      -1.55308817      -1.79805485
18
Properties=species:S:1:pos:R:3 relative_energy_eV=0.013644416434544837 branch=left pbc="F F F"
O        0.26673352       2.13980654       0.20848874
C       -0.44052095       1.29606803       0.70608932
O       -1.18708797       1.59934090       1.78067573
C       -0.60498825      -0.11453114       0.14745103
O        0.54307974      -0.53840448      -0.57090790
P        1.99784775      -0.37676050       0.15911417
O        1.90516756      -0.35891071       1.63656921
O        2.82604067      -1.57854156      -0.50824629
O        2.67482538       0.86647690      -0.57540444
C       -1.79286061      -0.15253086      -0.80087962
O       -2.14561422      -1.50303691      -1.02257117
H       -1.64885664       0.81548320       2.11190922
H       -0.79805536      -0.81602135       0.96248435
H        3.02101455      -2.26099200       0.14513477
H        2.08944191       1.63711877      -0.45856107
H       -2.62818497       0.39306053      -0.35006085
H       -1.50359137       0.36460614      -1.71959921
H       -2.71066869      -1.55018593      -1.80017740
18
Properties=species:S:1:pos:R:3 relative_energy_eV=0.014517097733914852 branch=left pbc="F F F"
O        0.27353308       2.14063411       0.21353386
C       -0.43803327       1.29774155       0.70549500
O       -1.18940139       1.59845625       1.77719618
C       -0.60440351      -0.11394111       0.14868500
O        0.54248588      -0.54307232      -0.56733301
P        1.99766273      -0.37663600       0.16038909
O        1.90444662      -0.35683261       1.63776275
O        2.82463620      -1.57787681      -0.50802805
O        2.67160532       0.86612569      -0.57751282
C       -1.79304432      -0.15212942      -0.80017727
O       -2.14416921      -1.50329196      -1.02331143
H       -1.64795036       0.81083675       2.10485450
H       -0.80007016      -0.81311156       0.96637374
H        3.02409881      -2.26068402       0.14337982
H        2.08610656       1.63646993      -0.45975415
H       -2.62867548       0.39365787      -0.34824811
H       -1.50583592       0.36391638      -1.72065467
H       -2.70926953      -1.54821714      -1.80114185
18
Properties=species:S:1:pos:R:3 relative_energy_eV=0.015325402138842037 branch=left pbc="F F F"
O        0.27548007       2.14120077       0.21404837
C       -0.43699616       1.29953714       0.70479466
O       -1.18911834       1.59798083       1.77603481
C       -0.60438512      -0.11335885       0.14961043
O        0.54214803      -0.54598294      -0.56530683
P        1.99726828      -0.37645109       0.16164878
O        1.90239536      -0.35561510       1.63878976
O        2.82372527      -1.57727497      -0.50734659
O        2.66968644       0.86659875      -0.57735732
C       -1.79324466      -0.15209638      -0.80013015
O       -2.14316827      -1.50398029      -1.02463772
H       -1.64277811       0.80756973       2.10243411
H       -0.80163341      -0.81207063       0.96839048
H        3.02529556      -2.26066531       0.14244982
H        2.08375736       1.63607976      -0.46048354
H       -2.62933770       0.39406539      -0.34783522
H       -1.50663924       0.36365674      -1.72137384
H       -2.70873332      -1.54714795      -1.80222149
18
Properties=species:S:1:pos:R:3 relative_energy_eV=0.01631718459611875 branch=left pbc="F F F"
O        0.26577688       2.14172902       0.20007778
C       -0.43908931       1.30119764       0.70154128
O       -1.18105376       1.59940547       1.77900243
C       -0.60658360      -0.11404055       0.15054217
O        0.54157542      -0.55028309      -0.56194132
P        1.99580381      -0.37695007       0.16572239
O        1.89643355      -0.35896389       1.64289733
O        2.82630214      -1.57465045      -0.50431117
O        2.66555931       0.86917195      -0.57081615
C       -1.79307369      -0.15286075      -0.80271287
O       -2.14044451      -1.50484142      -1.03304324
H       -1.61576567       0.80642021       2.11582979
H       -0.80550635      -0.81148466       0.97029009
H        3.02484876      -2.26097756       0.14252570
H        2.07487046       1.63512705      -0.46351107
H       -2.63082376       0.39254096      -0.35158426
H       -1.50424284       0.36550627      -1.72180174
H       -2.71086475      -1.54400049      -1.80719871
18
Properties=species:S:1:pos:R:3 relative_energy_eV=0.017105609524151077 branch=left pbc="F F F"
O        0.27126806       2.13919782       0.20039600
C       -0.43979177       1.30196779       0.70318770
O       -1.18641115       1.60283306       1.77845260
C       -0.60679562      -0.11360358       0.15235518
O        0.54178488      -0.55386377      -0.55790140
P        1.99845970      -0.37851147       0.16537888
O        1.90142308      -0.36586688       1.64283793
O        2.83266208      -1.57431989      -0.50551650
O        2.66233203       0.86902857      -0.57501088
C       -1.79268696      -0.15326397      -0.80272045
O       -2.13929178      -1.50507609      -1.03586784
H       -1.62227638       0.80664191       2.11689949
H       -0.80592252      -0.80717728       0.97513733
H        3.02771562      -2.26105717       0.14363282
H        2.07048730       1.63619790      -0.46676299
H       -2.62980952       0.39295778      -0.35154263
H       -1.50728288       0.36647698      -1.72237277
H       -2.71214209      -1.54051602      -1.80907397
18
Properties=species:S:1:pos:R:3 relative_energy_eV=0.018548731437476818 branch=left pbc="F F F"
O        0.25537548       2.13845106       0.17850752
C       -0.44381365       1.30166717       0.69911615
O       -1.17627029       1.60753622       1.78381834
C       -0.61034851      -0.11574474       0.15316663
O        0.54100306      -0.55834666      -0.55312899
P        1.99767265      -0.38040800       0.17007696
O        1.89816648      -0.37630280       1.64759059
O        2.84133103      -1.57046342      -0.50202562
O        2.65653455       0.87214307      -0.56690406
C       -1.79177726      -0.15452164      -0.80690737
O       -2.13591793      -1.50495265      -1.04891678
H       -1.59070751       0.80979337       2.14242503
H       -0.81031874      -0.80534116       0.97785122
H        3.02690945      -2.26145705       0.14555226
H        2.05716527       1.63518768      -0.47224013
H       -2.63074994       0.38966749      -0.35799164
H       -1.50375440       0.37029952      -1.72219211
H       -2.71677761      -1.53516174      -1.81628963
18
Properties=species:S:1:pos:R:3 relative_energy_eV=0.019858357143675676 branch=left pbc="F F F"
O        0.24668747       2.13774545       0.16626339
C       -0.44606038       1.30032239       0.69629330
O       -1.17096695       1.61066766       1.78593228
C       -0.61275147      -0.11760986       0.15375282
O        0.53980581      -0.55969882      -0.55050937
P        1.99665154      -0.38175271       0.17251562
O        1.89784172      -0.38351939       1.65031562
O        2.84751687      -1.56736781      -0.49969464
O        2.65304496       0.87310041      -0.56256509
C       -1.79104535      -0.15517714      -0.80936501
O       -2.13428209      -1.50431080      -1.05629961
H       -1.57402533       0.81207610       2.15782275
H       -0.81294701      -0.80365740       0.98048091
H        3.02688975      -2.26151482       0.14655374
H        2.04929171       1.63430675      -0.47585545
H       -2.63114344       0.38692699      -0.36196175
H       -1.50116701       0.37320047      -1.72177763
H       -2.71961862      -1.53169172      -1.82039353
18
Properties=species:S:1:pos:R:3 relative_energy_eV=0.02163058804217144 branch=left pbc="F F F"
O        0.22598562       2.13848436       0.14159908
C       -0.44977247       1.29863627       0.68890087
O       -1.15526749       1.61355873       1.78926049
C       -0.61772185      -0.12103849       0.15428220
O        0.53687455      -0.56050040      -0.54795078
P        1.99193948      -0.38317804       0.17865101
O        1.89200345      -0.39208355       1.65632065
O        2.85451898      -1.56003391      -0.49330818
O        2.64779134       0.87494389      -0.55046990
C       -1.79024655      -0.15619806      -0.81432045
O       -2.13168848      -1.50353432      -1.06917251
H       -1.53141242       0.81375995       2.18628050
H       -0.81908051      -0.80311820       0.98346663
H        3.02499390      -2.26168464       0.14746810
H        2.03595230       1.63157861      -0.48077810
H       -2.63356921       0.38108697      -0.36993041
H       -1.49352689       0.37848414      -1.72093193
H       -2.72405150      -1.52711752      -1.82785912
18
Properties=species:S:1:pos:R:3 relative_energy_eV=0.02274066965037491 branch=left pbc="F F F"
O        0.21371074       2.13938869       0.12694550
C       -0.45176006       1.29817461       0.68403116
O       -1.14537635       1.61414604       1.79079492
C       -0.62071328      -0.12290526       0.15473259
O        0.53491082      -0.56067513      -0.54700537
P        1.98822152      -0.38353989       0.18269947
O        1.88622750      -0.39478323       1.66033379
O        2.85649230      -1.55544623      -0.48927546
O        2.64515677       0.87611039      -0.54205010
C       -1.78994203      -0.15675619      -0.81703943
O       -2.13015043      -1.50337933      -1.07628578
H       -1.50289826       0.81364935       2.20162741
H       -0.82300247      -0.80372070       0.98492155
H        3.02392789      -2.26184664       0.14706623
H        2.02860288       1.62945168      -0.48325942
H       -2.63552063       0.37763194      -0.37451724
H       -1.48794769       0.38146164      -1.72012707
H       -2.72621689      -1.52491593      -1.83208476
18
Properties=species:S:1:pos:R:3 relative_energy_eV=0.025420484653295716 branch=left pbc="F F F"
O        0.19897459       2.14110458       0.10456760
C       -0.45373927       1.30017324       0.67546761
O       -1.13354703       1.61386397       1.78937233
C       -0.62554634      -0.12514061       0.15783593
O        0.53084859      -0.56127774      -0.54630305
P        1.98115678      -0.38367010       0.18959985
O        1.87406106      -0.39535598       1.66654256
O        2.85683267      -1.54716180      -0.48338068
O        2.64261736       0.87746148      -0.52678221
C       -1.78991708      -0.15756240      -0.81959162
O       -2.12810222      -1.50396612      -1.08669109
H       -1.45700339       0.81118688       2.22243820
H       -0.83019131      -0.80680613       0.98915645
H        3.02492150      -2.26138760       0.14267440
H        2.01705793       1.62325064      -0.48806413
H       -2.64081144       0.37165649      -0.38108978
H       -1.47446170       0.38704205      -1.71562262
H       -2.72942829      -1.52136499      -1.83862201
18
Properties=species:S:1:pos:R:3 relative_energy_eV=0.026665501172828954 branch=left pbc="F F F"
O        0.19873036       2.14095395       0.10076386
C       -0.45369381       1.30085766       0.67371227
O       -1.13404638       1.61373570       1.78788787
C       -0.62641011      -0.12558483       0.15942111
O        0.52959757      -0.56131262      -0.54611941
P        1.97933683      -0.38366447       0.19086430
O        1.87091823      -0.39409383       1.66776549
O        2.85556720      -1.54536401      -0.48309400
O        2.64255932       0.87752387      -0.52339318
C       -1.78967726      -0.15773793      -0.81932396
O       -2.12756245      -1.50416295      -1.08840591
H       -1.44965237       0.81061116       2.22503168
H       -0.83143062      -0.80798616       0.99098264
H        3.02690063      -2.26140492       0.14019589
H        2.01481568       1.62108558      -0.48965950
H       -2.64185388       0.37040846      -0.38189003
H       -1.47044826       0.38842870      -1.71362985
H       -2.72992826      -1.52024747      -1.83960155
18
Properties=species:S:1:pos:R:3 relative_energy_eV=0.029557508296420565 branch=left pbc="F F F"
O        0.22275116       2.13817528       0.11641572
C       -0.45022706       1.30235736       0.67784858
O       -1.15760272       1.61647522       1.77844679
C       -0.62351700      -0.12461110       0.16404957
O        0.52955145      -0.56160156      -0.54608513
P        1.98332770      -0.38459108       0.18528223
O        1.88066513      -0.39365458       1.66247676
O        2.85652261      -1.54815613      -0.49003879
O        2.64702659       0.87386087      -0.53192481
C       -1.78952702      -0.15717886      -0.81314792
O       -2.12965116      -1.50362325      -1.08209467
H       -1.49299286       0.81256887       2.21111458
H       -0.82798544      -0.80819817       0.99637228
H        3.03585061      -2.25927638       0.13442624
H        2.01890799       1.61785558      -0.49246341
H       -2.64191088       0.37151218      -0.37637562
H       -1.46785360       0.38902875      -1.70721211
H       -2.72961322      -1.51889706      -1.83558235
18
Properties=species:S:1:pos:R:3 relative_energy_eV=0.029351089604460867 branch=left pbc="F F F"
O        0.17615368       2.14541707       0.07658614
C       -0.45781555       1.30382109       0.66702082
O       -1.11444698       1.61319419       1.79283480
C       -0.63005240      -0.12667382       0.15812276
O        0.53020814      -0.56540591      -0.54551255
P        1.97686732      -0.38318021       0.19813858
O        1.85751022      -0.39605187       1.67440273
O        2.85738340      -1.54070232      -0.47777221
O        2.64101275       0.88130665      -0.50974687
C       -1.79177098      -0.15850894      -0.82292106
O       -2.12572296      -1.50518360      -1.09938030
H       -1.40025632       0.80906542       2.24836589
H       -0.83814575      -0.81079379       0.98752252
H        3.02139139      -2.26033698       0.14103826
H        2.00442994       1.61787662      -0.49114583
H       -2.64922657       0.36680102      -0.38872250
H       -1.46034744       0.39092086      -1.71074407
H       -2.73344935      -1.51951959      -1.84657962
18
Properties=species:S:1:pos:R:3 relative_energy_eV=0.03109570316155441 branch=left pbc="F F F"
O        0.16125962       2.14720872       0.05895934
C       -0.46059622       1.30386546       0.66332683
O       -1.10503645       1.61495384       1.79826550
C       -0.63137161      -0.12864923       0.15713369
O        0.53140097      -0.56883462      -0.54391892
P        1.97642994      -0.38340429       0.20249795
O        1.84848148      -0.39672747       1.67848847
O        2.85671637      -1.53925574      -0.47764984
O        2.64060949       0.88482264      -0.50012851
C       -1.79200307      -0.15915521      -0.82483979
O       -2.12318922      -1.50510178      -1.10770893
H       -1.37333451       0.81222133       2.26686087
H       -0.84049598      -0.81370382       0.98373797
H        3.01985206      -2.26086614       0.14088718
H        1.99689017       1.61551278      -0.49319355
H       -2.65212178       0.36516044      -0.39258767
H       -1.45345175       0.39198134      -1.70797248
H       -2.73631690      -1.51798235      -1.85065075
18
Properties=species:S:1:pos:R:3 relative_energy_eV=0.03290156877847039 branch=left pbc="F F F"
O        0.13783797       2.15030387       0.03922846
C       -0.46418894       1.30309746       0.65885433
O       -1.08576391       1.61589862       1.80672234
C       -0.63358767      -0.13064782       0.15380325
O        0.53248031      -0.57129094      -0.54288664
P        1.97487115      -0.38325973       0.20757751
O        1.83966127      -0.39947534       1.68326049
O        2.85820685      -1.53770410      -0.47320523
O        2.63813736       0.88892261      -0.48991185
C       -1.79237301      -0.15984167      -0.82949103
O       -2.12081065      -1.50516776      -1.11686181
H       -1.33562952       0.81388777       2.28844436
H       -0.84396543      -0.81545289       0.97827422
H        3.01323737      -2.26134891       0.14436248
H        1.98944112       1.61584586      -0.49312910
H       -2.65424966       0.36337482      -0.39829379
H       -1.45065776       0.39258869      -1.70958484
H       -2.73892415      -1.51768465      -1.85565599
18
Properties=species:S:1:pos:R:3 relative_energy_eV=0.03504689172768849 branch=left pbc="F F F"
O        0.11479549       2.15208889       0.01985354
C       -0.46750638       1.30089198       0.65461300
O       -1.06746140       1.61704031       1.81553964
C       -0.63561201      -0.13334644       0.15080747
O        0.53270796      -0.57242787      -0.54176930
P        1.97192671      -0.38323782       0.21251034
O        1.83047638      -0.40049674       1.68793105
O        2.85704916      -1.53610692      -0.46939686
O        2.63513459       0.89299731      -0.47907554
C       -1.79135709      -0.16059047      -0.83445003
O       -2.11756504      -1.50505622      -1.12570584
H       -1.29926069       0.81644866       2.30947666
H       -0.84629474      -0.81770980       0.97344069
H        3.00808521      -2.26337581       0.14716379
H        1.98241456       1.61672358      -0.49325506
H       -2.65364253       0.36188165      -0.40358926
H       -1.44920493       0.39309960      -1.71267357
H       -2.74096244      -1.51677804      -1.85991375
18
Properties=species:S:1:pos:R:3 relative_energy_eV=0.037455971043527825 branch=left pbc="F F F"
O        0.09093549       2.15331828       0.00054000
C       -0.47062093       1.29915562       0.65085952
O       -1.04809210       1.61802897       1.82402225
C       -0.63781256      -0.13575656       0.14878877
O        0.53203056      -0.57292107      -0.54123478
P        1.96757367      -0.38307047       0.21683441
O        1.82190529      -0.40085499       1.69172931
O        2.85523420      -1.53516990      -0.46397294
O        2.63146364       0.89707132      -0.46726198
C       -1.78928678      -0.16150676      -0.84007295
O       -2.11399069      -1.50538849      -1.13441069
H       -1.26264650       0.81882176       2.33070366
H       -0.84838651      -0.82104687       0.96956401
H        3.00291203      -2.26572860       0.14946684
H        1.97575027       1.61832715      -0.49319567
H       -2.65086539       0.36060094      -0.40906182
H       -1.44959597       0.39391170      -1.71776635
H       -2.74278477      -1.51574620      -1.86402482
18
Properties=species:S:1:pos:R:3 relative_energy_eV=0.04015109342435608 branch=left pbc="F F F"
O        0.06825322       2.15365318      -0.01833596
C       -0.47360272       1.29837945       0.64746926
O       -1.02892065       1.61740698       1.83156691
C       -0.64047912      -0.13747954       0.14830524
O        0.53017751      -0.57264210      -0.54143502
P        1.96110946      -0.38259473       0.22129456
O        1.81152985      -0.39836096       1.69542647
O        2.85048515      -1.53376221      -0.45770556
O        2.62720040       0.90117165      -0.45397881
C       -1.78630310      -0.16260985      -0.84589363
O       -2.10994888      -1.50645120      -1.14253385
H       -1.22312251       0.82001742       2.34906416
H       -0.85044452      -0.82553201       0.96722155
H        2.99887774      -2.26912141       0.15037359
H        1.96976160       1.62005464      -0.49302274
H       -2.64631996       0.35953775      -0.41438734
H       -1.45072788       0.39497452      -1.72415319
H       -2.74380255      -1.51459579      -1.86776912
18
Properties=species:S:1:pos:R:3 relative_energy_eV=0.04205088139133295 branch=left pbc="F F F"
O        0.05437819       2.15398284      -0.02942804
C       -0.47554963       1.29906923       0.64568657
O       -1.01613458       1.61599585       1.83553444
C       -0.64252303      -0.13780006       0.14858015
O        0.52878500      -0.57252593      -0.54218261
P        1.95653734      -0.38206335       0.22402661
O        1.80468679      -0.39620313       1.69755900
O        2.84737912      -1.53280191      -0.45269480
O        2.62434338       0.90365861      -0.44544010
C       -1.78456444      -0.16337789      -0.84967307
O       -2.10761706      -1.50760967      -1.14716740
H       -1.19658888       0.81960107       2.35878346
H       -0.85222222      -0.82861962       0.96635846
H        2.99595198      -2.27106020       0.15079376
H        1.96644844       1.62133508      -0.49253105
H       -2.64350306       0.35894668      -0.41783414
H       -1.45190084       0.39575387      -1.72866917
H       -2.74418337      -1.51423569      -1.87019570
18
Properties=species:S:1:pos:R:3 relative_energy_eV=0.04429731104755774 branch=left pbc="F F F"
O        0.04279613       2.15452743      -0.03784394
C       -0.47729372       1.30095810       0.64440254
O       -1.00404400       1.61318826       1.83814597
C       -0.64496606      -0.13730973       0.14949749
O        0.52710350      -0.57261301      -0.54346405
P        1.95161504      -0.38131081       0.22668161
O        1.79683645      -0.39252162       1.69950768
O        2.84372671      -1.53149113      -0.44733220
O        2.62169208       0.90602892      -0.43711422
C       -1.78336076      -0.16419083      -0.85295414
O       -2.10573745      -1.50921784      -1.15072216
H       -1.16892181       0.81757592       2.36343093
H       -0.85459738      -0.83167862       0.96636283
H        2.99316046      -2.27288151       0.15080139
H        1.96407762       1.62250334      -0.49161977
H       -2.64134881       0.35853503      -0.42110508
H       -1.45306090       0.39644129      -1.73276119
H       -2.74395391      -1.51449744      -1.87240749
18
Properties=species:S:1:pos:R:3 relative_energy_eV=0.04598796565551311 branch=left pbc="F F F"
O        0.03881078       2.15500306      -0.03964632
C       -0.47751344       1.30258440       0.64455978
O       -0.99932185       1.61169792       1.83800770
C       -0.64612690      -0.13630848       0.15046224
O        0.52612190      -0.57315842      -0.54364669
P        1.94968716      -0.38100661       0.22710671
O        1.79328972      -0.39049424       1.69967594
O        2.84253782      -1.53090895      -0.44478730
O        2.62096245       0.90711502      -0.43355471
C       -1.78319393      -0.16458811      -0.85381062
O       -2.10531603      -1.51006819      -1.15181562
H       -1.15723598       0.81587512       2.36276561
H       -0.85587630      -0.83296716       0.96628625
H        2.99189681      -2.27347946       0.15081383
H        1.96344998       1.62289926      -0.49103722
H       -2.64097832       0.35846051      -0.42262633
H       -1.45361430       0.39654463      -1.73376227
H       -2.74385634      -1.51515457      -1.87348484
18
Properties=species:S:1:pos:R:3 relative_energy_eV=0.0481834939600958 branch=left pbc="F F F"
O        0.03961227       2.15245262      -0.04518669
C       -0.48117210       1.30131808       0.64310937
O       -1.00222823       1.61425017       1.84141364
C       -0.64504011      -0.14002920       0.14849405
O        0.52998693      -0.57171933      -0.54866296
P        1.95188757      -0.38175620       0.22851102
O        1.79983771      -0.39496536       1.70232962
O        2.84222234      -1.53181669      -0.44826512
O        2.61935508       0.90578379      -0.43708737
C       -1.78159080      -0.16448716      -0.85603585
O       -2.10385615      -1.50947623      -1.15227344
H       -1.17284878       0.82211467       2.37660537
H       -0.85390408      -0.83448519       0.96980138
H        2.99392561      -2.27361395       0.15043136
H        1.96281731       1.62265584      -0.49285780
H       -2.63796128       0.35868858      -0.41994535
H       -1.45315187       0.39851055      -1.73735096
H       -2.74416820      -1.51137918      -1.87152403
18
Properties=species:S:1:pos:R:3 relative_energy_eV=0.050260992349649314 branch=left pbc="F F F"
O        0.00184642       2.16000728      -0.06388449
C       -0.48790383       1.30066959       0.63444195
O       -0.95694427       1.60567193       1.85318721
C       -0.65187164      -0.14131433       0.13868948
O        0.52972172      -0.56948521      -0.55210345
P        1.94445528      -0.37900955       0.23960910
O        1.78396970      -0.39698130       1.71325821
O        2.84478923      -1.52447482      -0.43133072
O        2.61103883       0.90915732      -0.42646781
C       -1.78544631      -0.16496772      -0.86706311
O       -2.10330059      -1.51112628      -1.15927921
H       -1.09151502       0.81112168       2.38929225
H       -0.86409910      -0.83028890       0.96425445
H        2.97449788      -2.27361018       0.16162440
H        1.95815283       1.62869799      -0.48573572
H       -2.64361589       0.35560108      -0.42954987
H       -1.45724998       0.39828390      -1.74903724
H       -2.74280181      -1.51590680      -1.87839961
18
Properties=species:S:1:pos:R:3 relative_energy_eV=0.05391629162841127 branch=left pbc="F F F"
O       -0.02712392       2.16516435      -0.08030119
C       -0.49189504       1.29895337       0.62760925
O       -0.92443469       1.60030616       1.86306326
C       -0.65557949      -0.14078579       0.13043592
O        0.53052982      -0.56737736      -0.55230039
P        1.94128448      -0.37752721       0.24665162
O        1.77706962      -0.40367135       1.72081220
O        2.84985963      -1.51853468      -0.41964225
O        2.60491494       0.91113771      -0.42216591
C       -1.78842879      -0.16469625      -0.87502078
O       -2.10366578      -1.51155940      -1.16486169
H       -1.04022021       0.80447708       2.40596353
H       -0.87015424      -0.82494934       0.95702436
H        2.95916792      -2.27317759       0.17227459
H        1.95464159       1.63301896      -0.48049556
H       -2.64842559       0.35277025      -0.43630167
H       -1.46068090       0.39759807      -1.75738977
H       -2.74313573      -1.51910142      -1.88384996
18
Properties=species:S:1:pos:R:3 relative_energy_eV=0.05854524000460515 branch=left pbc="F F F"
O       -0.06849736       2.17374271      -0.09947344
C       -0.49537654       1.29832042       0.61936423
O       -0.87649834       1.59068241       1.87416967
C       -0.66197317      -0.13763489       0.12101439
O        0.52866778      -0.56565771      -0.55008006
P        1.93449091      -0.37482873       0.25611166
O        1.76179484      -0.40845851       1.72910678
O        2.85611141      -1.51022855      -0.40026166
O        2.59728074       0.91505530      -0.41208025
C       -1.79324356      -0.16466365      -0.88491117
O       -2.10477129      -1.51301223      -1.17267039
H       -0.95528039       0.79111509       2.41896306
H       -0.88028926      -0.81780159       0.94567152
H        2.93674356      -2.27251716       0.18632435
H        1.94990595       1.63930968      -0.47210204
H       -2.65636697       0.34886484      -0.44774138
H       -1.46583310       0.39569043      -1.76715291
H       -2.74314136      -1.52593246      -1.89274726
18
Properties=species:S:1:pos:R:3 relative_energy_eV=0.0627146273800463 branch=left pbc="F F F"
O       -0.09842901       2.18026367      -0.11361656
C       -0.49688468       1.29909959       0.61383883
O       -0.84169494       1.58240855       1.88199230
C       -0.66680243      -0.13353886       0.11532211
O        0.52631174      -0.56497607      -0.54708908
P        1.92916381      -0.37275247       0.26221388
O        1.74956335      -0.41112149       1.73420724
O        2.86063309      -1.50402864      -0.38529786
O        2.59209138       0.91831974      -0.40379502
C       -1.79678187      -0.16470167      -0.89145960
O       -2.10587682      -1.51444738      -1.17846518
H       -0.89098934       0.78033011       2.42644281
H       -0.88779717      -0.81273823       0.93637684
H        2.92023113      -2.27214833       0.19648052
H        1.94651817       1.64382032      -0.46571684
H       -2.66238591       0.34600157      -0.45664084
H       -1.46977173       0.39391342      -1.77346375
H       -2.74337476      -1.53165859      -1.89982504
18
Properties=species:S:1:pos:R:3 relative_energy_eV=0.06678569216092001 branch=left pbc="F F F"
O       -0.12228658       2.18642825      -0.12605214
C       -0.49769091       1.30200897       0.61012148
O       -0.81349037       1.57467635       1.88840013
C       -0.67105160      -0.12850232       0.11219427
O        0.52386998      -0.56570200      -0.54447030
P        1.92456727      -0.37099097       0.26672411
O        1.73917918      -0.41281115       1.73696555
O        2.86492133      -1.49923314      -0.37233989
O        2.58834629       0.92163520      -0.39610091
C       -1.79969576      -0.16497195      -0.89632437
O       -2.10713630      -1.51628894      -1.18345417
H       -0.83708210       0.77056212       2.43147934
H       -0.89432064      -0.80968060       0.92855277
H        2.90647637      -2.27185471       0.20483072
H        1.94373148       1.64744991      -0.46032746
H       -2.66741096       0.34385091      -0.46445827
H       -1.47330516       0.39243463      -1.77808901
H       -2.74389737      -1.53696543      -1.90614741
18
Properties=species:S:1:pos:R:3 relative_energy_eV=0.0696328170124616 branch=left pbc="F F F"
O       -0.13623044       2.19126538      -0.13349378
C       -0.49842715       1.30560075       0.60868152
O       -0.79641990       1.56987442       1.89228482
C       -0.67400256      -0.12522769       0.11124792
O        0.52247100      -0.56744740      -0.54380883
P        1.92199047      -0.37009433       0.26840940
O        1.73304646      -0.41359605       1.73806843
O        2.86834340      -1.49639815      -0.36425745
O        2.58643195       0.92421634      -0.39064065
C       -1.80161601      -0.16545608      -0.89917985
O       -2.10810651      -1.51791154      -1.18660406
H       -0.80406710       0.76448145       2.43343226
H       -0.89892859      -0.80919519       0.92460926
H        2.89787697      -2.27188482       0.21028060
H        1.94204989       1.64961753      -0.45702851
H       -2.67053060       0.34286659      -0.46957199
H       -1.47575084       0.39184085      -1.78071686
H       -2.74440623      -1.54050700      -1.91020793
18
Properties=species:S:1:pos:R:3 relative_energy_eV=0.07500192531369976 branch=left pbc="F F F"
O       -0.15705092       2.20173852      -0.14075865
C       -0.50078382       1.31334318       0.60821993
O       -0.76989060       1.56525502       1.89741920
C       -0.67927076      -0.12289822       0.11054926
O        0.52093917      -0.57301772      -0.54628144
P        1.91904582      -0.36973292       0.26909627
O        1.72578805      -0.41489701       1.73758230
O        2.87714119      -1.49327618      -0.35171897
O        2.58429418       0.92965328      -0.38066208
C       -1.80515806      -0.16704834      -0.90379273
O       -2.11003819      -1.52098818      -1.19158571
H       -0.75520749       0.75642405       2.43293070
H       -0.90802162      -0.81185455       0.92207848
H        2.88377429      -2.27174666       0.21979804
H        1.93957924       1.65294474      -0.45215666
H       -2.67562497       0.34232221      -0.47818296
H       -1.48037367       0.39215746      -1.78468353
H       -2.74541749      -1.54633370      -1.91634737
18
Properties=species:S:1:pos:R:3 relative_energy_eV=0.07771037631027866 branch=left pbc="F F F"
O       -0.16493432       2.20624896      -0.14147949
C       -0.50203869       1.31598715       0.60833171
O       -0.75959378       1.56469856       1.89872808
C       -0.68137998      -0.12353809       0.10997613
O        0.52037641      -0.57538485      -0.54801690
P        1.91814229      -0.36978789       0.26860056
O        1.72322261      -0.41508593       1.73749925
O        2.88099777      -1.49218787      -0.34712726
O        2.58354567       0.93182381      -0.37635080
C       -1.80667001      -0.16780316      -0.90569753
O       -2.11074024      -1.52208076      -1.19336657
H       -0.73676152       0.75373772       2.43121754
H       -0.91197677      -0.81339878       0.92220874
H        2.87833598      -2.27181453       0.22361514
H        1.93868825       1.65426008      -0.45039413
H       -2.67761754       0.34232844      -0.48155553
H       -1.48223697       0.39257364      -1.78622585
H       -2.74563476      -1.54853155      -1.91845913
18
Properties=species:S:1:pos:R:3 relative_energy_eV=0.08018992872166564 branch=left pbc="F F F"
O       -0.16363453       2.20973719      -0.13643834
C       -0.50228673       1.31738419       0.60970395
O       -0.76290154       1.57045008       1.89975355
C       -0.68039974      -0.12729307       0.11044720
O        0.52139498      -0.57892614      -0.55056708
P        1.92279472      -0.37209182       0.26385598
O        1.73282170      -0.42049631       1.73260276
O        2.88972758      -1.49446048      -0.34854391
O        2.58535050       0.93283708      -0.37762558
C       -1.80719084      -0.16828460      -0.90542664
O       -2.11201933      -1.52195770      -1.19378029
H       -0.75364208       0.75948108       2.43276419
H       -0.91276250      -0.81662363       0.92476870
H        2.87712233      -2.27095125       0.22684906
H        1.93857550       1.65420337      -0.45135811
H       -2.67787177       0.34338161      -0.48186286
H       -1.48387595       0.39408735      -1.78544762
H       -2.74747792      -1.54843199      -1.91819086
18
Properties=species:S:1:pos:R:3 relative_energy_eV=0.08527694491567672 branch=left pbc="F F F"
O       -0.19015176       2.21723857      -0.14111294
C       -0.50610593       1.31624769       0.60223579
O       -0.72389948       1.56066436       1.90433154
C       -0.68899343      -0.13025637       0.10437655
O        0.51518842      -0.57635612      -0.55259630
P        1.90873728      -0.36750175       0.27583471
O        1.70183833      -0.40550189       1.74316662
O        2.88167900      -1.48745774      -0.33264810
O        2.57971384       0.93650719      -0.35990863
C       -1.81111340      -0.16945761      -0.91262085
O       -2.11031872      -1.52430966      -1.19707217
H       -0.65703038       0.74041221       2.41537002
H       -0.92440170      -0.81410851       0.92346195
H        2.86386868      -2.27286564       0.23007284
H        1.93572337       1.65943768      -0.44430233
H       -2.68331033       0.34144930      -0.49132166
H       -1.48547077       0.39266485      -1.79215676
H       -2.74222838      -1.55476176      -1.92360675
18
Properties=species:S:1:pos:R:3 relative_energy_eV=0.08715377567568794 branch=left pbc="F F F"
O       -0.19527712       2.21869589      -0.14187803
C       -0.50682956       1.31568526       0.60049956
O       -0.71635704       1.55932662       1.90512553
C       -0.69065063      -0.13100114       0.10305787
O        0.51385673      -0.57570481      -0.55294906
P        1.90599597      -0.36664210       0.27807592
O        1.69562857      -0.40244202       1.74550330
O        2.87992449      -1.48599357      -0.32960439
O        2.57859743       0.93720160      -0.35643681
C       -1.81186118      -0.16966664      -0.91400872
O       -2.10993642      -1.52471788      -1.19766439
H       -0.63801609       0.73622650       2.41204923
H       -0.92665091      -0.81354822       0.92325137
H        2.86134988      -2.27330261       0.23064908
H        1.93517822       1.66046184      -0.44293609
H       -2.68435303       0.34105925      -0.49313635
H       -1.48573280       0.39237435      -1.79347558
H       -2.74114182      -1.55596754      -1.92461901
18
Properties=species:S:1:pos:R:3 relative_energy_eV=0.0883907520401408 branch=left pbc="F F F"
O       -0.18775318       2.21938150      -0.13608408
C       -0.50606331       1.31556028       0.60229071
O       -0.72845470       1.56804378       1.90446606
C       -0.68779039      -0.13398104       0.10427194
O        0.51564062      -0.57831846      -0.55431400
P        1.91276316      -0.36961270       0.27170315
O        1.70943632      -0.40932810       1.74018426
O        2.88756867      -1.48901299      -0.33485389
O        2.58125877       0.93692387      -0.36155802
C       -1.81125179      -0.16968127      -0.91205310
O       -2.11106277      -1.52382510      -1.19693407
H       -0.67300938       0.74356596       2.41712072
H       -0.92439402      -0.81626835       0.92578247
H        2.86395180      -2.27248177       0.23202288
H        1.93581371       1.65921843      -0.44541438
H       -2.68314100       0.34226906      -0.49093653
H       -1.48633869       0.39381358      -1.79132283
H       -2.74344924      -1.55422190      -1.92286770
18
Properties=species:S:1:pos:R:3 relative_energy_eV=0.08933245281878044 branch=left pbc="F F F"
O       -0.20957535       2.21922951      -0.14921359
C       -0.50842639       1.31459441       0.59630636
O       -0.69415213       1.54848028       1.90611441
C       -0.69573799      -0.12825585       0.10013668
O        0.51019404      -0.57162726      -0.55146249
P        1.89499460      -0.36223504       0.28791816
O        1.67253799      -0.39089705       1.75452017
O        2.86861812      -1.48061123      -0.32024894
O        2.57422676       0.93815365      -0.34670220
C       -1.81329014      -0.16979985      -0.91772357
O       -2.10812480      -1.52613323      -1.19908441
H       -0.57634483       0.72234900       2.40277482
H       -0.93157734      -0.80951180       0.91994147
H        2.85575693      -2.27489399       0.22953770
H        1.93386915       1.66300864      -0.43857377
H       -2.68684802       0.33916526      -0.49759406
H       -1.48520802       0.39029827      -1.79742411
H       -2.73718777      -1.55926904      -1.92771955
18
Properties=species:S:1:pos:R:3 relative_energy_eV=0.0901819707287359 branch=left pbc="F F F"
O       -0.21791265       2.21892530      -0.15460408
C       -0.50928839       1.31420005       0.59405296
O       -0.68097532       1.54047780       1.90668192
C       -0.69877290      -0.12566243       0.09863137
O        0.50816142      -0.56891476      -0.55013080
P        1.88808890      -0.35929401       0.29399430
O        1.65803602      -0.38366658       1.76033660
O        2.86091204      -1.47730029      -0.31457565
O        2.57140834       0.93853427      -0.34101138
C       -1.81400603      -0.16980147      -0.91985456
O       -2.10695605      -1.52703974      -1.19989040
H       -0.53898896       0.71418217       2.39740181
H       -0.93421371      -0.80674813       0.91747051
H        2.85273759      -2.27583759       0.22839042
H        1.93317024       1.66440912      -0.43592867
H       -2.68823161       0.33791608      -0.50009187
H       -1.48469286       0.38885957      -1.79976456
H       -2.73475120      -1.56119474      -1.92960504
18
Properties=species:S:1:pos:R:3 relative_energy_eV=0.09049706699806848 branch=left pbc="F F F"
O       -0.22088896       2.21866279      -0.15704833
C       -0.50957891       1.31424720       0.59330266
O       -0.67621976       1.53720010       1.90688394
C       -0.69988884      -0.12434039       0.09819824
O        0.50750506      -0.56790525      -0.54957982
P        1.88543132      -0.35815179       0.29659823
O        1.65253775      -0.38091972       1.76233693
O        2.85785804      -1.47609790      -0.31251648
O        2.57034574       0.93865258      -0.33900999
C       -1.81422864      -0.16979277      -0.92061339
O       -2.10651315      -1.52741607      -1.20018476
H       -0.52516833       0.71104277       2.39572607
H       -0.93509699      -0.80567613       0.91640272
H        2.85171177      -2.27617193       0.22784308
H        1.93293010       1.66489735      -0.43494802
H       -2.68870811       0.33742812      -0.50095591
H       -1.48444899       0.38827633      -1.80061129
H       -2.73385418      -1.56189069      -1.93032110
18
Properties=species:S:1:pos:R:3 relative_energy_eV=0.09063987834088039 branch=left pbc="F F F"
O       -0.22214550       2.21848563      -0.15857157
C       -0.50971379       1.31452776       0.59306891
O       -0.67415773       1.53548103       1.90701119
C       -0.70040825      -0.12348592       0.09807296
O        0.50730916      -0.56749125      -0.54932367
P        1.88428434      -0.35759521       0.29766274
O        1.64992837      -0.37965185       1.76342615
O        2.85633123      -1.47551790      -0.31159505
O        2.56983637       0.93867213      -0.33814976
C       -1.81432711      -0.16980660      -0.92094289
O       -2.10631271      -1.52762502      -1.20032468
H       -0.51890829       0.70950310       2.39522765
H       -0.93545868      -0.80521065       0.91585532
H        2.85129654      -2.27633557       0.22754209
H        1.93283017       1.66510009      -0.43450093
H       -2.68890107       0.33719899      -0.50131120
H       -1.48430414       0.38799167      -1.80098638
H       -2.73345396      -1.56219580      -1.93065815
18
Properties=species:S:1:pos:R:3 relative_energy_eV=0.09069659038141253 branch=left pbc="F F F"
O       -0.22254516       2.21841227      -0.15937160
C       -0.50977127       1.31481287       0.59305449
O       -0.67346633       1.53475934       1.90708797
C       -0.70061329      -0.12306046       0.09806244
O        0.50729029      -0.56738665      -0.54927554
P        1.88385981      -0.35738331       0.29816418
O        1.64895174      -0.37918714       1.76380217
O        2.85574250      -1.47533641      -0.31127729
O        2.56963214       0.93873082      -0.33788799
C       -1.81437246      -0.16983313      -0.92107233
O       -2.10624131      -1.52772115      -1.20037992
H       -0.51663387       0.70885341       2.39520138
H       -0.93558097      -0.80507440       0.91564643
H        2.85116155      -2.27637888       0.22740356
H        1.93282091       1.66513674      -0.43433182
H       -2.68896152       0.33711747      -0.50142203
H       -1.48423656       0.38788351      -1.80111671
H       -2.73331126      -1.56230028      -1.93078464
18
Properties=species:S:1:pos:R:3 relative_energy_eV=0.09074678594697616 branch=left pbc="F F F"
O       -0.22270211       2.21837520      -0.16008296
C       -0.50981569       1.31523808       0.59316473
O       -0.67314158       1.53423105       1.90718832
C       -0.70074093      -0.12279371       0.09803263
O        0.50730519      -0.56738078      -0.54930728
P        1.88367518      -0.35722864       0.29841819
O        1.64838674      -0.37894071       1.76410304
O        2.85539778      -1.47523186      -0.31113712
O        2.56954871       0.93872849      -0.33776926
C       -1.81441673      -0.16988280      -0.92115397
O       -2.10620747      -1.52778343      -1.20041983
H       -0.51540333       0.70843765       2.39532584
H       -0.93565001      -0.80504580       0.91555040
H        2.85109868      -2.27641648       0.22732671
H        1.93278862       1.66518073      -0.43424066
H       -2.68898824       0.33707971      -0.50146695
H       -1.48418435       0.38782730      -1.80118484
H       -2.73322551      -1.56234936      -1.93084426
18
Properties=species:S:1:pos:R:3 relative_energy_eV=0.09077800388331525 branch=left pbc="F F F"
O       -0.22272935       2.21836075      -0.16061063
C       -0.50984092       1.31567513       0.59331240
O       -0.67303626       1.53394223       1.90726756
C       -0.70079857      -0.12273949       0.09794069
O        0.50726957      -0.56739642      -0.54936543
P        1.88361207      -0.35718332       0.29859892
O        1.64810871      -0.37882824       1.76428311
O        2.85524120      -1.47522566      -0.31108453
O        2.56946897       0.93886308      -0.33776851
C       -1.81445671      -0.16993081      -0.92117826
O       -2.10619001      -1.52781001      -1.20044228
H       -0.51482769       0.70815644       2.39550199
H       -0.93568670      -0.80505964       0.91552785
H        2.85107197      -2.27641395       0.22727561
H        1.93283692       1.66512550      -0.43418607
H       -2.68899518       0.33706593      -0.50148290
H       -1.48414601       0.38780964      -1.80122470
H       -2.73317708      -1.56236654      -1.93086210
18
Properties=species:S:1:pos:R:3 relative_energy_eV=0.09084489810629748 branch=left pbc="F F F"
O       -0.22276489       2.21819947      -0.16106157
C       -0.50972983       1.31633790       0.59267217
O       -0.67307547       1.53391944       1.90788443
C       -0.70082683      -0.12284431       0.09786159
O        0.50715439      -0.56740406      -0.54944741
P        1.88350103      -0.35712973       0.29876965
O        1.64786295      -0.37873471       1.76455588
O        2.85515890      -1.47523748      -0.31111628
O        2.56956425       0.93891978      -0.33780145
C       -1.81447154      -0.16992930      -0.92122378
O       -2.10615955      -1.52785641      -1.20043888
H       -0.51432426       0.70767557       2.39585632
H       -0.93571669      -0.80509766       0.91550306
H        2.85104932      -2.27643986       0.22725478
H        1.93276321       1.66518906      -0.43415239
H       -2.68900626       0.33705808      -0.50148713
H       -1.48411101       0.38779118      -1.80124056
H       -2.73314275      -1.56237232      -1.93088571
18
Properties=species:S:1:pos:R:3 relative_energy_eV=0.09096463404421229 branch=left pbc="F F F"
O       -0.22252697       2.21892610      -0.16206884
C       -0.50986533       1.31584327       0.59238515
O       -0.67318959       1.53418673       1.90874845
C       -0.70083819      -0.12291433       0.09780952
O        0.50705222      -0.56740239      -0.54952128
P        1.88331981      -0.35709467       0.29893629
O        1.64770033      -0.37866413       1.76479250
O        2.85514450      -1.47521725      -0.31121686
O        2.56981098       0.93884215      -0.33783643
C       -1.81443638      -0.16990052      -0.92125661
O       -2.10614127      -1.52791335      -1.20043699
H       -0.51394382       0.70715856       2.39618391
H       -0.93573424      -0.80512788       0.91548343
H        2.85103077      -2.27650724       0.22727871
H        1.93258032       1.66537534      -0.43414656
H       -2.68902616       0.33705701      -0.50148258
H       -1.48409054       0.38777132      -1.80124296
H       -2.73312146      -1.56237411      -1.93090613
18
Properties=species:S:1:pos:R:3 relative_energy_eV=0.09229971981767449 branch=ts pbc="F F F"
O       -0.27138002       2.23269473      -0.18509778
C       -0.51311990       1.32538110       0.57846238
O       -0.60855187       1.53440091       1.90081337
C       -0.70652080      -0.11598979       0.09334677
O        0.50552053      -0.56453102      -0.54527920
P        1.87902407      -0.36213700       0.30809953
O        1.64862544      -0.40815726       1.77424833
O        2.85470846      -1.46803224      -0.31804303
O        2.56059332       0.94737565      -0.30730997
C       -1.81425800      -0.17130536      -0.93074231
O       -2.10252106      -1.53230033      -1.19995612
H       -0.41255746       0.70582083       2.37127379
H       -0.94448604      -0.79163516       0.91545084
H        2.86143695      -2.27261766       0.21547628
H        1.91795526       1.66367612      -0.42960840
H       -2.69115657       0.33806741      -0.51899852
H       -1.48071890       0.38002385      -1.81332688
H       -2.73155557      -1.57371102      -1.92831807
18
Properties=species:S:1:pos:R:3 relative_energy_eV=0.09229665100792772 branch=right pbc="F F F"
O       -0.32023306       2.24646335      -0.20812672
C       -0.51637446       1.33491893       0.56453960
O       -0.54391416       1.53461510       1.89287829
C       -0.71220342      -0.10906525       0.08888401
O        0.50398883      -0.56165966      -0.54103712
P        1.87472834      -0.36717934       0.31726277
O        1.64955055      -0.43765038       1.78370416
O        2.85427242      -1.46084724      -0.32486920
O        2.55137566       0.95590915      -0.27678351
C       -1.81407963      -0.17271019      -0.94022801
O       -2.09890085      -1.53668731      -1.19947525
H       -0.31117110       0.70448310       2.34636367
H       -0.95323785      -0.77814245       0.91541826
H        2.87184314      -2.26872809       0.20367386
H        1.90333019       1.66197690      -0.42507025
H       -2.69328698       0.33907781      -0.53651446
H       -1.47734726       0.37227638      -1.82541080
H       -2.72998967      -1.58504794      -1.92573001
18
Properties=species:S:1:pos:R:3 relative_energy_eV=0.09217254151008092 branch=right pbc="F F F"
O       -0.32057288       2.24580529      -0.20720496
C       -0.51624488       1.33541772       0.56489841
O       -0.54358242       1.53448176       1.89186621
C       -0.71220064      -0.10899131       0.08886651
O        0.50411310      -0.56165978      -0.54096436
P        1.87492807      -0.36731526       0.31712285
O        1.64959879      -0.43778078       1.78352700
O        2.85428560      -1.46083678      -0.32478899
O        2.55110174       0.95599183      -0.27664144
C       -1.81411798      -0.17274745      -0.94021470
O       -2.09890563      -1.53664572      -1.19947869
H       -0.31153443       0.70492190       2.34612322
H       -0.95322437      -0.77811940       0.91543407
H        2.87186301      -2.26865145       0.20364612
H        1.90349123       1.66181650      -0.42506004
H       -2.69327242       0.33907304      -0.53653065
H       -1.47736499       0.37229214      -1.82541224
H       -2.73001019      -1.58504940      -1.92570902
18
Properties=species:S:1:pos:R:3 relative_energy_eV=0.09211537075680098 branch=right pbc="F F F"
O       -0.32081641       2.24601933      -0.20683837
C       -0.51630079       1.33478893       0.56549924
O       -0.54315294       1.53459633       1.89119219
C       -0.71217887      -0.10888232       0.08890150
O        0.50425809      -0.56165471      -0.54088905
P        1.87501870      -0.36744062       0.31702942
O        1.64969707      -0.43797326       1.78329832
O        2.85438698      -1.46082031      -0.32478256
O        2.55096710       0.95593660      -0.27642679
C       -1.81410627      -0.17275704      -0.94019983
O       -2.09892227      -1.53662042      -1.19948991
H       -0.31201838       0.70539494       2.34581430
H       -0.95319599      -0.77808141       0.91543462
H        2.87189412      -2.26860312       0.20364961
H        1.90352833       1.66177178      -0.42508298
H       -2.69326727       0.33907171      -0.53654407
H       -1.47739878       0.37230667      -1.82540569
H       -2.73004172      -1.58505023      -1.92568066
18
Properties=species:S:1:pos:R:3 relative_energy_eV=0.0920706443648669 branch=right pbc="F F F"
O       -0.32111394       2.24606717      -0.20641340
C       -0.51630113       1.33444441       0.56524193
O       -0.54275356       1.53492268       1.89112038
C       -0.71212956      -0.10893109       0.08897244
O        0.50431582      -0.56164381      -0.54084760
P        1.87503231      -0.36751899       0.31694836
O        1.64980339      -0.43820837       1.78316954
O        2.85455849      -1.46082324      -0.32485199
O        2.55097859       0.95582980      -0.27620274
C       -1.81406992      -0.17271953      -0.94020502
O       -2.09892416      -1.53661422      -1.19948005
H       -0.31249527       0.70568533       2.34565307
H       -0.95316092      -0.77805989       0.91541842
H        2.87193564      -2.26858794       0.20367639
H        1.90345849       1.66181078      -0.42512525
H       -2.69326269       0.33907282      -0.53655034
H       -1.47743519       0.37232202      -1.82538659
H       -2.73008568      -1.58504504      -1.92565824
18
Properties=species:S:1:pos:R:3 relative_energy_eV=0.09203894871461671 branch=right pbc="F F F"
O       -0.32159610       2.24621971      -0.20608908
C       -0.51630711       1.33422333       0.56501738
O       -0.54216164       1.53551412       1.89101727
C       -0.71204405      -0.10915628       0.08893702
O        0.50430347      -0.56164713      -0.54085518
P        1.87509967      -0.36771303       0.31689007
O        1.64997780      -0.43866162       1.78304118
O        2.85485775      -1.46086316      -0.32498914
O        2.55094194       0.95588959      -0.27590050
C       -1.81402991      -0.17269996      -0.94017999
O       -2.09891991      -1.53659195      -1.19946618
H       -0.31325678       0.70594823       2.34560718
H       -0.95310696      -0.77807223       0.91543932
H        2.87202085      -2.26854803       0.20370711
H        1.90344431       1.66174364      -0.42516694
H       -2.69324112       0.33908081      -0.53655248
H       -1.47747628       0.37236609      -1.82537285
H       -2.73015524      -1.58502927      -1.92560490
18
Properties=species:S:1:pos:R:3 relative_energy_eV=0.09200796205186634 branch=right pbc="F F F"
O       -0.32229194       2.24646946      -0.20601815
C       -0.51632491       1.33426544       0.56487600
O       -0.54134810       1.53617737       1.89093972
C       -0.71193977      -0.10943230       0.08885475
O        0.50430141      -0.56171296      -0.54094990
P        1.87524440      -0.36795738       0.31679502
O        1.65022571      -0.43940259       1.78295863
O        2.85526957      -1.46091304      -0.32520499
O        2.55096036       0.95592866      -0.27545556
C       -1.81399650      -0.17271409      -0.94016293
O       -2.09892516      -1.53656977      -1.19946554
H       -0.31436416       0.70629402       2.34569070
H       -0.95303025      -0.77815661       0.91550666
H        2.87217433      -2.26849319       0.20373735
H        1.90336100       1.66168229      -0.42523448
H       -2.69319275       0.33910061      -0.53653433
H       -1.47752239       0.37243536      -1.82534796
H       -2.73025017      -1.58499840      -1.92550566
18
Properties=species:S:1:pos:R:3 relative_energy_eV=0.09196110747870989 branch=right pbc="F F F"
O       -0.32350611       2.24690686      -0.20632190
C       -0.51636649       1.33463644       0.56475112
O       -0.54004411       1.53721791       1.89081105
C       -0.71179087      -0.10969330       0.08878821
O        0.50438058      -0.56188678      -0.54119298
P        1.87548487      -0.36840205       0.31677196
O        1.65066303      -0.44080219       1.78280153
O        2.85593432      -1.46100694      -0.32558258
O        2.55097612       0.95609793      -0.27471576
C       -1.81395468      -0.17276898      -0.94015523
O       -2.09893326      -1.53655914      -1.19946925
H       -0.31624369       0.70675772       2.34606186
H       -0.95287946      -0.77836264       0.91562467
H        2.87249292      -2.26837718       0.20374290
H        1.90324856       1.66149324      -0.42533555
H       -2.69308347       0.33913957      -0.53646980
H       -1.47758866       0.37255145      -1.82529487
H       -2.73043893      -1.58493903      -1.92533608
18
Properties=species:S:1:pos:R:3 relative_energy_eV=0.09192885520678828 branch=right pbc="F F F"
O       -0.32464477       2.24727122      -0.20699885
C       -0.51641418       1.33520189       0.56471151
O       -0.53896847       1.53799384       1.89069131
C       -0.71167613      -0.10966645       0.08881494
O        0.50454465      -0.56205386      -0.54141320
P        1.87574684      -0.36879952       0.31665569
O        1.65104032      -0.44224129       1.78279923
O        2.85644016      -1.46104491      -0.32591443
O        2.55099899       0.95622004      -0.27400207
C       -1.81391044      -0.17282294      -0.94013159
O       -2.09894375      -1.53657995      -1.19948295
H       -0.31792533       0.70713653       2.34658392
H       -0.95269858      -0.77856696       0.91569206
H        2.87287047      -2.26826911       0.20368881
H        1.90311731       1.66128725      -0.42542741
H       -2.69295440       0.33917290      -0.53637152
H       -1.47763214       0.37264512      -1.82523968
H       -2.73063988      -1.58488091      -1.92517646
18
Properties=species:S:1:pos:R:3 relative_energy_eV=0.09189960885123583 branch=right pbc="F F F"
O       -0.32537491       2.24740903      -0.20771982
C       -0.51645144       1.33566631       0.56469069
O       -0.53846953       1.53832949       1.89057237
C       -0.71160784      -0.10939962       0.08892280
O        0.50470191      -0.56209663      -0.54150749
P        1.87585063      -0.36905970       0.31681091
O        1.65127108      -0.44328312       1.78270466
O        2.85665748      -1.46106117      -0.32613362
O        2.55101276       0.95630291      -0.27353743
C       -1.81385512      -0.17283500      -0.94009331
O       -2.09894114      -1.53660884      -1.19948604
H       -0.31887440       0.70734694       2.34704177
H       -0.95251890      -0.77864536       0.91565346
H        2.87321207      -2.26818351       0.20356958
H        1.90302551       1.66109908      -0.42548063
H       -2.69284940       0.33918541      -0.53626346
H       -1.47764119       0.37267676      -1.82519347
H       -2.73079689      -1.58484009      -1.92507167
18
Properties=species:S:1:pos:R:3 relative_energy_eV=0.09188795863519772 branch=right pbc="F F F"
O       -0.32573873       2.24737106      -0.20826668
C       -0.51648938       1.33587310       0.56463377
O       -0.53843058       1.53838468       1.89045057
C       -0.71155975      -0.10908003       0.08901002
O        0.50481141      -0.56198458      -0.54143687
P        1.87590743      -0.36918260       0.31679444
O        1.65132539      -0.44394069       1.78282509
O        2.85661694      -1.46101651      -0.32624335
O        2.55099382       0.95629957      -0.27324403
C       -1.81379629      -0.17280651      -0.94003695
O       -2.09892331      -1.53661671      -1.19947211
H       -0.31919417       0.70746210       2.34732459
H       -0.95235525      -0.77858430       0.91554801
H        2.87350835      -2.26814707       0.20341982
H        1.90296928       1.66094382      -0.42550560
H       -2.69277697       0.33917879      -0.53616102
H       -1.47762297       0.37266028      -1.82516116
H       -2.73089455      -1.58481150      -1.92499924
18
Properties=species:S:1:pos:R:3 relative_energy_eV=0.09187490764816175 branch=right pbc="F F F"
O       -0.32606871       2.24722779      -0.20875999
C       -0.51655406       1.33593549       0.56448632
O       -0.53857660       1.53839937       1.89026710
C       -0.71149094      -0.10876290       0.08906007
O        0.50489016      -0.56171271      -0.54128278
P        1.87589164      -0.36930637       0.31698161
O        1.65134062      -0.44463996       1.78289687
O        2.85648901      -1.46097401      -0.32640198
O        2.55097847       0.95625841      -0.27290462
C       -1.81371854      -0.17274627      -0.93996305
O       -2.09888504      -1.53659092      -1.19943352
H       -0.31933449       0.70764859       2.34751347
H       -0.95213989      -0.77839616       0.91539440
H        2.87390145      -2.26811207       0.20319721
H        1.90289448       1.66076199      -0.42553480
H       -2.69269885       0.33916199      -0.53602371
H       -1.47758648       0.37262031      -1.82512666
H       -2.73098160      -1.58476970      -1.92488663
18
Properties=species:S:1:pos:R:3 relative_energy_eV=0.09185065888959798 branch=right pbc="F F F"
O       -0.32666085       2.24700821      -0.20937839
C       -0.51671420       1.33588863       0.56415492
O       -0.53880457       1.53859086       1.88991890
C       -0.71135644      -0.10844543       0.08902689
O        0.50499149      -0.56117040      -0.54104842
P        1.87588218      -0.36955306       0.31727042
O        1.65134587      -0.44588544       1.78312165
O        2.85629375      -1.46092556      -0.32675094
O        2.55094330       0.95619183      -0.27221291
C       -1.81360307      -0.17265112      -0.93986135
O       -2.09879745      -1.53650605      -1.19933357
H       -0.31958813       0.70808376       2.34766055
H       -0.95177506      -0.77802898       0.91520421
H        2.87463214      -2.26805178       0.20279409
H        1.90276331       1.66042534      -0.42559546
H       -2.69256753       0.33914015      -0.53577878
H       -1.47752350       0.37256948      -1.82507583
H       -2.73111061      -1.58467757      -1.92463668
18
Properties=species:S:1:pos:R:3 relative_energy_eV=0.09183009522894281 branch=right pbc="F F F"
O       -0.32748520       2.24683393      -0.20999382
C       -0.51698425       1.33581497       0.56370433
O       -0.53898507       1.53904520       1.88946019
C       -0.71118779      -0.10828576       0.08888657
O        0.50512819      -0.56049732      -0.54090383
P        1.87589937      -0.36993192       0.31768930
O        1.65136602      -0.44756217       1.78343612
O        2.85612581      -1.46090446      -0.32731163
O        2.55092075       0.95613382      -0.27116653
C       -1.81349050      -0.17256684      -0.93977723
O       -2.09867828      -1.53638652      -1.19918539
H       -0.32002654       0.70876309       2.34768634
H       -0.95134249      -0.77760197       0.91510809
H        2.87562463      -2.26797234       0.20227435
H        1.90257507       1.65997680      -0.42568934
H       -2.69239730       0.33913310      -0.53546387
H       -1.47745438       0.37255019      -1.82502930
H       -2.73125745      -1.58453895      -1.92424505
18
Properties=species:S:1:pos:R:3 relative_energy_eV=0.09179895043416764 branch=right pbc="F F F"
O       -0.32849690       2.24677390      -0.21062228
C       -0.51738773       1.33580436       0.56316986
O       -0.53914597       1.53976904       1.88890950
C       -0.71100555      -0.10828915       0.08866780
O        0.50533578      -0.55976417      -0.54094359
P        1.87595370      -0.37045154       0.31819795
O        1.65137935      -0.44962964       1.78386816
O        2.85597793      -1.46093348      -0.32808609
O        2.55091747       0.95611918      -0.26970880
C       -1.81339561      -0.17251800      -0.93972918
O       -2.09852483      -1.53626403      -1.19897908
H       -0.32059113       0.70966721       2.34755172
H       -0.95087884      -0.77718524       0.91517830
H        2.87688932      -2.26786706       0.20162691
H        1.90233768       1.65939814      -0.42581074
H       -2.69218985       0.33915195      -0.53509260
H       -1.47739257       0.37258299      -1.82500141
H       -2.73143167      -1.58436160      -1.92371713
18
Properties=species:S:1:pos:R:3 relative_energy_eV=0.09177381902918569 branch=right pbc="F F F"
O       -0.32950742       2.24688256      -0.21123227
C       -0.51788226       1.33595239       0.56264400
O       -0.53935836       1.54062955       1.88834248
C       -0.71084616      -0.10839842       0.08845349
O        0.50560848      -0.55911240      -0.54121039
P        1.87602352      -0.37105368       0.31872835
O        1.65134678      -0.45178192       1.78434040
O        2.85582699      -1.46100130      -0.32898513
O        2.55095423       0.95616424      -0.26793732
C       -1.81332536      -0.17252209      -0.93971652
O       -2.09837087      -1.53619379      -1.19875050
H       -0.32108245       0.71065946       2.34723435
H       -0.95046033      -0.77687985       0.91543779
H        2.87830312      -2.26776747       0.20091724
H        1.90207509       1.65874471      -0.42593808
H       -2.69197125       0.33919837      -0.53472789
H       -1.47736408       0.37266976      -1.82500476
H       -2.73161909      -1.58418729      -1.92311591
18
Properties=species:S:1:pos:R:3 relative_energy_eV=0.09173707636000472 branch=right pbc="F F F"
O       -0.33040310       2.24717752      -0.21184624
C       -0.51841027       1.33631059       0.56216705
O       -0.53970189       1.54150773       1.88779818
C       -0.71071656      -0.10850145       0.08832426
O        0.50591577      -0.55860705      -0.54164888
P        1.87607241      -0.37169647       0.31920844
O        1.65122711      -0.45383874       1.78477939
O        2.85564176      -1.46111293      -0.32992549
O        2.55103434       0.95628448      -0.26588260
C       -1.81326664      -0.17257703      -0.93971338
O       -2.09822841      -1.53620745      -1.19851267
H       -0.32133649       0.71164375       2.34674311
H       -0.95010575      -0.77671959       0.91583429
H        2.87981057      -2.26768079       0.20016175
H        1.90180872       1.65803144      -0.42605297
H       -2.69175536       0.33926049      -0.53441657
H       -1.47739369       0.37278839      -1.82503080
H       -2.73184198      -1.58406009      -1.92250751
18
Properties=species:S:1:pos:R:3 relative_energy_eV=0.0917104966356419 branch=right pbc="F F F"
O       -0.33111425       2.24763263      -0.21246737
C       -0.51887910       1.33686576       0.56175869
O       -0.54019839       1.54228962       1.88730791
C       -0.71061079      -0.10848155       0.08832920
O        0.50618906      -0.55827154      -0.54212094
P        1.87606358      -0.37233849       0.31957323
O        1.65099376      -0.45564444       1.78508677
O        2.85541273      -1.46123491      -0.33082693
O        2.55115886       0.95647272      -0.26361826
C       -1.81319985      -0.17266394      -0.93967792
O       -2.09812758      -1.53631065      -1.19830475
H       -0.32125549       0.71252892       2.34612910
H       -0.94980444      -0.77668354       0.91624508
H        2.88133531      -2.26763543       0.19940975
H        1.90155426       1.65729526      -0.42614187
H       -2.69156005       0.33931347      -0.53420313
H       -1.47749988       0.37289442      -1.82505315
H       -2.73210724      -1.58402556      -1.92194604
18
Properties=species:S:1:pos:R:3 relative_energy_eV=0.09168473212412209 branch=right pbc="F F F"
O       -0.33168914       2.24819571      -0.21309993
C       -0.51921384       1.33754506       0.56139196
O       -0.54077623       1.54294747       1.88687051
C       -0.71050918      -0.10827279       0.08845068
O        0.50636371      -0.55805947      -0.54247440
P        1.87597911      -0.37296453       0.31979609
O        1.65064442      -0.45721738       1.78521306
O        2.85517167      -1.46136745      -0.33164695
O        2.55131224       0.95671882      -0.26118029
C       -1.81311752      -0.17276108      -0.93958169
O       -2.09806713      -1.53646874      -1.19813145
H       -0.32089014       0.71329994       2.34546671
H       -0.94950570      -0.77668770       0.91653013
H        2.88285081      -2.26761733       0.19867580
H        1.90131875       1.65655020      -0.42620415
H       -2.69139793       0.33932946      -0.53409789
H       -1.47768491       0.37293956      -1.82503569
H       -2.73243852      -1.58410704      -1.92146310
18
Properties=species:S:1:pos:R:3 relative_energy_eV=0.09166517519770423 branch=right pbc="F F F"
O       -0.33217382       2.24873669      -0.21365870
C       -0.51935111       1.33816769       0.56106446
O       -0.54123029       1.54345229       1.88651063
C       -0.71040923      -0.10791161       0.08859153
O        0.50639544      -0.55791102      -0.54258727
P        1.87584373      -0.37351671       0.31988863
O        1.65023858      -0.45851097       1.78516129
O        2.85499275      -1.46146418      -0.33231477
O        2.55145898       0.95697209      -0.25888386
C       -1.81304232      -0.17283714      -0.93943460
O       -2.09805729      -1.53661686      -1.19802096
H       -0.32043340       0.71390631       2.34490714
H       -0.94919074      -0.77662358       0.91656568
H        2.88418434      -2.26762399       0.19806602
H        1.90112343       1.65589365      -0.42624485
H       -2.69130223       0.33928827      -0.53408709
H       -1.47790762       0.37288853      -1.82495975
H       -2.73278877      -1.58428676      -1.92108411
18
Properties=species:S:1:pos:R:3 relative_energy_eV=0.09164925049481099 branch=right pbc="F F F"
O       -0.33258058       2.24912009      -0.21403159
C       -0.51932207       1.33855590       0.56079906
O       -0.54136410       1.54379723       1.88626050
C       -0.71032870      -0.10755336       0.08862888
O        0.50632341      -0.55777624      -0.54250262
P        1.87571556      -0.37391476       0.31991702
O        1.64987309      -0.45947293       1.78504305
O        2.85493967      -1.46152310      -0.33275822
O        2.55155532       0.95717145      -0.25715599
C       -1.81302197      -0.17287866      -0.93930335
O       -2.09806858      -1.53669499      -1.19795576
H       -0.32011262       0.71431056       2.34457649
H       -0.94889909      -0.77643675       0.91637576
H        2.88513023      -2.26761011       0.19766675
H        1.90099356       1.65543723      -0.42627258
H       -2.69130091       0.33920228      -0.53411955
H       -1.47809549       0.37276281      -1.82485648
H       -2.73308631      -1.58449394      -1.92083193
18
Properties=species:S:1:pos:R:3 relative_energy_eV=0.09163233908475377 branch=right pbc="F F F"
O       -0.33292905       2.24935974      -0.21423943
C       -0.51923991       1.33874150       0.56058769
O       -0.54120160       1.54404887       1.88608696
C       -0.71028010      -0.10729022       0.08852937
O        0.50624325      -0.55762709      -0.54239833
P        1.87562634      -0.37419299       0.31997023
O        1.64956049      -0.46023167       1.78497502
O        2.85497472      -1.46152671      -0.33305548
O        2.55160547       0.95731044      -0.25595358
C       -1.81307143      -0.17289719      -0.93923175
O       -2.09808980      -1.53672191      -1.19791452
H       -0.31994662       0.71457349       2.34442667
H       -0.94865999      -0.77615671       0.91610943
H        2.88576062      -2.26757345       0.19744194
H        1.90091148       1.65515336      -0.42629795
H       -2.69138596       0.33909984      -0.53414479
H       -1.47822721       0.37261547      -1.82477877
H       -2.73330029      -1.58468209      -1.92063323
18
Properties=species:S:1:pos:R:3 relative_energy_eV=0.09162556903538643 branch=right pbc="F F F"
O       -0.33330144       2.24959878      -0.21440354
C       -0.51915797       1.33888510       0.56036026
O       -0.54079456       1.54430828       1.88591054
C       -0.71025412      -0.10705232       0.08829946
O        0.50619593      -0.55742353      -0.54238523
P        1.87553707      -0.37446690       0.32009974
O        1.64917006      -0.46110502       1.78499074
O        2.85504992      -1.46150577      -0.33334216
O        2.55163824       0.95745401      -0.25473244
C       -1.81320366      -0.17291779      -0.93921682
O       -2.09810543      -1.53674794      -1.19784428
H       -0.31977049       0.71481848       2.34431772
H       -0.94842616      -0.77575827       0.91580978
H        2.88638521      -2.26748037       0.19724256
H        1.90083805       1.65489385      -0.42632806
H       -2.69156999       0.33896704      -0.53415784
H       -1.47836089       0.37244019      -1.82474708
H       -2.73351937      -1.58490516      -1.92039388
18
Properties=species:S:1:pos:R:3 relative_energy_eV=0.09160453217555187 branch=right pbc="F F F"
O       -0.33383118       2.25000038      -0.21464365
C       -0.51908256       1.33913335       0.56001212
O       -0.53998614       1.54468474       1.88562990
C       -0.71024862      -0.10671468       0.08785910
O        0.50620727      -0.55706203      -0.54257599
P        1.87538690      -0.37488147       0.32039846
O        1.64847477      -0.46255645       1.78513209
O        2.85514146      -1.46141218      -0.33376857
O        2.55167528       0.95768162      -0.25280969
C       -1.81347719      -0.17295592      -0.93926817
O       -2.09813175      -1.53683193      -1.19770528
H       -0.31937266       0.71515487       2.34414249
H       -0.94812068      -0.77509427       0.91542486
H        2.88736291      -2.26729324       0.19695254
H        1.90073347       1.65450767      -0.42637227
H       -2.69194657       0.33874521      -0.53416602
H       -1.47858828       0.37217950      -1.82480433
H       -2.73384606      -1.58528253      -1.91995811
18
Properties=species:S:1:pos:R:3 relative_energy_eV=0.09157352035254007 branch=right pbc="F F F"
O       -0.33457205       2.25071306      -0.21505350
C       -0.51902214       1.33962150       0.55946660
O       -0.53854845       1.54520946       1.88517056
C       -0.71027954      -0.10617421       0.08713377
O        0.50632213      -0.55642226      -0.54315139
P        1.87509136      -0.37551514       0.32096607
O        1.64724133      -0.46498035       1.78547363
O        2.85521073      -1.46120393      -0.33437738
O        2.55171428       0.95806051      -0.24964801
C       -1.81396184      -0.17302674      -0.93943434
O       -2.09816058      -1.53704290      -1.19742464
H       -0.31847092       0.71561569       2.34380598
H       -0.94772582      -0.77404355       0.91495321
H        2.88895723      -2.26692318       0.19648072
H        1.90058170       1.65389153      -0.42642749
H       -2.69262668       0.33837199      -0.53419015
H       -1.47902147       0.37179381      -1.82506025
H       -2.73437894      -1.58594267      -1.91920392
18
Properties=species:S:1:pos:R:3 relative_energy_eV=0.0915435771967168 branch=right pbc="F F F"
O       -0.33548134       2.25180312      -0.21569906
C       -0.51898345       1.34044045       0.55870693
O       -0.53639081       1.54583366       1.88449690
C       -0.71036695      -0.10537571       0.08616534
O        0.50656226      -0.55540659      -0.54423451
P        1.87457255      -0.37636860       0.32184258
O        1.64537610      -0.46852835       1.78603587
O        2.85517619      -1.46078692      -0.33511761
O        2.55173509       0.95860808      -0.24507761
C       -1.81464068      -0.17312691      -0.93974824
O       -2.09819883      -1.53744063      -1.19698291
H       -0.31682800       0.71614616       2.34323185
H       -0.94728936      -0.77264047       0.91448047
H        2.89124012      -2.26635015       0.19582590
H        1.90038672       1.65302196      -0.42647545
H       -2.69361496       0.33782424      -0.53426711
H       -1.47977062       0.37130132      -1.82564280
H       -2.73513376      -1.58695208      -1.91806104
18
Properties=species:S:1:pos:R:3 relative_energy_eV=0.09149416462241788 branch=right pbc="F F F"
O       -0.33641845       2.25315669      -0.21655160
C       -0.51894357       1.34152932       0.55781993
O       -0.53369799       1.54642109       1.88367512
C       -0.71051914      -0.10438252       0.08515865
O        0.50686337      -0.55402360      -0.54569948
P        1.87380880      -0.37729573       0.32290575
O        1.64308164      -0.47285722       1.78672148
O        2.85498852      -1.46018007      -0.33577838
O        2.55168948       0.95926260      -0.23962342
C       -1.81537468      -0.17324092      -0.94019404
O       -2.09820946      -1.53799497      -1.19640037
H       -0.31447917       0.71661076       2.34241201
H       -0.94691063      -0.77113933       0.91412774
H        2.89391570      -2.26559182       0.19507879
H        1.90018768       1.65201414      -0.42648369
H       -2.69472123       0.33715884      -0.53444338
H       -1.48087199       0.37078886      -1.82658845
H       -2.73603864      -1.58823362      -1.91665713
18
Properties=species:S:1:pos:R:3 relative_energy_eV=0.09143536229021265 branch=right pbc="F F F"
O       -0.33738432       2.25463744      -0.21759286
C       -0.51886830       1.34278995       0.55685247
O       -0.53063136       1.54695484       1.88274136
C       -0.71073706      -0.10325611       0.08427123
O        0.50712143      -0.55225961      -0.54729952
P        1.87281625      -0.37822942       0.32403951
O        1.64057983      -0.47775571       1.78740464
O        2.85464882      -1.45937197      -0.33628096
O        2.55154242       0.95996834      -0.23369515
C       -1.81602079      -0.17335135      -0.94072365
O       -2.09817434      -1.53864050      -1.19574357
H       -0.31159903       0.71695406       2.34133335
H       -0.94661065      -0.76973853       0.91391937
H        2.89675451      -2.26472267       0.19435025
H        1.89999219       1.65096297      -0.42643465
H       -2.69572367       0.33644086      -0.53474855
H       -1.48234847       0.37031508      -1.82785426
H       -2.73700730      -1.58969526      -1.91505944
18
Properties=species:S:1:pos:R:3 relative_energy_eV=0.0913749277315219 branch=right pbc="F F F"
O       -0.33854774       2.25621579      -0.21886440
C       -0.51872540       1.34418646       0.55575919
O       -0.52706126       1.54753506       1.88167092
C       -0.71103432      -0.10198531       0.08350585
O        0.50724697      -0.55000650      -0.54884892
P        1.87157851      -0.37920349       0.32522135
O        1.63788541      -0.48344639       1.78803212
O        2.85422127      -1.45841668      -0.33665349
O        2.55125590       0.96074849      -0.22716647
C       -1.81654446      -0.17346631      -0.94132736
O       -2.09802738      -1.53932636      -1.19499655
H       -0.30825096       0.71721961       2.33990453
H       -0.94633001      -0.76844235       0.91375497
H        2.89977174      -2.26368627       0.19365478
H        1.89977804       1.64987035      -0.42631852
H       -2.69651315       0.33569040      -0.53520920
H       -1.48428540       0.36986497      -1.82940726
H       -2.73806766      -1.59134916      -1.91323195
18
Properties=species:S:1:pos:R:3 relative_energy_eV=0.09130655532499077 branch=right pbc="F F F"
O       -0.34012616       2.25783986      -0.22038854
C       -0.51853615       1.34566659       0.55449900
O       -0.52292659       1.54833270       1.88043741
C       -0.71141523      -0.10057755       0.08279429
O        0.50718990      -0.54725361      -0.55015184
P        1.87016897      -0.38031377       0.32645873
O        1.63502765      -0.49011533       1.78857514
O        2.85379431      -1.45734641      -0.33708128
O        2.55082114       0.96163598      -0.21990000
C       -1.81695311      -0.17359307      -0.94196980
O       -2.09773347      -1.54000045      -1.19419960
H       -0.30459023       0.71750342       2.33805870
H       -0.94597307      -0.76719965       0.91347029
H        2.90299940      -2.26250429       0.19303823
H        1.89950258       1.64872887      -0.42613872
H       -2.69703008       0.33495988      -0.53579956
H       -1.48666511       0.36940633      -1.83112096
H       -2.73920476      -1.59316728      -1.91110185
18
Properties=species:S:1:pos:R:3 relative_energy_eV=0.09124798276752699 branch=right pbc="F F F"
O       -0.34203962       2.25928647      -0.22194972
C       -0.51837841       1.34701711       0.55322354
O       -0.51864878       1.54932751       1.87921110
C       -0.71184172      -0.09921850       0.08209970
O        0.50698050      -0.54444001      -0.55097715
P        1.86884875      -0.38146288       0.32762397
O        1.63232487      -0.49697285       1.78899381
O        2.85351321      -1.45642337      -0.33763810
O        2.55027735       0.96257403      -0.21270606
C       -1.81728701      -0.17373056      -0.94256716
O       -2.09726735      -1.54055805      -1.19344680
H       -0.30109720       0.71781829       2.33597527
H       -0.94554146      -0.76607041       0.91292922
H        2.90600386      -2.26125562       0.19260056
H        1.89918474       1.64768654      -0.42590702
H       -2.69728512       0.33439250      -0.53640673
H       -1.48911096       0.36895104      -1.83266347
H       -2.74028575      -1.59491916      -1.90891532
18
Properties=species:S:1:pos:R:3 relative_energy_eV=0.091182636708254 branch=right pbc="F F F"
O       -0.34405406       2.26040344      -0.22334232
C       -0.51837882       1.34810698       0.55210341
O       -0.51485094       1.55040145       1.87814085
C       -0.71223421      -0.09808217       0.08139432
O        0.50677763      -0.54211240      -0.55135761
P        1.86788531      -0.38255899       0.32863555
O        1.63007543      -0.50306705       1.78932073
O        2.85339522      -1.45577155      -0.33841969
O        2.54973739       0.96346387      -0.20640657
C       -1.81761031      -0.17385487      -0.94302906
O       -2.09670519      -1.54096488      -1.19285490
H       -0.29815631       0.71816184       2.33395092
H       -0.94509397      -0.76510070       0.91214337
H        2.90843715      -2.26013432       0.19240060
H        1.89884135       1.64684866      -0.42565262
H       -2.69742625       0.33409289      -0.53687049
H       -1.49113561       0.36853520      -1.83375555
H       -2.74115399      -1.59636540      -1.90692127
18
Properties=species:S:1:pos:R:3 relative_energy_eV=0.09112759244453628 branch=right pbc="F F F"
O       -0.34602875       2.26128089      -0.22455503
C       -0.51856417       1.34900756       0.55115836
O       -0.51148045       1.55137197       1.87724424
C       -0.71258619      -0.09714197       0.08064747
O        0.50668971      -0.54036847      -0.55155116
P        1.86723484      -0.38353080       0.32952792
O        1.62818642      -0.50825157       1.78963434
O        2.85335348      -1.45540206      -0.33930345
O        2.54920111       0.96432122      -0.20100160
C       -1.81799600      -0.17394695      -0.94339592
O       -2.09605009      -1.54128784      -1.19237789
H       -0.29545111       0.71842541       2.33200646
H       -0.94474636      -0.76427090       0.91117683
H        2.91024044      -2.25905434       0.19242901
H        1.89849960       1.64622393      -0.42533732
H       -2.69764109       0.33403164      -0.53718888
H       -1.49268478       0.36816630      -1.83448948
H       -2.74182685      -1.59757208      -1.90514420
18
Properties=species:S:1:pos:R:3 relative_energy_eV=0.09107487914297963 branch=right pbc="F F F"
O       -0.34834561       2.26225873      -0.22594069
C       -0.51897182       1.35003588       0.55012750
O       -0.50786409       1.55234229       1.87623475
C       -0.71292703      -0.09613904       0.07972602
O        0.50678771      -0.53880859      -0.55190582
P        1.86665921      -0.38461161       0.33055537
O        1.62618301      -0.51373738       1.79007786
O        2.85320434      -1.45507661      -0.34044197
O        2.54861446       0.96530982      -0.19507880
C       -1.81852178      -0.17398801      -0.94376251
O       -2.09523507      -1.54165928      -1.19187527
H       -0.29214538       0.71865764       2.32977863
H       -0.94448642      -0.76338209       0.90999246
H        2.91199308      -2.25782696       0.19261071
H        1.89806224       1.64559293      -0.42488492
H       -2.69809412       0.33410466      -0.53742079
H       -1.49407397       0.36779454      -1.83516048
H       -2.74248906      -1.59886507      -1.90315235
18
Properties=species:S:1:pos:R:3 relative_energy_eV=0.0909968685991771 branch=right pbc="F F F"
O       -0.35087558       2.26328685      -0.22737804
C       -0.51952654       1.35108350       0.54909254
O       -0.50399668       1.55298487       1.87518713
C       -0.71326050      -0.09515229       0.07873586
O        0.50704403      -0.53758440      -0.55244462
P        1.86610477      -0.38557344       0.33159498
O        1.62425995      -0.51894205       1.79058074
O        2.85285724      -1.45483185      -0.34148488
O        2.54789001       0.96640801      -0.18927750
C       -1.81912959      -0.17391147      -0.94414954
O       -2.09424127      -1.54203968      -1.19136616
H       -0.28799255       0.71859466       2.32730236
H       -0.94453249      -0.76263517       0.90866126
H        2.91318781      -2.25639309       0.19314076
H        1.89760703       1.64512016      -0.42417584
H       -2.69879074       0.33432284      -0.53762443
H       -1.49521490       0.36750299      -1.83582380
H       -2.74304038      -1.60023867      -1.90109110
18
Properties=species:S:1:pos:R:3 relative_energy_eV=0.09091897153484751 branch=right pbc="F F F"
O       -0.35419829       2.26476903      -0.22929073
C       -0.52017427       1.35245815       0.54768589
O       -0.49949176       1.55357296       1.87370223
C       -0.71352968      -0.09395486       0.07758648
O        0.50746545      -0.53621702      -0.55350467
P        1.86530814      -0.38676454       0.33288052
O        1.62208938      -0.52525806       1.79128074
O        2.85213176      -1.45441947      -0.34269380
O        2.54712664       0.96767469      -0.18195916
C       -1.81979933      -0.17369947      -0.94460396
O       -2.09311585      -1.54247392      -1.19068202
H       -0.28262983       0.71857061       2.32443209
H       -0.94470656      -0.76175388       0.90728200
H        2.91479671      -2.25471587       0.19368513
H        1.89695013       1.64443438      -0.42322628
H       -2.69977745       0.33445110      -0.53781293
H       -1.49634090       0.36726529      -1.83670710
H       -2.74375474      -1.60193748      -1.89857468
18
Properties=species:S:1:pos:R:3 relative_energy_eV=0.09083310951973544 branch=right pbc="F F F"
O       -0.35705861       2.26576457      -0.23050194
C       -0.52059734       1.35312663       0.54672553
O       -0.49594559       1.55310048       1.87262220
C       -0.71370605      -0.09334608       0.07686359
O        0.50777200      -0.53591248      -0.55431697
P        1.86468600      -0.38713856       0.33353568
O        1.62124539      -0.52838919       1.79163795
O        2.85120388      -1.45424287      -0.34290920
O        2.54623531       0.96865022      -0.17804813
C       -1.82016329      -0.17324843      -0.94497038
O       -2.09210633      -1.54257122      -1.19028268
H       -0.27747312       0.71782607       2.32217016
H       -0.94552938      -0.76165804       0.90619299
H        2.91431454      -2.25331883       0.19495310
H        1.89654120       1.64442636      -0.42194313
H       -2.70061425       0.33469641      -0.53802655
H       -1.49655161       0.36740971      -1.83729793
H       -2.74390326      -1.60317319      -1.89692454
18
Properties=species:S:1:pos:R:3 relative_energy_eV=0.09075144173402805 branch=right pbc="F F F"
O       -0.36250362       2.26827848      -0.23333520
C       -0.52100972       1.35498070       0.54435181
O       -0.48995138       1.55374224       1.87011765
C       -0.71384736      -0.09177089       0.07545838
O        0.50813549      -0.53379050      -0.55623367
P        1.86313186      -0.38886472       0.33520509
O        1.61877130      -0.53726216       1.79260460
O        2.84981914      -1.45350408      -0.34421649
O        2.54541627       0.97016159      -0.16743661
C       -1.82071933      -0.17279531      -0.94564454
O       -2.09097534      -1.54290640      -1.18919753
H       -0.27021454       0.71819219       2.31883146
H       -0.94570178      -0.76031806       0.90494608
H        2.91722910      -2.25129915       0.19520835
H        1.89547624       1.64311142      -0.42053052
H       -2.70179428       0.33423258      -0.53836048
H       -1.49778442       0.36735118      -1.83870587
H       -2.74512828      -1.60553765      -1.89358278
18
Properties=species:S:1:pos:R:3 relative_energy_eV=0.09067815946764313 branch=right pbc="F F F"
O       -0.36472868       2.26852587      -0.23339906
C       -0.52079110       1.35451597       0.54396709
O       -0.48869975       1.55256101       1.86959997
C       -0.71381541      -0.09209548       0.07546224
O        0.50792769      -0.53445053      -0.55634854
P        1.86276892      -0.38843357       0.33489584
O        1.61997494      -0.53611762       1.79239679
O        2.84900442      -1.45360838      -0.34334950
O        2.54480670       0.97030248      -0.16817521
C       -1.82038235      -0.17227215      -0.94584512
O       -2.09073359      -1.54238975      -1.18924188
H       -0.26757901       0.71737297       2.31837265
H       -0.94662647      -0.76085012       0.90480208
H        2.91525352      -2.25105887       0.19651175
H        1.89534932       1.64361238      -0.41931330
H       -2.70179282       0.33413843      -0.53861787
H       -1.49679808       0.36799836      -1.83871883
H       -2.74478886      -1.60574955      -1.89351938
18
Properties=species:S:1:pos:R:3 relative_energy_eV=0.0905986985344498 branch=right pbc="F F F"
O       -0.36826996       2.26970337      -0.23450836
C       -0.52067025       1.35501670       0.54272597
O       -0.48557734       1.55286396       1.86839239
C       -0.71394094      -0.09154233       0.07482982
O        0.50766645      -0.53325107      -0.55688771
P        1.86186727      -0.38924141       0.33548508
O        1.61929227      -0.53979515       1.79269100
O        2.84844334      -1.45343400      -0.34363269
O        2.54430433       0.97087477      -0.16361827
C       -1.82034643      -0.17211111      -0.94634035
O       -2.09054522      -1.54228878      -1.18883915
H       -0.26442129       0.71774147       2.31720941
H       -0.94650690      -0.75999894       0.90445677
H        2.91663814      -2.25045384       0.19655653
H        1.89488598       1.64295509      -0.41842993
H       -2.70184112       0.33350364      -0.53903969
H       -1.49717561       0.36819690      -1.83933560
H       -2.74545337      -1.60673790      -1.89223551
18
Properties=species:S:1:pos:R:3 relative_energy_eV=0.09052237942159991 branch=right pbc="F F F"
O       -0.37268808       2.27083757      -0.23556143
C       -0.52078852       1.35548871       0.54151995
O       -0.48198901       1.55342424       1.86716307
C       -0.71419733      -0.09097889       0.07407218
O        0.50732825      -0.53193500      -0.55711595
P        1.86104180      -0.39022647       0.33615784
O        1.61854190      -0.54347439       1.79298670
O        2.84797988      -1.45344183      -0.34410509
O        2.54363190       0.97141344      -0.15881081
C       -1.82027108      -0.17211767      -0.94700851
O       -2.09042634      -1.54222920      -1.18857393
H       -0.26087255       0.71824208       2.31593163
H       -0.94616712      -0.75882624       0.90407494
H        2.91820602      -2.25007492       0.19661846
H        1.89439745       1.64228059      -0.41734630
H       -2.70163268       0.33281731      -0.53963968
H       -1.49750150       0.36846870      -1.83989273
H       -2.74624369      -1.60766673      -1.89099063
18
Properties=species:S:1:pos:R:3 relative_energy_eV=0.09043459858003189 branch=right pbc="F F F"
O       -0.37804450       2.27218332      -0.23688205
C       -0.52138766       1.35627077       0.54026705
O       -0.47740612       1.55409573       1.86587900
C       -0.71457176      -0.09018779       0.07311969
O        0.50717592      -0.53047385      -0.55741787
P        1.86019291      -0.39144004       0.33709477
O        1.61729461      -0.54782597       1.79349946
O        2.84744172      -1.45362160      -0.34476526
O        2.54275408       0.97208398      -0.15298206
C       -1.82031299      -0.17223806      -0.94787564
O       -2.09015839      -1.54242133      -1.18838240
H       -0.25596924       0.71873330       2.31412628
H       -0.94580183      -0.75734765       0.90355780
H        2.92003357      -2.24953252       0.19673346
H        1.89382818       1.64156959      -0.41595758
H       -2.70153263       0.33222209      -0.54040799
H       -1.49794986       0.36871780      -1.84062887
H       -2.74723682      -1.60878656      -1.88949811
18
Properties=species:S:1:pos:R:3 relative_energy_eV=0.09027795950169093 branch=right pbc="F F F"
O       -0.38908727       2.27469264      -0.23926773
C       -0.52320848       1.35786245       0.53822991
O       -0.46834815       1.55517168       1.86362151
C       -0.71535304      -0.08870660       0.07142523
O        0.50714289      -0.52805554      -0.55789867
P        1.85875084      -0.39369063       0.33894609
O        1.61491265      -0.55506459       1.79461660
O        2.84621830      -1.45418196      -0.34588533
O        2.54094978       0.97318645      -0.14261512
C       -1.82034135      -0.17258879      -0.94969151
O       -2.08959475      -1.54302805      -1.18840986
H       -0.24525843       0.71940509       2.31050474
H       -0.94528136      -0.75451674       0.90278722
H        2.92307050      -2.24879599       0.19720479
H        1.89277560       1.64048070      -0.41287082
H       -2.70133753       0.33131418      -0.54210992
H       -1.49849386       0.36925841      -1.84210732
H       -2.74916729      -1.61074170      -1.88700018
18
Properties=species:S:1:pos:R:3 relative_energy_eV=0.09004248894780176 branch=right pbc="F F F"
O       -0.40365486       2.27778428      -0.24191850
C       -0.52618933       1.35994837       0.53620766
O       -0.45669671       1.55607871       1.86114817
C       -0.71638245      -0.08692394       0.06960151
O        0.50737527      -0.52549554      -0.55841200
P        1.85708913      -0.39622250       0.34126611
O        1.61192139      -0.56252583       1.79620743
O        2.84446447      -1.45516407      -0.34675062
O        2.53870095       0.97424487      -0.13109771
C       -1.82030467      -0.17313019      -0.95209796
O       -2.08882729      -1.54406968      -1.18903701
H       -0.23025326       0.71986327       2.30586660
H       -0.94496816      -0.75112493       0.90222790
H        2.92617114      -2.24816635       0.19801411
H        1.89157559       1.63952627      -0.40852071
H       -2.70119292       0.33046371      -0.54459251
H       -1.49887169       0.36985339      -1.84416128
H       -2.75160775      -1.61293907      -1.88447163
18
Properties=species:S:1:pos:R:3 relative_energy_eV=0.089735558241955 branch=right pbc="F F F"
O       -0.42175700       2.28125920      -0.24419416
C       -0.53045110       1.36231013       0.53467302
O       -0.44296463       1.55647488       1.85869701
C       -0.71765222      -0.08510212       0.06804239
O        0.50785942      -0.52322405      -0.55868949
P        1.85535741      -0.39865018       0.34389002
O        1.60862198      -0.56847564       1.79824977
O        2.84207337      -1.45651878      -0.34684524
O        2.53628476       0.97489236      -0.12041669
C       -1.82009894      -0.17384905      -0.95500973
O       -2.08784639      -1.54550345      -1.19075810
H       -0.21062204       0.71987159       2.30041500
H       -0.94514840      -0.74756089       0.90223630
H        2.92861484      -2.24810454       0.19934909
H        1.89042192       1.63903631      -0.40274829
H       -2.70113748       0.32986327      -0.54804856
H       -1.49878863       0.37028483      -1.84678153
H       -2.75441826      -1.61500336      -1.88258135
18
Properties=species:S:1:pos:R:3 relative_energy_eV=0.08932858826301526 branch=right pbc="F F F"
O       -0.44604132       2.28639463      -0.24682818
C       -0.53598469       1.36574167       0.53277412
O       -0.42371069       1.55665845       1.85530733
C       -0.71944290      -0.08249497       0.06619877
O        0.50849836      -0.51997173      -0.55930243
P        1.85271231      -0.40154262       0.34764490
O        1.60335142      -0.57687572       1.80122491
O        2.83866232      -1.45779151      -0.34623583
O        2.53361675       0.97572317      -0.10630511
C       -1.82013812      -0.17460924      -0.95875252
O       -2.08605479      -1.54750210      -1.19345846
H       -0.18251267       0.71953392       2.29245021
H       -0.94599670      -0.74327609       0.90223632
H        2.93168635      -2.24766889       0.20129265
H        1.88912063       1.63849351      -0.39487487
H       -2.70193111       0.32930900      -0.55301433
H       -1.49925586       0.36992114      -1.85087997
H       -2.75823097      -1.61804250      -1.87999813
18
Properties=species:S:1:pos:R:3 relative_energy_eV=0.08840540293022059 branch=right pbc="F F F"
O       -0.49044873       2.29371969      -0.24662014
C       -0.54640705       1.36958281       0.53262316
O       -0.39192349       1.55435298       1.85121140
C       -0.72305675      -0.08002118       0.06488209
O        0.50895604      -0.51759482      -0.55768376
P        1.84914518      -0.40375598       0.35262762
O        1.59677893      -0.57841064       1.80598682
O        2.83259818      -1.46105108      -0.34132148
O        2.53016421       0.97459957      -0.09550925
C       -1.81950832      -0.17607327      -0.96530213
O       -2.08317331      -1.55041075      -1.20142541
H       -0.13037735       0.71712782       2.27973433
H       -0.94935001      -0.73788879       0.90393109
H        2.93080997      -2.24966399       0.20658777
H        1.88808343       1.64041780      -0.37932495
H       -2.70296899       0.32920898      -0.56340054
H       -1.49726513       0.36864658      -1.85743141
H       -2.76370893      -1.62078613      -1.88008617
18
Properties=species:S:1:pos:R:3 relative_energy_eV=0.08769943952211179 branch=right pbc="F F F"
O       -0.57087751       2.30972727      -0.25020093
C       -0.56334616       1.37880812       0.52844957
O       -0.32872410       1.55245397       1.84053067
C       -0.72982840      -0.07296693       0.05987872
O        0.50955122      -0.50869655      -0.55759601
P        1.84041836      -0.41048443       0.36376228
O        1.58031953      -0.59742580       1.81521182
O        2.82141768      -1.46472434      -0.33558216
O        2.52314916       0.97570438      -0.05898758
C       -1.81985654      -0.17814093      -0.97738145
O       -2.07680467      -1.55586041      -1.21240219
H       -0.03407970       0.71410498       2.25294580
H       -0.95446686      -0.72613327       0.90397959
H        2.93535477      -2.24935349       0.21533722
H        1.88517348       1.64101457      -0.35218973
H       -2.70652374       0.32781873      -0.58132029
H       -1.49764056       0.36582484      -1.87077070
H       -2.77488897      -1.62967232      -1.87418604
18
Properties=species:S:1:pos:R:3 relative_energy_eV=0.08405507602583384 branch=right pbc="F F F"
O       -0.63526583       2.31600983      -0.23720825
C       -0.57960391       1.37995195       0.53532387
O       -0.28832834       1.54371426       1.83722467
C       -0.73665231      -0.07317056       0.06151605
O        0.50850019      -0.51094888      -0.55000499
P        1.83677051      -0.40765669       0.36809748
O        1.57353228      -0.57328308       1.82205808
O        2.81243257      -1.47080201      -0.32090098
O        2.52250369       0.96874718      -0.07051351
C       -1.81834823      -0.18069194      -0.98668215
O       -2.07297997      -1.55923926      -1.23007794
H        0.04894874       0.70739454       2.23429898
H       -0.96331886      -0.72259725       0.90947984
H        2.92247390      -2.25751684       0.22621910
H        1.88636096       1.64978194      -0.32708808
H       -2.70824205       0.32943898      -0.59985938
H       -1.49037862       0.36166199      -1.87938335
H       -2.78005816      -1.62879634      -1.88302144
18
Properties=species:S:1:pos:R:3 relative_energy_eV=0.07533105172478827 branch=right pbc="F F F"
O       -0.70466197       2.31777386      -0.20971757
C       -0.59875886       1.37662457       0.55036976
O       -0.24974262       1.52912603       1.83604944
C       -0.74593667      -0.07716402       0.06743670
O        0.50566096      -0.51862147      -0.53648281
P        1.83438184      -0.39841176       0.37041404
O        1.56880695      -0.52241178       1.83001775
O        2.80256015      -1.47796427      -0.29743414
O        2.52674001       0.95631735      -0.11157170
C       -1.81615316      -0.18367067      -0.99625983
O       -2.06819480      -1.56208338      -1.25533524
H        0.14584509       0.69740967       2.21168481
H       -0.97748425      -0.72435198       0.91837295
H        2.89632680      -2.27131585       0.24177425
H        1.89079427       1.66535489      -0.29726053
H       -2.71034721       0.33377154      -0.62330289
H       -1.47886794       0.35435456      -1.88821233
H       -2.78262230      -1.62273990      -1.90106545
18
Properties=species:S:1:pos:R:3 relative_energy_eV=0.07415486760874046 branch=right pbc="F F F"
O       -0.77593725       2.32348163      -0.19132710
C       -0.61627664       1.37682515       0.55922852
O       -0.20230908       1.51822003       1.83132919
C       -0.75484934      -0.07756068       0.06953177
O        0.50338271      -0.52066907      -0.52733860
P        1.82961148      -0.39394578       0.37544185
O        1.56022031      -0.49490283       1.83802674
O        2.79249435      -1.48342733      -0.27950655
O        2.52685489       0.94911151      -0.12751496
C       -1.81500013      -0.18607877      -1.00666181
O       -2.06253784      -1.56548752      -1.27512894
H        0.24213020       0.68927558       2.18593577
H       -0.98926850      -0.72235932       0.92341097
H        2.87874391      -2.27971361       0.25629835
H        1.89325517       1.67630977      -0.26830227
H       -2.71292382       0.33622477      -0.64483464
H       -1.47184230       0.34880801      -1.89851859
H       -2.78740229      -1.62211481      -1.91059318
18
Properties=species:S:1:pos:R:3 relative_energy_eV=0.06604554867226398 branch=right pbc="F F F"
O       -0.75928049       2.31148001      -0.16193375
C       -0.61238477       1.36645663       0.57465604
O       -0.21565058       1.50795893       1.83599844
C       -0.75886684      -0.08543701       0.07778453
O        0.49791813      -0.53150713      -0.51762878
P        1.83298202      -0.38006556       0.36853512
O        1.56654581      -0.44912585       1.83503004
O        2.79583442      -1.48159433      -0.26422811
O        2.53486855       0.94349939      -0.18541573
C       -1.81516972      -0.18520336      -1.00359212
O       -2.06119293      -1.56222201      -1.28318513
H        0.23886290       0.68410757       2.17956931
H       -0.99929181      -0.73746764       0.92552710
H        2.85124502      -2.28588796       0.26550839
H        1.90271697       1.68641590      -0.26717104
H       -2.71417779       0.34092975      -0.64891927
H       -1.46790050       0.34326129      -1.89595391
H       -2.77871209      -1.61360128      -1.92510477
18
Properties=species:S:1:pos:R:3 relative_energy_eV=0.05406699854574981 branch=right pbc="F F F"
O       -0.75844845       2.31756396      -0.18476580
C       -0.60700025       1.37660039       0.55769468
O       -0.21795642       1.53216587       1.81716197
C       -0.75384869      -0.07746393       0.07209934
O        0.50150858      -0.51563375      -0.52734378
P        1.83217700      -0.39704711       0.37532367
O        1.56366495      -0.52910297       1.83400252
O        2.79916694      -1.47717450      -0.28965238
O        2.53018556       0.95618114      -0.11249607
C       -1.81611014      -0.18252949      -0.99843039
O       -2.05879297      -1.56015673      -1.26642307
H        0.19604325       0.70693101       2.17251899
H       -0.98717371      -0.73362903       0.91743938
H        2.88945580      -2.27153015       0.24975111
H        1.89893899       1.66296035      -0.27935176
H       -2.71219689       0.33822686      -0.63520588
H       -1.47814578       0.34601137      -1.89300517
H       -2.78312205      -1.62037639      -1.89984033
18
Properties=species:S:1:pos:R:3 relative_energy_eV=0.03662511589936912 branch=right pbc="F F F"
O       -0.83210114       2.32293625      -0.17337113
C       -0.61977992       1.37753720       0.55938034
O       -0.16659798       1.53072813       1.80724621
C       -0.76164480      -0.07725548       0.07106061
O        0.49778238      -0.51603579      -0.52050958
P        1.82874361      -0.39738106       0.37964059
O        1.56184482      -0.52622731       1.83868445
O        2.79383276      -1.48178581      -0.27916668
O        2.52797119       0.95282522      -0.10966089
C       -1.81485382      -0.18271785      -1.00722013
O       -2.05345118      -1.56001383      -1.27777636
H        0.26628737       0.70441758       2.14547981
H       -0.99649508      -0.73303642       0.91544969
H        2.87600719      -2.27320163       0.26408089
H        1.90026221       1.66898418      -0.25370495
H       -2.71263625       0.33808318      -0.65069863
H       -1.47020814       0.34578074      -1.89881324
H       -2.78661795      -1.62164098      -1.90062456
18
Properties=species:S:1:pos:R:3 relative_energy_eV=0.02771747978113126 branch=right pbc="F F F"
O       -0.91843876       2.32229589      -0.14594857
C       -0.63528291       1.37413395       0.56454016
O       -0.11531501       1.52784548       1.79397606
C       -0.77325363      -0.08039665       0.07229476
O        0.48891273      -0.52056467      -0.50728969
P        1.82528730      -0.39372932       0.38206686
O        1.56405712      -0.50562346       1.84432694
O        2.78769894      -1.48653420      -0.26288240
O        2.53051283       0.94646772      -0.12619839
C       -1.81329978      -0.18177014      -1.01645218
O       -2.04614106      -1.55664160      -1.29122985
H        0.35522241       0.69972991       2.10361696
H       -1.01287161      -0.73928845       0.91079136
H        2.84894217      -2.27785932       0.28534216
H        1.90646957       1.67911909      -0.21996898
H       -2.71330612       0.33805646      -0.66989825
H       -1.45456074       0.34588731      -1.90178918
H       -2.78628857      -1.61913218      -1.90582206
18
Properties=species:S:1:pos:R:3 relative_energy_eV=0.014826567523414269 branch=right pbc="F F F"
O       -0.91891662       2.31203827      -0.14090213
C       -0.63228572       1.36748957       0.56366100
O       -0.12668346       1.53608753       1.79478856
C       -0.77205282      -0.08635764       0.07416353
O        0.48508504      -0.52859823      -0.50201477
P        1.83156195      -0.39289957       0.37507901
O        1.58526762      -0.49869980       1.84063474
O        2.79721828      -1.48801288      -0.26432452
O        2.53627584       0.94213274      -0.15126395
C       -1.81053897      -0.17928860      -1.01283558
O       -2.04940068      -1.54962453      -1.28575468
H        0.30960853       0.70445511       2.11014039
H       -1.01385435      -0.74848078       0.90586338
H        2.83715717      -2.27899040       0.28794590
H        1.90935481       1.68168401      -0.22260300
H       -2.70840427       0.33580073      -0.66299559
H       -1.44148776       0.35383100      -1.89038210
H       -2.77955926      -1.61057009      -1.90972460
18
Properties=species:S:1:pos:R:3 relative_energy_eV=0.01112643910528277 branch=right pbc="F F F"
O       -0.91785725       2.31387588      -0.13940198
C       -0.63407302       1.37444114       0.55814378
O       -0.12906458       1.54388395       1.78641575
C       -0.77348510      -0.07929197       0.07107025
O        0.48421938      -0.51709979      -0.50598346
P        1.82642429      -0.39882786       0.38091014
O        1.57066931      -0.52434057       1.84547875
O        2.79652043      -1.48369205      -0.27047501
O        2.54150655       0.94564432      -0.12166041
C       -1.81392925      -0.17976343      -1.01269538
O       -2.04955258      -1.55225143      -1.27889618
H        0.32249003       0.71097377       2.09585962
H       -1.01253082      -0.74365782       0.90161389
H        2.85712902      -2.27592200       0.27872257
H        1.91382954       1.67155025      -0.22331258
H       -2.71431677       0.33105543      -0.66261361
H       -1.44671871       0.35077323      -1.89220578
H       -2.78291551      -1.61535507      -1.90149442
18
Properties=species:S:1:pos:R:3 relative_energy_eV=0.006258372919546673 branch=right pbc="F F F"
O       -0.95898608       2.31386816      -0.12883900
C       -0.64274840       1.37496304       0.56327563
O       -0.11451448       1.54741181       1.77869067
C       -0.77575536      -0.07974652       0.07462011
O        0.48380941      -0.51907570      -0.50047495
P        1.82795068      -0.40049391       0.38159842
O        1.57433368      -0.51848611       1.84829175
O        2.79758343      -1.48694047      -0.26662093
O        2.54705310       0.93977925      -0.13117023
C       -1.81142097      -0.18042921      -1.01468886
O       -2.05030006      -1.55245718      -1.28497021
H        0.34018926       0.71858104       2.08508533
H       -1.01662400      -0.74577390       0.90344172
H        2.85492711      -2.28214488       0.27972441
H        1.91864364       1.67191042      -0.21135586
H       -2.71419505       0.32975471      -0.66892351
H       -1.43724337       0.35129240      -1.89122953
H       -2.78435780      -1.61001710      -1.90697923
18
Properties=species:S:1:pos:R:3 relative_energy_eV=0.0035322179610375315 branch=right pbc="F F F"
O       -0.99241329       2.31385522      -0.11643782
C       -0.65102760       1.37735964       0.56743686
O       -0.09494302       1.55166167       1.77237697
C       -0.77928493      -0.07806779       0.07637238
O        0.48308428      -0.51761240      -0.49707610
P        1.82886637      -0.40099800       0.38276441
O        1.57259663      -0.51597569       1.84935612
O        2.80124057      -1.48803776      -0.26075845
O        2.55270144       0.93345432      -0.13737487
C       -1.81131731      -0.18153492      -1.01719115
O       -2.05228147      -1.55450976      -1.28783950
H        0.35822997       0.72260107       2.07368269
H       -1.02263572      -0.74680256       0.90264759
H        2.85308173      -2.28612099       0.28100105
H        1.92703498       1.67330349      -0.20030810
H       -2.71718617       0.32617896      -0.67630168
H       -1.43194469       0.35145499      -1.89197211
H       -2.78545721      -1.60821380      -1.91090274
18
Properties=species:S:1:pos:R:3 relative_energy_eV=0.00098477358915261 branch=right pbc="F F F"
O       -1.02231168       2.31440597      -0.10900694
C       -0.66005711       1.38001321       0.56901259
O       -0.08906189       1.55931060       1.76343808
C       -0.78050476      -0.07675646       0.07865648
O        0.48415590      -0.51519532      -0.49484202
P        1.83126542      -0.40393133       0.38373496
O        1.57309198      -0.51804509       1.84943544
O        2.80373106      -1.49024025      -0.26049556
O        2.55850765       0.92730285      -0.13620391
C       -1.81015341      -0.18213810      -1.01767130
O       -2.05485102      -1.55583541      -1.28687869
H        0.36822453       0.72949210       2.06419276
H       -1.02721819      -0.74776442       0.90211471
H        2.85729455      -2.29054486       0.27772517
H        1.93606796       1.67120254      -0.19122941
H       -2.71873455       0.32246392      -0.68007080
H       -1.42516843       0.35404335      -1.88952987
H       -2.78593367      -1.60578777      -1.91290619
18
Properties=species:S:1:pos:R:3 relative_energy_eV=-0.0014092570781940594 branch=right pbc="F F F"
O       -1.03815456       2.31556372      -0.10291166
C       -0.66725803       1.38427060       0.56958194
O       -0.08056800       1.56649247       1.75693011
C       -0.78198846      -0.07345834       0.07868018
O        0.48612184      -0.50817047      -0.49571458
P        1.83299143      -0.40665565       0.38416340
O        1.56776530      -0.52539882       1.84773633
O        2.80905480      -1.48956642      -0.25968284
O        2.56376053       0.92234865      -0.13063547
C       -1.81145794      -0.18328979      -1.01800903
O       -2.05833544      -1.55877455      -1.28213667
H        0.37021026       0.73346959       2.05879232
H       -1.03214645      -0.74675442       0.89981708
H        2.86353849      -2.29258822       0.27356705
H        1.94929820       1.66943234      -0.18575559
H       -2.72314627       0.31764897      -0.68320418
H       -1.42549367       0.35515817      -1.88895351
H       -2.78584793      -1.60773241      -1.91278937
18
Properties=species:S:1:pos:R:3 relative_energy_eV=-0.0029306277792784385 branch=right pbc="F F F"
O       -1.04837789       2.31400163      -0.09963118
C       -0.67230124       1.38360631       0.57037681
O       -0.08133998       1.56781768       1.75445475
C       -0.78274782      -0.07453983       0.07975068
O        0.48653031      -0.50646011      -0.49406465
P        1.83502387      -0.40619932       0.38263922
O        1.57023493      -0.52040317       1.84620350
O        2.81077135      -1.49122933      -0.25837728
O        2.56679579       0.91883177      -0.13846623
C       -1.81102916      -0.18310419      -1.01734816
O       -2.05859912      -1.55819987      -1.28014911
H        0.37102800       0.73336816       2.05713240
H       -1.03663092      -0.74916154       0.89901713
H        2.85958943      -2.29496142       0.27390164
H        1.95860555       1.67145853      -0.18057885
H       -2.72315413       0.31750153      -0.68406815
H       -1.42331607       0.35681539      -1.88664473
H       -2.78273881      -1.60714675      -1.91467238
18
Properties=species:S:1:pos:R:3 relative_energy_eV=-0.005940865579759702 branch=right pbc="F F F"
O       -1.07218497       2.31146812      -0.09374683
C       -0.68297551       1.38267405       0.57162228
O       -0.08018976       1.57017031       1.74920260
C       -0.78513467      -0.07591187       0.08148762
O        0.48683034      -0.50042780      -0.49150220
P        1.83854344      -0.40574121       0.38002900
O        1.57365650      -0.51379080       1.84393682
O        2.81401576      -1.49445773      -0.25641760
O        2.57415308       0.91259288      -0.15242710
C       -1.81099088      -0.18299719      -1.01593218
O       -2.05784923      -1.55724235      -1.27671021
H        0.37237017       0.73465048       2.05385806
H       -1.04482878      -0.75311928       0.89766969
H        2.85298761      -2.30009388       0.27378895
H        1.98126648       1.67522988      -0.16889369
H       -2.72315292       0.31870415      -0.68565199
H       -1.42228219       0.35784919      -1.88328695
H       -2.77589046      -1.60756144      -1.91755109
18
Properties=species:S:1:pos:R:3 relative_energy_eV=-0.009331388166174293 branch=right pbc="F F F"
O       -1.09393771       2.30753389      -0.08566015
C       -0.69394170       1.37988550       0.57465036
O       -0.08444034       1.56894477       1.74708509
C       -0.78876774      -0.07795323       0.08408308
O        0.48558543      -0.49448795      -0.48879543
P        1.84229082      -0.40235655       0.37573624
O        1.57849294      -0.49741242       1.84100327
O        2.81672929      -1.49868839      -0.25265894
O        2.58566571       0.90434902      -0.17761724
C       -1.81207935      -0.18312013      -1.01369163
O       -2.05630704      -1.55629723      -1.27387278
H        0.37066498       0.73503272       2.05348974
H       -1.05342706      -0.75799108       0.89714452
H        2.84165702      -2.30793187       0.27351887
H        2.01211523       1.68237269      -0.15479410
H       -2.72313890       0.32212033      -0.68659269
H       -1.42304400       0.35673018      -1.87999427
H       -2.76577353      -1.60873451      -1.92355902
18
Properties=species:S:1:pos:R:3 relative_energy_eV=-0.013694165278138826 branch=right pbc="F F F"
O       -1.12877605       2.30666620      -0.07784271
C       -0.70814860       1.38028853       0.57501945
O       -0.08480429       1.57179755       1.74102418
C       -0.79448625      -0.07622838       0.08492411
O        0.48365437      -0.48116364      -0.48934729
P        1.84453476      -0.40166408       0.37243854
O        1.57873345      -0.49300589       1.83796630
O        2.81812857      -1.50350341      -0.25227571
O        2.60299129       0.89540945      -0.18852589
C       -1.81622622      -0.18388259      -1.01131905
O       -2.05361609      -1.55729444      -1.26810173
H        0.37186115       0.74050838       2.04834375
H       -1.06056885      -0.75986712       0.89504044
H        2.83745130      -2.31617234       0.26833706
H        2.05706398       1.68754204      -0.13456176
H       -2.72538448       0.32592178      -0.68689874
H       -1.42996117       0.35259064      -1.87884356
H       -2.75410302      -1.61594695      -1.92590268
18
Properties=species:S:1:pos:R:3 relative_energy_eV=-0.018533475285948953 branch=right pbc="F F F"
O       -1.16096325       2.30524991      -0.06660931
C       -0.72199131       1.38053672       0.57705108
O       -0.09106077       1.57293188       1.73899112
C       -0.80113700      -0.07376100       0.08578469
O        0.48041539      -0.46872643      -0.49080096
P        1.84600019      -0.39869611       0.36694691
O        1.57970415      -0.47943340       1.83355819
O        2.81694474      -1.50836428      -0.25102670
O        2.62600057       0.88300978      -0.20597067
C       -1.82245638      -0.18517515      -1.00918202
O       -2.05162104      -1.55997602      -1.26166969
H        0.37074950       0.74573521       2.04457455
H       -1.06575535      -0.76114939       0.89317077
H        2.82988299      -2.32721383       0.26204434
H        2.11169283       1.69625241      -0.11064367
H       -2.72967766       0.32985495      -0.68618757
H       -1.43848449       0.34677867      -1.87902865
H       -2.73989938      -1.62585810      -1.93152788
18
Properties=species:S:1:pos:R:3 relative_energy_eV=-0.02552559319883585 branch=right pbc="F F F"
O       -1.19468284       2.31017224      -0.05886420
C       -0.73549408       1.38758355       0.57372238
O       -0.10134945       1.57905798       1.73531614
C       -0.80898141      -0.06338881       0.08108718
O        0.47657741      -0.44505580      -0.50173230
P        1.84210935      -0.39948385       0.36223432
O        1.57076249      -0.48538393       1.82752418
O        2.80836275      -1.51303867      -0.25897020
O        2.65960613       0.87020323      -0.19092060
C       -1.83590139      -0.18751722      -1.00708476
O       -2.04939137      -1.56771644      -1.24730026
H        0.36772556       0.75783883       2.03646771
H       -1.06191999      -0.75400684       0.88842297
H        2.83597203      -2.33656304       0.24522952
H        2.18972576       1.70222905      -0.07984819
H       -2.74049263       0.33278521      -0.68057395
H       -1.46140548       0.33527501      -1.88555302
H       -2.72287948      -1.65099483      -1.92968232
18
Properties=species:S:1:pos:R:3 relative_energy_eV=-0.030359836888237623 branch=right pbc="F F F"
O       -1.23289296       2.31094901      -0.04850225
C       -0.74720899       1.39174986       0.57431896
O       -0.09922073       1.58588503       1.73182677
C       -0.81251727      -0.05881354       0.07911736
O        0.47502820      -0.43702288      -0.50356612
P        1.84096721      -0.39943771       0.35897116
O        1.57159638      -0.48225268       1.82490468
O        2.80011107      -1.51822698      -0.26225209
O        2.67821848       0.85903228      -0.18907464
C       -1.84072731      -0.18853056      -1.00866057
O       -2.04931516      -1.57173997      -1.24192086
H        0.37758949       0.76505167       2.02433468
H       -1.05958230      -0.75208142       0.88589763
H        2.83109847      -2.34256172       0.24050647
H        2.23153349       1.70842497      -0.05466869
H       -2.74605263       0.33160986      -0.68030060
H       -1.46617959       0.33241533      -1.88948183
H       -2.71410271      -1.66245497      -1.93197550
18
Properties=species:S:1:pos:R:3 relative_energy_eV=-0.039455116078897845 branch=right pbc="F F F"
O       -1.20960240       2.31462943      -0.05461079
C       -0.73662265       1.39780284       0.57166884
O       -0.11216573       1.58822391       1.74348807
C       -0.80532568      -0.05267799       0.07031674
O        0.47683828      -0.44238418      -0.51231370
P        1.83353676      -0.39866236       0.35746492
O        1.57077000      -0.48704534       1.82354619
O        2.77592959      -1.51950810      -0.27675485
O        2.68128746       0.85959168      -0.15891496
C       -1.84452400      -0.18848695      -1.01334344
O       -2.05240535      -1.57692643      -1.23712207
H        0.37329218       0.76502480       2.02295771
H       -1.03406100      -0.74169956       0.88501788
H        2.82880495      -2.33476618       0.23856777
H        2.23359579       1.71108219      -0.04971480
H       -2.75176098       0.32525797      -0.67139207
H       -1.47500744       0.33149573      -1.90155282
H       -2.71423650      -1.67895593      -1.92783369
18
Properties=species:S:1:pos:R:3 relative_energy_eV=-0.04418002932652598 branch=right pbc="F F F"
O       -1.23268109       2.31484414      -0.04897406
C       -0.74361866       1.40076181       0.57345016
O       -0.10492248       1.59500913       1.73683223
C       -0.80319820      -0.05142394       0.07044862
O        0.47970149      -0.43906234      -0.51153951
P        1.83537349      -0.40201912       0.35969322
O        1.57042034      -0.49152794       1.82508132
O        2.77158325      -1.52336138      -0.28109322
O        2.68550240       0.85711139      -0.15489609
C       -1.84252660      -0.18919547      -1.01464159
O       -2.05354088      -1.57739890      -1.23626662
H        0.37980801       0.77153065       2.01478159
H       -1.03124617      -0.74030994       0.88540964
H        2.82827333      -2.33506011       0.23729687
H        2.24003612       1.70931331      -0.04000361
H       -2.75200450       0.32025583      -0.67387762
H       -1.47331931       0.33228179      -1.90308144
H       -2.71529746      -1.67975354      -1.92914498
18
Properties=species:S:1:pos:R:3 relative_energy_eV=-0.05338937440683367 branch=right pbc="F F F"
O       -1.28189829       2.31204643      -0.03164585
C       -0.76279043       1.40519791       0.57874882
O       -0.09748779       1.60743148       1.72335681
C       -0.79841884      -0.04758632       0.06928917
O        0.48684043      -0.42250970      -0.51208645
P        1.84134613      -0.40416017       0.36117953
O        1.56981025      -0.49110319       1.82570615
O        2.75466529      -1.53580857      -0.29446341
O        2.70351986       0.84850756      -0.15950116
C       -1.83930161      -0.19096275      -1.01537238
O       -2.05540677      -1.57905506      -1.22959048
H        0.38585597       0.78361375       1.99849607
H       -1.02279787      -0.73774125       0.88477085
H        2.81224018      -2.33717693       0.23604289
H        2.28118258       1.71136184      -0.00635587
H       -2.75255159       0.30840714      -0.67719285
H       -1.47964558       0.33097590      -1.90858629
H       -2.70681921      -1.68944284      -1.93332081
18
Properties=species:S:1:pos:R:3 relative_energy_eV=-0.058887983148451895 branch=right pbc="F F F"
O       -1.29680201       2.31145103      -0.02424004
C       -0.76646521       1.40634582       0.57908275
O       -0.08713704       1.61122052       1.71547491
C       -0.79510796      -0.04461124       0.06629131
O        0.49081401      -0.41222808      -0.51422954
P        1.84297976      -0.40281797       0.36196346
O        1.56722504      -0.49565760       1.82617859
O        2.74147635      -1.54090300      -0.30338194
O        2.70628917       0.85050805      -0.15467265
C       -1.83680466      -0.19188423      -1.01670297
O       -2.05446262      -1.57976508      -1.22664055
H        0.39288235       0.78500596       1.98945139
H       -1.01574317      -0.73567015       0.88232177
H        2.79808499      -2.33358798       0.24220999
H        2.29201652       1.71039645       0.00937574
H       -2.75139989       0.30059865      -0.67894683
H       -1.48657917       0.32987403      -1.91321350
H       -2.70292388      -1.69628013      -1.93084723
18
Properties=species:S:1:pos:R:3 relative_energy_eV=-0.06508978472993476 branch=right pbc="F F F"
O       -1.31935388       2.31004388      -0.00980344
C       -0.77394960       1.40702950       0.57906512
O       -0.08508236       1.61297338       1.70737950
C       -0.79465337      -0.03893731       0.06151236
O        0.49353478      -0.38958911      -0.52115851
P        1.84452976      -0.39538519       0.35545205
O        1.56601618      -0.48828007       1.82040834
O        2.72047465      -1.55148570      -0.31382272
O        2.72335878       0.84755765      -0.16053639
C       -1.83898435      -0.19476616      -1.01659079
O       -2.05024393      -1.58410769      -1.21591963
H        0.39214026       0.78573505       1.98202224
H       -1.00736854      -0.73377726       0.87666142
H        2.76913005      -2.33423582       0.24755884
H        2.34214792       1.71533832       0.04406963
H       -2.75272541       0.29362330      -0.67709803
H       -1.50461752       0.32423280      -1.91916697
H       -2.68601089      -1.71397445      -1.93055858
18
Properties=species:S:1:pos:R:3 relative_energy_eV=-0.0705777410439623 branch=right pbc="F F F"
O       -1.33495738       2.31100331       0.00058490
C       -0.77592192       1.40883559       0.57669857
O       -0.07545977       1.61410552       1.69926143
C       -0.79574790      -0.03399925       0.05749942
O        0.49465482      -0.37175134      -0.52750493
P        1.84398188      -0.38946021       0.35007227
O        1.56445750      -0.48689073       1.81528839
O        2.70576115      -1.55734474      -0.31795726
O        2.73124279       0.84923369      -0.15935248
C       -1.84056493      -0.19860698      -1.01729146
O       -2.04548889      -1.59013169      -1.21179709
H        0.39740571       0.78490812       1.97672189
H       -1.00212931      -0.73252944       0.87155186
H        2.74903289      -2.33423146       0.25400727
H        2.36670910       1.71390703       0.06765356
H       -2.75367406       0.28875338      -0.67636534
H       -1.51544682       0.31950015      -1.92251619
H       -2.67551240      -1.72330585      -1.92708052
18
Properties=species:S:1:pos:R:3 relative_energy_eV=-0.07655928802705603 branch=right pbc="F F F"
O       -1.36804426       2.31138711       0.01771580
C       -0.78452244       1.41312636       0.57501525
O       -0.06829508       1.61986020       1.68814387
C       -0.79716575      -0.02779005       0.05325884
O        0.49634671      -0.34624972      -0.53612688
P        1.84482435      -0.38259089       0.34090309
O        1.56703227      -0.47864564       1.80644130
O        2.68614058      -1.56779440      -0.32246008
O        2.74800323       0.84569594      -0.16549514
C       -1.84336997      -0.20565910      -1.01716662
O       -2.03826285      -1.60010060      -1.20565949
H        0.39873906       0.78937792       1.97157678
H       -0.99420572      -0.73092571       0.86606077
H        2.72323240      -2.34002690       0.25734753
H        2.40939080       1.71074861       0.10588424
H       -2.75595326       0.28231486      -0.67369740
H       -1.52523509       0.31248271      -1.92465136
H       -2.66031262      -1.73321556      -1.92761644
18
Properties=species:S:1:pos:R:3 relative_energy_eV=-0.08172096627095016 branch=right pbc="F F F"
O       -1.38753131       2.31272463       0.02970304
C       -0.78922836       1.41937108       0.57278320
O       -0.06271233       1.62872782       1.67818558
C       -0.79528490      -0.02269489       0.04963300
O        0.49938790      -0.32422882      -0.54553061
P        1.84511834      -0.37898948       0.33360831
O        1.57116466      -0.47488815       1.79865546
O        2.66895624      -1.57663446      -0.32523216
O        2.75556497       0.84560488      -0.16598771
C       -1.84363688      -0.21448705      -1.01618829
O       -2.02952622      -1.61135086      -1.20555441
H        0.39511198       0.79671132       1.97260029
H       -0.98163541      -0.72764929       0.86322597
H        2.70704073      -2.34512256       0.25773263
H        2.42170275       1.69747792       0.13292776
H       -2.75645241       0.27456763      -0.66925934
H       -1.52584222       0.30539900      -1.92359808
H       -2.65385530      -1.73254359      -1.92823067
18
Properties=species:S:1:pos:R:3 relative_energy_eV=-0.08382489640280255 branch=right pbc="F F F"
O       -1.44895528       2.31301351       0.05221960
C       -0.80918358       1.42857392       0.57341433
O       -0.05005394       1.64709690       1.66058459
C       -0.79484323      -0.01431008       0.04588314
O        0.50272188      -0.29499203      -0.55313476
P        1.84619828      -0.37966489       0.32823593
O        1.57313200      -0.47423347       1.79291574
O        2.64813460      -1.58947373      -0.33310406
O        2.77570213       0.83554695      -0.16363761
C       -1.84457427      -0.22190627      -1.01567867
O       -2.02215492      -1.62208407      -1.20395617
H        0.40711600       0.81428521       1.95632661
H       -0.96866592      -0.72277777       0.85922950
H        2.69137349      -2.35495557       0.25373093
H        2.46308538       1.68697738       0.17987187
H       -2.76024309       0.26315559      -0.66814548
H       -1.52735113       0.29621243      -1.92523639
H       -2.64309660      -1.73846913      -1.93004531
18
Properties=species:S:1:pos:R:3 relative_energy_eV=-0.08715259246673668 branch=right pbc="F F F"
O       -1.43387806       2.31220453       0.04659147
C       -0.80736629       1.42792324       0.57488104
O       -0.05672985       1.64731024       1.66501166
C       -0.79285412      -0.01537221       0.04697062
O        0.50287069      -0.29930740      -0.55244823
P        1.84528151      -0.38265581       0.33017729
O        1.57235827      -0.47542614       1.79466905
O        2.65226238      -1.58684559      -0.33286898
O        2.77008825       0.83489152      -0.16185730
C       -1.84330674      -0.22022781      -1.01437119
O       -2.02230868      -1.61937380      -1.20686137
H        0.40242628       0.81551809       1.95967509
H       -0.96650890      -0.72168733       0.86123550
H        2.69957812      -2.35440347       0.25032045
H        2.44796922       1.68499533       0.16956982
H       -2.75978185       0.26336715      -0.66675164
H       -1.52381550       0.29586827      -1.92400929
H       -2.64794290      -1.73478392      -1.93046008
18
Properties=species:S:1:pos:R:3 relative_energy_eV=-0.08950055920649902 branch=right pbc="F F F"
O       -1.44160962       2.31202446       0.04946205
C       -0.81188100       1.43040822       0.57675166
O       -0.05548157       1.65500710       1.66143837
C       -0.79136260      -0.01228704       0.04670774
O        0.50354161      -0.29142948      -0.55509121
P        1.84294621      -0.38682397       0.33082376
O        1.56893380      -0.48049674       1.79489153
O        2.65046283      -1.58829791      -0.33579703
O        2.77007457       0.83037301      -0.15326162
C       -1.84246130      -0.22016218      -1.01319448
O       -2.01857045      -1.61869684      -1.20920017
H        0.40683033       0.82402972       1.95279960
H       -0.95982371      -0.71856094       0.86094585
H        2.70407485      -2.35618163       0.24534801
H        2.44577666       1.67839841       0.17577481
H       -2.76141222       0.25820884      -0.66576048
H       -1.52188568       0.29155318      -1.92384163
H       -2.64981108      -1.73507151      -1.92932276
18
Properties=species:S:1:pos:R:3 relative_energy_eV=-0.09107724360001157 branch=right pbc="F F F"
O       -1.45635206       2.31121849       0.05746572
C       -0.81858351       1.43324372       0.57919312
O       -0.05286610       1.66309221       1.65540448
C       -0.79052015      -0.00781298       0.04605026
O        0.50458019      -0.27543996      -0.56033680
P        1.84055412      -0.38839048       0.32814214
O        1.56498396      -0.48059335       1.79209982
O        2.64365473      -1.59287209      -0.33986448
O        2.77418871       0.82451395      -0.14978872
C       -1.84216169      -0.22121411      -1.01178155
O       -2.01179663      -1.61962439      -1.21015283
H        0.41223903       0.83273104       1.94386845
H       -0.95154330      -0.71640426       0.85916778
H        2.69788735      -2.35972745       0.24261162
H        2.45703233       1.67213394       0.19357895
H       -2.76355508       0.25109890      -0.66419561
H       -1.52403522       0.28550095      -1.92450582
H       -2.64536521      -1.73945958      -1.92748251
18
Properties=species:S:1:pos:R:3 relative_energy_eV=-0.0921622977257357 branch=right pbc="F F F"
O       -1.47304404       2.31222332       0.06473777
C       -0.82337894       1.43706924       0.57980731
O       -0.04617687       1.67047378       1.64824379
C       -0.79127485      -0.00244011       0.04452013
O        0.50487005      -0.25945024      -0.56653713
P        1.83718472      -0.39014194       0.32546737
O        1.55792171      -0.48551161       1.78880519
O        2.63766397      -1.59633216      -0.34415680
O        2.77950125       0.82036482      -0.13975295
C       -1.84349202      -0.22201916      -1.01153288
O       -2.00479200      -1.62119645      -1.20840267
H        0.42071472       0.84012676       1.93302058
H       -0.94516465      -0.71456611       0.85615750
H        2.69269801      -2.36200884       0.24069326
H        2.47147507       1.66702757       0.21108925
H       -2.76710262       0.24456873      -0.66320239
H       -1.52896696       0.28126857      -1.92652278
H       -2.64029529      -1.74746180      -1.92296052
18
Properties=species:S:1:pos:R:3 relative_energy_eV=-0.09317721650586464 branch=right pbc="F F F"
O       -1.48305976       2.31229808       0.07032957
C       -0.82600154       1.43923067       0.58015042
O       -0.04329113       1.67416379       1.64372434
C       -0.79165688       0.00087088       0.04340838
O        0.50548889      -0.24661615      -0.57166254
P        1.83549009      -0.38905622       0.32132282
O        1.55295904      -0.48461503       1.78448669
O        2.63140518      -1.60036053      -0.34732290
O        2.78416493       0.81820908      -0.13818552
C       -1.84421222      -0.22291471      -1.01127939
O       -1.99802474      -1.62306335      -1.20601889
H        0.42385650       0.84375771       1.92767324
H       -0.94007160      -0.71469872       0.85363977
H        2.68203070      -2.36413202       0.24110279
H        2.48533092       1.66386182       0.22649788
H       -2.76922879       0.23966727      -0.66152623
H       -1.53377952       0.27995524      -1.92770388
H       -2.63305890      -1.75456353      -1.91916254
18
Properties=species:S:1:pos:R:3 relative_energy_eV=-0.0948255601033452 branch=right pbc="F F F"
O       -1.49144887       2.31253839       0.07445837
C       -0.82755421       1.44207164       0.57988382
O       -0.04037299       1.67812763       1.63947351
C       -0.79219257       0.00478899       0.04204508
O        0.50615844      -0.23155270      -0.57852754
P        1.83309864      -0.38773008       0.31568539
O        1.54306465      -0.48480441       1.77787184
O        2.62498403      -1.60445840      -0.35095472
O        2.78924391       0.81660107      -0.13578830
C       -1.84512872      -0.22315740      -1.01130143
O       -1.98723235      -1.62516623      -1.20177488
H        0.42648667       0.84750937       1.92279256
H       -0.93358337      -0.71569501       0.85019731
H        2.66791960      -2.36673093       0.24123976
H        2.50033150       1.65933778       0.24341639
H       -2.77244429       0.23339023      -0.65870559
H       -1.54027974       0.28228059      -1.92889865
H       -2.62270923      -1.76535627      -1.91163893
18
Properties=species:S:1:pos:R:3 relative_energy_eV=-0.09660200148937292 branch=right pbc="F F F"
O       -1.49766457       2.31235317       0.07528626
C       -0.82929026       1.44484028       0.57935811
O       -0.04131756       1.68293429       1.63738195
C       -0.79154747       0.00814145       0.04086215
O        0.50704326      -0.21946160      -0.58485969
P        1.83121913      -0.38722385       0.31059833
O        1.53182856      -0.48551142       1.77106781
O        2.61963199      -1.60802628      -0.35445558
O        2.79411318       0.81462673      -0.13469802
C       -1.84526215      -0.22265838      -1.01101803
O       -1.97504285      -1.62668730      -1.19756367
H        0.42536243       0.85254972       1.92121734
H       -0.92558426      -0.71629500       0.84751858
H        2.65574599      -2.37036942       0.23845492
H        2.51186503       1.65346125       0.25715808
H       -2.77538714       0.22701600      -0.65482485
H       -1.54493573       0.28821687      -1.92866013
H       -2.61243651      -1.77591228      -1.90334958
18
Properties=species:S:1:pos:R:3 relative_energy_eV=-0.09840316632107715 branch=right pbc="F F F"
O       -1.50272249       2.31175593       0.07294887
C       -0.83194987       1.44756549       0.57885903
O       -0.04519612       1.68909015       1.63744055
C       -0.78942067       0.01121741       0.03982705
O        0.50818285      -0.21085548      -0.59038523
P        1.82951681      -0.38786238       0.30694072
O        1.51958705      -0.48760850       1.76492058
O        2.61525553      -1.61041180      -0.35745367
O        2.79811436       0.81162719      -0.13428146
C       -1.84428915      -0.22146664      -1.01025199
O       -1.96156199      -1.62729957      -1.19474773
H        0.42185285       0.85937991       1.92241040
H       -0.91582111      -0.71553681       0.84566751
H        2.64677475      -2.37514674       0.23221260
H        2.51854230       1.64597565       0.26717631
H       -2.77767976       0.22036724      -0.65047908
H       -1.54754332       0.29682080      -1.92668007
H       -2.60330101      -1.78561765      -1.89465036
18
Properties=species:S:1:pos:R:3 relative_energy_eV=-0.09958938271302031 branch=right pbc="F F F"
O       -1.50559441       2.31148215       0.06970936
C       -0.83448191       1.44923945       0.57858097
O       -0.05066259       1.69389873       1.63924008
C       -0.78673602       0.01334675       0.03887502
O        0.50897178      -0.20801359      -0.59372885
P        1.82828270      -0.38892781       0.30574564
O        1.51224427      -0.48930886       1.76182608
O        2.61216988      -1.61110185      -0.35919393
O        2.80076339       0.80843762      -0.13435949
C       -1.84298304      -0.22063124      -1.00906382
O       -1.95236565      -1.62717765      -1.19434468
H        0.41727818       0.86516156       1.92544523
H       -0.90796314      -0.71311795       0.84504868
H        2.64326133      -2.37924043       0.22517937
H        2.52153989       1.64061463       0.27144585
H       -2.77838251       0.21592673      -0.64743028
H       -1.54871775       0.30296267      -1.92390373
H       -2.59828342      -1.79155672      -1.88959746
18
Properties=species:S:1:pos:R:3 relative_energy_eV=-0.10043263392799417 branch=right pbc="F F F"
O       -1.50590867       2.31192166       0.06690638
C       -0.83591308       1.45018420       0.57844603
O       -0.05462779       1.69651985       1.64158530
C       -0.78433476       0.01481020       0.03794436
O        0.50938427      -0.20850389      -0.59574384
P        1.82711640      -0.38955626       0.30609440
O        1.50856431      -0.49061096       1.76115428
O        2.61024468      -1.61038327      -0.35955075
O        2.80155770       0.80593726      -0.13439172
C       -1.84167025      -0.22043547      -1.00787060
O       -1.94648685      -1.62687365      -1.19577464
H        0.41387699       0.86845178       1.92866929
H       -0.90308411      -0.71004405       0.84482782
H        2.64190498      -2.38185535       0.21963803
H        2.52202324       1.63776310       0.27170313
H       -2.77796836       0.21314644      -0.64605676
H       -1.55013438       0.30635405      -1.92110265
H       -2.59620331      -1.79483147      -1.88700397
18
Properties=species:S:1:pos:R:3 relative_energy_eV=-0.10109428848591051 branch=right pbc="F F F"
O       -1.50704102       2.31330184       0.06631304
C       -0.83684066       1.45151258       0.57822519
O       -0.05703932       1.69837649       1.64285867
C       -0.78239715       0.01675357       0.03651489
O        0.50968518      -0.20752075      -0.59846145
P        1.82563898      -0.38956828       0.30613205
O        1.50647199      -0.49108940       1.76087099
O        2.60718459      -1.61008792      -0.36021224
O        2.80295998       0.80367852      -0.13357263
C       -1.84082904      -0.22125132      -1.00669763
O       -1.94114046      -1.62748821      -1.19719601
H        0.41156547       0.87066047       1.93047139
H       -0.89922716      -0.70673107       0.84409364
H        2.63831258      -2.38386379       0.21550726
H        2.52600535       1.63624275       0.27375233
H       -2.77763044       0.21000191      -0.64508654
H       -1.55349362       0.30752517      -1.91886222
H       -2.59384425      -1.79845837      -1.88517661
18
Properties=species:S:1:pos:R:3 relative_energy_eV=-0.10175347324911854 branch=right pbc="F F F"
O       -1.50696983       2.31545830       0.06670283
C       -0.83649745       1.45310541       0.57783099
O       -0.05741678       1.69920092       1.64353231
C       -0.78083274       0.01876731       0.03499328
O        0.50994071      -0.20605092      -0.60122583
P        1.82383786      -0.38899509       0.30606913
O        1.50468307      -0.49122405       1.76097095
O        2.60425726      -1.60967284      -0.36055836
O        2.80318287       0.80219492      -0.13246099
C       -1.83981777      -0.22262982      -1.00573174
O       -1.93473106      -1.62853118      -1.19928180
H        0.41074842       0.87134834       1.93119329
H       -0.89673947      -0.70372650       0.84286174
H        2.63158813      -2.38517190       0.21296646
H        2.52938475       1.63540033       0.27548151
H       -2.77713314       0.20589015      -0.64440443
H       -1.55792990       0.30856713      -1.91665230
H       -2.59121390      -1.80193635      -1.88281293
18
Properties=species:S:1:pos:R:3 relative_energy_eV=-0.10249795535128214 branch=right pbc="F F F"
O       -1.51068759       2.31849624       0.06974334
C       -0.83692642       1.45631335       0.57720019
O       -0.05671076       1.70138522       1.64233527
C       -0.77947123       0.02233561       0.03282453
O        0.51050270      -0.19955083      -0.60562500
P        1.82159983      -0.38828716       0.30486492
O        1.50158098      -0.49098405       1.75992249
O        2.59898787      -1.61074592      -0.36220818
O        2.80557574       0.79997417      -0.13042698
C       -1.83903122      -0.22502350      -1.00481003
O       -1.92453660      -1.63115374      -1.20085233
H        0.41059535       0.87315210       1.92965035
H       -0.89299522      -0.70028666       0.84069003
H        2.61888275      -2.38753753       0.21003999
H        2.53908069       1.63379070       0.28250781
H       -2.77768707       0.19837244      -0.64250742
H       -1.56479835       0.30963757      -1.91488566
H       -2.58562045      -1.80789386      -1.87898919
18
Properties=species:S:1:pos:R:3 relative_energy_eV=-0.10346902857418172 branch=right pbc="F F F"
O       -1.51144384       2.32228755       0.07221419
C       -0.83567802       1.45968262       0.57624861
O       -0.05549785       1.70251653       1.64143636
C       -0.77835869       0.02559406       0.03122468
O        0.51101646      -0.19448535      -0.60822197
P        1.81942154      -0.38749190       0.30436834
O        1.49845505      -0.49045110       1.75982161
O        2.59560488      -1.61116587      -0.36296285
O        2.80556335       0.79857303      -0.12893877
C       -1.83720954      -0.22738864      -1.00431210
O       -1.91114469      -1.63344396      -1.20458628
H        0.41118826       0.87367365       1.92761459
H       -0.89113017      -0.69714865       0.83881792
H        2.60227048      -2.39006090       0.20721672
H        2.54443944       1.63242085       0.28571218
H       -2.77790611       0.18827489      -0.63990407
H       -1.57131749       0.31320346      -1.91248800
H       -2.57993202      -1.81259615      -1.87378703
18
Properties=species:S:1:pos:R:3 relative_energy_eV=-0.10492232119577238 branch=right pbc="F F F"
O       -1.52071306       2.32750124       0.07846173
C       -0.83779940       1.46644605       0.57505712
O       -0.05415160       1.70771937       1.63786583
C       -0.77720987       0.03215283       0.02896196
O        0.51236372      -0.18056911      -0.61237568
P        1.81706733      -0.38714622       0.30291648
O        1.49226641      -0.48985934       1.75813620
O        2.58862350      -1.61403462      -0.36548336
O        2.81028865       0.79436146      -0.12661757
C       -1.83510096      -0.23115530      -1.00386740
O       -1.88817782      -1.63806871      -1.20934936
H        0.41170158       0.87820604       1.92227412
H       -0.88614548      -0.69171885       0.83642617
H        2.57465087      -2.39676462       0.19986511
H        2.56120824       1.62857591       0.29697638
H       -2.78024674       0.16945577      -0.63381968
H       -1.58167468       0.31852664      -1.91038040
H       -2.56860968      -1.82163445      -1.86557354
18
Properties=species:S:1:pos:R:3 relative_energy_eV=-0.10706211572687607 branch=right pbc="F F F"
O       -1.52362956       2.33369782       0.08165200
C       -0.83796418       1.47276126       0.57357623
O       -0.05524786       1.71098331       1.63664871
C       -0.77655014       0.03745570       0.02880724
O        0.51344587      -0.17316319      -0.61001800
P        1.81615477      -0.38721090       0.30456026
O        1.48836967      -0.48810210       1.75972778
O        2.58735996      -1.61496102      -0.36479576
O        2.81111875       0.79106198      -0.12681360
C       -1.83070328      -0.23392394      -1.00429746
O       -1.86000859      -1.64033458      -1.22068311
H        0.41117574       0.88092436       1.91808894
H       -0.88586455      -0.68569067       0.83703084
H        2.54255385      -2.40551246       0.18913041
H        2.56818471       1.62597519       0.29577309
H       -2.78162926       0.14519562      -0.62553940
H       -1.58974306       0.32925840      -1.90685517
H       -2.55868175      -1.82642072      -1.85651886
18
Properties=species:S:1:pos:R:3 relative_energy_eV=-0.10963336104032351 branch=right pbc="F F F"
O       -1.53561871       2.33874351       0.08638263
C       -0.84378784       1.48003556       0.57286041
O       -0.05802837       1.71785480       1.63392834
C       -0.77649911       0.04389832       0.02963520
O        0.51517749      -0.16163912      -0.60576747
P        1.81747773      -0.38788913       0.30681491
O        1.48530370      -0.48610768       1.76107616
O        2.58501574      -1.61811121      -0.36382270
O        2.81766446       0.78526443      -0.12791673
C       -1.82683691      -0.23624216      -1.00508811
O       -1.83070120      -1.64218177      -1.23361575
H        0.40947846       0.88769473       1.91295371
H       -0.88437156      -0.67776893       0.84005910
H        2.50982437      -2.41819705       0.17273599
H        2.58346616       1.62217622       0.29795151
H       -2.78447693       0.11700188      -0.61514115
H       -1.59770954       0.33946200      -1.90484253
H       -2.54703687      -1.83200043      -1.84872941
18
Properties=species:S:1:pos:R:3 relative_energy_eV=-0.11234528452041559 branch=right pbc="F F F"
O       -1.53673303       2.34018476       0.08423131
C       -0.84753679       1.48147325       0.57328533
O       -0.06379144       1.71923838       1.63592387
C       -0.77789474       0.04464195       0.03364919
O        0.51566177      -0.16521359      -0.59383730
P        1.82226574      -0.38821718       0.31227217
O        1.49048264      -0.48238067       1.76595497
O        2.59132314      -1.61773666      -0.35741231
O        2.82020410       0.78307301      -0.13320928
C       -1.82373350      -0.23482990      -1.00648305
O       -1.81547178      -1.63782606      -1.24844710
H        0.40527705       0.88919580       1.91378753
H       -0.89059698      -0.67263525       0.84772429
H        2.49285840      -2.42802300       0.15825634
H        2.58317129       1.62324301       0.28275081
H       -2.78495654       0.09866844      -0.60774277
H       -1.59810580       0.34853711      -1.90344866
H       -2.54408236      -1.82939938      -1.84778121
18
Properties=species:S:1:pos:R:3 relative_energy_eV=-0.11412020602438133 branch=right pbc="F F F"
O       -1.54609815       2.34061556       0.08452718
C       -0.85375960       1.48402954       0.57424275
O       -0.06736161       1.72451569       1.63545036
C       -0.77745918       0.04816825       0.03476230
O        0.51681581      -0.15973807      -0.59139548
P        1.82454906      -0.38687599       0.31309072
O        1.49081155      -0.47944311       1.76568055
O        2.58879998      -1.61952712      -0.35442655
O        2.82822669       0.77898873      -0.13508404
C       -1.82240870      -0.23407070      -1.00605160
O       -1.79836426      -1.63548971      -1.25781281
H        0.40191063       0.89436434       1.91396762
H       -0.88834638      -0.66674411       0.85133926
H        2.47278617      -2.43805152       0.14507712
H        2.59510359       1.62018137       0.28371254
H       -2.78745837       0.08254697      -0.60105246
H       -1.60323423       0.35457038      -1.90162451
H       -2.53617185      -1.83604651      -1.84492888
18
Properties=species:S:1:pos:R:3 relative_energy_eV=-0.1156178288947558 branch=right pbc="F F F"
O       -1.54706507       2.33825020       0.08163775
C       -0.85671840       1.48220636       0.57591788
O       -0.07026540       1.72489246       1.63699726
C       -0.77769220       0.04753289       0.03666636
O        0.51700953      -0.16200075      -0.58857365
P        1.82767114      -0.38427443       0.31394888
O        1.49720631      -0.47469591       1.76677045
O        2.58909786      -1.61999572      -0.34944600
O        2.83359918       0.77884975      -0.13766458
C       -1.82283980      -0.23257342      -1.00536920
O       -1.79584839      -1.63125360      -1.26493155
H        0.39843874       0.89441591       1.91776633
H       -0.88990500      -0.66437649       0.85545895
H        2.46439422      -2.44217378       0.13841959
H        2.59813440       1.62055195       0.27834373
H       -2.78779446       0.07875889      -0.59922680
H       -1.60535419       0.35647281      -1.89993715
H       -2.53372724      -1.83859303      -1.84730425
18
Properties=species:S:1:pos:R:3 relative_energy_eV=-0.11673891689133598 branch=right pbc="F F F"
O       -1.55254081       2.33933400       0.08175909
C       -0.86033972       1.48528911       0.57731389
O       -0.07203199       1.72970388       1.63692807
C       -0.77619094       0.05231016       0.03701531
O        0.51838804      -0.15351004      -0.58976083
P        1.82838928      -0.38019360       0.31293215
O        1.49768326      -0.46717474       1.76585307
O        2.58427631      -1.62139090      -0.34472174
O        2.84183787       0.77527044      -0.13977809
C       -1.82027928      -0.23368245      -1.00369734
O       -1.76731647      -1.62908972      -1.27912302
H        0.39492372       0.89809460       1.91863553
H       -0.88637964      -0.65751077       0.85732955
H        2.42386505      -2.45368781       0.12445825
H        2.61138377       1.61591317       0.27994726
H       -2.79015087       0.05661681      -0.59159282
H       -1.61750788       0.36719040      -1.89314296
H       -2.51966837      -1.85148838      -1.84088144
18
Properties=species:S:1:pos:R:3 relative_energy_eV=-0.1183397719214554 branch=right pbc="F F F"
O       -1.55758140       2.33758917       0.08368030
C       -0.86162339       1.48537087       0.57808044
O       -0.07015117       1.73113149       1.63445008
C       -0.77584606       0.05312242       0.03615259
O        0.51921960      -0.14727352      -0.59355857
P        1.82802132      -0.37867926       0.31121325
O        1.49942958      -0.46432424       1.76533237
O        2.57873237      -1.62449230      -0.34568945
O        2.84609105       0.77490887      -0.13633470
C       -1.82097418      -0.23547118      -1.00323822
O       -1.76570021      -1.63006437      -1.27968451
H        0.39823991       0.89997874       1.91584735
H       -0.88284331      -0.65747551       0.85627769
H        2.41409616      -2.45256068       0.12430115
H        2.61763338       1.61409109       0.28725989
H       -2.79063724       0.05579617      -0.59232921
H       -1.62199000       0.36704585      -1.89141288
H       -2.51577511      -1.85669945      -1.84087368
18
Properties=species:S:1:pos:R:3 relative_energy_eV=-0.12027497405506438 branch=right pbc="F F F"
O       -1.56178775       2.33435595       0.08566802
C       -0.86294910       1.48471428       0.57961567
O       -0.06850572       1.73210881       1.63199750
C       -0.77647016       0.05291001       0.03725486
O        0.52073381      -0.14034393      -0.59330618
P        1.82965737      -0.37645647       0.31124857
O        1.50541364      -0.45524103       1.76759640
O        2.57611053      -1.62708753      -0.34284970
O        2.85121266       0.77374689      -0.13628933
C       -1.82023328      -0.23856897      -1.00285971
O       -1.75645279      -1.63021493      -1.28786203
H        0.40229947       0.90211006       1.91178701
H       -0.88249557      -0.65813575       0.85704264
H        2.38667773      -2.45366065       0.11999993
H        2.62261249       1.61208951       0.28828729
H       -2.79035095       0.04771258      -0.59212640
H       -1.62895582       0.37400454      -1.88495013
H       -2.50817514      -1.86204919      -1.84078056
18
Properties=species:S:1:pos:R:3 relative_energy_eV=-0.12186487097278587 branch=right pbc="F F F"
O       -1.57204715       2.33119279       0.08764230
C       -0.86729271       1.48585220       0.58074692
O       -0.06985793       1.73682954       1.62885232
C       -0.77681624       0.05447701       0.03871060
O        0.52319682      -0.12988268      -0.59126614
P        1.83128330      -0.37537273       0.31326272
O        1.50865123      -0.44717156       1.77088686
O        2.57235886      -1.63058384      -0.34023440
O        2.85988390       0.76877601      -0.13325152
C       -1.81875767      -0.24119419      -1.00271461
O       -1.73809171      -1.63019798      -1.29916631
H        0.40825517       0.90983918       1.90445029
H       -0.87912188      -0.65699742       0.85902115
H        2.35187137      -2.45799370       0.10740751
H        2.63214650       1.60763453       0.28967496
H       -2.79196598       0.03173487      -0.58863184
H       -1.63751248       0.38585002      -1.87738315
H       -2.49784198      -1.87079792      -1.83853382
18
Properties=species:S:1:pos:R:3 relative_energy_eV=-0.12351757116994122 branch=right pbc="F F F"
O       -1.57796613       2.32473105       0.08730260
C       -0.87098859       1.48292792       0.58221525
O       -0.07316597       1.73901309       1.62809358
C       -0.77840741       0.05091084       0.04314377
O        0.52544078      -0.12887581      -0.58188448
P        1.83613967      -0.37505892       0.31882071
O        1.51708568      -0.43648603       1.77776638
O        2.57692326      -1.63054982      -0.33331604
O        2.86590658       0.76381882      -0.13591857
C       -1.81749917      -0.24239168      -1.00285158
O       -1.73043738      -1.62823340      -1.31135866
H        0.41297639       0.91647799       1.90017723
H       -0.88151861      -0.66045934       0.86349084
H        2.32744137      -2.46016599       0.09500884
H        2.63147278       1.60581353       0.27828357
H       -2.79223483       0.02261394      -0.58808550
H       -1.63871141       0.39867247      -1.86838751
H       -2.49411546      -1.87076450      -1.84302660
18
Properties=species:S:1:pos:R:3 relative_energy_eV=-0.12475409109902103 branch=right pbc="F F F"
O       -1.58691142       2.32081462       0.08756918
C       -0.87581032       1.48225291       0.58262815
O       -0.07788559       1.74356866       1.62734386
C       -0.77863893       0.04957776       0.04604122
O        0.52748785      -0.12643963      -0.57544118
P        1.83933432      -0.37494164       0.32386344
O        1.52065233      -0.43028444       1.78258046
O        2.57840903      -1.63078788      -0.32858606
O        2.87413558       0.75761905      -0.13530129
C       -1.81711785      -0.24294321      -1.00224721
O       -1.72275520      -1.62756278      -1.32033426
H        0.41556919       0.92510007       1.89772968
H       -0.87987661      -0.66175912       0.86699036
H        2.31040027      -2.46382633       0.08046207
H        2.63729329       1.60336716       0.27133382
H       -2.79448655       0.01363296      -0.58576470
H       -1.64056020       0.40732084      -1.86252881
H       -2.49089764      -1.87271484      -1.84686489
18
Properties=species:S:1:pos:R:3 relative_energy_eV=-0.12582955553079955 branch=right pbc="F F F"
O       -1.58930430       2.31719143       0.08703302
C       -0.87734454       1.47974086       0.58260303
O       -0.08076895       1.74503425       1.62806513
C       -0.77862977       0.04588458       0.04882709
O        0.52846658      -0.13020230      -0.56904613
P        1.84240177      -0.37418887       0.32860109
O        1.52438335      -0.42566504       1.78698115
O        2.58304387      -1.62865427      -0.32306668
O        2.87800318       0.75426318      -0.13714699
C       -1.81752740      -0.24271909      -1.00129613
O       -1.72602441      -1.62655797      -1.32458434
H        0.41523404       0.92917837       1.90048582
H       -0.88058207      -0.66592561       0.86930010
H        2.30703359      -2.46402592       0.07226146
H        2.63741613       1.60413646       0.26012020
H       -2.79567613       0.01356170      -0.58594195
H       -1.63837624       0.40998887      -1.85920830
H       -2.49340706      -1.86904639      -1.85451371
18
Properties=species:S:1:pos:R:3 relative_energy_eV=-0.12663252169659245 branch=right pbc="F F F"
O       -1.59926916       2.31351295       0.08927693
C       -0.88180743       1.47917746       0.58301293
O       -0.08429394       1.75099416       1.62695197
C       -0.77738461       0.04394281       0.05242997
O        0.53093590      -0.12716705      -0.56212345
P        1.84675241      -0.37048417       0.33427179
O        1.52874191      -0.41462255       1.79244041
O        2.58513606      -1.62805977      -0.31316896
O        2.88933296       0.74763966      -0.14027013
C       -1.81669086      -0.24461426      -0.99874004
O       -1.71559255      -1.62590093      -1.33773668
H        0.41275519       0.93767323       1.90530901
H       -0.87780411      -0.66858572       0.87257096
H        2.27693618      -2.47079273       0.05275416
H        2.65009646       1.60281486       0.24814259
H       -2.79856163      -0.00032136      -0.58123857
H       -1.64317597       0.41691652      -1.85187102
H       -2.48776506      -1.87012873      -1.86253806
18
Properties=species:S:1:pos:R:3 relative_energy_eV=-0.12825132284342544 branch=right pbc="F F F"
O       -1.60088061       2.31136238       0.09109356
C       -0.88043749       1.47780413       0.58184312
O       -0.08268170       1.75274933       1.62552905
C       -0.77533848       0.04101705       0.05220922
O        0.53178422      -0.12753164      -0.56305251
P        1.84625893      -0.36919729       0.33598540
O        1.52572966      -0.41509691       1.79321241
O        2.58460830      -1.62678327      -0.31162422
O        2.89021852       0.74709497      -0.13859345
C       -1.81800133      -0.24535038      -0.99695953
O       -1.72673916      -1.62772105      -1.33238978
H        0.41149968       0.93987362       1.91192550
H       -0.87224380      -0.67534011       0.86980656
H        2.28323133      -2.46672249       0.05247344
H        2.65314939       1.60473922       0.24462764
H       -2.79899675       0.00670996      -0.58170810
H       -1.64054306       0.40903640      -1.85383982
H       -2.49227591      -1.86464947      -1.87106465
18
Properties=species:S:1:pos:R:3 relative_energy_eV=-0.1298346605981351 branch=right pbc="F F F"
O       -1.60329622       2.30847555       0.09279173
C       -0.88009792       1.47711491       0.58235890
O       -0.08012749       1.75476662       1.62318624
C       -0.77394109       0.04014851       0.05213628
O        0.53316400      -0.12262088      -0.56478112
P        1.84578408      -0.36728187       0.33620527
O        1.52433808      -0.41200662       1.79380743
O        2.58204447      -1.62774460      -0.30923472
O        2.89177478       0.74681988      -0.13790301
C       -1.81737371      -0.24710454      -0.99591445
O       -1.72510279      -1.62809352      -1.33310928
H        0.41162383       0.94180912       1.91467802
H       -0.86711840      -0.67916461       0.86766089
H        2.26848544      -2.46570290       0.05016059
H        2.65811063       1.60531485       0.24344880
H       -2.79781190       0.00382245      -0.57955094
H       -1.64328796       0.40770224      -1.85260878
H       -2.48882604      -1.86426009      -1.87385808
18
Properties=species:S:1:pos:R:3 relative_energy_eV=-0.13273812537954655 branch=right pbc="F F F"
O       -1.62595564       2.29638114       0.10182640
C       -0.88564525       1.47608231       0.58544052
O       -0.07447999       1.76753977       1.61224873
C       -0.76826258       0.03912587       0.05247947
O        0.53999184      -0.09909087      -0.56937670
P        1.84535344      -0.36092610       0.33861666
O        1.51990442      -0.39800898       1.79695057
O        2.56824215      -1.63462773      -0.30006995
O        2.90418521       0.74106981      -0.13432297
C       -1.81329959      -0.25444797      -0.99199709
O       -1.70823040      -1.63024958      -1.34190513
H        0.41482142       0.95739394       1.91912928
H       -0.84467497      -0.68985308       0.86171082
H        2.19967837      -2.46759536       0.03117516
H        2.68477684       1.60378168       0.24278403
H       -2.79351649      -0.01757915      -0.56736841
H       -1.65449007       0.40809666      -1.84507531
H       -2.47005680      -1.86509773      -1.88277248
18
Properties=species:S:1:pos:R:3 relative_energy_eV=-0.13378878965158947 branch=right pbc="F F F"
O       -1.62617753       2.29427202       0.10189975
C       -0.88621936       1.47517080       0.58668583
O       -0.07469174       1.76778359       1.61202033
C       -0.76727074       0.03950124       0.05149981
O        0.54038121      -0.09755833      -0.57202346
P        1.84360850      -0.36131003       0.33799509
O        1.51659272      -0.39921918       1.79604415
O        2.56475275      -1.63572225      -0.30037682
O        2.90271106       0.74139206      -0.13257810
C       -1.81217623      -0.25473271      -0.99195185
O       -1.70755255      -1.63047731      -1.33929004
H        0.41630280       0.95876548       1.91795667
H       -0.84119892      -0.69017332       0.85977676
H        2.19688737      -2.46600957       0.03157643
H        2.68506892       1.60484935       0.24354762
H       -2.79046129      -0.01730979      -0.56508523
H       -1.65398777       0.40636865      -1.84604750
H       -2.46822730      -1.86359608      -1.88217587
18
Properties=species:S:1:pos:R:3 relative_energy_eV=-0.13594154782549595 branch=right pbc="F F F"
O       -1.63905458       2.28359738       0.10539442
C       -0.89289443       1.47089724       0.59120363
O       -0.07795878       1.77376856       1.60988888
C       -0.76433657       0.03756786       0.05305664
O        0.54368316      -0.09254214      -0.57085828
P        1.84395044      -0.35946641       0.34225085
O        1.51402566      -0.39098741       1.79956735
O        2.55877483      -1.63880896      -0.29089650
O        2.90946850       0.73603231      -0.13055434
C       -1.80778068      -0.25730382      -0.99007223
O       -1.69857749      -1.63019354      -1.34460844
H        0.42197524       0.97109044       1.91495741
H       -0.83225772      -0.69443057       0.85855516
H        2.16281888      -2.46657554       0.01495401
H        2.69420703       1.60618484       0.23308071
H       -2.78407263      -0.02802649      -0.55623569
H       -1.65424327       0.40962561      -1.84061213
H       -2.45938566      -1.85843470      -1.88959791
18
Properties=species:S:1:pos:R:3 relative_energy_eV=-0.13788282536916086 branch=right pbc="F F F"
O       -1.66300270       2.27085646       0.11370704
C       -0.90394879       1.46653085       0.59723686
O       -0.08328085       1.78318206       1.60675255
C       -0.76097035       0.03565266       0.05595223
O        0.54806593      -0.08592602      -0.56826188
P        1.84620150      -0.35666418       0.34766181
O        1.51276261      -0.37761899       1.80368191
O        2.55140184      -1.64448516      -0.27738019
O        2.92299569       0.72751464      -0.12826216
C       -1.80196202      -0.26138910      -0.98744520
O       -1.68670491      -1.63177094      -1.35307748
H        0.43126536       0.98903783       1.90706459
H       -0.82415732      -0.69814110       0.85938824
H        2.11938126      -2.46933869      -0.00976624
H        2.70888507       1.60512979       0.22141298
H       -2.77754746      -0.04372067      -0.54576080
H       -1.65322444       0.41502152      -1.83231916
H       -2.44781845      -1.85187629      -1.90111155
18
Properties=species:S:1:pos:R:3 relative_energy_eV=-0.1390682616183767 branch=right pbc="F F F"
O       -1.66827301       2.26630512       0.11721612
C       -0.90673774       1.46397812       0.60001332
O       -0.08738049       1.78378828       1.60894285
C       -0.76015358       0.03413058       0.05765931
O        0.54881968      -0.08847694      -0.56656597
P        1.84792942      -0.35501547       0.34932163
O        1.51371633      -0.37035970       1.80461715
O        2.55133268      -1.64620337      -0.26977806
O        2.92844751       0.72499009      -0.12895412
C       -1.79999716      -0.26236365      -0.98640810
O       -1.68606417      -1.63280387      -1.35454712
H        0.43508694       0.99276351       1.90261207
H       -0.82703841      -0.69875985       0.86142837
H        2.10851671      -2.46846530      -0.01819738
H        2.71137382       1.60573016       0.21276724
H       -2.77507377      -0.04599881      -0.54327252
H       -1.65077681       0.41669704      -1.82935882
H       -2.44538594      -1.84794117      -1.90802241
18
Properties=species:S:1:pos:R:3 relative_energy_eV=-0.1402798266353784 branch=right pbc="F F F"
O       -1.68736478       2.25352321       0.12768434
C       -0.91343658       1.46023075       0.60561393
O       -0.09253615       1.78969330       1.60958597
C       -0.75655005       0.03132807       0.06142039
O        0.55338707      -0.08204861      -0.56466282
P        1.85224186      -0.34889089       0.35351844
O        1.51505224      -0.34967476       1.80806358
O        2.54683686      -1.65237439      -0.25069346
O        2.94593380       0.71694831      -0.12875796
C       -1.79570253      -0.26736023      -0.98267626
O       -1.67696069      -1.63578872      -1.36196292
H        0.44309829       1.00467620       1.89597885
H       -0.82514479      -0.70301782       0.86431297
H        2.05773480      -2.46668648      -0.04337265
H        2.72854355       1.60474357       0.19587959
H       -2.77097186      -0.05988949      -0.53479392
H       -1.65329406       0.42063448      -1.82020203
H       -2.43252482      -1.84405152      -1.92546251
18
Properties=species:S:1:pos:R:3 relative_energy_eV=-0.14196492616974865 branch=right pbc="F F F"
O       -1.69669862       2.25280382       0.13557663
C       -0.91373939       1.46261209       0.60639747
O       -0.09292331       1.78964136       1.61158736
C       -0.75511731       0.03307853       0.06118707
O        0.55453564      -0.07863141      -0.56793462
P        1.85422992      -0.34710596       0.35046394
O        1.51541809      -0.34408262       1.80465490
O        2.54430661      -1.65693917      -0.24711755
O        2.95252754       0.71567631      -0.12896795
C       -1.79512818      -0.26945074      -0.98157669
O       -1.67994802      -1.64010568      -1.35720542
H        0.44490126       1.00301585       1.89007673
H       -0.82978472      -0.69938972       0.86643222
H        2.05327313      -2.46272754      -0.04490923
H        2.73480380       1.60102104       0.19850467
H       -2.77094233      -0.05916816      -0.53513340
H       -1.65255501       0.41572931      -1.82081728
H       -2.42881697      -1.84398227      -1.93174527
18
Properties=species:S:1:pos:R:3 relative_energy_eV=-0.14367277104247478 branch=right pbc="F F F"
O       -1.69566579       2.25009704       0.13433529
C       -0.91254158       1.46263106       0.60577986
O       -0.09935626       1.78861147       1.61540346
C       -0.75299203       0.03299708       0.06132662
O        0.55650119      -0.07756668      -0.56648024
P        1.85547022      -0.34597815       0.35218902
O        1.51725862      -0.33844223       1.80675331
O        2.54277792      -1.65798021      -0.24349212
O        2.95565323       0.71293028      -0.13032926
C       -1.79435839      -0.27036550      -0.98021898
O       -1.67689310      -1.63987574      -1.35894460
H        0.44089702       1.00268635       1.89385962
H       -0.82732364      -0.69768731       0.86824216
H        2.03850609      -2.46024045      -0.05279916
H        2.73934639       1.60126228       0.19051266
H       -2.76960531      -0.06227995      -0.53152738
H       -1.65594568       0.41614997      -1.81912463
H       -2.42338666      -1.84495412      -1.93601204
18
Properties=species:S:1:pos:R:3 relative_energy_eV=-0.14602752315840917 branch=right pbc="F F F"
O       -1.72844955       2.23396887       0.14236025
C       -0.92149737       1.46672939       0.60586907
O       -0.11623750       1.79932645       1.61924418
C       -0.74198397       0.03916885       0.06039573
O        0.56938101      -0.04860765      -0.56660585
P        1.85965847      -0.34245216       0.35823311
O        1.51605876      -0.31907841       1.81226066
O        2.52334824      -1.67059285      -0.22961721
O        2.97831382       0.69361913      -0.12865410
C       -1.78805792      -0.27856047      -0.97367464
O       -1.65075743      -1.64274795      -1.36611528
H        0.43359299       1.01778998       1.89692140
H       -0.80301101      -0.68708465       0.87241946
H        1.95469760      -2.45331050      -0.09611370
H        2.77695996       1.59056319       0.17750825
H       -2.76202570      -0.08926333      -0.51214058
H       -1.67273075       0.41455794      -1.81082289
H       -2.38891720      -1.85203032      -1.95199439
18
Properties=species:S:1:pos:R:3 relative_energy_eV=-0.148244416956004 branch=right pbc="F F F"
O       -1.71266097       2.24380457       0.13159700
C       -0.91654280       1.47161830       0.59969820
O       -0.11904877       1.79320268       1.62373836
C       -0.74327297       0.04469604       0.05653239
O        0.56776421      -0.05003198      -0.56640622
P        1.85651611      -0.34851138       0.35644256
O        1.51469386      -0.33497589       1.81089059
O        2.52635202      -1.66600604      -0.24410877
O        2.96516765       0.69514785      -0.13107028
C       -1.79097847      -0.27447819      -0.97580303
O       -1.65209616      -1.63865708      -1.36036639
H        0.42076523       1.00631115       1.90597353
H       -0.80131645      -0.67621863       0.87285112
H        1.98757977      -2.45213063      -0.08400388
H        2.76686807       1.58797173       0.18585168
H       -2.76405465      -0.08100210      -0.51652548
H       -1.67571183       0.41061390      -1.81799442
H       -2.39168147      -1.85935888      -1.93782347
18
Properties=species:S:1:pos:R:3 relative_energy_eV=-0.1502272614488902 branch=right pbc="F F F"
O       -1.72876460       2.24072660       0.14029348
C       -0.92311327       1.47136263       0.60276087
O       -0.12333038       1.79749353       1.62249731
C       -0.74181727       0.04675440       0.05696088
O        0.56926444      -0.04422505      -0.56754680
P        1.85702058      -0.34710552       0.35545525
O        1.51305807      -0.32748785       1.80916204
O        2.52073347      -1.67143201      -0.23984622
O        2.97412047       0.68992792      -0.13083452
C       -1.78812451      -0.27659111      -0.97451147
O       -1.64518507      -1.64046606      -1.36018241
H        0.42488371       1.01400336       1.89764067
H       -0.79878828      -0.67383920       0.87383218
H        1.97022264      -2.45315269      -0.09463178
H        2.77803059       1.58293989       0.18799942
H       -2.76160796      -0.08822705      -0.51306763
H       -1.67560602       0.41118529      -1.81488052
H       -2.38265428      -1.85987166      -1.94162726
18
Properties=species:S:1:pos:R:3 relative_energy_eV=-0.15215074333173106 branch=right pbc="F F F"
O       -1.75960453       2.23311770       0.15562399
C       -0.93723213       1.47294782       0.60740694
O       -0.13395213       1.80476354       1.62400623
C       -0.73778164       0.05327991       0.05713172
O        0.57473953      -0.02683039      -0.56799821
P        1.85861989      -0.34492376       0.35677355
O        1.50918594      -0.31391261       1.80826241
O        2.50933331      -1.68090045      -0.22808968
O        2.99221783       0.67403274      -0.13183223
C       -1.78272183      -0.28136246      -0.97101022
O       -1.62752010      -1.64342593      -1.35925480
H        0.42691695       1.02681386       1.88657597
H       -0.78964765      -0.66391210       0.87716092
H        1.92602610      -2.44969110      -0.12400211
H        2.80464331       1.57067268       0.18407326
H       -2.75554828      -0.10424364      -0.50436660
H       -1.68190359       0.40923423      -1.80997938
H       -2.35742871      -1.86366449      -1.95100827
18
Properties=species:S:1:pos:R:3 relative_energy_eV=-0.15345595817416324 branch=right pbc="F F F"
O       -1.76482436       2.23480579       0.15934152
C       -0.94101954       1.47423530       0.60821600
O       -0.13782840       1.80475646       1.62468976
C       -0.73793275       0.05604423       0.05649148
O        0.57471596      -0.02396076      -0.56762867
P        1.85788357      -0.34518487       0.35606160
O        1.50893644      -0.31267882       1.80736270
O        2.50630681      -1.68236317      -0.22826920
O        2.99404330       0.66990847      -0.13352996
C       -1.78168544      -0.28158144      -0.97087927
O       -1.62354565      -1.64353875      -1.35634818
H        0.42495418       1.02781923       1.88469170
H       -0.78675823      -0.65986014       0.87763209
H        1.92314772      -2.44846101      -0.12846625
H        2.80961399       1.56602890       0.18528379
H       -2.75426100      -0.10579248      -0.50392588
H       -1.68299840       0.40754147      -1.81100831
H       -2.35040599      -1.86572284      -1.95024141
18
Properties=species:S:1:pos:R:3 relative_energy_eV=-0.15542479910436668 branch=right pbc="F F F"
O       -1.77817953       2.23561767       0.16894953
C       -0.95014484       1.47699381       0.61081712
O       -0.14727868       1.80523413       1.62697748
C       -0.73787231       0.06139585       0.05589781
O        0.57600171      -0.01391031      -0.56589784
P        1.85736242      -0.34407833       0.35675439
O        1.51008671      -0.30503610       1.80801674
O        2.49794289      -1.68578452      -0.22352676
O        3.00238778       0.65785858      -0.13703395
C       -1.77990324      -0.28333647      -0.96970361
O       -1.61356172      -1.64478591      -1.35031083
H        0.41995800       1.03080960       1.88310582
H       -0.77781386      -0.65281342       0.87860995
H        1.90229304      -2.44251191      -0.14562027
H        2.82744340       1.55583892       0.18070074
H       -2.75175949      -0.11140789      -0.50118346
H       -1.68876119       0.40284175      -1.81293435
H       -2.32985890      -1.87092980      -1.95414506
18
Properties=species:S:1:pos:R:3 relative_energy_eV=-0.1566863638581708 branch=right pbc="F F F"
O       -1.78766867       2.23512694       0.17705750
C       -0.95643909       1.47806171       0.61386433
O       -0.15146830       1.80548900       1.62756235
C       -0.73875296       0.06339264       0.05641921
O        0.57662532      -0.00691712      -0.56379490
P        1.85790192      -0.34160053       0.35789019
O        1.51452942      -0.29656614       1.80995626
O        2.49132860      -1.68818258      -0.21838889
O        3.00909302       0.65010218      -0.14024978
C       -1.77950119      -0.28487170      -0.96905538
O       -1.60894796      -1.64664666      -1.34529912
H        0.41752849       1.03196708       1.88297536
H       -0.77255775      -0.65217083       0.87800189
H        1.88391444      -2.43666024      -0.15684568
H        2.84116669       1.54987923       0.17482326
H       -2.75118714      -0.11403048      -0.50042669
H       -1.69195070       0.39908984      -1.81481050
H       -2.31527196      -1.87346656      -1.96020603
18
Properties=species:S:1:pos:R:3 relative_energy_eV=-0.15809947945308522 branch=right pbc="F F F"
O       -1.79884491       2.23302655       0.18729752
C       -0.96370683       1.47810268       0.61909950
O       -0.15602264       1.80582966       1.62872102
C       -0.74030203       0.06455886       0.05807989
O        0.57718456       0.00095522      -0.56049546
P        1.85944069      -0.33772943       0.35981806
O        1.52290337      -0.28259629       1.81355080
O        2.48253323      -1.69158397      -0.21062875
O        3.01791127       0.64160948      -0.14569399
C       -1.77932616      -0.28672727      -0.96838937
O       -1.60486824      -1.64983579      -1.33905146
H        0.41546262       1.03287529       1.88351993
H       -0.76862149      -0.65455354       0.87670001
H        1.85920562      -2.42916727      -0.17048563
H        2.85835094       1.54393170       0.16470384
H       -2.75167098      -0.11647256      -0.50034298
H       -1.69395370       0.39527881      -1.81680389
H       -2.29733307      -1.87550619      -1.97012572
18
Properties=species:S:1:pos:R:3 relative_energy_eV=-0.15946710574644385 branch=right pbc="F F F"
O       -1.80616305       2.23018120       0.19480812
C       -0.96913549       1.47663746       0.62506587
O       -0.15847161       1.80553882       1.63065962
C       -0.74230602       0.06406762       0.06072000
O        0.57697682       0.00592481      -0.55642619
P        1.86134209      -0.33392368       0.36191902
O        1.53365505      -0.26867311       1.81751715
O        2.47471387      -1.69443345      -0.20387515
O        3.02310125       0.63621088      -0.15332752
C       -1.77939773      -0.28762065      -0.96809616
O       -1.60334814      -1.65269363      -1.33318809
H        0.41353396       1.03218352       1.88584303
H       -0.76882994      -0.66029021       0.87469625
H        1.84034414      -2.42274677      -0.17955055
H        2.87051758       1.54050158       0.15321670
H       -2.75294917      -0.11598154      -0.50240369
H       -1.69240853       0.39282275      -1.81856993
H       -2.28283282      -1.87570949      -1.97953526
18
Properties=species:S:1:pos:R:3 relative_energy_eV=-0.16123679118027212 branch=right pbc="F F F"
O       -1.82356068       2.22233573       0.20654940
C       -0.97968291       1.47427342       0.63533732
O       -0.17001395       1.80662361       1.63800960
C       -0.74282654       0.06498566       0.06545029
O        0.57854252       0.01702031      -0.54920185
P        1.86447159      -0.32868697       0.36614915
O        1.54936131      -0.24174437       1.82406164
O        2.45848129      -1.70222034      -0.19117911
O        3.03368084       0.62398646      -0.16742088
C       -1.77666774      -0.28980932      -0.96625489
O       -1.59434255      -1.65675108      -1.32638981
H        0.40990094       1.03554143       1.88910916
H       -0.76768505      -0.66550034       0.87414609
H        1.80005274      -2.41427501      -0.20358738
H        2.89410570       1.53283195       0.13123905
H       -2.75249717      -0.12032160      -0.50246504
H       -1.68960562       0.39025590      -1.81825017
H       -2.25337234      -1.87654900      -1.99582950
18
Properties=species:S:1:pos:R:3 relative_energy_eV=-0.16362771489366423 branch=right pbc="F F F"
O       -1.83093448       2.21619894       0.21286592
C       -0.98801849       1.47044380       0.64852051
O       -0.17872573       1.80536463       1.64958174
C       -0.74625304       0.06473535       0.07241942
O        0.57655801       0.02709368      -0.54084458
P        1.86598813      -0.32365108       0.36958484
O        1.57181485      -0.21430042       1.83057577
O        2.43819723      -1.70902885      -0.18340778
O        3.03466472       0.61622322      -0.18870215
C       -1.77507156      -0.28913441      -0.96580749
O       -1.58584512      -1.66036934      -1.31655978
H        0.40431603       1.03437459       1.89811219
H       -0.77412659      -0.67801957       0.87035378
H        1.77273049      -2.40747463      -0.21837867
H        2.91261549       1.52758875       0.10792341
H       -2.75604699      -0.11795283      -0.50981725
H       -1.68059587       0.38932771      -1.82033211
H       -2.22292460      -1.87942280      -2.00661493
18
Properties=species:S:1:pos:R:3 relative_energy_eV=-0.16667842540482525 branch=right pbc="F F F"
O       -1.85425054       2.20599098       0.22483194
C       -1.00194624       1.46871796       0.66062601
O       -0.19975598       1.80695481       1.66578929
C       -0.74438357       0.06926454       0.07819835
O        0.57885992       0.04534023      -0.53273917
P        1.86709071      -0.31895441       0.37317130
O        1.58754452      -0.18270727       1.83467771
O        2.41250674      -1.72098397      -0.16946095
O        3.04332411       0.59766823      -0.20926925
C       -1.76780067      -0.29153991      -0.96216201
O       -1.56409659      -1.66256872      -1.30898303
H        0.39702054       1.04233299       1.90191762
H       -0.77188874      -0.67822226       0.87170048
H        1.72054175      -2.39887872      -0.25292323
H        2.94174235       1.51406918       0.08111230
H       -2.75148495      -0.12706890      -0.50907202
H       -1.67599277       0.38636883      -1.81721528
H       -2.17868803      -1.88378645      -2.02072741
18
Properties=species:S:1:pos:R:3 relative_energy_eV=-0.1723806009213149 branch=right pbc="F F F"
O       -1.87889190       2.19838516       0.23344318
C       -1.01595927       1.47075465       0.67059461
O       -0.22968971       1.80902069       1.69011577
C       -0.73915441       0.08001893       0.08271812
O        0.58112682       0.07250115      -0.52755312
P        1.86242405      -0.31762320       0.37278833
O        1.59582708      -0.15595408       1.83229599
O        2.37517468      -1.73605749      -0.16242337
O        3.04434655       0.57541229      -0.23164369
C       -1.75510645      -0.29405018      -0.95753845
O       -1.52462339      -1.66104656      -1.30462699
H        0.38967748       1.05642542       1.90417102
H       -0.76537951      -0.66816190       0.87537444
H        1.66614135      -2.39474928      -0.29067361
H        2.97034199       1.49382451       0.06258863
H       -2.74266643      -0.14480844      -0.50763079
H       -1.67104316       0.38381159      -1.81125885
H       -2.12420320      -1.89570580      -2.02126870
18
Properties=species:S:1:pos:R:3 relative_energy_eV=-0.1776021057557955 branch=right pbc="F F F"
O       -1.88804313       2.19906185       0.23937458
C       -1.02105769       1.47416361       0.67314152
O       -0.24287657       1.80954472       1.70363304
C       -0.73623462       0.08786944       0.08319622
O        0.58046696       0.09118433      -0.53028857
P        1.85471679      -0.31811389       0.36676460
O        1.58892301      -0.15166697       1.82362691
O        2.35314770      -1.74141925      -0.16434582
O        3.04089430       0.56420082      -0.24135342
C       -1.74821127      -0.29604143      -0.95509975
O       -1.50300619      -1.65804219      -1.29881625
H        0.38719305       1.06751770       1.90497069
H       -0.75906685      -0.65982088       0.87682398
H        1.65022216      -2.39404484      -0.30273710
H        2.98637914       1.48167588       0.06504616
H       -2.73722515      -0.15500868      -0.51016150
H       -1.66886352       0.37717891      -1.80938319
H       -2.09901568      -1.90624159      -2.01491966
18
Properties=species:S:1:pos:R:3 relative_energy_eV=-0.18215007065737154 branch=right pbc="F F F"
O       -1.92819201       2.19407588       0.26770540
C       -1.04694139       1.48096041       0.69026116
O       -0.27647275       1.81374715       1.72748746
C       -0.73459430       0.10417190       0.08824060
O        0.58193958       0.14131816      -0.52749086
P        1.84736196      -0.31135430       0.36251832
O        1.59974430      -0.11296692       1.82062518
O        2.29253465      -1.76130072      -0.15470102
O        3.05575491       0.52960889      -0.26738200
C       -1.73581825      -0.30368050      -0.95069798
O       -1.45261680      -1.66339546      -1.28320543
H        0.38323691       1.08918054       1.90420492
H       -0.73993604      -0.64985606       0.87833192
H        1.56487625      -2.37996838      -0.35291607
H        3.04610576       1.44769173       0.05067691
H       -2.73096307      -0.18198601      -0.51199040
H       -1.66943318       0.36440370      -1.81014471
H       -2.01824414      -1.92865212      -2.02205121
18
Properties=species:S:1:pos:R:3 relative_energy_eV=-0.19095656226636493 branch=right pbc="F F F"
O       -1.94886321       2.19627517       0.29197954
C       -1.06273160       1.48897694       0.70234948
O       -0.29061084       1.81418216       1.74026611
C       -0.73662788       0.11618301       0.09221155
O        0.57974620       0.17662144      -0.52392007
P        1.83831106      -0.30713379       0.35643899
O        1.60784700      -0.09951521       1.81815288
O        2.24312973      -1.77057661      -0.15033155
O        3.05686714       0.50767831      -0.28025137
C       -1.72294641      -0.31102896      -0.95146711
O       -1.40844826      -1.66591001      -1.28206017
H        0.39661466       1.10802777       1.89352920
H       -0.72393083      -0.63879138       0.88246664
H        1.50199841      -2.36089882      -0.37607891
H        3.06102627       1.41473091       0.04349002
H       -2.72348264      -0.21094001      -0.51907018
H       -1.66374489       0.35540301      -1.81199157
H       -1.96581169      -1.94128599      -2.01624144
18
Properties=species:S:1:pos:R:3 relative_energy_eV=-0.20078475429545506 branch=right pbc="F F F"
O       -1.98633723       2.19444860       0.32987372
C       -1.08099156       1.49562148       0.71514272
O       -0.29128061       1.82200614       1.73810341
C       -0.74015182       0.12853866       0.09225817
O        0.57839758       0.22749347      -0.52291254
P        1.83085765      -0.29730907       0.34957157
O        1.62218645      -0.09659874       1.81340212
O        2.18330673      -1.77698735      -0.14937597
O        3.07321834       0.48010394      -0.28927779
C       -1.71665670      -0.32136345      -0.95128582
O       -1.37731816      -1.67308843      -1.26145089
H        0.39216678       1.12956473       1.89020721
H       -0.69722111      -0.63660516       0.87356359
H        1.41900541      -2.32471749      -0.39428255
H        3.11809806       1.38649670       0.04348484
H       -2.72055652      -0.24071499      -0.52527356
H       -1.66564889       0.33461213      -1.82251142
H       -1.90273231      -1.95950302      -2.01976517
18
Properties=species:S:1:pos:R:3 relative_energy_eV=-0.20592840275276103 branch=right pbc="F F F"
O       -1.97646021       2.18959730       0.33130316
C       -1.07699123       1.48616508       0.71776357
O       -0.28737078       1.81609924       1.73703998
C       -0.74497725       0.11895166       0.09567841
O        0.57402613       0.21025236      -0.51178907
P        1.83444197      -0.29468016       0.35337204
O        1.63400241      -0.09942281       1.82014449
O        2.18529179      -1.76672688      -0.14659827
O        3.07274801       0.48348497      -0.29122113
C       -1.72006442      -0.32035926      -0.95371796
O       -1.39526025      -1.67149546      -1.26137703
H        0.40661890       1.12380119       1.88981705
H       -0.70978076      -0.64552793       0.87233309
H        1.42121492      -2.30455491      -0.37886814
H        3.10899011       1.39570598       0.02394029
H       -2.72124391      -0.23208061      -0.53507473
H       -1.65436803       0.33305475      -1.82436774
H       -1.91247520      -1.95026629      -2.02890650
18
Properties=species:S:1:pos:R:3 relative_energy_eV=-0.2113946375066007 branch=right pbc="F F F"
O       -2.00693625       2.17370737       0.35368220
C       -1.09612369       1.48115799       0.73579263
O       -0.30869919       1.82264730       1.75471380
C       -0.74230067       0.12549350       0.10285267
O        0.57562957       0.24454933      -0.50102866
P        1.83478946      -0.28682444       0.35446294
O        1.65420487      -0.07226895       1.82138946
O        2.12973703      -1.77843377      -0.13846319
O        3.08278325       0.45606949      -0.31848793
C       -1.70834301      -0.32647666      -0.95094986
O       -1.35867985      -1.67600584      -1.25538626
H        0.40843277       1.14057735       1.89415147
H       -0.70073002      -0.64302731       0.87291967
H        1.33206686      -2.27016477      -0.40836293
H        3.14721958       1.37049175      -0.00582659
H       -2.71461680      -0.25498011      -0.54163984
H       -1.64335292       0.32568549      -1.82185681
H       -1.84673874      -1.96019907      -2.03849166
18
Properties=species:S:1:pos:R:3 relative_energy_eV=-0.21373289690745878 branch=right pbc="F F F"
O       -2.00598379       2.16835697       0.34290299
C       -1.09363721       1.48001011       0.73053439
O       -0.29997296       1.84127967       1.74281229
C       -0.73457630       0.12592490       0.09967003
O        0.58192737       0.25324389      -0.51045441
P        1.84064687      -0.29127139       0.35364020
O        1.63859872      -0.09595835       1.81527290
O        2.13265498      -1.77678607      -0.15617578
O        3.08747506       0.45890040      -0.31015267
C       -1.70917641      -0.32904985      -0.94993084
O       -1.35816914      -1.68149987      -1.27196314
H        0.39395873       1.15093095       1.91044810
H       -0.68976134      -0.63666465       0.87709825
H        1.33749456      -2.27045057      -0.39778055
H        3.14765359       1.36982109       0.01319914
H       -2.71884747      -0.26589202      -0.53585311
H       -1.64870054       0.33260338      -1.81663409
H       -1.86324254      -1.96150005      -2.02716253
18
Properties=species:S:1:pos:R:3 relative_energy_eV=-0.21969734235972282 branch=right pbc="F F F"
O       -2.00123810       2.16203080       0.34311475
C       -1.09102672       1.47331257       0.73502266
O       -0.29937173       1.83700006       1.74679698
C       -0.73577863       0.11779193       0.10477015
O        0.58032184       0.23822563      -0.50510612
P        1.84302875      -0.28938192       0.35358317
O        1.64669698      -0.08220624       1.81791220
O        2.14409120      -1.77372913      -0.14593714
O        3.08643713       0.46000207      -0.31860496
C       -1.70853515      -0.32807243      -0.94912032
O       -1.37593118      -1.67992246      -1.26577939
H        0.38893127       1.14731839       1.92230455
H       -0.69907471      -0.64887852       0.88031690
H        1.34564707      -2.26245225      -0.39683897
H        3.13847505       1.37212038      -0.01062993
H       -2.71769603      -0.25121822      -0.54180467
H       -1.63645239       0.32994954      -1.81442557
H       -1.87018230      -1.94989139      -2.04610317
18
Properties=species:S:1:pos:R:3 relative_energy_eV=-0.22201110172682093 branch=right pbc="F F F"
O       -2.01637545       2.16171149       0.35106548
C       -1.09964678       1.47683340       0.73815400
O       -0.30945685       1.83665107       1.74920091
C       -0.73805339       0.12226281       0.10624218
O        0.57847951       0.25057437      -0.50397050
P        1.83791545      -0.28831232       0.35069710
O        1.64704132      -0.07621406       1.81601562
O        2.12732105      -1.77786693      -0.14875182
O        3.09356908       0.44909947      -0.31570952
C       -1.70559856      -0.33167522      -0.94913814
O       -1.36312214      -1.68208511      -1.26262611
H        0.39897314       1.15541251       1.91683159
H       -0.69617517      -0.64410617       0.88345291
H        1.32717884      -2.25591357      -0.40579474
H        3.16337791       1.36657521      -0.00972082
H       -2.71537544      -0.25941592      -0.54246030
H       -1.63805906       0.32538198      -1.81642652
H       -1.85365127      -1.95691425      -2.04759024
18
Properties=species:S:1:pos:R:3 relative_energy_eV=-0.22444590288432664 branch=right pbc="F F F"
O       -2.01641387       2.15806705       0.34916191
C       -1.10067756       1.47550630       0.73945566
O       -0.31382053       1.83799158       1.75305549
C       -0.73730302       0.12213438       0.10849502
O        0.57787455       0.25032737      -0.50151415
P        1.83784886      -0.28801901       0.35127782
O        1.64907803      -0.07636965       1.81559331
O        2.12307936      -1.77824234      -0.14937916
O        3.09381838       0.44425511      -0.31802811
C       -1.70185977      -0.33308972      -0.94881629
O       -1.35427913      -1.68269629      -1.26784909
H        0.39417830       1.15867782       1.92305298
H       -0.69765686      -0.63986425       0.88917993
H        1.31653072      -2.24727716      -0.40970004
H        3.16468152       1.36335626      -0.02093648
H       -2.71219305      -0.26491471      -0.54170689
H       -1.63538884       0.32796102      -1.81403211
H       -1.84915483      -1.95580489      -2.04783873
18
Properties=species:S:1:pos:R:3 relative_energy_eV=-0.22663694616858265 branch=right pbc="F F F"
O       -2.02859309       2.14956344       0.35045369
C       -1.10775925       1.47330722       0.74317234
O       -0.32000805       1.84477004       1.75470747
C       -0.73734995       0.12177847       0.11428748
O        0.57663208       0.25817815      -0.49798393
P        1.83759529      -0.28862267       0.35126871
O        1.65147142      -0.07216280       1.81533842
O        2.11264896      -1.78070916      -0.15300231
O        3.09706367       0.43236274      -0.32317427
C       -1.69522029      -0.33669514      -0.94772746
O       -1.33768033      -1.68287004      -1.27759199
H        0.38959513       1.17160972       1.93336337
H       -0.69591455      -0.63468171       0.90042943
H        1.29967122      -2.23522279      -0.41847836
H        3.17221852       1.35092215      -0.03345265
H       -2.70736553      -0.27599846      -0.54303146
H       -1.62754427       0.33007616      -1.80823093
H       -1.84111880      -1.95360636      -2.05087653
18
Properties=species:S:1:pos:R:3 relative_energy_eV=-0.22759305795261753 branch=right pbc="F F F"
O       -2.03072784       2.14783160       0.35061438
C       -1.11077017       1.47348115       0.74496254
O       -0.32655495       1.84581999       1.75879150
C       -0.73855520       0.12357734       0.11686273
O        0.57427833       0.26151178      -0.49607267
P        1.83505754      -0.28832668       0.35083629
O        1.65197588      -0.06894006       1.81457784
O        2.10432026      -1.78131712      -0.15556043
O        3.09888243       0.42428381      -0.32503739
C       -1.69206685      -0.33778486      -0.94735305
O       -1.32358738      -1.68129338      -1.28063361
H        0.38509640       1.17633699       1.93750174
H       -0.69562431      -0.63021878       0.90619536
H        1.28977276      -2.22847324      -0.42532643
H        3.18219352       1.34504649      -0.04140539
H       -2.70587807      -0.28415244      -0.54338104
H       -1.62659828       0.33239320      -1.80657460
H       -1.83287188      -1.95777676      -2.04952677
18
Properties=species:S:1:pos:R:3 relative_energy_eV=-0.2287602997093927 branch=right pbc="F F F"
O       -2.04090317       2.14478520       0.35572333
C       -1.11626609       1.47409443       0.74774415
O       -0.32966672       1.84880236       1.75889197
C       -0.73983363       0.12578119       0.12004595
O        0.57244889       0.26954315      -0.49324600
P        1.83203834      -0.28778997       0.35058694
O        1.65297408      -0.06434288       1.81428471
O        2.09066949      -1.78257676      -0.15771837
O        3.10053892       0.41443086      -0.32704966
C       -1.68804151      -0.33963990      -0.94669275
O       -1.30535217      -1.67803113      -1.28440385
H        0.38622532       1.18335193       1.93544674
H       -0.69291648      -0.62752221       0.91006194
H        1.27253702      -2.22034757      -0.43212255
H        3.19309312       1.33536814      -0.04572691
H       -2.70307245      -0.29611969      -0.54513235
H       -1.62432949       0.33365106      -1.80377550
H       -1.82180133      -1.96143918      -2.04744683
18
Properties=species:S:1:pos:R:3 relative_energy_eV=-0.2310795519624662 branch=right pbc="F F F"
O       -2.06106934       2.13905979       0.36841677
C       -1.12762318       1.47604520       0.75418007
O       -0.33612087       1.85587865       1.75898975
C       -0.74181958       0.13177686       0.12585926
O        0.56960866       0.29120334      -0.48809871
P        1.82577408      -0.28588508       0.34900577
O        1.65602969      -0.05183308       1.81332995
O        2.05494023      -1.78541963      -0.16264121
O        3.10435976       0.39392262      -0.33484056
C       -1.67987116      -0.34333767      -0.94513159
O       -1.26218737      -1.66941426      -1.29185051
H        0.38606585       1.19596941       1.92897909
H       -0.68454027      -0.62220799       0.91541758
H        1.22966066      -2.20387556      -0.44613487
H        3.21884194       1.31199830      -0.04995400
H       -2.69789326      -0.32528540      -0.54972971
H       -1.62247444       0.33682615      -1.79700766
H       -1.79333940      -1.97342259      -2.03931863
18
Properties=species:S:1:pos:R:3 relative_energy_eV=-0.2353225673432462 branch=right pbc="F F F"
O       -2.09891608       2.12707350       0.39422136
C       -1.14862642       1.47951295       0.76734624
O       -0.34855606       1.86910861       1.76143189
C       -0.74325543       0.14406128       0.13476034
O        0.56632570       0.33616192      -0.47900553
P        1.81474867      -0.28124376       0.34529074
O        1.66306677      -0.03167893       1.81003567
O        1.98296300      -1.79021507      -0.16808970
O        3.11147728       0.35577994      -0.35130397
C       -1.66296463      -0.35150099      -0.94235718
O       -1.18531988      -1.65710277      -1.30126245
H        0.38557396       1.21847468       1.91867689
H       -0.66728287      -0.61186233       0.92242589
H        1.14016236      -2.16794347      -0.47257230
H        3.26764852       1.26846311      -0.06035527
H       -2.68605382      -0.37928141      -0.55811722
H       -1.61961026       0.33901060      -1.78620522
H       -1.73303897      -1.99481867      -2.02544970
18
Properties=species:S:1:pos:R:3 relative_energy_eV=-0.23555247866534046 branch=right pbc="F F F"
O       -2.13661658       2.11509341       0.41991627
C       -1.16958858       1.48294455       0.78051797
O       -0.36119634       1.88226198       1.76407106
C       -0.74462639       0.15631974       0.14364784
O        0.56306609       0.38104211      -0.46990999
P        1.80376835      -0.27659051       0.34153395
O        1.67026021      -0.01152678       1.80673161
O        1.91095593      -1.79504546      -0.17354258
O        3.11852300       0.31770169      -0.36789848
C       -1.64601898      -0.35967919      -0.93958020
O       -1.10864794      -1.64487489      -1.31057732
H        0.38490883       1.24098916       1.90866707
H       -0.64997412      -0.60147890       0.92947231
H        1.05067197      -2.13199885      -0.49901952
H        3.31627532       1.22496113      -0.07091493
H       -2.67413059      -0.43309592      -0.56649699
H       -1.61665247       0.34112831      -1.77546110
H       -1.67263607      -2.01615228      -2.01168682
18
Properties=species:S:1:pos:R:3 relative_energy_eV=-0.23852988405997166 branch=right pbc="F F F"
O       -2.11711109       2.12012168       0.40809347
C       -1.15710508       1.48120120       0.77239553
O       -0.34766223       1.87699919       1.75607705
C       -0.74349602       0.14912442       0.13879674
O        0.56541910       0.35722574      -0.47366988
P        1.80908083      -0.27909744       0.34457781
O        1.66413064      -0.02367185       1.80871712
O        1.94554527      -1.78820495      -0.16996109
O        3.11216676       0.33854781      -0.35758578
C       -1.65387784      -0.35526858      -0.94084976
O       -1.14446187      -1.64544697      -1.30979485
H        0.38835013       1.22528496       1.90517970
H       -0.65932997      -0.60941869       0.92358234
H        1.09617051      -2.14971508      -0.48028853
H        3.28749642       1.24636081      -0.06116145
H       -2.67755012      -0.41134287      -0.56344941
H       -1.62045161       0.34303186      -1.77779419
H       -1.70897209      -2.00373210      -2.01339451
18
Properties=species:S:1:pos:R:3 relative_energy_eV=-0.2396676968310203 branch=right pbc="F F F"
O       -2.12071114       2.11748826       0.41185980
C       -1.15877864       1.48076277       0.77408252
O       -0.34769873       1.87871085       1.75510349
C       -0.74288473       0.14935400       0.13956890
O        0.56616604       0.36145426      -0.47167479
P        1.80943941      -0.27745423       0.34472403
O        1.66752616      -0.01833760       1.80943093
O        1.93734139      -1.78818976      -0.16857291
O        3.11388480       0.33582850      -0.36136629
C       -1.65231875      -0.35630931      -0.94064401
O       -1.14024079      -1.64428335      -1.31183085
H        0.38623650       1.22466724       1.90456478
H       -0.65812329      -0.60994411       0.92358458
H        1.08548001      -2.14622554      -0.48203646
H        3.29360117       1.24273533      -0.06286467
H       -2.67579976      -0.41728390      -0.56440855
H       -1.62109156       0.34271061      -1.77620677
H       -1.70368630      -2.00368485      -2.01384349
18
Properties=species:S:1:pos:R:3 relative_energy_eV=-0.2414119101340475 branch=right pbc="F F F"
O       -2.13512510       2.10965697       0.42081793
C       -1.16475774       1.48317044       0.77551343
O       -0.34803293       1.88805092       1.74842891
C       -0.74036652       0.15521598       0.14003750
O        0.56773316       0.38322229      -0.47143000
P        1.80527471      -0.27400474       0.34205285
O        1.66498181      -0.01093224       1.80556401
O        1.90733198      -1.78653538      -0.16918295
O        3.12041871       0.32201017      -0.36276540
C       -1.64588903      -0.35900833      -0.93910788
O       -1.10938026      -1.63643349      -1.32140301
H        0.38129946       1.22664199       1.89630523
H       -0.64832479      -0.60337231       0.92533374
H        1.05112840      -2.13515714      -0.48968033
H        3.31770134       1.22292023      -0.05625723
H       -2.66906529      -0.44661268      -0.56416084
H       -1.63076557       0.34749067      -1.76797251
H       -1.68582053      -2.01432438      -2.00262331
18
Properties=species:S:1:pos:R:3 relative_energy_eV=-0.2424453724961495 branch=right pbc="F F F"
O       -2.13390106       2.10804991       0.41790291
C       -1.16363060       1.48232757       0.77364386
O       -0.34749911       1.88739828       1.74692622
C       -0.73926226       0.15396154       0.13878837
O        0.56855374       0.37939638      -0.47167672
P        1.80625019      -0.27285665       0.34225028
O        1.66551545      -0.00980776       1.80641175
O        1.91297379      -1.78609509      -0.16732230
O        3.12052306       0.32438742      -0.36131326
C       -1.64653171      -0.35866945      -0.93938618
O       -1.11655585      -1.63774704      -1.32336889
H        0.37922429       1.22333430       1.89920214
H       -0.64923205      -0.60299179       0.92530664
H        1.05867696      -2.13887910      -0.48808699
H        3.31637522       1.22579960      -0.05573412
H       -2.66803753      -0.44301811      -0.56143983
H       -1.63285253       0.34821558      -1.76775630
H       -1.69224809      -2.01080663      -2.00487743
18
Properties=species:S:1:pos:R:3 relative_energy_eV=-0.24421297318622237 branch=right pbc="F F F"
O       -2.13688570       2.10229709       0.41474271
C       -1.16436063       1.48076582       0.77088759
O       -0.34809513       1.88809625       1.74331909
C       -0.73761732       0.15388466       0.13680399
O        0.56936072       0.37973513      -0.47339445
P        1.80520149      -0.27039994       0.34221628
O        1.66310860      -0.00767928       1.80659664
O        1.91714613      -1.78436677      -0.16344772
O        3.12154557       0.32285741      -0.35805162
C       -1.64598469      -0.35820413      -0.93943784
O       -1.12086921      -1.63752278      -1.32688706
H        0.37580663       1.22111825       1.90271295
H       -0.64740117      -0.60049232       0.92497884
H        1.06741088      -2.14215204      -0.48915185
H        3.32040091       1.22354844      -0.05433072
H       -2.66467211      -0.44138532      -0.55591685
H       -1.63806073       0.35041320      -1.76627499
H       -1.69769216      -2.00851487      -2.00589486
18
Properties=species:S:1:pos:R:3 relative_energy_eV=-0.24635187849708018 branch=right pbc="F F F"
O       -2.14625372       2.09271038       0.41605010
C       -1.16765735       1.47849587       0.76962660
O       -0.35118240       1.88996837       1.73992462
C       -0.73532620       0.15529560       0.13478228
O        0.56997826       0.38449469      -0.47475081
P        1.80264239      -0.26583642       0.34180260
O        1.66175610      -0.00019140       1.80628490
O        1.91224434      -1.78313026      -0.15865073
O        3.12300876       0.31598255      -0.35669367
C       -1.64347683      -0.35840569      -0.93939776
O       -1.11708077      -1.63535478      -1.33130501
H        0.37177109       1.22201535       1.90437721
H       -0.64194039      -0.59737795       0.92365558
H        1.06712818      -2.14080958      -0.49268766
H        3.33141639       1.21394653      -0.05385393
H       -2.65898553      -0.44451772      -0.54905695
H       -1.64342078       0.35322691      -1.76413267
H       -1.69627923      -2.00851389      -2.00650460
18
Properties=species:S:1:pos:R:3 relative_energy_eV=-0.24969635003435542 branch=right pbc="F F F"
O       -2.16670663       2.07516904       0.42720027
C       -1.17719478       1.47384180       0.77280000
O       -0.35774739       1.89308000       1.73758501
C       -0.73357508       0.15901589       0.13279916
O        0.57048537       0.39935096      -0.47659666
P        1.79808510      -0.25918677       0.34244242
O        1.65965870       0.01450005       1.80554836
O        1.89951674      -1.78018450      -0.14564241
O        3.12748308       0.29882770      -0.35766598
C       -1.64004409      -0.35934213      -0.93951313
O       -1.10979734      -1.63390358      -1.33342966
H        0.36986524       1.22894580       1.90296490
H       -0.63446753      -0.59469547       0.91925186
H        1.06034983      -2.13042920      -0.50301469
H        3.35666007       1.19290647      -0.06003691
H       -2.65139881      -0.44889777      -0.54051062
H       -1.64944034       0.35247461      -1.76363740
H       -1.68338949      -2.00947469      -2.01107451
18
Properties=species:S:1:pos:R:3 relative_energy_eV=-0.2544877123909828 branch=right pbc="F F F"
O       -2.19587655       2.05021637       0.44881059
C       -1.18901546       1.46722612       0.77958077
O       -0.36815085       1.89601426       1.73733434
C       -0.72940823       0.16367434       0.12962962
O        0.57229045       0.41648620      -0.47694115
P        1.79435139      -0.24823496       0.34307421
O        1.66431736       0.04406382       1.80424524
O        1.86929408      -1.77911258      -0.13016699
O        3.13106078       0.27576152      -0.36520176
C       -1.63377562      -0.36110440      -0.94033105
O       -1.09065375      -1.62918261      -1.33896192
H        0.36789444       1.23941773       1.89575225
H       -0.62237322      -0.59314501       0.91235591
H        1.03534407      -2.11042012      -0.51177237
H        3.38993332       1.16055828      -0.06750607
H       -2.64062321      -0.46050103      -0.52935264
H       -1.65494610       0.35315772      -1.76342935
H       -1.66131956      -2.01287791      -2.01764971
18
Properties=species:S:1:pos:R:3 relative_energy_eV=-0.26002732533743256 branch=right pbc="F F F"
O       -2.22060691       2.02709224       0.47644449
C       -1.20002560       1.45953456       0.79062712
O       -0.37721225       1.89542293       1.74232221
C       -0.72744792       0.16663406       0.12720226
O        0.57449349       0.43058650      -0.47681938
P        1.79424478      -0.24087824       0.34629559
O        1.67175291       0.07244473       1.80314523
O        1.84487535      -1.77674021      -0.10889499
O        3.13398037       0.25550016      -0.37658546
C       -1.63134711      -0.36236376      -0.94216269
O       -1.08165527      -1.62919015      -1.33908014
H        0.37303822       1.25207995       1.88484187
H       -0.61764306      -0.59727223       0.90338257
H        1.01426319      -2.08514399      -0.51727275
H        3.41772794       1.13256717      -0.08194403
H       -2.63497590      -0.46308874      -0.52270017
H       -1.65596011       0.34752490      -1.76853970
H       -1.63915809      -2.01271258      -2.03079214
18
Properties=species:S:1:pos:R:3 relative_energy_eV=-0.26521743090779637 branch=right pbc="F F F"
O       -2.23881480       2.00810276       0.50356074
C       -1.20674335       1.45313664       0.80114298
O       -0.38264671       1.89371582       1.74849233
C       -0.72473411       0.16732810       0.12485851
O        0.57788741       0.43733999      -0.47496187
P        1.79808376      -0.23708952       0.34931886
O        1.68572618       0.09752217       1.80154720
O        1.81980982      -1.77584373      -0.09157166
O        3.13339233       0.24316717      -0.39162960
C       -1.62916388      -0.36392685      -0.94504655
O       -1.07293546      -1.62953559      -1.34256402
H        0.37956027       1.26404078       1.87276919
H       -0.61564256      -0.60326324       0.89586810
H        0.98879539      -2.05961613      -0.51285816
H        3.43548672       1.11226375      -0.09225462
H       -2.63147659      -0.46794536      -0.52004455
H       -1.65485979       0.34293947      -1.77425580
H       -1.62337989      -2.01033931      -2.04290122
18
Properties=species:S:1:pos:R:3 relative_energy_eV=-0.26874699648760725 branch=right pbc="F F F"
O       -2.25303986       1.99212364       0.52230665
C       -1.21299519       1.44793552       0.80961885
O       -0.38946819       1.89245611       1.75527195
C       -0.72295051       0.16715482       0.12538256
O        0.58009863       0.44256199      -0.47087896
P        1.80154304      -0.23561675       0.35101164
O        1.70199922       0.11587779       1.79941329
O        1.79722521      -1.77637648      -0.07732042
O        3.13294135       0.23364412      -0.40766223
C       -1.62513822      -0.36538620      -0.94700153
O       -1.06130753      -1.62840137      -1.34862349
H        0.38476438       1.27602603       1.86636355
H       -0.61509534      -0.60665742       0.89441690
H        0.96145759      -2.03787457      -0.51034408
H        3.44762093       1.09671992      -0.10265709
H       -2.62698270      -0.47577595      -0.52219506
H       -1.65314177       0.34179123      -1.77617755
H       -1.60918571      -2.00820573      -2.05145518
18
Properties=species:S:1:pos:R:3 relative_energy_eV=-0.2723456801359134 branch=right pbc="F F F"
O       -2.25534186       1.98014006       0.53134264
C       -1.21289809       1.44278665       0.81291497
O       -0.39366795       1.88865572       1.76154846
C       -0.72026426       0.16510834       0.12314606
O        0.58305479       0.43842494      -0.47084378
P        1.80774750      -0.23852651       0.35008273
O        1.72096596       0.12308964       1.79475631
O        1.78883783      -1.77807915      -0.06536595
O        3.12720781       0.23732597      -0.42222687
C       -1.62468795      -0.36351178      -0.95069898
O       -1.06170273      -1.62676392      -1.35481179
H        0.38924456       1.28665005       1.86390095
H       -0.61471151      -0.61032533       0.89161274
H        0.95221061      -2.02747134      -0.49521239
H        3.44417458       1.09246282      -0.09919946
H       -2.62620997      -0.47575312      -0.52584364
H       -1.65519083       0.34349195      -1.77956572
H       -1.61042240      -2.00570862      -2.05606649
18
Properties=species:S:1:pos:R:3 relative_energy_eV=-0.2750957491916779 branch=right pbc="F F F"
O       -2.28681764       1.95225492       0.55368103
C       -1.22689424       1.43566069       0.82184271
O       -0.40690910       1.89323103       1.76622500
C       -0.71631711       0.16826587       0.12472352
O        0.58482731       0.45565887      -0.46464900
P        1.80783673      -0.23544745       0.34781155
O        1.74650438       0.14592416       1.78978043
O        1.74797766      -1.78093496      -0.04634175
O        3.12577641       0.21837830      -0.44551059
C       -1.61340820      -0.36610389      -0.95316431
O       -1.03210297      -1.61848208      -1.36976888
H        0.39204181       1.31053120       1.86084209
H       -0.60421285      -0.60732281       0.89251169
H        0.90788518      -2.00224460      -0.49737770
H        3.46942778       1.06171761      -0.10478533
H       -2.61333661      -0.50081346      -0.53095732
H       -1.65767778       0.34786062      -1.77574681
H       -1.58625374      -2.00613823      -2.05964674
18
Properties=species:S:1:pos:R:3 relative_energy_eV=-0.27877722186167375 branch=right pbc="F F F"
O       -2.27999776       1.95224138       0.54221584
C       -1.22628490       1.43388896       0.81983527
O       -0.41348262       1.89141659       1.77050718
C       -0.71781035       0.16682574       0.12707159
O        0.58265899       0.44697684      -0.46210634
P        1.80823124      -0.23650073       0.34785923
O        1.75358080       0.14065643       1.79045153
O        1.75858648      -1.78189055      -0.04232494
O        3.12279232       0.22288691      -0.44821356
C       -1.61362514      -0.36321323      -0.95370678
O       -1.03595213      -1.61489483      -1.37209365
H        0.38930869       1.31324028       1.87117411
H       -0.60738672      -0.60547082       0.89695401
H        0.92417264      -2.01184577      -0.50031548
H        3.45884172       1.06501222      -0.10933436
H       -2.61398313      -0.49675224      -0.53645456
H       -1.65818185       0.35438198      -1.77383829
H       -1.59312111      -2.00496347      -2.05821120
18
Properties=species:S:1:pos:R:3 relative_energy_eV=-0.2815108030445117 branch=right pbc="F F F"
O       -2.28103427       1.95063959       0.53432315
C       -1.22837916       1.43372540       0.81670670
O       -0.41865612       1.89616755       1.76864271
C       -0.71813572       0.16925064       0.12702317
O        0.58128975       0.45204385      -0.46346336
P        1.80555613      -0.23536412       0.34429662
O        1.75574990       0.13258611       1.78825977
O        1.76139061      -1.78316757      -0.03966770
O        3.11806985       0.22304498      -0.45005451
C       -1.61311785      -0.36102688      -0.95352730
O       -1.03099234      -1.60841410      -1.37354333
H        0.37978395       1.31836731       1.88197866
H       -0.60281113      -0.60136132       0.89664418
H        0.93910123      -2.02471362      -0.50501876
H        3.46191496       1.06007669      -0.10292531
H       -2.61222791      -0.50175980      -0.54017420
H       -1.66518274       0.35895783      -1.77095140
H       -1.59397179      -2.00705720      -2.04907954
18
Properties=species:S:1:pos:R:3 relative_energy_eV=-0.2829867486652802 branch=right pbc="F F F"
O       -2.29405814       1.94011149       0.54289119
C       -1.23538236       1.43085409       0.82143379
O       -0.42760672       1.89999851       1.77178204
C       -0.71878173       0.17124039       0.12910803
O        0.58017414       0.45853278      -0.45861523
P        1.80449030      -0.23302786       0.34466545
O        1.76649466       0.14134083       1.78863575
O        1.74875394      -1.78369631      -0.02813981
O        3.11448527       0.21316219      -0.46009276
C       -1.60891922      -0.36049996      -0.95503167
O       -1.01665174      -1.60168593      -1.37938365
H        0.37886291       1.32990849       1.88314215
H       -0.60203785      -0.59979911       0.89735450
H        0.93460075      -2.01930285      -0.51281003
H        3.47171947       1.04258159      -0.11255801
H       -2.60899898      -0.51364732      -0.54517332
H       -1.66531685       0.36196150      -1.76940643
H       -1.58348004      -2.00603760      -2.04833251
18
Properties=species:S:1:pos:R:3 relative_energy_eV=-0.2841924270214804 branch=right pbc="F F F"
O       -2.30772612       1.92876171       0.55727282
C       -1.24355013       1.42743661       0.82902646
O       -0.43405792       1.90380787       1.77534063
C       -0.72040572       0.17267872       0.13087980
O        0.57938405       0.46621917      -0.45300088
P        1.80457713      -0.22820204       0.34620066
O        1.77723087       0.15205710       1.78857297
O        1.73303877      -1.78318719      -0.01369526
O        3.11104118       0.20270891      -0.47386314
C       -1.60637559      -0.36111918      -0.95642636
O       -1.00236181      -1.59608930      -1.38235476
H        0.37688574       1.33995734       1.88364057
H       -0.60381347      -0.60210544       0.89546935
H        0.92733306      -2.00786246      -0.51887343
H        3.48837509       1.02344519      -0.12669733
H       -2.60590140      -0.52385294      -0.55175948
H       -1.66684655       0.36176532      -1.77089967
H       -1.56847883      -2.00442495      -2.04936352
18
Properties=species:S:1:pos:R:3 relative_energy_eV=-0.2848579701676499 branch=right pbc="F F F"
O       -2.31209318       1.92796405       0.56579869
C       -1.24510900       1.42786794       0.83212016
O       -0.43472508       1.90542122       1.77659525
C       -0.72240937       0.17332022       0.13087908
O        0.57860346       0.46669190      -0.44987084
P        1.80544972      -0.22749331       0.34798069
O        1.78046099       0.15416959       1.78978764
O        1.73108993      -1.78209812      -0.00764723
O        3.10816930       0.20001868      -0.47770931
C       -1.60712001      -0.36117497      -0.95783406
O       -0.99982619      -1.59457943      -1.38098019
H        0.37558572       1.34185768       1.88247074
H       -0.60868471      -0.60363675       0.89377496
H        0.93160381      -2.00273500      -0.52115167
H        3.49521304       1.01675313      -0.13558547
H       -2.60790567      -0.52695697      -0.55538905
H       -1.66703852       0.35926808      -1.77404855
H       -1.56291568      -2.00266377      -2.04972137
18
Properties=species:S:1:pos:R:3 relative_energy_eV=-0.2851405469700694 branch=right pbc="F F F"
O       -2.31170956       1.92779688       0.56852487
C       -1.24627502       1.42746696       0.83400108
O       -0.43574900       1.90375956       1.77880060
C       -0.72393487       0.17296837       0.13148987
O        0.57773038       0.46625426      -0.44844480
P        1.80602093      -0.22685303       0.34854474
O        1.78332821       0.15783336       1.78992131
O        1.72880107      -1.78246993      -0.00505353
O        3.10563982       0.19986774      -0.48228729
C       -1.60748600      -0.36085617      -0.95844986
O       -0.99738087      -1.59388701      -1.37960998
H        0.37562269       1.34114156       1.88331113
H       -0.61221626      -0.60501895       0.89380720
H        0.93086503      -1.99944161      -0.52140180
H        3.49815376       1.01449898      -0.14047087
H       -2.60862151      -0.52623830      -0.55773630
H       -1.66668391       0.35849018      -1.77547146
H       -1.55775619      -2.00331877      -2.05000546
18
Properties=species:S:1:pos:R:3 relative_energy_eV=-0.2854727348094457 branch=right pbc="F F F"
O       -2.31217516       1.92805661       0.56995769
C       -1.24646498       1.42770443       0.83401517
O       -0.43453706       1.90279989       1.77898686
C       -0.72447879       0.17270309       0.13130420
O        0.57736926       0.46490875      -0.44851545
P        1.80626687      -0.22670553       0.34892302
O        1.78330894       0.15840206       1.78913024
O        1.72849880      -1.78277017      -0.00378563
O        3.10425640       0.20125438      -0.48377929
C       -1.60784124      -0.36096658      -0.95871942
O       -0.99767058      -1.59436676      -1.37791136
H        0.37634711       1.33996680       1.88416099
H       -0.61353949      -0.60516396       0.89452374
H        0.93045451      -1.99671562      -0.52112407
H        3.49908072       1.01372698      -0.14195226
H       -2.60900239      -0.52456044      -0.55859193
H       -1.66671424       0.35784174      -1.77660480
H       -1.55480991      -2.00412169      -2.05054824
18
Properties=species:S:1:pos:R:3 relative_energy_eV=-0.28599040951303323 branch=right pbc="F F F"
O       -2.31236226       1.93004331       0.57092954
C       -1.24624800       1.42918592       0.83300234
O       -0.43429382       1.90111216       1.77959327
C       -0.72552556       0.17349185       0.13155097
O        0.57574272       0.46304598      -0.44869408
P        1.80492304      -0.22757770       0.34866912
O        1.78352847       0.16056992       1.78794898
O        1.72657855      -1.78321725      -0.00286738
O        3.10041000       0.20263442      -0.48726911
C       -1.60756582      -0.36111806      -0.95883870
O       -0.99421646      -1.59421570      -1.37573495
H        0.37480440       1.33672823       1.88661993
H       -0.61523049      -0.60244733       0.89728383
H        0.92926609      -1.99339443      -0.52370464
H        3.50152747       1.01115655      -0.14342892
H       -2.60928331      -0.52436456      -0.55962342
H       -1.66644685       0.35772424      -1.77671368
H       -1.54725924      -2.00736367      -2.04925366
18
Properties=species:S:1:pos:R:3 relative_energy_eV=-0.28647279666984105 branch=right pbc="F F F"
O       -2.31142425       1.93345746       0.56944232
C       -1.24577736       1.43072284       0.83155605
O       -0.43130362       1.90129288       1.77723342
C       -0.72669061       0.17360279       0.13258822
O        0.57408951       0.46164383      -0.44993880
P        1.80338273      -0.22814761       0.34747289
O        1.78203171       0.15944130       1.78681523
O        1.72630768      -1.78410540      -0.00496211
O        3.09682907       0.20647552      -0.48822240
C       -1.60743359      -0.36154608      -0.95822211
O       -0.99362147      -1.59457589      -1.37304895
H        0.37563394       1.33291242       1.88713414
H       -0.61571442      -0.60047354       0.90027974
H        0.92938105      -1.99403976      -0.52566577
H        3.49935221       1.01146150      -0.13943135
H       -2.60999208      -0.52352325      -0.56045289
H       -1.66392071       0.35725736      -1.77569942
H       -1.54278087      -2.00986258      -2.04740880
18
Properties=species:S:1:pos:R:3 relative_energy_eV=-0.2870437341189245 branch=right pbc="F F F"
O       -2.31144221       1.93619286       0.56904551
C       -1.24585331       1.43248313       0.83098218
O       -0.42992062       1.90366345       1.77494198
C       -0.72771703       0.17445813       0.13415182
O        0.57203305       0.46173691      -0.45098655
P        1.80099677      -0.22821754       0.34579120
O        1.78066484       0.15803194       1.78549345
O        1.72357349      -1.78419856      -0.00607668
O        3.09338465       0.20839378      -0.49031180
C       -1.60705885      -0.36279214      -0.95683881
O       -0.99093458      -1.59505933      -1.37032113
H        0.37415480       1.33078906       1.88731227
H       -0.61470199      -0.59712392       0.90389741
H        0.92861857      -1.99364513      -0.53131918
H        3.49995465       1.00909283      -0.13529541
H       -2.61036025      -0.52522994      -0.56101189
H       -1.66114680       0.35631264      -1.77428401
H       -1.53589623      -2.01289451      -2.04570095
18
Properties=species:S:1:pos:R:3 relative_energy_eV=-0.28775946190944524 branch=right pbc="F F F"
O       -2.31155231       1.93872338       0.56904129
C       -1.24630818       1.43416982       0.83131848
O       -0.42718384       1.90859471       1.77082518
C       -0.72906242       0.17441226       0.13680768
O        0.56969424       0.46210978      -0.45144015
P        1.79868962      -0.22818938       0.34378232
O        1.77999670       0.15462531       1.78489880
O        1.72000185      -1.78367434      -0.00859998
O        3.09009621       0.21108685      -0.49232485
C       -1.60711068      -0.36532438      -0.95458088
O       -0.98990138      -1.59743731      -1.36696363
H        0.37347338       1.33062975       1.88534708
H       -0.61297167      -0.59440232       0.90840551
H        0.92783332      -1.99229556      -0.53838733
H        3.49931392       1.00679997      -0.12864280
H       -2.61135645      -0.52679403      -0.56141965
H       -1.65550538       0.35369958      -1.77255657
H       -1.52979799      -2.01474061      -2.04604109
18
Properties=species:S:1:pos:R:3 relative_energy_eV=-0.28846675959721324 branch=right pbc="F F F"
O       -2.31334301       1.93783801       0.57113707
C       -1.24741718       1.43472376       0.83245777
O       -0.42648652       1.91383730       1.76729661
C       -0.72965836       0.17399922       0.13894617
O        0.56817295       0.46396166      -0.45099450
P        1.79745079      -0.22748272       0.34246098
O        1.78075601       0.15117048       1.78454928
O        1.71491075      -1.78264707      -0.00921288
O        3.08767787       0.21241828      -0.49460818
C       -1.60694135      -0.36825825      -0.95233493
O       -0.99076545      -1.60153630      -1.36249768
H        0.37340165       1.33447332       1.88175584
H       -0.61078719      -0.59273736       0.91168364
H        0.92612889      -1.98756625      -0.54618179
H        3.50118956       1.00302773      -0.12302586
H       -2.61206615      -0.52775583      -0.56028263
H       -1.65009486       0.34943337      -1.77199596
H       -1.52377938      -2.01490614      -2.04968352
18
Properties=species:S:1:pos:R:3 relative_energy_eV=-0.2892614176416828 branch=right pbc="F F F"
O       -2.31584239       1.93510687       0.57261094
C       -1.24907354       1.43463846       0.83318381
O       -0.42591910       1.91995137       1.76292124
C       -0.73003196       0.17252227       0.14146575
O        0.56728277       0.46579809      -0.44827554
P        1.79720988      -0.22730596       0.34241324
O        1.78302159       0.14683722       1.78600350
O        1.71039959      -1.78107935      -0.01122579
O        3.08639523       0.21406845      -0.49600563
C       -1.60689608      -0.37214372      -0.94960292
O       -0.99411747      -1.60833796      -1.35779815
H        0.37347092       1.34135744       1.87739431
H       -0.60913463      -0.59267062       0.91524024
H        0.92574943      -1.98133873      -0.55508044
H        3.50308766       0.99969265      -0.11785080
H       -2.61261480      -0.52695658      -0.55824416
H       -1.64417097       0.34427965      -1.77111895
H       -1.52046701      -2.01242667      -2.05656116
18
Properties=species:S:1:pos:R:3 relative_energy_eV=-0.2899172416946385 branch=right pbc="F F F"
O       -2.32108627       1.92855108       0.57525322
C       -1.25173227       1.43337596       0.83327616
O       -0.42851338       1.92418597       1.75990699
C       -0.72937025       0.17169150       0.14268765
O        0.56762082       0.46931314      -0.44446018
P        1.79798010      -0.22682493       0.34330958
O        1.78687979       0.14462067       1.78704653
O        1.70456325      -1.78013090      -0.01058872
O        3.08515457       0.21423885      -0.49810758
C       -1.60562269      -0.37484519      -0.94773212
O       -0.99641580      -1.61416294      -1.35308976
H        0.37377414       1.35055046       1.87275640
H       -0.60833657      -0.59293617       0.91687968
H        0.92444457      -1.97339980      -0.56342749
H        3.50877894       0.99404654      -0.11473881
H       -2.61171740      -0.52681099      -0.55529649
H       -1.64191339       0.33962395      -1.77080793
H       -1.51613882      -2.00909468      -2.06339757
18
Properties=species:S:1:pos:R:3 relative_energy_eV=-0.29043402052411693 branch=right pbc="F F F"
O       -2.32489527       1.92359348       0.57410385
C       -1.25379511       1.43254611       0.83139872
O       -0.43103397       1.92706083       1.75713366
C       -0.72863581       0.17121034       0.14350548
O        0.56852240       0.47145967      -0.44027387
P        1.79896602      -0.22773031       0.34475988
O        1.78974096       0.14252477       1.78872160
O        1.70241101      -1.77990314      -0.01246371
O        3.08498040       0.21515864      -0.49793598
C       -1.60442593      -0.37636356      -0.94619065
O       -0.99743459      -1.61769682      -1.35082059
H        0.37280024       1.35736354       1.86984587
H       -0.60871705      -0.59303912       0.91858623
H        0.92568723      -1.96971482      -0.56997867
H        3.51260913       0.99057173      -0.11196940
H       -2.61027966      -0.52689035      -0.55296015
H       -1.64297908       0.33781838      -1.76938069
H       -1.51517144      -2.00597718      -2.06661198
18
Properties=species:S:1:pos:R:3 relative_energy_eV=-0.29077226408116985 branch=right pbc="F F F"
O       -2.32937660       1.91909217       0.57371890
C       -1.25618230       1.43188597       0.82983178
O       -0.43427500       1.92858923       1.75567123
C       -0.72796094       0.17199534       0.14374492
O        0.56919432       0.47376877      -0.43752204
P        1.79935145      -0.22838391       0.34535224
O        1.79205233       0.14265767       1.78886638
O        1.69951956      -1.78048867      -0.01288705
O        3.08405658       0.21505533      -0.49910199
C       -1.60294729      -0.37655045      -0.94536673
O       -0.99484444      -1.61760034      -1.34921638
H        0.37148287       1.36227782       1.86777383
H       -0.60906846      -0.59178214       0.91954902
H        0.92526314      -1.96672520      -0.57541156
H        3.51773107       0.98528389      -0.10945940
H       -2.60843989      -0.52900648      -0.55156299
H       -1.64605359       0.33700842      -1.76834853
H       -1.51115317      -2.00508550      -2.06616199
18
Properties=species:S:1:pos:R:3 relative_energy_eV=-0.2910394952814386 branch=right pbc="F F F"
O       -2.32967241       1.91928981       0.56980946
C       -1.25647029       1.43262956       0.82712896
O       -0.43546903       1.92978499       1.75370879
C       -0.72753513       0.17280690       0.14375856
O        0.56959015       0.47374417      -0.43708569
P        1.79924872      -0.22989033       0.34511910
O        1.79037105       0.14002047       1.78881538
O        1.70115073      -1.78127708      -0.01765347
O        3.08437710       0.21719716      -0.49680881
C       -1.60285165      -0.37662036      -0.94407933
O       -0.99426527      -1.61743764      -1.34682952
H        0.37006862       1.36361212       1.86627173
H       -0.60906056      -0.58969980       0.92093205
H        0.92693104      -1.96748286      -0.57961817
H        3.51876473       0.98434163      -0.10355911
H       -2.60797773      -0.52964328      -0.54957335
H       -1.64896076       0.33608910      -1.76745468
H       -1.50988967      -2.00547275      -2.06341223
18
Properties=species:S:1:pos:R:3 relative_energy_eV=-0.29141615133630694 branch=right pbc="F F F"
O       -2.33118442       1.91941446       0.56636708
C       -1.25750041       1.43385606       0.82468317
O       -0.43631015       1.93266761       1.75073964
C       -0.72735974       0.17430031       0.14400555
O        0.56951554       0.47435640      -0.43747522
P        1.79849151      -0.23152216       0.34386707
O        1.78801495       0.13694195       1.78809645
O        1.70098342      -1.78203516      -0.02423224
O        3.08453529       0.21926427      -0.49498047
C       -1.60291073      -0.37755470      -0.94206786
O       -0.99173407      -1.61727047      -1.34264666
H        0.36883956       1.36649680       1.86368527
H       -0.60806677      -0.58621253       0.92296227
H        0.92580800      -1.96551340      -0.58658799
H        3.52184880       0.98063484      -0.09365277
H       -2.60757009      -0.53217807      -0.54703727
H       -1.65213660       0.33305373      -1.76684690
H       -1.50491446      -2.00670833      -2.05940939
18
Properties=species:S:1:pos:R:3 relative_energy_eV=-0.29190995727549307 branch=right pbc="F F F"
O       -2.32804570       1.92417054       0.55882188
C       -1.25577144       1.43696050       0.82046764
O       -0.43509978       1.93627381       1.74645279
C       -0.72704611       0.17575342       0.14354340
O        0.56936466       0.47268540      -0.44106894
P        1.79746986      -0.23386356       0.34139147
O        1.78064691       0.12931805       1.78698942
O        1.70509427      -1.78245136      -0.03757759
O        3.08704917       0.22434895      -0.48829709
C       -1.60483119      -0.37939468      -0.93887662
O       -0.99268463      -1.61919085      -1.33537512
H        0.36827406       1.36770502       1.86070480
H       -0.60620992      -0.58153219       0.92519015
H        0.92519612      -1.96464765      -0.59397295
H        3.52225836       0.98089945      -0.07614569
H       -2.60899709      -0.53350111      -0.54212315
H       -1.65600241       0.32736329      -1.76693113
H       -1.50231574      -2.00890553      -2.05372344
18
Properties=species:S:1:pos:R:3 relative_energy_eV=-0.29235088884161087 branch=right pbc="F F F"
O       -2.32455704       1.92899223       0.55333007
C       -1.25367007       1.44015119       0.81765974
O       -0.43217263       1.94045359       1.74260501
C       -0.72709917       0.17669894       0.14292200
O        0.56883079       0.47107525      -0.44555937
P        1.79651618      -0.23517583       0.33863894
O        1.77392880       0.12279087       1.78593572
O        1.70775534      -1.78163285      -0.04982868
O        3.09000236       0.22832321      -0.48221954
C       -1.60720422      -0.38216719      -0.93605188
O       -0.99413366      -1.62250544      -1.32846203
H        0.36910787       1.36939015       1.85873928
H       -0.60426188      -0.57811672       0.92650985
H        0.92203023      -1.96098856      -0.60025665
H        3.52333586       0.98059605      -0.05916744
H       -2.61100281      -0.53555250      -0.53783559
H       -1.65904754       0.32056774      -1.76772888
H       -1.50000923      -2.01090868      -2.04976067
18
Properties=species:S:1:pos:R:3 relative_energy_eV=-0.2926365445564443 branch=right pbc="F F F"
O       -2.32011671       1.93351292       0.54999418
C       -1.25065325       1.44256866       0.81591534
O       -0.42933926       1.94218008       1.74102930
C       -0.72715054       0.17666296       0.14177646
O        0.56847923       0.46898500      -0.44962017
P        1.79623414      -0.23503123       0.33703309
O        1.76922520       0.11927828       1.78529072
O        1.71058345      -1.78004999      -0.05699236
O        3.09285336       0.23098103      -0.47743290
C       -1.60948482      -0.38411725      -0.93478718
O       -0.99747439      -1.62592756      -1.32463527
H        0.37063360       1.36903701       1.85918797
H       -0.60371411      -0.57733038       0.92600178
H        0.92069694      -1.95899595      -0.60186110
H        3.52324822       0.98225903      -0.04900030
H       -2.61289148      -0.53596381      -0.53499507
H       -1.66122602       0.31608343      -1.76881773
H       -1.50155455      -2.01214072      -2.04861680
18
Properties=species:S:1:pos:R:3 relative_energy_eV=-0.2928317395490012 branch=right pbc="F F F"
O       -2.31801883       1.93532350       0.54981919
C       -1.24902388       1.44371200       0.81560439
O       -0.42716882       1.94291084       1.74069480
C       -0.72741078       0.17646483       0.14087977
O        0.56810058       0.46833415      -0.45175577
P        1.79615949      -0.23381817       0.33635303
O        1.76821292       0.11993308       1.78482543
O        1.71061290      -1.77828499      -0.05838622
O        3.09406693       0.23154924      -0.47598327
C       -1.61049662      -0.38531704      -0.93488222
O       -0.99883428      -1.62792352      -1.32410766
H        0.37197887       1.36879230       1.86081192
H       -0.60432807      -0.57800140       0.92479620
H        0.91956126      -1.95700061      -0.60174715
H        3.52460149       0.98166035      -0.04491499
H       -2.61349831      -0.53749811      -0.53391333
H       -1.66317305       0.31411951      -1.76956206
H       -1.50299282      -2.01296442      -2.04906212
18
Properties=species:S:1:pos:R:3 relative_energy_eV=-0.29299361105586286 branch=right pbc="F F F"
O       -2.31697012       1.93612975       0.55038942
C       -1.24785040       1.44435180       0.81528601
O       -0.42611283       1.94276127       1.74087234
C       -0.72757633       0.17640769       0.13983578
O        0.56782698       0.46829366      -0.45322839
P        1.79600864      -0.23223578       0.33596516
O        1.76849311       0.12289079       1.78407242
O        1.71000196      -1.77673156      -0.05740532
O        3.09463012       0.23179526      -0.47571482
C       -1.61103702      -0.38596805      -0.93540930
O       -0.99939984      -1.62889212      -1.32504506
H        0.37299077       1.36829490       1.86262931
H       -0.60550369      -0.57895077       0.92322254
H        0.91953351      -1.95613037      -0.60117812
H        3.52666884       0.97983022      -0.04232770
H       -2.61294957      -0.53916482      -0.53273164
H       -1.66591945       0.31332929      -1.76999519
H       -1.50448565      -2.01401965      -2.04976751
18
Properties=species:S:1:pos:R:3 relative_energy_eV=-0.29313622535119066 branch=right pbc="F F F"
O       -2.31682647       1.93649690       0.55096087
C       -1.24751893       1.44481977       0.81487117
O       -0.42517358       1.94290332       1.74042547
C       -0.72774817       0.17679179       0.13895954
O        0.56749158       0.46900988      -0.45397948
P        1.79553832      -0.23078856       0.33556085
O        1.76911422       0.12636019       1.78309101
O        1.70864605      -1.77551075      -0.05603825
O        3.09436078       0.23236662      -0.47605388
C       -1.61096245      -0.38639488      -0.93603231
O       -0.99826031      -1.62875201      -1.32673145
H        0.37360186       1.36811720       1.86375952
H       -0.60680634      -0.57917172       0.92199540
H        0.91966127      -1.95573349      -0.60156469
H        3.52930513       0.97645957      -0.03902882
H       -2.61164563      -0.54239029      -0.53107415
H       -1.66936622       0.31305867      -1.77009573
H       -1.50506203      -2.01565080      -2.04955515
18
Properties=species:S:1:pos:R:3 relative_energy_eV=-0.2932652318304463 branch=right pbc="F F F"
O       -2.31743900       1.93675382       0.55096422
C       -1.24770157       1.44523184       0.81404915
O       -0.42525278       1.94345335       1.73941582
C       -0.72787065       0.17746448       0.13820189
O        0.56715545       0.47017497      -0.45435611
P        1.79484372      -0.22992578       0.33486865
O        1.76959945       0.12901744       1.78187463
O        1.70743957      -1.77487426      -0.05533700
O        3.09349530       0.23377614      -0.47664848
C       -1.61091098      -0.38691897      -0.93610236
O       -0.99641964      -1.62810233      -1.32797414
H        0.37373209       1.36876251       1.86350138
H       -0.60756066      -0.57861283       0.92126833
H        0.92035937      -1.95570657      -0.60327028
H        3.53211252       0.97217666      -0.03386203
H       -2.60973866      -0.54542193      -0.52864332
H       -1.67309071       0.31246711      -1.76987055
H       -1.50440364      -2.01772440      -2.04860987
18
Properties=species:S:1:pos:R:3 relative_energy_eV=-0.293371781190217 branch=right pbc="F F F"
O       -2.31769791       1.93757443       0.54993933
C       -1.24825131       1.44561609       0.81328953
O       -0.42522251       1.94448255       1.73796993
C       -0.72799108       0.17807530       0.13788111
O        0.56685344       0.47113195      -0.45412819
P        1.79424176      -0.22967024       0.33441922
O        1.76952740       0.12950052       1.78122451
O        1.70699812      -1.77462019      -0.05598404
O        3.09258343       0.23574937      -0.47675410
C       -1.61074680      -0.38734541      -0.93602804
O       -0.99423516      -1.62691918      -1.32928273
H        0.37341164       1.36971699       1.86262458
H       -0.60797095      -0.57753009       0.92121893
H        0.92100133      -1.95590943      -0.60542969
H        3.53397527       0.96876631      -0.02896559
H       -2.60832084      -0.54878528      -0.52614737
H       -1.67609443       0.31199738      -1.76945637
H       -1.50371221      -2.01984000      -2.04692112
18
Properties=species:S:1:pos:R:3 relative_energy_eV=-0.2934874220263737 branch=right pbc="F F F"
O       -2.31833127       1.93849912       0.54825081
C       -1.24906127       1.44618773       0.81220471
O       -0.42609200       1.94628953       1.73615795
C       -0.72805268       0.17867903       0.13772944
O        0.56655899       0.47234592      -0.45379283
P        1.79369937      -0.22989971       0.33357137
O        1.76938900       0.12801390       1.78062221
O        1.70636935      -1.77460298      -0.05803309
O        3.09133060       0.23847474      -0.47728681
C       -1.61077683      -0.38838796      -0.93531126
O       -0.99164749      -1.62600158      -1.32978942
H        0.37269316       1.37198702       1.86076515
H       -0.60746299      -0.57597360       0.92175893
H        0.92102271      -1.95502293      -0.60849194
H        3.53641452       0.96485636      -0.02201743
H       -2.60689075      -0.55195137      -0.52338759
H       -1.67902656       0.31087819      -1.76868273
H       -1.50178662      -2.02238052      -2.04479757
18
Properties=species:S:1:pos:R:3 relative_energy_eV=-0.2936043729459925 branch=right pbc="F F F"
O       -2.31770212       1.94038040       0.54508981
C       -1.24961651       1.44665766       0.81125938
O       -0.42720495       1.94766204       1.73516620
C       -0.72812760       0.17865744       0.13785457
O        0.56645043       0.47273710      -0.45313833
P        1.79375225      -0.23032327       0.33333804
O        1.76898178       0.12479141       1.78109739
O        1.70774968      -1.77454880      -0.06069483
O        3.09068583       0.24127792      -0.47685502
C       -1.61102068      -0.38919518      -0.93478949
O       -0.98994862      -1.62477318      -1.33127814
H        0.37155282       1.37386392       1.85975884
H       -0.60718634      -0.57522060       0.92233367
H        0.92146803      -1.95449922      -0.61032540
H        3.53763818       0.96314401      -0.01792115
H       -2.60608061      -0.55440003      -0.52096924
H       -1.68125206       0.31049982      -1.76760072
H       -1.50179033      -2.02472066      -2.04285568
18
Properties=species:S:1:pos:R:3 relative_energy_eV=-0.29373524996844935 branch=right pbc="F F F"
O       -2.31706546       1.94252401       0.54113421
C       -1.25024388       1.44761832       0.80977755
O       -0.42880842       1.94955071       1.73414080
C       -0.72801685       0.17864469       0.13802906
O        0.56639761       0.47333977      -0.45260234
P        1.79396013      -0.23059846       0.33287675
O        1.76861057       0.12021196       1.78170213
O        1.70821297      -1.77410723      -0.06456711
O        3.08996320       0.24449122      -0.47716497
C       -1.61108174      -0.39063584      -0.93402565
O       -0.98764563      -1.62413130      -1.33248326
H        0.36990992       1.37653603       1.85915682
H       -0.60634049      -0.57412603       0.92333424
H        0.92051931      -1.95230753      -0.61257062
H        3.54049591       0.96081390      -0.01213938
H       -2.60538720      -0.55805664      -0.51850282
H       -1.68388637       0.30981913      -1.76600932
H       -1.50124443      -2.02759605      -2.04061620
18
Properties=species:S:1:pos:R:3 relative_energy_eV=-0.293875648498215 branch=right pbc="F F F"
O       -2.31546985       1.94491639       0.53649142
C       -1.25029353       1.44830896       0.80842158
O       -0.43097604       1.94967329       1.73507792
C       -0.72788057       0.17803946       0.13823854
O        0.56666910       0.47308977      -0.45218980
P        1.79484497      -0.23065021       0.33305691
O        1.76848153       0.11619057       1.78305358
O        1.71055432      -1.77355195      -0.06718866
O        3.08992752       0.24671653      -0.47693058
C       -1.61125662      -0.39143549      -0.93370207
O       -0.98704843      -1.62360937      -1.33465618
H        0.36806627       1.37750272       1.86039550
H       -0.60608501      -0.57457495       0.92380830
H        0.92050292      -1.95122229      -0.61215702
H        3.54230679       0.96125434      -0.01124275
H       -2.60493655      -0.55981927      -0.51732122
H       -1.68560211       0.31058988      -1.76418558
H       -1.50345568      -2.02942770      -2.03950001
18
Properties=species:S:1:pos:R:3 relative_energy_eV=-0.2939888830514974 branch=right pbc="F F F"
O       -2.31401135       1.94678573       0.53270281
C       -1.25017805       1.44890185       0.80717848
O       -0.43273378       1.94886444       1.73652330
C       -0.72769910       0.17763777       0.13834399
O        0.56693074       0.47272531      -0.45214156
P        1.79559545      -0.23025382       0.33331314
O        1.76850685       0.11430103       1.78398637
O        1.71230170      -1.77292646      -0.06849630
O        3.08991472       0.24826448      -0.47722487
C       -1.61118221      -0.39176439      -0.93362205
O       -0.98710397      -1.62360135      -1.33622432
H        0.36633507       1.37704846       1.86244763
H       -0.60607698      -0.57505654       0.92405536
H        0.92072427      -1.95079004      -0.61122397
H        3.54425501       0.96200101      -0.01151740
H       -2.60463322      -0.56134224      -0.51683070
H       -1.68670648       0.31149691      -1.76274231
H       -1.50588971      -2.03030142      -2.03905773
18
Properties=species:S:1:pos:R:3 relative_energy_eV=-0.294109150658187 branch=right pbc="F F F"
O       -2.31263072       1.94844064       0.52950401
C       -1.24995807       1.44927357       0.80615556
O       -0.43419723       1.94711728       1.73837343
C       -0.72766029       0.17735899       0.13836159
O        0.56707054       0.47223239      -0.45247463
P        1.79616303      -0.22959554       0.33346501
O        1.76861709       0.11439581       1.78441077
O        1.71420486      -1.77243178      -0.06850300
O        3.08972601       0.24970906      -0.47764282
C       -1.61119785      -0.39174155      -0.93359573
O       -0.98785267      -1.62387897      -1.33729363
H        0.36491803       1.37521017       1.86452025
H       -0.60620026      -0.57566198       0.92404069
H        0.92179761      -1.95135703      -0.60974261
H        3.54594427       0.96296631      -0.01252916
H       -2.60437231      -0.56220621      -0.51682830
H       -1.68731677       0.31248765      -1.76171282
H       -1.50870637      -2.03032800      -2.03903876
18
Properties=species:S:1:pos:R:3 relative_energy_eV=-0.2942525771322835 branch=right pbc="F F F"
O       -2.31119203       1.95028856       0.52608238
C       -1.24985219       1.44950047       0.80510500
O       -0.43565217       1.94481136       1.74025936
C       -0.72779892       0.17712641       0.13832895
O        0.56688107       0.47171291      -0.45323128
P        1.79651374      -0.22836601       0.33327799
O        1.76896265       0.11624172       1.78417005
O        1.71610487      -1.77178329      -0.06771153
O        3.08896876       0.25232241      -0.47878657
C       -1.61143941      -0.39180626      -0.93335810
O       -0.98896846      -1.62452542      -1.33773169
H        0.36335968       1.37245309       1.86643541
H       -0.60611893      -0.57605349       0.92399784
H        0.92372692      -1.95208729      -0.60863552
H        3.54864208       0.96276511      -0.01216320
H       -2.60426703      -0.56351613      -0.51659777
H       -1.68801320       0.31291098      -1.76086430
H       -1.51150860      -2.03000426      -2.03910722
18
Properties=species:S:1:pos:R:3 relative_energy_eV=-0.29447289877498406 branch=right pbc="F F F"
O       -2.30969214       1.95240445       0.52206011
C       -1.25006632       1.44937958       0.80407524
O       -0.43735491       1.94180228       1.74216362
C       -0.72825962       0.17671602       0.13826110
O        0.56610201       0.47121978      -0.45465421
P        1.79662921      -0.22610798       0.33248173
O        1.76985319       0.12054181       1.78292507
O        1.71802770      -1.77067129      -0.06564637
O        3.08732352       0.25700785      -0.48097857
C       -1.61219649      -0.39234507      -0.93273768
O       -0.99036737      -1.62563270      -1.33766675
H        0.36165832       1.36877603       1.86779367
H       -0.60542475      -0.57635539       0.92394516
H        0.92690379      -1.95245809      -0.60799710
H        3.55343076       0.96021221      -0.00934991
H       -2.60453509      -0.56565770      -0.51598104
H       -1.68922547       0.31256479      -1.76005380
H       -1.51445755      -2.02940574      -2.03917051
18
Properties=species:S:1:pos:R:3 relative_energy_eV=-0.29471877639662125 branch=right pbc="F F F"
O       -2.30869051       1.95367268       0.51863016
C       -1.25074269       1.44842827       0.80359375
O       -0.43906323       1.93886886       1.74344185
C       -0.72897625       0.17579435       0.13823686
O        0.56468218       0.47085726      -0.45648568
P        1.79653869      -0.22281606       0.33115406
O        1.77167693       0.12721414       1.78071476
O        1.71908971      -1.76898393      -0.06207659
O        3.08502155       0.26310490      -0.48434492
C       -1.61352212      -0.39353689      -0.93179946
O       -0.99182542      -1.62694104      -1.33716887
H        0.36023679       1.36552219       1.86797076
H       -0.60389632      -0.57682732       0.92387782
H        0.93072322      -1.95147898      -0.60821029
H        3.56004170       0.95454798      -0.00412472
H       -2.60558692      -0.56800124      -0.51504133
H       -1.69077747       0.31117685      -1.75937940
H       -1.51658103      -2.02861128      -2.03951905
18
Properties=species:S:1:pos:R:3 relative_energy_eV=-0.29491564611453214 branch=right pbc="F F F"
O       -2.30868504       1.95320276       0.51721088
C       -1.25169983       1.44673670       0.80398428
O       -0.44025760       1.93702732       1.74369610
C       -0.72965766       0.17441186       0.13830764
O        0.56313022       0.47078676      -0.45802500
P        1.79636189      -0.21947486       0.32988307
O        1.77390761       0.13408654       1.77841191
O        1.71870555      -1.76708162      -0.05790405
O        3.08314832       0.26802353      -0.48744182
C       -1.61495862      -0.39505982      -0.93101408
O       -0.99257507      -1.62772247      -1.33710642
H        0.35985815       1.36425822       1.86676496
H       -0.60194123      -0.57770102       0.92378227
H        0.93368871      -1.94917259      -0.60884045
H        3.56628389       0.94753776       0.00100175
H       -2.60725276      -0.56952581      -0.51433801
H       -1.69230405       0.30969183      -1.75883718
H       -1.51740361      -2.02803453      -2.04006619
18
Properties=species:S:1:pos:R:3 relative_energy_eV=-0.29502872088050935 branch=right pbc="F F F"
O       -2.30952835       1.95158100       0.51720668
C       -1.25255426       1.44531497       0.80441564
O       -0.44103403       1.93709282       1.74295966
C       -0.72998515       0.17318304       0.13841180
O        0.56210398       0.47115266      -0.45870738
P        1.79627358      -0.21722539       0.32909556
O        1.77569384       0.13814842       1.77705969
O        1.71725392      -1.76546740      -0.05540683
O        3.08229605       0.27044174      -0.48931872
C       -1.61584480      -0.39650979      -0.93054157
O       -0.99223528      -1.62777248      -1.33763837
H        0.36005900       1.36577011       1.86525784
H       -0.60058862      -0.57855919       0.92378753
H        0.93476797      -1.94613489      -0.61026046
H        3.57081756       0.94132738       0.00518525
H       -2.60840421      -0.57045474      -0.51348896
H       -1.69401253       0.30855471      -1.75812480
H       -1.51672970      -2.02845266      -2.04042289
18
Properties=species:S:1:pos:R:3 relative_energy_eV=-0.29505298046569806 branch=right pbc="F F F"
O       -2.31011263       1.95042400       0.51765822
C       -1.25281023       1.44473428       0.80459173
O       -0.44124498       1.93738004       1.74254667
C       -0.72998715       0.17260686       0.13845592
O        0.56185394       0.47136819      -0.45882532
P        1.79628341      -0.21643437       0.32901934
O        1.77617088       0.13931127       1.77683777
O        1.71633197      -1.76472657      -0.05460324
O        3.08248965       0.27041967      -0.48946071
C       -1.61602187      -0.39702815      -0.93057100
O       -0.99172619      -1.62741870      -1.33852633
H        0.36052406       1.36712733       1.86453507
H       -0.60019352      -0.57914786       0.92376637
H        0.93470206      -1.94480304      -0.61063207
H        3.57220632       0.93906992       0.00604470
H       -2.60881122      -0.57058862      -0.51332110
H       -1.69483383       0.30865633      -1.75756949
H       -1.51647166      -2.02896032      -2.04047682
18
Properties=species:S:1:pos:R:3 relative_energy_eV=-0.2950575856921205 branch=right pbc="F F F"
O       -2.31066638       1.94983242       0.51736424
C       -1.25313305       1.44465641       0.80426014
O       -0.44180807       1.93788511       1.74216321
C       -0.73000156       0.17244036       0.13844208
O        0.56164372       0.47179875      -0.45898734
P        1.79624664      -0.21579052       0.32875859
O        1.77652557       0.13992500       1.77662654
O        1.71552704      -1.76407750      -0.05454562
O        3.08231066       0.27094627      -0.48990921
C       -1.61606840      -0.39763442      -0.93038532
O       -0.99104887      -1.62731708      -1.33891964
H        0.36041675       1.36850712       1.86414227
H       -0.60002402      -0.57920811       0.92387297
H        0.93456477      -1.94337716      -0.61182432
H        3.57434873       0.93651910       0.00818132
H       -2.60861185      -0.57163290      -0.51256899
H       -1.69608939       0.30833500      -1.75693505
H       -1.51578321      -2.02981769      -2.04026620
18
Properties=species:S:1:pos:R:3 relative_energy_eV=-0.2950613440661982 branch=right pbc="F F F"
O       -2.31062908       1.94969173       0.51764656
C       -1.25298791       1.44463711       0.80433499
O       -0.44169860       1.93758707       1.74242906
C       -0.72994148       0.17246027       0.13843847
O        0.56177017       0.47167134      -0.45898331
P        1.79626990      -0.21590361       0.32895169
O        1.77625919       0.13988933       1.77681085
O        1.71565704      -1.76418118      -0.05442605
O        3.08256181       0.27034640      -0.48962179
C       -1.61595015      -0.39734097      -0.93055171
O       -0.99123220      -1.62718669      -1.33910662
H        0.36060214       1.36826818       1.86425625
H       -0.60014716      -0.57934265       0.92379438
H        0.93451225      -1.94386862      -0.61125211
H        3.57367626       0.93732072       0.00699562
H       -2.60859606      -0.57120507      -0.51296231
H       -1.69566495       0.30879001      -1.75693989
H       -1.51611211      -2.02964317      -2.04034437
18
Properties=species:S:1:pos:R:3 relative_energy_eV=-0.2950696290463384 branch=right pbc="F F F"
O       -2.31066779       1.94963926       0.51772354
C       -1.25296911       1.44466406       0.80432747
O       -0.44172154       1.93739952       1.74258312
C       -0.72992790       0.17253580       0.13841252
O        0.56179315       0.47168125      -0.45908757
P        1.79621924      -0.21587004       0.32897323
O        1.77603869       0.14002231       1.77681410
O        1.71566199      -1.76417466      -0.05436195
O        3.08260620       0.27020407      -0.48952391
C       -1.61589942      -0.39723656      -0.93059537
O       -0.99123101      -1.62714076      -1.33918446
H        0.36067553       1.36815307       1.86420335
H       -0.60012396      -0.57929887       0.92376302
H        0.93449322      -1.94406909      -0.61106192
H        3.57369245       0.93741052       0.00675692
H       -2.60851049      -0.57125814      -0.51307630
H       -1.69554697       0.30897790      -1.75691501
H       -1.51623324      -2.02964945      -2.04028108
18
Properties=species:S:1:pos:R:3 relative_energy_eV=-0.2950665627067792 branch=right pbc="F F F"
O       -2.31084480       1.94938951       0.51791459
C       -1.25301169       1.44462124       0.80436308
O       -0.44182283       1.93719907       1.74275437
C       -0.72992580       0.17261081       0.13838149
O        0.56177503       0.47176054      -0.45925965
P        1.79613075      -0.21571565       0.32895677
O        1.77580861       0.14040348       1.77675958
O        1.71556956      -1.76408650      -0.05419543
O        3.08257428       0.27013617      -0.48955675
C       -1.61584710      -0.39715101      -0.93062602
O       -0.99123374      -1.62708665      -1.33925373
H        0.36077211       1.36819029       1.86402351
H       -0.60003222      -0.57924436       0.92370899
H        0.93447274      -1.94417100      -0.61092934
H        3.57399007       0.93710597       0.00672031
H       -2.60837768      -0.57139202      -0.51317680
H       -1.69538283       0.30911701      -1.75688251
H       -1.51626543      -2.02969673      -2.04023277
18
Properties=species:S:1:pos:R:3 relative_energy_eV=-0.29507149052005843 branch=right pbc="F F F"
O       -2.31110811       1.94911316       0.51815635
C       -1.25312045       1.44458550       0.80442137
O       -0.44192700       1.93715539       1.74280234
C       -0.72993900       0.17270204       0.13834243
O        0.56172222       0.47192541      -0.45941835
P        1.79601362      -0.21554070       0.32888190
O        1.77561606       0.14072493       1.77665261
O        1.71539447      -1.76395430      -0.05414060
O        3.08250529       0.27019576      -0.48959521
C       -1.61581396      -0.39714900      -0.93064001
O       -0.99110636      -1.62705491      -1.33929799
H        0.36087510       1.36839732       1.86372615
H       -0.59988313      -0.57912920       0.92366460
H        0.93435286      -1.94412671      -0.61090837
H        3.57448629       0.93650539       0.00704919
H       -2.60825187      -0.57164514      -0.51321240
H       -1.69529715       0.30913297      -1.75689965
H       -1.51616981      -2.02984773      -2.04011463
18
Properties=species:S:1:pos:R:3 relative_energy_eV=-0.29507300881959964 branch=right pbc="F F F"
O       -2.31167487       1.94851587       0.51869241
C       -1.25337231       1.44447557       0.80457931
O       -0.44212518       1.93723423       1.74278914
C       -0.72997397       0.17283836       0.13828238
O        0.56161171       0.47225800      -0.45961807
P        1.79584061      -0.21523122       0.32872194
O        1.77543613       0.14120300       1.77646056
O        1.71511410      -1.76369449      -0.05416791
O        3.08232230       0.27045584      -0.48978319
C       -1.61575001      -0.39718066      -0.93067466
O       -0.99093905      -1.62707453      -1.33923783
H        0.36099889       1.36891338       1.86321692
H       -0.59964433      -0.57894844       0.92357499
H        0.93405858      -1.94395490      -0.61088455
H        3.57543246       0.93524236       0.00783576
H       -2.60807402      -0.57194600      -0.51331572
H       -1.69502958       0.30899817      -1.75704746
H       -1.51588241      -2.03011440      -2.03995422
18
Properties=species:S:1:pos:R:3 relative_energy_eV=-0.29509155858613667 branch=right pbc="F F F"
O       -2.31264768       1.94760662       0.51958147
C       -1.25383375       1.44434431       0.80482339
O       -0.44242598       1.93757551       1.74261538
C       -0.73003632       0.17307053       0.13818490
O        0.56144873       0.47284130      -0.45979435
P        1.79562300      -0.21482387       0.32842839
O        1.77532042       0.14158492       1.77617254
O        1.71478035      -1.76328250      -0.05454128
O        3.08202395       0.27105591      -0.49006408
C       -1.61562650      -0.39726988      -0.93076882
O       -0.99065194      -1.62723241      -1.33896203
H        0.36108298       1.36979000       1.86250126
H       -0.59934177      -0.57864410       0.92344691
H        0.93342590      -1.94367655      -0.61079081
H        3.57695195       0.93321396       0.00930504
H       -2.60788616      -0.57221244      -0.51357137
H       -1.69452505       0.30863535      -1.75744790
H       -1.51533302      -2.03058665      -2.03964876
18
Properties=species:S:1:pos:R:3 relative_energy_eV=-0.29511554969576537 branch=right pbc="F F F"
O       -2.31429255       1.94613185       0.52108520
C       -1.25462962       1.44412779       0.80521378
O       -0.44291381       1.93828913       1.74223244
C       -0.73013783       0.17341785       0.13803617
O        0.56123269       0.47376795      -0.45983762
P        1.79542878      -0.21428632       0.32794616
O        1.77547145       0.14172119       1.77579200
O        1.71455669      -1.76263781      -0.05554452
O        3.08152266       0.27229107      -0.49061554
C       -1.61536275      -0.39737293      -0.93101854
O       -0.99041670      -1.62771483      -1.33814468
H        0.36099265       1.37111830       1.86167091
H       -0.59907445      -0.57824843       0.92323020
H        0.93225056      -1.94339550      -0.61036868
H        3.57925424       0.93014630       0.01165666
H       -2.60777619      -0.57197788      -0.51427816
H       -1.69335449       0.30788129      -1.75837293
H       -1.51440214      -2.03126913      -2.03921278
18
Properties=species:S:1:pos:R:3 relative_energy_eV=-0.295134152063838 branch=right pbc="F F F"
O       -2.31621555       1.94455599       0.52282005
C       -1.25558330       1.44392985       0.80560100
O       -0.44345779       1.93922829       1.74170059
C       -0.73025192       0.17381230       0.13786223
O        0.56106631       0.47480835      -0.45958876
P        1.79540347      -0.21385412       0.32737669
O        1.77599587       0.14116049       1.77546427
O        1.71474604      -1.76193668      -0.05725524
O        3.08098200       0.27401913      -0.49123096
C       -1.61497092      -0.39741243      -0.93145822
O       -0.99037714      -1.62856705      -1.33674413
H        0.36061244       1.37237062       1.86115931
H       -0.59908441      -0.57789613       0.92298477
H        0.93069423      -1.94344075      -0.60944531
H        3.58166788       0.92710769       0.01421823
H       -2.60794053      -0.57081206      -0.51551997
H       -1.69158493       0.30689581      -1.75978487
H       -1.51335247      -2.03197959      -2.03868931
18
Properties=species:S:1:pos:R:3 relative_energy_eV=-0.2951482785429107 branch=right pbc="F F F"
O       -2.31722105       1.94385354       0.52369670
C       -1.25610520       1.44383535       0.80572577
O       -0.44375283       1.93972128       1.74140573
C       -0.73031302       0.17397493       0.13776332
O        0.56106946       0.47528325      -0.45913242
P        1.79564302      -0.21379006       0.32706103
O        1.77668607       0.14013768       1.77542123
O        1.71545769      -1.76158530      -0.05874488
O        3.08070597       0.27538229      -0.49161721
C       -1.61466457      -0.39730122      -0.93188576
O       -0.99077555      -1.62938104      -1.33542573
H        0.36007927       1.37260983       1.86147334
H       -0.59950049      -0.57789968       0.92283582
H        0.92973922      -1.94403490      -0.60834048
H        3.58266790       0.92613874       0.01533963
H       -2.60840390      -0.56899049      -0.51674487
H       -1.69004903       0.30625772      -1.76094254
H       -1.51291363      -2.03222225      -2.03841811
18
Properties=species:S:1:pos:R:3 relative_energy_eV=-0.29515972921581124 branch=right pbc="F F F"
O       -2.31702994       1.94417249       0.52341872
C       -1.25605342       1.44387535       0.80558318
O       -0.44375460       1.93957528       1.74147348
C       -0.73031932       0.17390653       0.13775687
O        0.56114035       0.47515328      -0.45889638
P        1.79585898      -0.21391593       0.32704908
O        1.77699938       0.13957212       1.77552162
O        1.71599682      -1.76161017      -0.05914246
O        3.08072507       0.27577708      -0.49163271
C       -1.61462398      -0.39720608      -0.93202553
O       -0.99110335      -1.62964717      -1.33503320
H        0.35980529       1.37208284       1.86203107
H       -0.59987255      -0.57808449       0.92284392
H        0.92976934      -1.94458141      -0.60785973
H        3.58240758       0.92687741       0.01508842
H       -2.60874186      -0.56806746      -0.51714256
H       -1.68972403       0.30623094      -1.76118449
H       -1.51313047      -2.03212093      -2.03837872
