18
Properties=species:S:1:pos:R:3 relative_energy_eV=0.0 branch=left pbc="F F F"
O       -0.17299089       2.47502025       0.44608681
C       -0.84871454       1.54115837       0.82012007
O       -1.87386803       1.66751655       1.68849546
C       -0.71937808       0.11454794       0.38012423
O        0.38880992       0.00058610      -0.50251723
P        1.81978301      -0.48732150      -0.00558097
O        1.99975939      -0.91683394       1.39257542
O        2.10801769      -1.74317822      -1.03411404
O        2.80955219       0.62218178      -0.59440325
C       -1.97435939      -0.39424876      -0.44703270
O       -1.88433235      -1.68536112      -0.69687149
H       -1.92769311       2.61046431       1.91047897
H       -0.63418347      -0.55961264       1.22692895
H        2.36736854      -2.50102870      -0.49826228
H        2.38691533       1.49248136      -0.59202600
H       -2.83100439      -0.09798126       0.19364672
H       -2.01214887       0.26080246      -1.34037146
H        1.12745566      -2.30861349      -2.42694884
18
Properties=species:S:1:pos:R:3 relative_energy_eV=1.487018380430527e-05 branch=left pbc="F F F"
O       -0.17292724       2.47509157       0.44600827
C       -0.84880290       1.54133751       0.81999687
O       -1.87397958       1.66759508       1.68843184
C       -0.71924993       0.11471545       0.38021938
O        0.38886535       0.00062147      -0.50247456
P        1.81980719      -0.48747408      -0.00559665
O        1.99963801      -0.91703624       1.39253925
O        2.10808900      -1.74319111      -1.03423259
O        2.80968804       0.62208361      -0.59405151
C       -1.97437492      -0.39431847      -0.44693192
O       -1.88423729      -1.68538783      -0.69673957
H       -1.92794611       2.61061128       1.91022217
H       -0.63413529      -0.55950460       1.22701407
H        2.36756972      -2.50113172      -0.49856466
H        2.38694464       1.49232870      -0.59192251
H       -2.83094453      -0.09806145       0.19385757
H       -2.01245454       0.26070191      -1.34028549
H        1.12743897      -2.30840155      -2.42716161
18
Properties=species:S:1:pos:R:3 relative_energy_eV=1.9349379726918414e-05 branch=left pbc="F F F"
O       -0.17299065       2.47530435       0.44576639
C       -0.84891692       1.54162399       0.81985654
O       -1.87426663       1.66791517       1.68819767
C       -0.71908821       0.11493165       0.38041948
O        0.38895373       0.00068174      -0.50243578
P        1.81983692      -0.48778896      -0.00567483
O        1.99937186      -0.91751654       1.39240887
O        2.10831528      -1.74326655      -1.03455229
O        2.81002778       0.62193900      -0.59324735
C       -1.97435973      -0.39444303      -0.44666838
O       -1.88393514      -1.68541879      -0.69665618
H       -1.92835352       2.61100142       1.90973644
H       -0.63400026      -0.55927188       1.22729320
H        2.36797377      -2.50139342      -0.49920021
H        2.38690492       1.49198901      -0.59168918
H       -2.83079532      -0.09821136       0.19434098
H       -2.01312082       0.26046274      -1.34005543
H        1.12743155      -2.30795903      -2.42751154
18
Properties=species:S:1:pos:R:3 relative_energy_eV=2.1599302272079512e-05 branch=left pbc="F F F"
O       -0.17318702       2.47559708       0.44538726
C       -0.84897184       1.54189612       0.81974942
O       -1.87455655       1.66848018       1.68783102
C       -0.71904960       0.11506891       0.38059864
O        0.38901566       0.00071969      -0.50241219
P        1.81982236      -0.48815436      -0.00572924
O        1.99902100      -0.91823660       1.39225906
O        2.10860664      -1.74334139      -1.03498471
O        2.81042382       0.62179478      -0.59224042
C       -1.97432455      -0.39460962      -0.44631702
O       -1.88344549      -1.68548770      -0.69666672
H       -1.92863888       2.61158575       1.90919242
H       -0.63385192      -0.55891544       1.22769456
H        2.36842467      -2.50168294      -0.49997276
H        2.38678591       1.49160468      -0.59136367
H       -2.83064325      -0.09852424       0.19496031
H       -2.01393635       0.26014167      -1.33973826
H        1.12749400      -2.30735704      -2.42791926
18
Properties=species:S:1:pos:R:3 relative_energy_eV=3.6571280361386016e-05 branch=left pbc="F F F"
O       -0.17340736       2.47589094       0.44489645
C       -0.84895470       1.54212952       0.81960553
O       -1.87470319       1.66917728       1.68739488
C       -0.71915941       0.11512349       0.38067415
O        0.38902780       0.00068592      -0.50238891
P        1.81973966      -0.48850522      -0.00566611
O        1.99860702      -0.91914927       1.39219180
O        2.10888075      -1.74332710      -1.03542039
O        2.81072414       0.62166931      -0.59123583
C       -1.97431856      -0.39481293      -0.44594696
O       -1.88287725      -1.68561517      -0.69670666
H       -1.92867615       2.61225624       1.90868857
H       -0.63373719      -0.55843922       1.22810738
H        2.36884992      -2.50188630      -0.50075254
H        2.38663858       1.49126605      -0.59100015
H       -2.83057870      -0.09908513       0.19561257
H       -2.01474882       0.25986031      -1.33934792
H        1.12768205      -2.30665918      -2.42837740
18
Properties=species:S:1:pos:R:3 relative_energy_eV=5.651367246173322e-05 branch=left pbc="F F F"
O       -0.17361782       2.47628637       0.44402341
C       -0.84890183       1.54250500       0.81919650
O       -1.87471736       1.67021923       1.68669195
C       -0.71939051       0.11521180       0.38066320
O        0.38901238       0.00053646      -0.50231325
P        1.81955289      -0.48901570      -0.00535532
O        1.99787901      -0.92076033       1.39225691
O        2.10922987      -1.74312132      -1.03601482
O        2.81099635       0.62144157      -0.58978248
C       -1.97438445      -0.39517294      -0.44537712
O       -1.88206372      -1.68588555      -0.69663456
H       -1.92854186       2.61325791       1.90792297
H       -0.63358263      -0.55758068       1.22865267
H        2.36941895      -2.50203529      -0.50194366
H        2.38646713       1.49084005      -0.59045983
H       -2.83061755      -0.10027028       0.19662488
H       -2.01589746       0.25960421      -1.33861857
H        1.12814720      -2.30548095      -2.42920438
18
Properties=species:S:1:pos:R:3 relative_energy_eV=7.56974914111197e-05 branch=left pbc="F F F"
O       -0.17375448       2.47685316       0.44253794
C       -0.84888427       1.54320064       0.81827264
O       -1.87465333       1.67166829       1.68555866
C       -0.71962193       0.11548494       0.38061063
O        0.38902160       0.00023750      -0.50212556
P        1.81925847      -0.48984819      -0.00468407
O        1.99664202      -0.92346693       1.39251444
O        2.10971056      -1.74262498      -1.03687690
O        2.81127913       0.62101765      -0.58752049
C       -1.97456134      -0.39576718      -0.44445109
O       -1.88096459      -1.68633413      -0.69629323
H       -1.92841647       2.61471176       1.90659815
H       -0.63328482      -0.55615261       1.22939727
H        2.37029328      -2.50215713      -0.50388562
H        2.38630636       1.49019225      -0.58965804
H       -2.83074921      -0.10234301       0.19828995
H       -2.01762505       0.25946195      -1.33728041
H        1.12899260      -2.30355438      -2.43067568
18
Properties=species:S:1:pos:R:3 relative_energy_eV=9.880853394861333e-05 branch=left pbc="F F F"
O       -0.17375991       2.47740929       0.44096857
C       -0.84896265       1.54401640       0.81712601
O       -1.87465086       1.67292928       1.68437576
C       -0.71964557       0.11591907       0.38060654
O        0.38910165      -0.00006275      -0.50187515
P        1.81900536      -0.49074529      -0.00391861
O        1.99533013      -0.92630714       1.39284258
O        2.11015759      -1.74203855      -1.03772672
O        2.81153955       0.62051001      -0.58517011
C       -1.97475946      -0.39637043      -0.44346100
O       -1.88001895      -1.68677096      -0.69574262
H       -1.92855530       2.61605744       1.90507141
H       -0.63288692      -0.55469945       1.23008144
H        2.37117269      -2.50224942      -0.50596158
H        2.38623732       1.48951308      -0.58890092
H       -2.83084904      -0.10447263       0.20008327
H       -2.01932644       0.25951105      -1.33576746
H        1.12985924      -2.30156935      -2.43230273
18
Properties=species:S:1:pos:R:3 relative_energy_eV=0.00011387214908609167 branch=left pbc="F F F"
O       -0.17370334       2.47776206       0.43990075
C       -0.84909130       1.54461454       0.81625467
O       -1.87475281       1.67357726       1.68357609
C       -0.71947184       0.11631296       0.38067710
O        0.38921619      -0.00024226      -0.50167223
P        1.81888730      -0.49137598      -0.00340208
O        1.99446579      -0.92817735       1.39307686
O        2.11041161      -1.74163061      -1.03827730
O        2.81171640       0.62014367      -0.58358323
C       -1.97488265      -0.39674157      -0.44277481
O       -1.87954228      -1.68700907      -0.69527600
H       -1.92889053       2.61682381       1.90392332
H       -0.63254651      -0.55379446       1.23049195
H        2.37175877      -2.50231027      -0.50738274
H        2.38624616       1.48903388      -0.58844152
H       -2.83083652      -0.10579431       0.20135367
H       -2.02039072       0.25968648      -1.33467617
H        1.13039467      -2.30029910      -2.43343960
18
Properties=species:S:1:pos:R:3 relative_energy_eV=0.0001305514779232908 branch=left pbc="F F F"
O       -0.17366082       2.47793349       0.43929426
C       -0.84921280       1.54495165       0.81573084
O       -1.87490955       1.67379046       1.68312948
C       -0.71923263       0.11658271       0.38078825
O        0.38931853      -0.00031475      -0.50154235
P        1.81885845      -0.49173261      -0.00313983
O        1.99402821      -0.92914192       1.39319131
O        2.11049186      -1.74141938      -1.03857064
O        2.81182517       0.61993440      -0.58269169
C       -1.97492540      -0.39690957      -0.44238482
O       -1.87940268      -1.68708289      -0.69499751
H       -1.92924036       2.61714426       1.90319776
H       -0.63230363      -0.55338549       1.23069374
H        2.37206013      -2.50234211      -0.50816711
H        2.38626297       1.48876734      -0.58821356
H       -2.83072271      -0.10639022       0.20212588
H       -2.02089306       0.25987036      -1.33403850
H        1.13064671      -2.29967602      -2.43407678
18
Properties=species:S:1:pos:R:3 relative_energy_eV=0.0001436669990653172 branch=left pbc="F F F"
O       -0.17366930       2.47802218       0.43880356
C       -0.84932699       1.54515957       0.81535021
O       -1.87510921       1.67386375       1.68278850
C       -0.71896959       0.11677611       0.38094410
O        0.38940056      -0.00034553      -0.50143665
P        1.81884052      -0.49198387      -0.00298967
O        1.99378311      -0.92976521       1.39323647
O        2.11044213      -1.74129217      -1.03878197
O        2.81189617       0.61982101      -0.58200633
C       -1.97491569      -0.39699571      -0.44209975
O       -1.87937443      -1.68707308      -0.69487913
H       -1.92953725       2.61731630       1.90260757
H       -0.63210126      -0.55319354       1.23085184
H        2.37225021      -2.50234005      -0.50870033
H        2.38624149       1.48858457      -0.58803881
H       -2.83049995      -0.10669847       0.20277918
H       -2.02115546       0.26005021      -1.33356832
H        1.13079330      -2.29932633      -2.43453175
18
Properties=species:S:1:pos:R:3 relative_energy_eV=0.0001525076077086851 branch=left pbc="F F F"
O       -0.17378442       2.47809098       0.43795549
C       -0.84946876       1.54536305       0.81485080
O       -1.87540938       1.67407726       1.68224842
C       -0.71864481       0.11695176       0.38122920
O        0.38945016      -0.00037541      -0.50127942
P        1.81873322      -0.49230208      -0.00280509
O        1.99351456      -0.93064078       1.39323257
O        2.11016931      -1.74112914      -1.03910611
O        2.81196012       0.61973542      -0.58088793
C       -1.97484099      -0.39713733      -0.44168976
O       -1.87926229      -1.68704712      -0.69493211
H       -1.92971615       2.61764713       1.90174002
H       -0.63184397      -0.55299462       1.23117355
H        2.37242047      -2.50226465      -0.50941077
H        2.38610071       1.48838522      -0.58769296
H       -2.83000897      -0.10713505       0.20385858
H       -2.02142525       0.26020585      -1.33293430
H        1.13104478      -2.29885071      -2.43522140
18
Properties=species:S:1:pos:R:3 relative_energy_eV=0.0001591365144122392 branch=left pbc="F F F"
O       -0.17403705       2.47813949       0.43662833
C       -0.84959285       1.54556045       0.81422293
O       -1.87569343       1.67467938       1.68145006
C       -0.71842905       0.11703646       0.38160228
O        0.38939230      -0.00043577      -0.50106256
P        1.81844141      -0.49268658      -0.00253570
O        1.99317038      -0.93193867       1.39318731
O        2.10962306      -1.74088772      -1.03957826
O        2.81197290       0.61972145      -0.57920208
C       -1.97470911      -0.39742849      -0.44113512
O       -1.87885748      -1.68710070      -0.69523910
H       -1.92945009       2.61833991       1.90063368
H       -0.63159653      -0.55266682       1.23176130
H        2.37254024      -2.50208137      -0.51033960
H        2.38578513       1.48817378      -0.58706470
H       -2.82929720      -0.10795323       0.20540695
H       -2.02178617       0.26018161      -1.33214152
H        1.13151187      -2.29807334      -2.43626537
18
Properties=species:S:1:pos:R:3 relative_energy_eV=0.00018849764092010446 branch=left pbc="F F F"
O       -0.17427379       2.47815364       0.43542963
C       -0.84963344       1.54569265       0.81373859
O       -1.87576795       1.67547631       1.68076521
C       -0.71848443       0.11699078       0.38185949
O        0.38924080      -0.00050291      -0.50087785
P        1.81808723      -0.49295716      -0.00227005
O        1.99285896      -0.93312804       1.39314197
O        2.10908281      -1.74065019      -1.03998299
O        2.81193979       0.61975941      -0.57770670
C       -1.97459785      -0.39778620      -0.44068533
O       -1.87826988      -1.68727517      -0.69560142
H       -1.92879426       2.61914576       1.89982158
H       -0.63149801      -0.55229223       1.23236286
H        2.37251942      -2.50188663      -0.51109320
H        2.38545636       1.48806041      -0.58642815
H       -2.82877037      -0.10889248       0.20666579
H       -2.02212571       0.25991859      -1.33156081
H        1.13201864      -2.29724665      -2.43724977
18
Properties=species:S:1:pos:R:3 relative_energy_eV=0.00020474767006817274 branch=left pbc="F F F"
O       -0.17440459       2.47814504       0.43468092
C       -0.84961505       1.54576965       0.81347408
O       -1.87566957       1.67617144       1.68036638
C       -0.71869851       0.11688821       0.38196097
O        0.38908500      -0.00055480      -0.50075890
P        1.81781493      -0.49307942      -0.00208063
O        1.99264838      -0.93390638       1.39312415
O        2.10872914      -1.74048136      -1.04021891
O        2.81189480       0.61982716      -0.57679786
C       -1.97453479      -0.39810063      -0.44043276
O       -1.87771690      -1.68750695      -0.69582347
H       -1.92810097       2.61980104       1.89944167
H       -0.63152708      -0.55197524       1.23279976
H        2.37237382      -2.50177449      -0.51151382
H        2.38523950       1.48803374      -0.58596369
H       -2.82856341      -0.10966209       0.20731462
H       -2.02236611       0.25956013      -1.33128762
H        1.13239975      -2.29657514      -2.43795603
18
Properties=species:S:1:pos:R:3 relative_energy_eV=0.00020260969904484227 branch=left pbc="F F F"
O       -0.17444811       2.47812474       0.43423318
C       -0.84958891       1.54583635       0.81333029
O       -1.87551219       1.67673379       1.68015810
C       -0.71893402       0.11678846       0.38199474
O        0.38897608      -0.00057439      -0.50065924
P        1.81765470      -0.49312350      -0.00194603
O        1.99251075      -0.93440495       1.39312605
O        2.10851630      -1.74036485      -1.04035179
O        2.81188648       0.61989179      -0.57627124
C       -1.97448652      -0.39837535      -0.44028895
O       -1.87723730      -1.68776511      -0.69587386
H       -1.92755228       2.62031964       1.89926781
H       -0.63160399      -0.55171885       1.23311924
H        2.37211201      -2.50175588      -0.51174935
H        2.38512234       1.48805870      -0.58562417
H       -2.82855057      -0.11027138       0.20755990
H       -2.02252975       0.25919088      -1.33117225
H        1.13265333      -2.29601012      -2.43852358
18
Properties=species:S:1:pos:R:3 relative_energy_eV=0.00021541950263781473 branch=left pbc="F F F"
O       -0.17446067       2.47808187       0.43365303
C       -0.84958622       1.54597660       0.81313115
O       -1.87529406       1.67750821       1.67993197
C       -0.71920489       0.11667189       0.38208151
O        0.38892186      -0.00055705      -0.50044154
P        1.81757733      -0.49319405      -0.00177851
O        1.99237101      -0.93505272       1.39314560
O        2.10827939      -1.74022920      -1.04053609
O        2.81195914       0.62002680      -0.57563238
C       -1.97436841      -0.39879969      -0.44007428
O       -1.87652587      -1.68820302      -0.69572213
H       -1.92699801       2.62107392       1.89895074
H       -0.63170776      -0.55136595       1.23359703
H        2.37148724      -2.50187412      -0.51206048
H        2.38500857       1.48810928      -0.58509606
H       -2.82863291      -0.11113051       0.20768308
H       -2.02273363       0.25865966      -1.33098767
H        1.13289623      -2.29512195      -2.43951609
18
Properties=species:S:1:pos:R:3 relative_energy_eV=0.0002194644148403313 branch=left pbc="F F F"
O       -0.17448742       2.47800302       0.43261739
C       -0.84966315       1.54625784       0.81274336
O       -1.87511033       1.67860335       1.67955761
C       -0.71933942       0.11657018       0.38239344
O        0.38904893      -0.00046599      -0.49994581
P        1.81771954      -0.49341049      -0.00154933
O        1.99224422      -0.93610410       1.39317212
O        2.10795772      -1.74006474      -1.04092314
O        2.81223143       0.62027796      -0.57454195
C       -1.97406788      -0.39946034      -0.43961725
O       -1.87547235      -1.68887843      -0.69523072
H       -1.92671227       2.62225803       1.89803051
H       -0.63174913      -0.55089060       1.23441934
H        2.37019720      -2.50225241      -0.51266855
H        2.38482343       1.48818357      -0.58412788
H       -2.82869567      -0.11239998       0.20787273
H       -2.02302217       0.25801638      -1.33045957
H        1.13308563      -2.29366328      -2.44141338
18
Properties=species:S:1:pos:R:3 relative_energy_eV=0.0002479132963344455 branch=left pbc="F F F"
O       -0.17459238       2.47794025       0.43139684
C       -0.84980766       1.54656661       0.81227452
O       -1.87515297       1.67949128       1.67911329
C       -0.71910264       0.11656809       0.38291442
O        0.38939040      -0.00034580      -0.49931154
P        1.81809760      -0.49378623      -0.00137613
O        1.99224721      -0.93721123       1.39317212
O        2.10768446      -1.73996798      -1.04145291
O        2.81260460       0.62055581      -0.57332947
C       -1.97365944      -0.40004882      -0.43901339
O       -1.87457507      -1.68943896      -0.69458265
H       -1.92710981       2.62337752       1.89657860
H       -0.63160805      -0.55052745       1.23529397
H        2.36870615      -2.50278364      -0.51342470
H        2.38459440       1.48819428      -0.58299580
H       -2.82857604      -0.11349111       0.20824175
H       -2.02326039       0.25768264      -1.32963444
H        1.13310793      -2.29219529      -2.44353549
18
Properties=species:S:1:pos:R:3 relative_energy_eV=0.00026109650934813544 branch=left pbc="F F F"
O       -0.17474987       2.47792443       0.43043496
C       -0.84991495       1.54675147       0.81192538
O       -1.87533558       1.67985225       1.67878257
C       -0.71863673       0.11664138       0.38341582
O        0.38975633      -0.00029490      -0.49881554
P        1.81850144      -0.49417174      -0.00131853
O        1.99238802      -0.93795459       1.39313354
O        2.10758401      -1.73996385      -1.04193087
O        2.81286344       0.62071977      -0.57247086
C       -1.97334251      -0.40032578      -0.43850934
O       -1.87418283      -1.68964502      -0.69412565
H       -1.92793621       2.62401432       1.89516703
H       -0.63135071      -0.55040931       1.23586700
H        2.36763256      -2.50322211      -0.51402927
H        2.38436372       1.48815302      -0.58210212
H       -2.82832152      -0.11400027       0.20871406
H       -2.02337441       0.25778258      -1.32885349
H        1.13304407      -2.29127167      -2.44495566
18
Properties=species:S:1:pos:R:3 relative_energy_eV=0.0002845107374014333 branch=left pbc="F F F"
O       -0.17494303       2.47795600       0.42966873
C       -0.84993135       1.54682787       0.81169798
O       -1.87549261       1.67989832       1.67857043
C       -0.71811883       0.11673331       0.38384644
O        0.39005350      -0.00035927      -0.49845805
P        1.81882538      -0.49454649      -0.00133120
O        1.99265121      -0.93844239       1.39306592
O        2.10764185      -1.73999834      -1.04235844
O        2.81292861       0.62079733      -0.57192804
C       -1.97314473      -0.40038912      -0.43811442
O       -1.87408839      -1.68960272      -0.69390875
H       -1.92887718       2.62434961       1.89386877
H       -0.63105122      -0.55042717       1.23620787
H        2.36687424      -2.50355545      -0.51449449
H        2.38409527       1.48806668      -0.58133606
H       -2.82803220      -0.11416415       0.20925473
H       -2.02341987       0.25812621      -1.32818013
H        1.13301757      -2.29069027      -2.44574226
18
Properties=species:S:1:pos:R:3 relative_energy_eV=0.0003019663745362777 branch=left pbc="F F F"
O       -0.17520561       2.47804735       0.42868901
C       -0.84978533       1.54685878       0.81149549
O       -1.87543567       1.67992260       1.67843201
C       -0.71755498       0.11681609       0.38433065
O        0.39028131      -0.00063809      -0.49808592
P        1.81908746      -0.49502792      -0.00134711
O        1.99314582      -0.93902280       1.39294553
O        2.10789390      -1.73999929      -1.04291708
O        2.81273643       0.62080857      -0.57142789
C       -1.97302847      -0.40039739      -0.43767152
O       -1.87398865      -1.68943774      -0.69388916
H       -1.92996990       2.62477034       1.89217574
H       -0.63066727      -0.55046146       1.23654835
H        2.36590994      -2.50393249      -0.51505507
H        2.38360936       1.48795041      -0.58020429
H       -2.82773887      -0.11436943       0.21003914
H       -2.02349555       0.25860780      -1.32740941
H        1.13319430      -2.28991535      -2.44631939
18
Properties=species:S:1:pos:R:3 relative_energy_eV=0.0003244827348680701 branch=left pbc="F F F"
O       -0.17549797       2.47821588       0.42735580
C       -0.84943275       1.54693414       0.81127687
O       -1.87493089       1.68027955       1.67837784
C       -0.71716854       0.11684270       0.38485060
O        0.39033050      -0.00118782      -0.49764611
P        1.81917853      -0.49560147      -0.00127515
O        1.99388837      -0.93994405       1.39278513
O        2.10831821      -1.73986856      -1.04362582
O        2.81221606       0.62077742      -0.57088502
C       -1.97299929      -0.40054980      -0.43714031
O       -1.87350225      -1.68937006      -0.69400823
H       -1.93087983       2.62562462       1.89003892
H       -0.63026798      -0.55032115       1.23706070
H        2.36437220      -2.50443480      -0.51581931
H        2.38288259       1.48779660      -0.57844617
H       -2.82760581      -0.11503150       0.21099955
H       -2.02366998       0.25886642      -1.32659972
H        1.13375703      -2.28844813      -2.44697045
18
Properties=species:S:1:pos:R:3 relative_energy_eV=0.0003642653246060945 branch=left pbc="F F F"
O       -0.17566722       2.47839165       0.42613465
C       -0.84904616       1.54710020       0.81108333
O       -1.87412855       1.68101996       1.67842115
C       -0.71719686       0.11679542       0.38521709
O        0.39015936      -0.00176887      -0.49727166
P        1.81905524      -0.49601234      -0.00108432
O        1.99454854      -0.94099875       1.39265402
O        2.10868968      -1.73960489      -1.04420290
O        2.81164050       0.62071017      -0.57041979
C       -1.97303243      -0.40091318      -0.43669110
O       -1.87262511      -1.68957386      -0.69410186
H       -1.93113004       2.62676226       1.88826353
H       -0.63003976      -0.54997052       1.23765469
H        2.36264647      -2.50492989      -0.51656857
H        2.38223379       1.48769704      -0.57667315
H       -2.82774737      -0.11610421       0.21169511
H       -2.02390027       0.25858272      -1.32608552
H        1.13452841      -2.28660290      -2.44769554
18
Properties=species:S:1:pos:R:3 relative_energy_eV=0.0003850714274449274 branch=left pbc="F F F"
O       -0.17570068       2.47852817       0.42537546
C       -0.84882135       1.54732828       0.81093508
O       -1.87344145       1.68184939       1.67849114
C       -0.71749389       0.11673607       0.38538703
O        0.38991131      -0.00215656      -0.49703730
P        1.81884407      -0.49617807      -0.00085260
O        1.99492772      -0.94189295       1.39259116
O        2.10885236      -1.73932492      -1.04450001
O        2.81126825       0.62065889      -0.57012464
C       -1.97304667      -0.40135849      -0.43641365
O       -1.87167342      -1.68996582      -0.69405158
H       -1.93085444       2.62780086       1.88728199
H       -0.62999096      -0.54954214       1.23817210
H        2.36124399      -2.50531730      -0.51711991
H        2.38188970       1.48763854      -0.57543918
H       -2.82801983      -0.11717973       0.21195413
H       -2.02407503       0.25791846      -1.32593782
H        1.13516855      -2.28496266      -2.44838221
18
Properties=species:S:1:pos:R:3 relative_energy_eV=0.00040393826202489436 branch=left pbc="F F F"
O       -0.17567284       2.47863147       0.42498899
C       -0.84877727       1.54757847       0.81081130
O       -1.87301387       1.68258825       1.67855210
C       -0.71783509       0.11670829       0.38545181
O        0.38969017      -0.00236943      -0.49691207
P        1.81866282      -0.49618566      -0.00062758
O        1.99508332      -0.94259432       1.39257327
O        2.10884849      -1.73908956      -1.04458995
O        2.81111981       0.62060510      -0.56996774
C       -1.97300544      -0.40178219      -0.43624997
O       -1.87084113      -1.69040681      -0.69386887
H       -1.93041139       2.62862392       1.88684462
H       -0.63001702      -0.54913962       1.23858106
H        2.36020455      -2.50563129      -0.51751432
H        2.38177801       1.48761711      -0.57469409
H       -2.82826415      -0.11806092       0.21194573
H       -2.02416653       0.25713881      -1.32599420
H        1.13560574      -2.28365156      -2.44900087
18
Properties=species:S:1:pos:R:3 relative_energy_eV=0.0004079979989910498 branch=left pbc="F F F"
O       -0.17568197       2.47875857       0.42478105
C       -0.84891161       1.54788266       0.81066796
O       -1.87286061       1.68328593       1.67857108
C       -0.71811161       0.11674868       0.38551690
O        0.38953175      -0.00249718      -0.49681735
P        1.81854984      -0.49614915      -0.00040282
O        1.99513426      -0.94330490       1.39256823
O        2.10872220      -1.73890621      -1.04458133
O        2.81112194       0.62055340      -0.56990916
C       -1.97285335      -0.40221048      -0.43609594
O       -1.87004052      -1.69089195      -0.69351064
H       -1.93000810       2.62936694       1.88656781
H       -0.63002126      -0.54871240       1.23898349
H        2.35924932      -2.50600628      -0.51790214
H        2.38180962       1.48757267      -0.57414082
H       -2.82839074      -0.11881906       0.21183826
H       -2.02415938       0.25625771      -1.32612327
H        1.13590841      -2.28234889      -2.44968204
18
Properties=species:S:1:pos:R:3 relative_energy_eV=0.00043254315824015066 branch=left pbc="F F F"
O       -0.17582617       2.47894586       0.42459839
C       -0.84925639       1.54824951       0.81046466
O       -1.87303352       1.68397197       1.67853837
C       -0.71822352       0.11688901       0.38566543
O        0.38946676      -0.00263016      -0.49669896
P        1.81855898      -0.49614893      -0.00017969
O        1.99511698      -0.94416886       1.39254124
O        2.10851163      -1.73882006      -1.04453128
O        2.81122464       0.62046186      -0.56998430
C       -1.97253687      -0.40265812      -0.43587308
O       -1.86927185      -1.69142642      -0.69291091
H       -1.92978271       2.63012239       1.88616973
H       -0.62994673      -0.54822584       1.23945015
H        2.35819648      -2.50658172      -0.51838544
H        2.38192846       1.48753110      -0.57354969
H       -2.82827951      -0.11945843       0.21177566
H       -2.02403908       0.25528657      -1.32622883
H        1.13618060      -2.28075966      -2.45053218
18
Properties=species:S:1:pos:R:3 relative_energy_eV=0.0004591270080709364 branch=left pbc="F F F"
O       -0.17619949       2.47920016       0.42434235
C       -0.84975279       1.54859347       0.81021584
O       -1.87357014       1.68450027       1.67839929
C       -0.71804350       0.11713453       0.38594324
O        0.38956659      -0.00278239      -0.49649702
P        1.81872546      -0.49631029      -0.00004816
O        1.99504026      -0.94512734       1.39245806
O        2.10829719      -1.73894839      -1.04452114
O        2.81130569       0.62035089      -0.57024276
C       -1.97206405      -0.40304889      -0.43555394
O       -1.86871020      -1.69191431      -0.69208212
H       -1.92992456       2.63078052       1.88547680
H       -0.62976383      -0.54771499       1.23996173
H        2.35712311      -2.50738049      -0.51891425
H        2.38210559       1.48748945      -0.57283049
H       -2.82781828      -0.11980359       0.21191303
H       -2.02379727       0.25444469      -1.32619978
H        1.13646835      -2.27888323      -2.45149142
18
Properties=species:S:1:pos:R:3 relative_energy_eV=0.00047618778989999555 branch=left pbc="F F F"
O       -0.17675849       2.47947566       0.42391356
C       -0.85022622       1.54881281       0.80995813
O       -1.87426602       1.68480183       1.67814360
C       -0.71763029       0.11741162       0.38632064
O        0.38980727      -0.00292374      -0.49616379
P        1.81898834      -0.49668495      -0.00007403
O        1.99486711      -0.94601286       1.39230008
O        2.10818952      -1.73934859      -1.04460294
O        2.81122102       0.62017657      -0.57068171
C       -1.97156345      -0.40335385      -0.43516625
O       -1.86849393      -1.69232351      -0.69110221
H       -1.93038115       2.63125597       1.88449712
H       -0.62955731      -0.54721539       1.24048903
H        2.35615377      -2.50832241      -0.51935492
H        2.38232081       1.48753745      -0.57194492
H       -2.82708940      -0.11980077       0.21231388
H       -2.02350778       0.25386683      -1.32600708
H        1.13691434      -2.27677258      -2.45250887
18
Properties=species:S:1:pos:R:3 relative_energy_eV=0.0005155936814844608 branch=left pbc="F F F"
O       -0.17738722       2.47976102       0.42329257
C       -0.85052905       1.54892183       0.80970456
O       -1.87488350       1.68498191       1.67771674
C       -0.71718745       0.11765553       0.38673981
O        0.39011669      -0.00292003      -0.49564724
P        1.81920229      -0.49727152      -0.00026187
O        1.99456669      -0.94678693       1.39207574
O        2.10820105      -1.73998851      -1.04479965
O        2.81089262       0.61992328      -0.57121866
C       -1.97113784      -0.40368158      -0.43472719
O       -1.86846594      -1.69278954      -0.68990539
H       -1.93095154       2.63160747       1.88335736
H       -0.62943247      -0.54663106       1.24110097
H        2.35521372      -2.50934069      -0.51962167
H        2.38266975       1.48764916      -0.57088672
H       -2.82630954      -0.11961503       0.21288456
H       -2.02320971       0.25335955      -1.32573850
H        1.13761957      -2.27425474      -2.45373610
18
Properties=species:S:1:pos:R:3 relative_energy_eV=0.0005625548765237909 branch=left pbc="F F F"
O       -0.17787799       2.48004377       0.42252924
C       -0.85058512       1.54902748       0.80943819
O       -1.87518806       1.68525085       1.67711895
C       -0.71699106       0.11781117       0.38712678
O        0.39035809      -0.00263837      -0.49496735
P        1.81922006      -0.49794606      -0.00051672
O        1.99415125      -0.94744797       1.39182792
O        2.10826530      -1.74071528      -1.04505644
O        2.81040868       0.61948614      -0.57172422
C       -1.97087762      -0.40418174      -0.43425887
O       -1.86833592      -1.69349813      -0.68841971
H       -1.93137228       2.63197115       1.88230217
H       -0.62950312      -0.54586693       1.24188589
H        2.35416162      -2.51034842      -0.51970869
H        2.38325197       1.48779900      -0.56971871
H       -2.82578618      -0.11954016       0.21342177
H       -2.02292965       0.25256178      -1.32555442
H        1.13861814      -2.27118816      -2.45539648
18
Properties=species:S:1:pos:R:3 relative_energy_eV=0.0006070433846616652 branch=left pbc="F F F"
O       -0.17812016       2.48037898       0.42180134
C       -0.85050180       1.54931411       0.80912707
O       -1.87525898       1.68576852       1.67632872
C       -0.71714205       0.11792544       0.38746539
O        0.39047593      -0.00198311      -0.49420492
P        1.81900294      -0.49857525      -0.00070476
O        1.99375738      -0.94811999       1.39162390
O        2.10821076      -1.74131996      -1.04531607
O        2.81002562       0.61883619      -0.57205319
C       -1.97072201      -0.40494409      -0.43373972
O       -1.86774726      -1.69454462      -0.68655442
H       -1.93164885       2.63246610       1.88149957
H       -0.62971805      -0.54486092       1.24290507
H        2.35280491      -2.51128640      -0.51974759
H        2.38415198       1.48776503      -0.56858678
H       -2.82567582      -0.11979692       0.21371720
H       -2.02257484       0.25113911      -1.32558108
H        1.13966839      -2.26758208      -2.45765040
18
Properties=species:S:1:pos:R:3 relative_energy_eV=0.000668780234263977 branch=left pbc="F F F"
O       -0.17818171       2.48085211       0.42115313
C       -0.85049607       1.54992568       0.80869850
O       -1.87540827       1.68659250       1.67529704
C       -0.71751820       0.11810198       0.38785242
O        0.39049911      -0.00099447      -0.49340899
P        1.81866242      -0.49912626      -0.00072763
O        1.99354623      -0.94893786       1.39150339
O        2.10789450      -1.74171433      -1.04555775
O        2.81003002       0.61781182      -0.57220705
C       -1.97053632      -0.40597317      -0.43305709
O       -1.86656403      -1.69593061      -0.68413027
H       -1.93208210       2.63315737       1.88085848
H       -0.62994108      -0.54360101       1.24422287
H        2.35095120      -2.51221282      -0.51992200
H        2.38542686       1.48736931      -0.56747029
H       -2.82590526      -0.12037496       0.21376305
H       -2.02199402       0.24891370      -1.32579952
H        1.14060477      -2.26327878      -2.46073895
18
Properties=species:S:1:pos:R:3 relative_energy_eV=0.0007322829733311664 branch=left pbc="F F F"
O       -0.17831624       2.48161389       0.42056910
C       -0.85084617       1.55098090       0.80807266
O       -1.87618671       1.68769055       1.67383545
C       -0.71780743       0.11851612       0.38846731
O        0.39058511       0.00027641      -0.49254684
P        1.81839558      -0.49973307      -0.00056691
O        1.99369738      -0.95009109       1.39148322
O        2.10713961      -1.74194556      -1.04587026
O        2.81069291       0.61627008      -0.57223486
C       -1.97009246      -0.40724864      -0.43199481
O       -1.86473480      -1.69763589      -0.68075921
H       -1.93327627       2.63405871       1.88004482
H       -0.62990372      -0.54202091       1.24593218
H        2.34830419      -2.51328139      -0.52044507
H        2.38721458       1.48629876      -0.56623470
H       -2.82621924      -0.12107419       0.21369088
H       -2.02093848       0.24575163      -1.32608646
H        1.14128021      -2.25784608      -2.46502708
18
Properties=species:S:1:pos:R:3 relative_energy_eV=0.0008231608953792602 branch=left pbc="F F F"
O       -0.17876743       2.48259917       0.41996087
C       -0.85166145       1.55228756       0.80729474
O       -1.87783175       1.68882140       1.67207043
C       -0.71769409       0.11919115       0.38936803
O        0.39083763       0.00143557      -0.49168704
P        1.81843560      -0.50046446      -0.00029408
O        1.99427464      -0.95139683       1.39156180
O        2.10598927      -1.74212367      -1.04630795
O        2.81204637       0.61426584      -0.57226290
C       -1.96936429      -0.40850830      -0.43053885
O       -1.86277216      -1.69933781      -0.67669224
H       -1.93548340       2.63500802       1.87884225
H       -0.62944063      -0.54037073       1.24779167
H        2.34515251      -2.51444979      -0.52132962
H        2.38933690       1.48462670      -0.56483754
H       -2.82634551      -0.12150143       0.21373382
H       -2.01946577       0.24221300      -1.32621834
H        1.14174155      -2.25171512      -2.47012554
18
Properties=species:S:1:pos:R:3 relative_energy_eV=0.0008975992495834362 branch=left pbc="F F F"
O       -0.17952385       2.48353565       0.41937851
C       -0.85269613       1.55341364       0.80658490
O       -1.87993799       1.68966475       1.67042181
C       -0.71714175       0.11994724       0.39032505
O        0.39124885       0.00209163      -0.49097576
P        1.81880199      -0.50124947      -0.00006654
O        1.99503954      -0.95246263       1.39169798
O        2.10475023      -1.74234015      -1.04684095
O        2.81362797       0.61237667      -0.57231929
C       -1.96854700      -0.40943040      -0.42904128
O       -1.86134216      -1.70061674      -0.67289049
H       -1.93813309       2.63575315       1.87745194
H       -0.62863469      -0.53904362       1.24928290
H        2.34228982      -2.51547211      -0.52230859
H        2.39127258       1.48282073      -0.56352458
H       -2.82616266      -0.12143715       0.21398146
H       -2.01799314       0.23929474      -1.32609901
H        1.14206943      -2.24626562      -2.47472852
18
Properties=species:S:1:pos:R:3 relative_energy_eV=0.0009654957320890389 branch=left pbc="F F F"
O       -0.18032915       2.48417840       0.41884134
C       -0.85358354       1.55409111       0.80609587
O       -1.88177937       1.69015934       1.66925010
C       -0.71646291       0.12054254       0.39107798
O        0.39165746       0.00215093      -0.49047125
P        1.81929933      -0.50193153       0.00003902
O        1.99568488      -0.95300825       1.39184021
O        2.10374292      -1.74260086      -1.04734499
O        2.81492696       0.61097476      -0.57240920
C       -1.96792121      -0.40993309      -0.42787047
O       -1.86071098      -1.70135616      -0.67012566
H       -1.94034349       2.63621587       1.87627556
H       -0.62782229      -0.53822637       1.25014693
H        2.34030664      -2.51616256      -0.52307892
H        2.39264995       1.48143834      -0.56248305
H       -2.82583973      -0.12104558       0.21433719
H       -2.01693528       0.23749699      -1.32582253
H        1.14244775      -2.24240353      -2.47796855
18
Properties=species:S:1:pos:R:3 relative_energy_eV=0.0010157339238503482 branch=left pbc="F F F"
O       -0.18100450       2.48454984       0.41842053
C       -0.85419324       1.55440393       0.80583038
O       -1.88310253       1.69045702       1.66850734
C       -0.71590111       0.12093627       0.39155251
O        0.39199490       0.00187475      -0.49009990
P        1.81974580      -0.50246595       0.00004370
O        1.99608234      -0.95314993       1.39196593
O        2.10297803      -1.74286293      -1.04778105
O        2.81581334       0.61011205      -0.57243711
C       -1.96752219      -0.41019701      -0.42709712
O       -1.86056725      -1.70177999      -0.66830518
H       -1.94181662       2.63650036       1.87547600
H       -0.62714277      -0.53775158       1.25050964
H        2.33905407      -2.51656232      -0.52360801
H        2.39354213       1.48053807      -0.56176757
H       -2.82553813      -0.12061470       0.21463767
H       -2.01631613       0.23651002      -1.32555509
H        1.14288176      -2.23991753      -2.47996303
18
Properties=species:S:1:pos:R:3 relative_energy_eV=0.0010513456218177453 branch=left pbc="F F F"
O       -0.18148586       2.48474293       0.41809118
C       -0.85455324       1.55452622       0.80571629
O       -1.88393710       1.69075105       1.66803851
C       -0.71557533       0.12116944       0.39180399
O        0.39223008       0.00145594      -0.48975904
P        1.82007056      -0.50285806       0.00001987
O        1.99624681      -0.95302113       1.39209246
O        2.10230960      -1.74309501      -1.04814717
O        2.81642028       0.60956467      -0.57233106
C       -1.96731563      -0.41042815      -0.42662071
O       -1.86060988      -1.70216279      -0.66699271
H       -1.94262613       2.63675684       1.87502373
H       -0.62660538      -0.53741115       1.25059422
H        2.33815300      -2.51681278      -0.52402451
H        2.39421382       1.48004248      -0.56129843
H       -2.82536929      -0.12032929       0.21478866
H       -2.01603183       0.23583805      -1.32539850
H        1.14345344      -2.23814890      -2.48126714
18
Properties=species:S:1:pos:R:3 relative_energy_eV=0.001086262669559801 branch=left pbc="F F F"
O       -0.18175469       2.48490360       0.41793807
C       -0.85473597       1.55465251       0.80570798
O       -1.88446507       1.69119610       1.66762864
C       -0.71551270       0.12133796       0.39190115
O        0.39240782       0.00114073      -0.48934885
P        1.82023392      -0.50312981       0.00004900
O        1.99620189      -0.95281597       1.39225380
O        2.10149233      -1.74325339      -1.04848418
O        2.81695966       0.60919152      -0.57189036
C       -1.96718843      -0.41084384      -0.42631972
O       -1.86051566      -1.70280399      -0.66561859
H       -1.94301725       2.63711929       1.87479439
H       -0.62605719      -0.53697672       1.25059326
H        2.33707848      -2.51711033      -0.52457775
H        2.39500429       1.47978772      -0.56110262
H       -2.82535599      -0.12032028       0.21468639
H       -2.01593061       0.23493403      -1.32546620
H        1.14414308      -2.23642875      -2.48241472
18
Properties=species:S:1:pos:R:3 relative_energy_eV=0.0011335849958413746 branch=left pbc="F F F"
O       -0.18175955       2.48516192       0.41807056
C       -0.85479980       1.55495708       0.80577686
O       -1.88482381       1.69188239       1.66713390
C       -0.71573767       0.12151217       0.39192711
O        0.39255378       0.00122167      -0.48881214
P        1.82019190      -0.50322987       0.00026206
O        1.99599644      -0.95270589       1.39249258
O        2.10031082      -1.74326244      -1.04878374
O        2.81766398       0.60881272      -0.57088733
C       -1.96705222      -0.41162592      -0.42609792
O       -1.86005838      -1.70396159      -0.66368697
H       -1.94328671       2.63768323       1.87459467
H       -0.62535829      -0.53629597       1.25070702
H        2.33535201      -2.51770489      -0.52560126
H        2.39627908       1.47974493      -0.56128880
H       -2.82550964      -0.12068639       0.21424169
H       -2.01589954       0.23333168      -1.32587033
H        1.14492546      -2.23425446      -2.48384829
18
Properties=species:S:1:pos:R:3 relative_energy_eV=0.0011979884839092847 branch=left pbc="F F F"
O       -0.18156425       2.48563920       0.41861293
C       -0.85485252       1.55553140       0.80588404
O       -1.88526255       1.69262648       1.66645432
C       -0.71606096       0.12177193       0.39201303
O        0.39274991       0.00202027      -0.48824544
P        1.81997099      -0.50313882       0.00073280
O        1.99579076      -0.95295629       1.39280953
O        2.09881728      -1.74306999      -1.04900975
O        2.81864503       0.60839316      -0.56931382
C       -1.96677044      -0.41272017      -0.42584238
O       -1.85917296      -1.70555299      -0.66107347
H       -1.94393798       2.63834054       1.87408730
H       -0.62440325      -0.53539009       1.25111596
H        2.33283802      -2.51876503      -0.52726207
H        2.39815483       1.47977304      -0.56194598
H       -2.82567828      -0.12128034       0.21355733
H       -2.01575375       0.23099728      -1.32656444
H        1.14547794      -2.23163915      -2.48568016
18
Properties=species:S:1:pos:R:3 relative_energy_eV=0.0012502391182351857 branch=left pbc="F F F"
O       -0.18139753       2.48623591       0.41934368
C       -0.85499466       1.55617771       0.80596308
O       -1.88589639       1.69306671       1.66573398
C       -0.71617532       0.12208497       0.39225450
O        0.39301910       0.00331330      -0.48785555
P        1.81975116      -0.50293832       0.00135600
O        1.99577816      -0.95350979       1.39315151
O        2.09747965      -1.74276576      -1.04912195
O        2.81973437       0.60791854      -0.56771398
C       -1.96637310      -0.41371088      -0.42548218
O       -1.85830703      -1.70700002      -0.65843752
H       -1.94518094       2.63881528       1.87310351
H       -0.62337215      -0.53459203       1.25176624
H        2.33022664      -2.52008705      -0.52919302
H        2.40018557       1.47979497      -0.56280812
H       -2.82567738      -0.12166222       0.21302088
H       -2.01544042       0.22869611      -1.32721152
H        1.14562804      -2.22925701      -2.48753981
18
Properties=species:S:1:pos:R:3 relative_energy_eV=0.0013113445857015904 branch=left pbc="F F F"
O       -0.18144908       2.48677850       0.41999469
C       -0.85524810       1.55664908       0.80599185
O       -1.88670450       1.69305665       1.66511881
C       -0.71592759       0.12239138       0.39260837
O        0.39337089       0.00462991      -0.48772357
P        1.81968715      -0.50278501       0.00192285
O        1.99596145      -0.95414557       1.39345907
O        2.09662734      -1.74249335      -1.04918404
O        2.82068960       0.60749892      -0.56655637
C       -1.96595050      -0.41429454      -0.42502158
O       -1.85783099      -1.70787622      -0.65639132
H       -1.94680540       2.63896518       1.87179029
H       -0.62245972      -0.53411371       1.25242263
H        2.32817069      -2.52130542      -0.53088404
H        2.40186491       1.47971136      -0.56355290
H       -2.82544117      -0.12155900       0.21288746
H       -2.01501123       0.22707720      -1.32754420
H        1.14544400      -2.22760493      -2.48900823
18
Properties=species:S:1:pos:R:3 relative_energy_eV=0.0013623099912365433 branch=left pbc="F F F"
O       -0.18172088       2.48715942       0.42045087
C       -0.85557639       1.55685167       0.80598962
O       -1.88757238       1.69272799       1.66467085
C       -0.71541097       0.12264387       0.39297944
O        0.39378442       0.00571538      -0.48777189
P        1.81980959      -0.50273228       0.00235130
O        1.99620392      -0.95468124       1.39372049
O        2.09624009      -1.74230057      -1.04927594
O        2.82146705       0.60711886      -0.56588739
C       -1.96558472      -0.41449528      -0.42448624
O       -1.85780407      -1.70821202      -0.65500084
H       -1.94849832       2.63887350       1.87035168
H       -0.62175431      -0.53393100       1.25292981
H        2.32674431      -2.52225201      -0.53217941
H        2.40309839       1.47957270      -0.56407575
H       -2.82506229      -0.12101721       0.21313797
H       -2.01455106       0.22615097      -1.32754650
H        1.14517535      -2.22661233      -2.49002828
18
Properties=species:S:1:pos:R:3 relative_energy_eV=0.0013952642111689784 branch=left pbc="F F F"
O       -0.18217474       2.48738893       0.42082695
C       -0.85598914       1.55682108       0.80599359
O       -1.88853959       1.69222207       1.66431110
C       -0.71469899       0.12287182       0.39331034
O        0.39433178       0.00670394      -0.48789376
P        1.82010358      -0.50278449       0.00266360
O        1.99634002      -0.95516547       1.39396181
O        2.09613686      -1.74212993      -1.04950227
O        2.82221606       0.60676667      -0.56546438
C       -1.96523835      -0.41449127      -0.42382175
O       -1.85804862      -1.70825376      -0.65390134
H       -1.95024531       2.63866349       1.86875297
H       -0.62117380      -0.53387832       1.25326274
H        2.32552969      -2.52297724      -0.53325417
H        2.40412214       1.47934367      -0.56450592
H       -2.82458856      -0.12012405       0.21368648
H       -2.01401426       0.22550739      -1.32731414
H        1.14491891      -2.22590409      -2.49078206
18
Properties=species:S:1:pos:R:3 relative_energy_eV=0.0014494922761514317 branch=left pbc="F F F"
O       -0.18274148       2.48745539       0.42130795
C       -0.85652556       1.55659016       0.80605735
O       -1.88967238       1.69168223       1.66397778
C       -0.71386748       0.12311696       0.39353006
O        0.39512704       0.00787359      -0.48796921
P        1.82057822      -0.50290470       0.00289273
O        1.99608979      -0.95574363       1.39417549
O        2.09619719      -1.74184481      -1.05001045
O        2.82319251       0.60634275      -0.56499991
C       -1.96484947      -0.41448942      -0.42293215
O       -1.85832806      -1.70828391      -0.65266093
H       -1.95209640       2.63847613       1.86687317
H       -0.62067715      -0.53379012       1.25337739
H        2.32395847      -2.52349204      -0.53431725
H        2.40520739       1.47901196      -0.56506737
H       -2.82404653      -0.11894448       0.21448886
H       -2.01328144       0.22460584      -1.32694713
H        1.14472302      -2.22508146      -2.49144655
18
Properties=species:S:1:pos:R:3 relative_energy_eV=0.0015095573908183724 branch=left pbc="F F F"
O       -0.18313851       2.48738796       0.42209557
C       -0.85708764       1.55634484       0.80624044
O       -1.89079486       1.69143792       1.66362730
C       -0.71323547       0.12341498       0.39349450
O        0.39610786       0.00935935      -0.48782165
P        1.82108343      -0.50300334       0.00299518
O        1.99513744      -0.95658645       1.39423795
O        2.09626527      -1.74131181      -1.05085227
O        2.82445238       0.60592457      -0.56422044
C       -1.96437262      -0.41478009      -0.42198453
O       -1.85811278      -1.70868554      -0.65104246
H       -1.95364806       2.63853273       1.86511926
H       -0.62030100      -0.53345968       1.25319427
H        2.32168879      -2.52363678      -0.53529688
H        2.40632425       1.47853169      -0.56594906
H       -2.82354289      -0.11795733       0.21522316
H       -2.01233900       0.22297755      -1.32672921
H        1.14450105      -2.22391013      -2.49200126
18
Properties=species:S:1:pos:R:3 relative_energy_eV=0.0015862087821005844 branch=left pbc="F F F"
O       -0.18307586       2.48730300       0.42311075
C       -0.85747311       1.55634321       0.80652667
O       -1.89156731       1.69171222       1.66330084
C       -0.71312255       0.12373609       0.39322556
O        0.39693813       0.01093299      -0.48741088
P        1.82137205      -0.50294801       0.00297056
O        1.99364495      -0.95764795       1.39404266
O        2.09622496      -1.74057461      -1.05177847
O        2.82575437       0.60558252      -0.56315169
C       -1.96386479      -0.41546432      -0.42135673
O       -1.85716366      -1.70960073      -0.64925083
H       -1.95445329       2.63892795       1.86410824
H       -0.62010554      -0.53290922       1.25281548
H        2.31908324      -2.52337051      -0.53598357
H        2.40721621       1.47802021      -0.56705813
H       -2.82318568      -0.11772294       0.21549744
H       -2.01140850       0.22081176      -1.32691857
H        1.14417398      -2.22255120      -2.49235946
18
Properties=species:S:1:pos:R:3 relative_energy_eV=0.0016572854583500884 branch=left pbc="F F F"
O       -0.18262092       2.48734903       0.42419986
C       -0.85763713       1.55667152       0.80686490
O       -1.89201579       1.69234910       1.66297595
C       -0.71341789       0.12407495       0.39292054
O        0.39746504       0.01242723      -0.48686973
P        1.82137823      -0.50273164       0.00286956
O        1.99203591      -0.95886034       1.39362256
O        2.09608204      -1.73975453      -1.05257925
O        2.82692412       0.60535952      -0.56197141
C       -1.96333227      -0.41639376      -0.42116824
O       -1.85572122      -1.71085058      -0.64747321
H       -1.95472416       2.63952186       1.86382600
H       -0.61997339      -0.53232167       1.25244424
H        2.31655893      -2.52288081      -0.53636542
H        2.40781346       1.47748345      -0.56822248
H       -2.82286167      -0.11821828       0.21529698
H       -2.01060996       0.21859742      -1.32749295
H        1.14364422      -2.22124202      -2.49254800
18
Properties=species:S:1:pos:R:3 relative_energy_eV=0.0017337343597318977 branch=left pbc="F F F"
O       -0.18198881       2.48762304       0.42532107
C       -0.85766103       1.55728477       0.80725960
O       -1.89241141       1.69311359       1.66259055
C       -0.71382684       0.12446182       0.39277927
O        0.39776000       0.01391952      -0.48631189
P        1.82119815      -0.50239206       0.00273951
O        1.99050922      -0.96029196       1.39300934
O        2.09592974      -1.73888258      -1.05326264
O        2.82806643       0.60513177      -0.56076007
C       -1.96270137      -0.41741950      -0.42131239
O       -1.85411006      -1.71226973      -0.64561254
H       -1.95502941       2.64016627       1.86383087
H       -0.61974206      -0.53187897       1.25220509
H        2.31411443      -2.52230918      -0.53658068
H        2.40825080       1.47688166      -0.56942355
H       -2.82232729      -0.11911702       0.21484428
H       -2.00987423       0.21658118      -1.32832396
H        1.14283124      -2.22002219      -2.49266191
18
Properties=species:S:1:pos:R:3 relative_energy_eV=0.0018184004657086916 branch=left pbc="F F F"
O       -0.18149689       2.48820034       0.42643032
C       -0.85765837       1.55805067       0.80771339
O       -1.89308347       1.69371784       1.66206205
C       -0.71396268       0.12491642       0.39297643
O        0.39797563       0.01545444      -0.48588455
P        1.82098065      -0.50205342       0.00259869
O        1.98928439      -0.96198341       1.39227413
O        2.09586598      -1.73803842      -1.05389231
O        2.82923907       0.60484586      -0.55962600
C       -1.96189388      -0.41832744      -0.42160601
O       -1.85273043      -1.71360544      -0.64361527
H       -1.95597821       2.64067207       1.86360536
H       -0.61921118      -0.53174759       1.25218941
H        2.31178474      -2.52179049      -0.53673892
H        2.40866423       1.47613238      -0.57061381
H       -2.82134507      -0.11996478       0.21442948
H       -2.00911870       0.21505259      -1.32920674
H        1.14167166      -2.21895119      -2.49276572
18
Properties=species:S:1:pos:R:3 relative_energy_eV=0.0018990378266607877 branch=left pbc="F F F"
O       -0.18145104       2.48899175       0.42735716
C       -0.85772445       1.55869684       0.80815837
O       -1.89414021       1.69390564       1.66142194
C       -0.71353752       0.12537162       0.39352308
O        0.39824566       0.01682700      -0.48574918
P        1.82090647      -0.50189455       0.00247460
O        1.98863680      -0.96369199       1.39158761
O        2.09593829      -1.73743752      -1.05447348
O        2.83029691       0.60446460      -0.55877304
C       -1.96098354      -0.41882667      -0.42180395
O       -1.85201487      -1.71446850      -0.64176428
H       -1.95778089       2.64085303       1.86283792
H       -0.61834740      -0.53199071       1.25240023
H        2.30990188      -2.52145200      -0.53687717
H        2.40908110       1.47538668      -0.57160493
H       -2.81999624      -0.12029204       0.21432032
H       -2.00838388       0.21432538      -1.32983337
H        1.14034037      -2.21818817      -2.49287190
18
Properties=species:S:1:pos:R:3 relative_energy_eV=0.001974322269234108 branch=left pbc="F F F"
O       -0.18188278       2.48987071       0.42812029
C       -0.85790221       1.55909065       0.80853859
O       -1.89551174       1.69369055       1.66069199
C       -0.71256676       0.12579214       0.39422548
O        0.39868740       0.01795674      -0.48591301
P        1.82104063      -0.50203490       0.00235779
O        1.98857521      -0.96529825       1.39104178
O        2.09603195      -1.73719863      -1.05504743
O        2.83109129       0.60408851      -0.55817321
C       -1.96002395      -0.41886363      -0.42174121
O       -1.85185727      -1.71475241      -0.64023948
H       -1.96022446       2.64070628       1.86160529
H       -0.61719868      -0.53240371       1.25272740
H        2.30854497      -2.52131640      -0.53697347
H        2.40948206       1.47476019      -0.57236539
H       -2.81856282      -0.12001959       0.21451064
H       -2.00766694       0.21423363      -1.33008808
H        1.13893148      -2.21772148      -2.49294803
18
Properties=species:S:1:pos:R:3 relative_energy_eV=0.0020610698775271885 branch=left pbc="F F F"
O       -0.18269142       2.49095970       0.42907817
C       -0.85822901       1.55936658       0.80890528
O       -1.89736454       1.69322716       1.65968783
C       -0.71104019       0.12629875       0.39496010
O        0.39948006       0.01916080      -0.48631093
P        1.82139224      -0.50254985       0.00220299
O        1.98895407      -0.96725204       1.39047013
O        2.09592918      -1.73734060      -1.05578157
O        2.83170127       0.60370820      -0.55745799
C       -1.95878258      -0.41856507      -0.42132697
O       -1.85167998      -1.71463401      -0.63875067
H       -1.96352502       2.64031359       1.85996227
H       -0.61553422      -0.53271866       1.25308783
H        2.30727982      -2.52130420      -0.53699060
H        2.40987043       1.47428211      -0.57319125
H       -2.81707207      -0.11932349       0.21481835
H       -2.00673073       0.21426851      -1.33008099
H        1.13703004      -2.21731708      -2.49295202
18
Properties=species:S:1:pos:R:3 relative_energy_eV=0.002194133910961682 branch=left pbc="F F F"
O       -0.18361844       2.49248269       0.43081096
C       -0.85872701       1.55982836       0.80929112
O       -1.89991283       1.69273446       1.65808543
C       -0.70900340       0.12712524       0.39549484
O        0.40085849       0.02091021      -0.48683188
P        1.82191969      -0.50353836       0.00194122
O        1.98961749      -0.97026321       1.38960834
O        2.09521047      -1.73792810      -1.05684267
O        2.83215660       0.60346792      -0.55603575
C       -1.95691735      -0.41815117      -0.42047064
O       -1.85043950      -1.71439483      -0.63692008
H       -1.96795142       2.63975701       1.85813471
H       -0.61292558      -0.53242177       1.25333928
H        2.30552585      -2.52139635      -0.53683918
H        2.41012978       1.47394275      -0.57450355
H       -2.81561168      -0.11855425       0.21488505
H       -2.00520507       0.21363604      -1.33001065
H        1.13388121      -2.21665623      -2.49280657
18
Properties=species:S:1:pos:R:3 relative_energy_eV=0.002367692646657815 branch=left pbc="F F F"
O       -0.18399223       2.49420515       0.43334253
C       -0.85922922       1.56073763       0.80961069
O       -1.90253985       1.69259244       1.65608804
C       -0.70723499       0.12829295       0.39547105
O        0.40253668       0.02317564      -0.48713279
P        1.82238098      -0.50467770       0.00161691
O        1.99018462      -0.97411568       1.38841347
O        2.09369413      -1.73880694      -1.05797933
O        2.83243609       0.60353134      -0.55377135
C       -1.95470547      -0.41806041      -0.41944770
O       -1.84742982      -1.71448042      -0.63493263
H       -1.97238346       2.63929589       1.85697190
H       -0.60977286      -0.53108280       1.25326803
H        2.30323902      -2.52157159      -0.53653185
H        2.40999163       1.47383027      -0.57630787
H       -2.81468008      -0.11839084       0.21430552
H       -2.00318244       0.21174691      -1.33015698
H        1.12967454      -2.21564144      -2.49249762
18
Properties=species:S:1:pos:R:3 relative_energy_eV=0.0025532877079967875 branch=left pbc="F F F"
O       -0.18352576       2.49555976       0.43581827
C       -0.85952277       1.56192642       0.80977782
O       -1.90432274       1.69286542       1.65440486
C       -0.70648416       0.12947661       0.39495439
O        0.40383125       0.02529188      -0.48699351
P        1.82254329      -0.50542645       0.00135390
O        1.99037850      -0.97754377       1.38723730
O        2.09191846      -1.73953956      -1.05873498
O        2.83260442       0.60390919      -0.55144030
C       -1.95294732      -0.41849219      -0.41875552
O       -1.84359299      -1.71504163      -0.63338075
H       -1.97527311       2.63911260       1.85691429
H       -0.60716987      -0.52913605       1.25290790
H        2.30110779      -2.52181753      -0.53623582
H        2.40946774       1.47382571      -0.57800497
H       -2.81450111      -0.11901395       0.21324216
H       -2.00132104       0.20922111      -1.33057547
H        1.12579665      -2.21459718      -2.49215952
18
Properties=species:S:1:pos:R:3 relative_energy_eV=0.0027072514785686508 branch=left pbc="F F F"
O       -0.18261434       2.49638175       0.43764062
C       -0.85962222       1.56305754       0.80983340
O       -1.90521016       1.69325572       1.65334436
C       -0.70657885       0.13045499       0.39434979
O        0.40451544       0.02688635      -0.48653862
P        1.82248050      -0.50565020       0.00121026
O        1.99034419      -0.97990073       1.38631108
O        2.09043481      -1.73996912      -1.05900868
O        2.83282848       0.60433733      -0.54969030
C       -1.95193693      -0.41921880      -0.41852034
O       -1.84021308      -1.71582930      -0.63246146
H       -1.97662818       2.63910552       1.85745590
H       -0.60550935      -0.52726694       1.25249746
H        2.29959561      -2.52210976      -0.53611142
H        2.40878715       1.47379304      -0.57919552
H       -2.81472721      -0.11995206       0.21217631
H       -1.99996239       0.20703125      -1.33106622
H        1.12300375      -2.21382622      -2.49189655
18
Properties=species:S:1:pos:R:3 relative_energy_eV=0.002830135857948335 branch=left pbc="F F F"
O       -0.18170653       2.49691982       0.43894673
C       -0.85967518       1.56402353       0.80985550
O       -1.90576962       1.69347338       1.65265559
C       -0.70695342       0.13131417       0.39390742
O        0.40486291       0.02817920      -0.48594738
P        1.82238650      -0.50556405       0.00115183
O        1.99035860      -0.98147714       1.38560520
O        2.08926856      -1.74019240      -1.05900666
O        2.83324055       0.60470181      -0.54852320
C       -1.95140298      -0.42002003      -0.41858117
O       -1.83759813      -1.71662832      -0.63193636
H       -1.97738327       2.63905490       1.85795571
H       -0.60435647      -0.52560399       1.25220837
H        2.29859453      -2.52252687      -0.53622702
H        2.40802194       1.47353761      -0.57992408
H       -2.81491665      -0.12076469       0.21135268
H       -1.99891485       0.20550932      -1.33147419
H        1.12093070      -2.21335591      -2.49168893
18
Properties=species:S:1:pos:R:3 relative_energy_eV=0.0029519024392357096 branch=left pbc="F F F"
O       -0.18109586       2.49753679       0.44019787
C       -0.85987751       1.56489417       0.80991028
O       -1.90669140       1.69330515       1.65192367
C       -0.70713042       0.13230951       0.39374029
O        0.40528615       0.02971181      -0.48523726
P        1.82248495      -0.50538097       0.00115864
O        1.99074375      -0.98281097       1.38497697
O        2.08812712      -1.74041490      -1.05894000
O        2.83406073       0.60488081      -0.54770646
C       -1.95093332      -0.42084313      -0.41880095
O       -1.83544110      -1.71739489      -0.63152219
H       -1.97853859       2.63873924       1.85793199
H       -0.60307318      -0.52380329       1.25221067
H        2.29780747      -2.52320857      -0.53678780
H        2.40697545       1.47281516      -0.58035495
H       -2.81470738      -0.12125313       0.21078811
H       -1.99775719       0.20464777      -1.33173963
H        1.11874754      -2.21315025      -2.49141918
18
Properties=species:S:1:pos:R:3 relative_energy_eV=0.0031093867983145174 branch=left pbc="F F F"
O       -0.18126447       2.49858220       0.44181848
C       -0.86047695       1.56562518       0.81003964
O       -1.90866493       1.69252478       1.65072994
C       -0.70655602       0.13359321       0.39397140
O        0.40628467       0.03199125      -0.48445687
P        1.82305477      -0.50539073       0.00123174
O        1.99186482      -0.98416163       1.38445451
O        2.08673074      -1.74076196      -1.05910127
O        2.83544295       0.60473352      -0.54715368
C       -1.95007994      -0.42154988      -0.41906442
O       -1.83364742      -1.71800770      -0.63101129
H       -1.98090680       2.63792385       1.85688102
H       -0.60115341      -0.52154355       1.25282030
H        2.29704241      -2.52431290      -0.53810832
H        2.40540279       1.47122468      -0.58052091
H       -2.81368271      -0.12121777       0.21052045
H       -1.99616943       0.20459297      -1.33180022
H        1.11576615      -2.21326521      -2.49092043
18
Properties=species:S:1:pos:R:3 relative_energy_eV=0.0033180762839037925 branch=left pbc="F F F"
O       -0.18248765       2.50010782       0.44386978
C       -0.86154019       1.56608731       0.81021504
O       -1.91169171       1.69133381       1.64899926
C       -0.70503869       0.13493970       0.39453276
O        0.40807621       0.03492932      -0.48374319
P        1.82416038      -0.50584359       0.00139436
O        1.99368555      -0.98537121       1.38422363
O        2.08508163      -1.74127671      -1.05970451
O        2.83708052       0.60410769      -0.54684810
C       -1.94855649      -0.42188594      -0.41923551
O       -1.83226401      -1.71828424      -0.63038472
H       -1.98432201       2.63673998       1.85493350
H       -0.59879986      -0.51899309       1.25419151
H        2.29624570      -2.52559031      -0.54024361
H        2.40342513       1.46888712      -0.58047338
H       -2.81185427      -0.12081915       0.21043805
H       -1.99427817       0.20522114      -1.33171522
H        1.11206517      -2.21370939      -2.49011960
18
Properties=species:S:1:pos:R:3 relative_energy_eV=0.003547040938428836 branch=left pbc="F F F"
O       -0.18424267       2.50175469       0.44599416
C       -0.86275175       1.56633370       0.81032102
O       -1.91481503       1.69034447       1.64712132
C       -0.70316668       0.13594903       0.39505987
O        0.41025018       0.03779513      -0.48318990
P        1.82541459      -0.50668487       0.00162684
O        1.99552911      -0.98612679       1.38440644
O        2.08343443      -1.74171776      -1.06066863
O        2.83831185       0.60323566      -0.54666952
C       -1.94657416      -0.42182690      -0.41927956
O       -1.83111566      -1.71826488      -0.62977311
H       -1.98746748       2.63567248       1.85309371
H       -0.59678024      -0.51666519       1.25592839
H        2.29545055      -2.52665808      -0.54263352
H        2.40148891       1.46648302      -0.58036114
H       -2.80987186      -0.12062148       0.21025211
H       -1.99259172       0.20585700      -1.33172106
H        1.10848486      -2.21427902      -2.48917738
18
Properties=species:S:1:pos:R:3 relative_energy_eV=0.0037535078372457065 branch=left pbc="F F F"
O       -0.18573681       2.50316940       0.44782695
C       -0.86376256       1.56661270       0.81030864
O       -1.91716345       1.69001488       1.64553520
C       -0.70170494       0.13649994       0.39529735
O        0.41221490       0.04003253      -0.48264408
P        1.82640637      -0.50759374       0.00193498
O        1.99682695      -0.98637267       1.38489546
O        2.08201568      -1.74196532      -1.06164851
O        2.83882172       0.60236947      -0.54650137
C       -1.94455348      -0.42160802      -0.41929106
O       -1.82984548      -1.71818058      -0.62936254
H       -1.98934922       2.63511153       1.85223690
H       -0.59565362      -0.51485838       1.25751570
H        2.29469123      -2.52726169      -0.54482933
H        2.39993404       1.46463794      -0.58034781
H       -2.80835931      -0.12111226       0.20972538
H       -1.99140833       0.20588158      -1.33200999
H        1.10561353      -2.21479713      -2.48831185
18
Properties=species:S:1:pos:R:3 relative_energy_eV=0.003941555674828123 branch=left pbc="F F F"
O       -0.18655396       2.50428641       0.44926738
C       -0.86443469       1.56715370       0.81019659
O       -1.91856073       1.69037116       1.64435202
C       -0.70095747       0.13676639       0.39523644
O        0.41369973       0.04158036      -0.48189487
P        1.82698775      -0.50836934       0.00233212
O        1.99744192      -0.98624212       1.38558457
O        2.08084767      -1.74187603      -1.06246559
O        2.83867893       0.60168671      -0.54630818
C       -1.94271717      -0.42146332      -0.41937186
O       -1.82820298      -1.71821680      -0.62922535
H       -1.98988626       2.63507687       1.85256149
H       -0.59541232      -0.51352796       1.25867966
H        2.29397275      -2.52758770      -0.54670032
H        2.39876642       1.46343450      -0.58048875
H       -2.80742777      -0.12236324       0.20884071
H       -1.99067410       0.20509833      -1.33262581
H        1.10341951      -2.21522778      -2.48764023
18
Properties=species:S:1:pos:R:3 relative_energy_eV=0.004122766895306995 branch=left pbc="F F F"
O       -0.18674002       2.50532207       0.45044057
C       -0.86487232       1.56817976       0.81009150
O       -1.91942945       1.69131409       1.64341020
C       -0.70084328       0.13706051       0.39509268
O        0.41479795       0.04274931      -0.48053775
P        1.82727928      -0.50897676       0.00293520
O        1.99765794      -0.98594740       1.38645951
O        2.07982799      -1.74155137      -1.06306122
O        2.83811791       0.60107850      -0.54618883
C       -1.94092880      -0.42150936      -0.41958802
O       -1.82590578      -1.71842836      -0.62947186
H       -1.98970906       2.63547158       1.85387881
H       -0.59585288      -0.51245284       1.25946853
H        2.29325083      -2.52782536      -0.54869752
H        2.39789034       1.46265594      -0.58083097
H       -2.80679353      -0.12434293       0.20762710
H       -1.99005350       0.20354446      -1.33354188
H        1.10129362      -2.21576170      -2.48715604
18
Properties=species:S:1:pos:R:3 relative_energy_eV=0.004361258397693746 branch=left pbc="F F F"
O       -0.18652631       2.50661056       0.45143269
C       -0.86521158       1.56990159       0.81013347
O       -1.92040306       1.69269153       1.64241595
C       -0.70109864       0.13776884       0.39521109
O        0.41568331       0.04379063      -0.47809271
P        1.82748700      -0.50953243       0.00391321
O        1.99781673      -0.98564768       1.38768855
O        2.07889232      -1.74086290      -1.06355519
O        2.83731876       0.60042968      -0.54636302
C       -1.93898396      -0.42180543      -0.41997646
O       -1.82271851      -1.71876079      -0.63025018
H       -1.98971873       2.63611512       1.85589269
H       -0.59671825      -0.51153992       1.25988493
H        2.29253327      -2.52846420      -0.55130913
H        2.39723356       1.46203748      -0.58140489
H       -2.80594302      -0.12680155       0.20628778
H       -1.98913247       0.20135397      -1.33467858
H        1.09847684      -2.21670438      -2.48690021
18
Properties=species:S:1:pos:R:3 relative_energy_eV=0.004680835441831732 branch=left pbc="F F F"
O       -0.18657915       2.50820196       0.45206742
C       -0.86563865       1.57192188       0.81056309
O       -1.92214162       1.69391614       1.64130331
C       -0.70119185       0.13908312       0.39611711
O        0.41642113       0.04471605      -0.47468609
P        1.82792757      -0.51005572       0.00518847
O        1.99854858      -0.98571190       1.38905895
O        2.07824912      -1.74027297      -1.06393576
O        2.83683099       0.59963362      -0.54715881
C       -1.93717000      -0.42221938      -0.42042122
O       -1.81933842      -1.71890586      -0.63156355
H       -1.99135491       2.63664938       1.85740436
H       -0.59754897      -0.51102001       1.26002289
H        2.29209359      -2.52955901      -0.55461972
H        2.39717263       1.46146869      -0.58212401
H       -2.80450473      -0.12861859       0.20550998
H       -1.98759405       0.19960384      -1.33549464
H        1.09480597      -2.21825113      -2.48690184
18
Properties=species:S:1:pos:R:3 relative_energy_eV=0.005032846209360287 branch=left pbc="F F F"
O       -0.18742471       2.50975995       0.45225848
C       -0.86620403       1.57336488       0.81130060
O       -1.92457638       1.69436710       1.64019160
C       -0.70066328       0.14059901       0.39774776
O        0.41704896       0.04533370      -0.47153352
P        1.82872911      -0.51061611       0.00631182
O        1.99998073      -0.98621745       1.39018797
O        2.07793157      -1.73993311      -1.06442610
O        2.83703335       0.59883005      -0.54844898
C       -1.93598015      -0.42247381      -0.42072376
O       -1.81687902      -1.71860585      -0.63287315
H       -1.99484035       2.63670771       1.85739020
H       -0.59795242      -0.51106447       1.26010476
H        2.29216523      -2.53102640      -0.55769526
H        2.39780648       1.46095976      -0.58274093
H       -2.80266538      -0.12876064       0.20582909
H       -1.98569058       0.19938797      -1.33555021
H        1.09116809      -2.22003220      -2.48700045
18
Properties=species:S:1:pos:R:3 relative_energy_eV=0.005355843932193238 branch=left pbc="F F F"
O       -0.18919151       2.51111553       0.45222697
C       -0.86699665       1.57395837       0.81220728
O       -1.92741905       1.69411821       1.63920356
C       -0.69958256       0.14186523       0.39981622
O        0.41772473       0.04572355      -0.46909712
P        1.82988975      -0.51122250       0.00706205
O        2.00214926      -0.98713692       1.39081900
O        2.07767474      -1.74018991      -1.06507132
O        2.83796359       0.59797991      -0.55001816
C       -1.93534360      -0.42237356      -0.42081929
O       -1.81531693      -1.71782698      -0.63391744
H       -1.99980801       2.63639101       1.85580395
H       -0.59818233      -0.51151329       1.26058901
H        2.29270958      -2.53230075      -0.56042664
H        2.39923025       1.46048437      -0.58326486
H       -2.80084339      -0.12751719       0.20699308
H       -1.98359659       0.20086015      -1.33489456
H        1.08792592      -2.22183515      -2.48688182
18
Properties=species:S:1:pos:R:3 relative_energy_eV=0.005756436414230848 branch=left pbc="F F F"
O       -0.19209388       2.51250751       0.45222049
C       -0.86822099       1.57391595       0.81321383
O       -1.93090082       1.69339593       1.63812314
C       -0.69803896       0.14273364       0.40240305
O        0.41874880       0.04598598      -0.46698627
P        1.83159270      -0.51209307       0.00743525
O        2.00536981      -0.98848131       1.39100545
O        2.07690775      -1.74071345      -1.06627504
O        2.83969765       0.59686915      -0.55196870
C       -1.93484845      -0.42175131      -0.42074180
O       -1.81364636      -1.71642554      -0.63468248
H       -2.00685091       2.63580879       1.85278922
H       -0.59886278      -0.51231494       1.26194255
H        2.29380032      -2.53374739      -0.56335050
H        2.40173270       1.45995525      -0.58390471
H       -2.79898816      -0.12527986       0.20891600
H       -1.98090848       0.20413068      -1.33365305
H        1.08449731      -2.22391594      -2.48615654
18
Properties=species:S:1:pos:R:3 relative_energy_eV=0.006353123171720654 branch=left pbc="F F F"
O       -0.19612225       2.51403054       0.45253107
C       -0.87011459       1.57366730       0.81427761
O       -1.93499585       1.69258495       1.63704773
C       -0.69653331       0.14290515       0.40558003
O        0.42041470       0.04639263      -0.46444400
P        1.83395070      -0.51316484       0.00733788
O        2.01025220      -0.99045948       1.39036346
O        2.07487696      -1.74187923      -1.06805933
O        2.84245773       0.59516971      -0.55444406
C       -1.93393831      -0.42029086      -0.42049492
O       -1.81059898      -1.71417739      -0.63530610
H       -2.01696719       2.63525003       1.84843628
H       -0.60110663      -0.51332277       1.26499996
H        2.29555046      -2.53499668      -0.56754520
H        2.40610638       1.45922387      -0.58502183
H       -2.79738077      -0.12305385       0.21117578
H       -1.97711585       0.20931133      -1.33194283
H        1.08025185      -2.22661032      -2.48416164
18
Properties=species:S:1:pos:R:3 relative_energy_eV=0.007231795047118794 branch=left pbc="F F F"
O       -0.19943063       2.51517173       0.45317193
C       -0.87212230       1.57391309       0.81489246
O       -1.93815615       1.69233754       1.63636906
C       -0.69620299       0.14222365       0.40822378
O        0.42221431       0.04699373      -0.46164580
P        1.83604491      -0.51399308       0.00674250
O        2.01533164      -0.99239293       1.38889348
O        2.07148617      -1.74268975      -1.07003604
O        2.84536770       0.59324370      -0.55659507
C       -1.93239847      -0.41837983      -0.42023914
O       -1.80593481      -1.71180215      -0.63566433
H       -2.02702117       2.63531327       1.84495934
H       -0.60521579      -0.51402009       1.26910107
H        2.29748196      -2.53611425      -0.57214127
H        2.41119799       1.45849881      -0.58652452
H       -2.79670986      -0.12279703       0.21247231
H       -1.97312470       0.21426998      -1.33060129
H        1.07617945      -2.22919627      -2.48104857
18
Properties=species:S:1:pos:R:3 relative_energy_eV=0.008309342993015889 branch=left pbc="F F F"
O       -0.20055321       2.51551278       0.45389266
C       -0.87350361       1.57509361       0.81525994
O       -1.93936795       1.69273568       1.63666819
C       -0.69748083       0.14138404       0.40988733
O        0.42336552       0.04789142      -0.45856854
P        1.83701675      -0.51402796       0.00593153
O        2.01957642      -0.99396647       1.38677360
O        2.06761527      -1.74328706      -1.07135108
O        2.84769061       0.59144797      -0.55795085
C       -1.93023780      -0.41645290      -0.41995302
O       -1.80062322      -1.70983390      -0.63600349
H       -2.03483996       2.63585690       1.84305221
H       -0.61055429      -0.51380949       1.27312461
H        2.29907111      -2.53639348      -0.57651815
H        2.41603007       1.45780889      -0.58819145
H       -2.79716267      -0.12543023       0.21176721
H       -1.96999125       0.21725402      -1.32989586
H        1.07293629      -2.23120368      -2.47759496
18
Properties=species:S:1:pos:R:3 relative_energy_eV=0.009188283162075095 branch=left pbc="F F F"
O       -0.20048001       2.51502038       0.45425626
C       -0.87474228       1.57646742       0.81579857
O       -1.94003547       1.69377439       1.63741610
C       -0.69973764       0.14121274       0.41074286
O        0.42335851       0.04907406      -0.45576419
P        1.83666713      -0.51351269       0.00543750
O        2.02262701      -0.99513717       1.38491705
O        2.06469578      -1.74297607      -1.07212836
O        2.84898177       0.59001468      -0.55838905
C       -1.92802749      -0.41574424      -0.41993012
O       -1.79630213      -1.70936058      -0.63683376
H       -2.03714272       2.63806832       1.84392285
H       -0.61511169      -0.51268443       1.27559749
H        2.30022641      -2.53629830      -0.57913172
H        2.41954457       1.45732952      -0.58965990
H       -2.79812665      -0.12977693       0.20898936
H       -1.96829718       0.21755831      -1.32971833
H        1.07088934      -2.23244928      -2.47519271
18
Properties=species:S:1:pos:R:3 relative_energy_eV=0.01007900668628281 branch=left pbc="F F F"
O       -0.20059675       2.51458889       0.45476842
C       -0.87519179       1.57769397       0.81816797
O       -1.94041882       1.69338886       1.64011400
C       -0.70134572       0.14249016       0.41315113
O        0.42295398       0.05049059      -0.45168026
P        1.83624395      -0.51319036       0.00487803
O        2.02782413      -0.99733437       1.38234154
O        2.06232400      -1.74290684      -1.07331265
O        2.85085838       0.58758256      -0.55969431
C       -1.92539603      -0.41378287      -0.41881827
O       -1.79387990      -1.70733594      -0.63830635
H       -2.04451028       2.63671706       1.83826442
H       -0.61904990      -0.51063455       1.27838870
H        2.30221727      -2.53563382      -0.58154924
H        2.42509075       1.45634008      -0.59133048
H       -2.79866819      -0.13282286       0.20583751
H       -1.96713745       0.21952407      -1.32765757
H        1.06766966      -2.23459445      -2.47323268
18
Properties=species:S:1:pos:R:3 relative_energy_eV=0.011169825880642748 branch=left pbc="F F F"
O       -0.20421130       2.51399381       0.45519720
C       -0.87849450       1.57818551       0.82141178
O       -1.94466282       1.69425236       1.64186895
C       -0.70345286       0.14395568       0.41634774
O        0.42243941       0.05298656      -0.44642904
P        1.83590911      -0.51315876       0.00480625
O        2.03503539      -1.00070863       1.37983365
O        2.06054697      -1.74268314      -1.07492109
O        2.85300266       0.58454195      -0.56128934
C       -1.92260738      -0.41383670      -0.41856302
O       -1.79151998      -1.70710825      -0.64166814
H       -2.04657734       2.64069542       1.83613708
H       -0.62199698      -0.50826373       1.28120643
H        2.30491118      -2.53426199      -0.58338717
H        2.43181630       1.45519287      -0.59347912
H       -2.79935978      -0.13658225       0.20077816
H       -1.96549784       0.22080795      -1.32546080
H        1.06370706      -2.23742844      -2.47205961
18
Properties=species:S:1:pos:R:3 relative_energy_eV=0.012457174219889566 branch=left pbc="F F F"
O       -0.20957712       2.51446388       0.45605378
C       -0.88130093       1.57753741       0.82538817
O       -1.94916785       1.69364916       1.64405146
C       -0.70336600       0.14566217       0.42070712
O        0.42266920       0.05488495      -0.44148338
P        1.83684350      -0.51420715       0.00473160
O        2.04299954      -1.00459929       1.37779008
O        2.05981226      -1.74272749      -1.07720009
O        2.85554134       0.58121593      -0.56389468
C       -1.92108705      -0.41309086      -0.41779519
O       -1.79173583      -1.70548605      -0.64498705
H       -2.05308705       2.64099914       1.82804174
H       -0.62240061      -0.50655428       1.28431589
H        2.30804793      -2.53291190      -0.58432852
H        2.43908435       1.45396858      -0.59525128
H       -2.79934390      -0.13613858       0.19806748
H       -1.96415844       0.22468840      -1.32201773
H        1.05921395      -2.24077375      -2.47185945
18
Properties=species:S:1:pos:R:3 relative_energy_eV=0.013776528750895523 branch=left pbc="F F F"
O       -0.21701521       2.51574428       0.45731443
C       -0.88506548       1.57618385       0.82878281
O       -1.95484631       1.69352968       1.64512330
C       -0.70251690       0.14629839       0.42494550
O        0.42382924       0.05657131      -0.43694500
P        1.83882884      -0.51586065       0.00481334
O        2.05046859      -1.00861988       1.37650541
O        2.05961153      -1.74319828      -1.07949327
O        2.85796447       0.57827614      -0.56675654
C       -1.92088998      -0.41325452      -0.41775064
O       -1.79245931      -1.70450345      -0.64859542
H       -2.05736983       2.64281762       1.82122613
H       -0.62101675      -0.50585882       1.28773566
H        2.31101521      -2.53100742      -0.58471776
H        2.44580329       1.45295142      -0.59681439
H       -2.79964352      -0.13418663       0.19650257
H       -1.96268825       0.22874743      -1.31921615
H        1.05497765      -2.24405018      -2.47232999
18
Properties=species:S:1:pos:R:3 relative_energy_eV=0.015068132717715343 branch=left pbc="F F F"
O       -0.22428739       2.51784297       0.45909897
C       -0.88828691       1.57485575       0.83116330
O       -1.95939172       1.69343304       1.64594651
C       -0.70114985       0.14577574       0.42859286
O        0.42583866       0.05766686      -0.43294260
P        1.84159458      -0.51785424       0.00475440
O        2.05645903      -1.01225109       1.37572706
O        2.05930866      -1.74347809      -1.08176999
O        2.86013072       0.57584467      -0.56968519
C       -1.92187965      -0.41331091      -0.41795059
O       -1.79353167      -1.70334511      -0.65178437
H       -2.06181101       2.64358902       1.81402561
H       -0.61854952      -0.50609448       1.29152917
H        2.31364068      -2.52917362      -0.58452534
H        2.45150833       1.45226534      -0.59804280
H       -2.80050225      -0.13112576       0.19645668
H       -1.96148707       0.23285700      -1.31725323
H        1.05138364      -2.24691679      -2.47301045
18
Properties=species:S:1:pos:R:3 relative_energy_eV=0.016307846570271067 branch=left pbc="F F F"
O       -0.23031540       2.52022683       0.46114218
C       -0.89101511       1.57425700       0.83225212
O       -1.96247206       1.69378620       1.64650219
C       -0.70028618       0.14409793       0.43114326
O        0.42826683       0.05853181      -0.42910898
P        1.84447027      -0.51949177       0.00456520
O        2.06060276      -1.01532110       1.37508726
O        2.05868335      -1.74388566      -1.08335269
O        2.86188541       0.57413788      -0.57228371
C       -1.92338451      -0.41343223      -0.41842780
O       -1.79433780      -1.70247103      -0.65468303
H       -2.06483521       2.64466794       1.80872043
H       -0.61588973      -0.50694359       1.29543206
H        2.31565433      -2.52707604      -0.58431105
H        2.45594409       1.45179886      -0.59903081
H       -2.80217880      -0.12887631       0.19685862
H       -1.96052592       0.23571496      -1.31660070
H        1.04872094      -2.24914137      -2.47357452
18
Properties=species:S:1:pos:R:3 relative_energy_eV=0.017470966649852926 branch=left pbc="F F F"
O       -0.23395440       2.52241829       0.46304532
C       -0.89270627       1.57468784       0.83232800
O       -1.96352865       1.69414754       1.64718161
C       -0.70010530       0.14194154       0.43270774
O        0.43059897       0.05932534      -0.42539574
P        1.84694944      -0.52045693       0.00418453
O        2.06294810      -1.01772527       1.37425233
O        2.05753819      -1.74384274      -1.08428953
O        2.86334886       0.57300153      -0.57445198
C       -1.92482134      -0.41315632      -0.41875755
O       -1.79528911      -1.70153662      -0.65717015
H       -2.06759680       2.64530122       1.80479504
H       -0.61350924      -0.50800649       1.29896409
H        2.31721457      -2.52549955      -0.58399879
H        2.45901743       1.45150693      -0.59972296
H       -2.80430048      -0.12797343       0.19736368
H       -1.95990715       0.23710490      -1.31690394
H        1.04709043      -2.25065749      -2.47380168
18
Properties=species:S:1:pos:R:3 relative_energy_eV=0.018668704477022402 branch=left pbc="F F F"
O       -0.23548164       2.52416830       0.46445689
C       -0.89341327       1.57599635       0.83195638
O       -1.96308111       1.69408462       1.64793929
C       -0.70032350       0.13988994       0.43384478
O        0.43270801       0.06040154      -0.42154117
P        1.84901332      -0.52057504       0.00366071
O        2.06417079      -1.01984616       1.37295540
O        2.05614078      -1.74399040      -1.08433557
O        2.86488507       0.57235205      -0.57649696
C       -1.92589585      -0.41222506      -0.41864359
O       -1.79732863      -1.70023098      -0.65956377
H       -2.07126238       2.64550445       1.80160274
H       -0.61118711      -0.50914945       1.30195170
H        2.31850007      -2.52423400      -0.58397434
H        2.46113165       1.45109390      -0.60007982
H       -2.80643252      -0.12826782       0.19791955
H       -1.95944319       0.23729627      -1.31762478
H        1.04628674      -2.25168820      -2.47369743
18
Properties=species:S:1:pos:R:3 relative_energy_eV=0.02041071576968534 branch=left pbc="F F F"
O       -0.23536319       2.52547159       0.46497713
C       -0.89286915       1.57791191       0.83192621
O       -1.96150791       1.69276259       1.64880722
C       -0.70008160       0.13845353       0.43558311
O        0.43502794       0.06237379      -0.41709047
P        1.85125146      -0.51993438       0.00287248
O        2.06520007      -1.02246149       1.37075428
O        2.05430597      -1.74417612      -1.08379087
O        2.86737534       0.57179631      -0.57930644
C       -1.92659480      -0.40989870      -0.41752170
O       -1.80290006      -1.69762915      -0.66251799
H       -2.07940409       2.64449598       1.79693493
H       -0.60782557      -0.51058108       1.30447920
H        2.32025620      -2.52400617      -0.58406006
H        2.46278218       1.45032914      -0.59989703
H       -2.80807308      -0.12883945       0.19932570
H       -1.95877463       0.23710361      -1.31797560
H        1.04618214      -2.25259155      -2.47317012
18
Properties=species:S:1:pos:R:3 relative_energy_eV=0.023641518480872037 branch=left pbc="F F F"
O       -0.23476551       2.52597702       0.46361532
C       -0.89061195       1.57920636       0.83364141
O       -1.96009161       1.68899346       1.64921266
C       -0.69753720       0.13863983       0.43902324
O        0.43800861       0.06574681      -0.41296345
P        1.85428634      -0.51885031       0.00182960
O        2.06719757      -1.02612986       1.36762235
O        2.05280702      -1.74566780      -1.08258028
O        2.87151911       0.57128584      -0.58369130
C       -1.92684489      -0.40550705      -0.41465912
O       -1.81530253      -1.69269500      -0.66616795
H       -2.09653531       2.64111223       1.78824522
H       -0.60204979      -0.51258562       1.30588015
H        2.32286424      -2.52516016      -0.58466845
H        2.46419021       1.44873341      -0.59865682
H       -2.80762847      -0.12722358       0.20330437
H       -1.95730134       0.23834364      -1.31640603
H        1.04678273      -2.25363882      -2.47225094
18
Properties=species:S:1:pos:R:3 relative_energy_eV=0.028323212260147557 branch=left pbc="F F F"
O       -0.23579991       2.52557139       0.46045904
C       -0.88755303       1.57812479       0.83748574
O       -1.96090952       1.68355158       1.64840494
C       -0.69206664       0.14044640       0.44339810
O        0.44123314       0.06927631      -0.41185314
P        1.85783462      -0.51870885       0.00080329
O        2.07048229      -1.02969097       1.36505592
O        2.05269530      -1.74800931      -1.08185164
O        2.87600802       0.57062050      -0.58846236
C       -1.92681076      -0.40043085      -0.41079495
O       -1.83166694      -1.68669294      -0.66893971
H       -2.11915061       2.63570387       1.77660185
H       -0.59488325      -0.51480407       1.30538094
H        2.32579146      -2.52802480      -0.58533349
H        2.46509289       1.44683506      -0.59650964
H       -2.80397722      -0.12115725       0.21009027
H       -1.95503477       0.24268541      -1.31221183
H        1.04770214      -2.25471587      -2.47139339
18
Properties=species:S:1:pos:R:3 relative_energy_eV=0.03468208998674527 branch=left pbc="F F F"
O       -0.24049802       2.52452605       0.45609898
C       -0.88508719       1.57419601       0.84309900
O       -1.96558973       1.67742375       1.64597282
C       -0.68390985       0.14247618       0.44752136
O        0.44510838       0.07227871      -0.41465045
P        1.86211157      -0.52045332      -0.00032841
O        2.07544258      -1.03251533       1.36370549
O        2.05479071      -1.75162438      -1.08185325
O        2.87974705       0.56964869      -0.59283443
C       -1.92679158      -0.39546791      -0.40649263
O       -1.84998695      -1.68063475      -0.67016342
H       -2.14454642       2.62919249       1.76297119
H       -0.58637295      -0.51752128       1.30317434
H        2.32861229      -2.53189900      -0.58619000
H        2.46573301       1.44472196      -0.59364576
H       -2.79666016      -0.10910602       0.22001648
H       -1.95170093       0.25123071      -1.30515147
H        1.04858542      -2.25589212      -2.47091995
18
Properties=species:S:1:pos:R:3 relative_energy_eV=0.04173765493032988 branch=left pbc="F F F"
O       -0.24811262       2.52325760       0.45227613
C       -0.88487387       1.56944028       0.84815794
O       -1.97323228       1.67277781       1.64301781
C       -0.67599309       0.14258306       0.44924251
O        0.44934791       0.07411415      -0.41982922
P        1.86630655      -0.52387906      -0.00171994
O        2.08117848      -1.03375948       1.36343362
O        2.05854397      -1.75514191      -1.08271021
O        2.88141242       0.56806697      -0.59545982
C       -1.92689548      -0.39176338      -0.40286050
O       -1.86565574      -1.67621096      -0.66973246
H       -2.16638746       2.62345475       1.75063294
H       -0.57782681      -0.52070440       1.30035868
H        2.33086626      -2.53608705      -0.58683913
H        2.46621399       1.44290057      -0.59083192
H       -2.78733630      -0.09363037       0.23098826
H       -1.94775404       0.26215505      -1.29687642
H        1.04918533      -2.25699321      -2.47091839
18
Properties=species:S:1:pos:R:3 relative_energy_eV=0.053771598657476716 branch=left pbc="F F F"
O       -0.26097182       2.52113993       0.44878734
C       -0.88896136       1.56457436       0.85232648
O       -1.98633311       1.66864290       1.63972828
C       -0.66708281       0.13836046       0.44722091
O        0.45598126       0.07558470      -0.42763513
P        1.87143959      -0.52998045      -0.00463248
O        2.09030459      -1.03335989       1.36324590
O        2.06605642      -1.76026413      -1.08431746
O        2.88077895       0.56480428      -0.59655873
C       -1.92700413      -0.38763336      -0.39849242
O       -1.88446688      -1.67183849      -0.66746618
H       -2.19307576       2.61591827       1.73445419
H       -0.56483750      -0.52653779       1.29619675
H        2.33338122      -2.54205696      -0.58783614
H        2.46704403       1.44023563      -0.58701606
H       -2.77174763      -0.06837865       0.24756831
H       -1.94125290       0.27988495      -1.28383642
H        1.04973503      -2.25851535      -2.47140729
18
Properties=species:S:1:pos:R:3 relative_energy_eV=0.06384208824238158 branch=left pbc="F F F"
O       -0.26837308       2.51964118       0.44821657
C       -0.89395811       1.56393844       0.85214022
O       -1.99378358       1.66667472       1.63889857
C       -0.66347056       0.13341457       0.44396139
O        0.45986269       0.07602485      -0.43116380
P        1.87375471      -0.53383246      -0.00670527
O        2.09616412      -1.03192532       1.36226354
O        2.07157530      -1.76324955      -1.08548493
O        2.87928622       0.56225897      -0.59604474
C       -1.92660009      -0.38500003      -0.39598488
O       -1.89486234      -1.66905317      -0.66527321
H       -2.20871361       2.61021436       1.72384511
H       -0.55606655      -0.53095817       1.29356730
H        2.33478110      -2.54612224      -0.58836062
H        2.46766391       1.43840076      -0.58471709
H       -2.76116911      -0.05180027       0.25821650
H       -1.93706924       0.29140389      -1.27517948
H        1.04996539      -2.25945012      -2.47186532
18
Properties=species:S:1:pos:R:3 relative_energy_eV=0.07438648143215687 branch=left pbc="F F F"
O       -0.27056536       2.51803497       0.45034933
C       -0.90234652       1.56663695       0.84565410
O       -1.99686470       1.66684150       1.64145494
C       -0.66578188       0.12734149       0.43989747
O        0.46201346       0.07730452      -0.42979219
P        1.87259219      -0.53473895      -0.01082046
O        2.10165610      -1.03039016       1.36125487
O        2.07677691      -1.76560190      -1.08603058
O        2.87731054       0.55935609      -0.59407222
C       -1.92506271      -0.38314972      -0.39387426
O       -1.90243758      -1.66707764      -0.66392916
H       -2.22010687       2.60623019       1.71657139
H       -0.54777134      -0.53524793       1.29064829
H        2.33598526      -2.54988267      -0.58897555
H        2.46822952       1.43646258      -0.58306359
H       -2.75165345      -0.04064180       0.26537520
H       -1.93344692       0.29920343      -1.26830049
H        1.05046053      -2.26010054      -2.47201727
18
Properties=species:S:1:pos:R:3 relative_energy_eV=0.08685335421250784 branch=left pbc="F F F"
O       -0.27260806       2.51793965       0.45377939
C       -0.91007684       1.56864270       0.83626684
O       -1.99775847       1.66362414       1.64271049
C       -0.66950089       0.12252990       0.43782632
O        0.46172643       0.07694789      -0.42671700
P        1.87191222      -0.53785490      -0.00844206
O        2.10457150      -1.02659167       1.35520450
O        2.08168906      -1.76765434      -1.08718892
O        2.87685682       0.55852722      -0.59272350
C       -1.92255071      -0.37892018      -0.39056071
O       -1.90756713      -1.66319065      -0.66137415
H       -2.22866231       2.60108734       1.70857570
H       -0.54039312      -0.53963662       1.28804442
H        2.33674497      -2.55325449      -0.58905933
H        2.46872397       1.43448364      -0.58167537
H       -2.74303005      -0.03093668       0.27112815
H       -1.93138719       0.30561908      -1.26276932
H        1.05029700      -2.26078162      -2.47269565
18
Properties=species:S:1:pos:R:3 relative_energy_eV=0.1048043949631392 branch=left pbc="F F F"
O       -0.29339608       2.52287466       0.45655797
C       -0.92189613       1.56229256       0.82640675
O       -2.00926252       1.64606941       1.62710332
C       -0.66812296       0.11831049       0.43985507
O        0.46167172       0.06850256      -0.42305475
P        1.87493738      -0.54030601      -0.01280586
O        2.10730071      -1.02359119       1.35587197
O        2.08950214      -1.77070736      -1.08911750
O        2.88019385       0.55859202      -0.59195556
C       -1.91712360      -0.36855715      -0.38374461
O       -1.91127590      -1.65278579      -0.65348664
H       -2.22510638       2.60171393       1.70276516
H       -0.53049979      -0.54838595       1.28587849
H        2.33705659      -2.55771074      -0.58838722
H        2.46783169       1.43306611      -0.57937176
H       -2.73075971      -0.01203919       0.28028647
H       -1.92966866       0.31589319      -1.25627008
H        1.04760481      -2.26265116      -2.47620135
18
Properties=species:S:1:pos:R:3 relative_energy_eV=0.1210655654031143 branch=left pbc="F F F"
O       -0.28664218       2.53149942       0.46037163
C       -0.90678143       1.55792017       0.82418607
O       -1.99264474       1.62291987       1.63075315
C       -0.65724265       0.12342245       0.44594066
O        0.45837809       0.05433295      -0.42479486
P        1.87661938      -0.54185115      -0.01683123
O        2.10240689      -1.01918926       1.35801409
O        2.09347505      -1.77239460      -1.09087821
O        2.88227395       0.55950016      -0.59359745
C       -1.91744541      -0.34905210      -0.37346996
O       -1.91386811      -1.63174925      -0.63931339
H       -2.26304563       2.55346840       1.65195293
H       -0.52994283      -0.54973907       1.28645596
H        2.33496918      -2.55948961      -0.58749014
H        2.46771541       1.43334127      -0.57694649
H       -2.72581940       0.00948394       0.29373637
H       -1.93740343       0.33147298      -1.24906515
H        1.04398510      -2.26331616      -2.47869426
18
Properties=species:S:1:pos:R:3 relative_energy_eV=0.14734418721855036 branch=left pbc="F F F"
O       -0.30793982       2.54152494       0.45905441
C       -0.89464201       1.54617436       0.83216972
O       -1.99719943       1.59151011       1.61197317
C       -0.63647427       0.12701191       0.45398034
O        0.45901426       0.03502539      -0.43257623
P        1.88687754      -0.54762545      -0.01730790
O        2.09694371      -1.01533014       1.36172064
O        2.09848493      -1.77444444      -1.09338338
O        2.88687071       0.56284310      -0.59701304
C       -1.91742772      -0.33119298      -0.36480182
O       -1.91377519      -1.61039388      -0.62298369
H       -2.27640885       2.52560683       1.61834013
H       -0.52909990      -0.55409013       1.28910573
H        2.33274859      -2.56070128      -0.58573610
H        2.46671700       1.43407424      -0.57426704
H       -2.72078666       0.03725715       0.30871283
H       -1.94301139       0.34855291      -1.24256681
H        1.03809571      -2.26522223      -2.48409122
18
Properties=species:S:1:pos:R:3 relative_energy_eV=0.1631483853016107 branch=left pbc="F F F"
O       -0.31124121       2.54572393       0.45779935
C       -0.88218180       1.54235799       0.83958424
O       -1.99454271       1.57948179       1.60869583
C       -0.62503542       0.13011759       0.45712085
O        0.46007250       0.02632816      -0.43844829
P        1.89117864      -0.54924645      -0.01853609
O        2.09317420      -1.01422697       1.36488571
O        2.09906498      -1.77445112      -1.09386940
O        2.88775521       0.56381918      -0.59887981
C       -1.91961338      -0.32340376      -0.36155671
O       -1.91314453      -1.60087478      -0.61566099
H       -2.28974551       2.50500446       1.59680739
H       -0.53164625      -0.55368422       1.29149408
H        2.33134597      -2.56022118      -0.58502995
H        2.46647081       1.43505993      -0.57330793
H       -2.72144525       0.04829529       0.31534578
H       -1.94704112       0.35619064      -1.24009467
H        1.03556213      -2.26569005      -2.48601970
18
Properties=species:S:1:pos:R:3 relative_energy_eV=0.20042818388537853 branch=left pbc="F F F"
O       -0.32758932       2.54859010       0.45267436
C       -0.86126787       1.54044314       0.86029569
O       -2.00221413       1.56482025       1.59734515
C       -0.60296874       0.13041000       0.45778003
O        0.46731762       0.01232554      -0.45277315
P        1.90124308      -0.55309232      -0.01768408
O        2.08733567      -1.01321770       1.36928443
O        2.09911550      -1.77372981      -1.09366140
O        2.88784096       0.56556428      -0.60213639
C       -1.92531513      -0.31586138      -0.35961976
O       -1.91026845      -1.58994061      -0.60567033
H       -2.29834039       2.48359660       1.57488727
H       -0.53686956      -0.55315589       1.29772595
H        2.32924864      -2.55821640      -0.58395785
H        2.46614282       1.43666521      -0.57215934
H       -2.72437101       0.06519387       0.32497697
H       -1.95122318       0.36691683      -1.23711877
H        1.03117072      -2.26673127      -2.48985910
18
Properties=species:S:1:pos:R:3 relative_energy_eV=0.21912905013232375 branch=left pbc="F F F"
O       -0.33262743       2.54710593       0.45180096
C       -0.85520337       1.54291522       0.86620432
O       -2.00487340       1.56226652       1.59450549
C       -0.59705183       0.12973805       0.45699015
O        0.46989391       0.00872667      -0.45688353
P        1.90384551      -0.55379898      -0.01774587
O        2.08588017      -1.01315047       1.37062767
O        2.09892937      -1.77336653      -1.09342412
O        2.88762092       0.56567004      -0.60290510
C       -1.92726825      -0.31440635      -0.35941070
O       -1.90931115      -1.58777178      -0.60343629
H       -2.29979271       2.47824136       1.56998578
H       -0.53841279      -0.55295634       1.29964681
H        2.32873340      -2.55758989      -0.58370888
H        2.46599821       1.43724896      -0.57191032
H       -2.72536115       0.06924127       0.32728688
H       -1.95209718       0.36945059      -1.23646328
H        1.03008500      -2.26698388      -2.49083033
18
Properties=species:S:1:pos:R:3 relative_energy_eV=0.26874328771737055 branch=left pbc="F F F"
O       -0.28021784       2.54925818       0.45631660
C       -0.82695487       1.54928556       0.86711967
O       -1.96434463       1.57642177       1.63311745
C       -0.59817516       0.13947069       0.45668701
O        0.46460080       0.01017280      -0.45860574
P        1.89548880      -0.55006440      -0.01765668
O        2.07944009      -1.01149358       1.36881533
O        2.09333453      -1.77112774      -1.09234995
O        2.88318352       0.56429381      -0.60363854
C       -1.93364906      -0.30779581      -0.35688280
O       -1.91035050      -1.58179884      -0.60178327
H       -2.35568795       2.41276425       1.51910879
H       -0.54817603      -0.54216199       1.30070112
H        2.32685038      -2.55516692      -0.58431485
H        2.46783977       1.43831679      -0.57241256
H       -2.73406892       0.06328696       0.32884263
H       -1.96194069       0.37148505      -1.23590332
H        1.03181520      -2.26456614      -2.48683152
18
Properties=species:S:1:pos:R:3 relative_energy_eV=0.2896297849874827 branch=left pbc="F F F"
O       -0.24899914       2.55788971       0.45345517
C       -0.79919473       1.55138888       0.86457299
O       -1.93795315       1.54831873       1.65813504
C       -0.58985805       0.14596824       0.46046742
O        0.46223551       0.01078630      -0.45809592
P        1.89006826      -0.54824370      -0.01784555
O        2.07435700      -1.00995544       1.36739778
O        2.08924716      -1.76913175      -1.09134241
O        2.87933584       0.56315645      -0.60420870
C       -1.93938536      -0.30109250      -0.35421049
O       -1.91193931      -1.57321908      -0.59682252
H       -2.39990347       2.39244431       1.48206445
H       -0.55656166      -0.53594242       1.30431042
H        2.32522212      -2.55288303      -0.58478496
H        2.46926442       1.43922686      -0.57265747
H       -2.74011142       0.06062050       0.32904069
H       -1.96941325       0.37424414      -1.23496600
H        1.03257679      -2.26299568      -2.48418073
18
Properties=species:S:1:pos:R:3 relative_energy_eV=0.35517941183570656 branch=left pbc="F F F"
O       -0.20165798       2.54819787       0.46367443
C       -0.77649632       1.56911686       0.86170112
O       -1.89083402       1.56459283       1.69356911
C       -0.59654529       0.15571807       0.46074649
O        0.45466493       0.01406437      -0.45746144
P        1.88106955      -0.54387169      -0.01834368
O        2.06919422      -1.00869490       1.36577783
O        2.08420607      -1.76773434      -1.09088743
O        2.87576694       0.56158274      -0.60445703
C       -1.94362023      -0.29621642      -0.35228578
O       -1.91339272      -1.56922389      -0.59707468
H       -2.45285325       2.33294436       1.43570615
H       -0.56423517      -0.52603228       1.30327725
H        2.32378340      -2.55109654      -0.58547291
H        2.47082421       1.44023895      -0.57321413
H       -2.74764153       0.05290922       0.32978349
H       -1.97819167       0.37461641      -1.23496784
H        1.03494664      -2.26053103      -2.47974203
18
Properties=species:S:1:pos:R:3 relative_energy_eV=0.43216791979648406 branch=left pbc="F F F"
O       -0.16365664       2.54462332       0.47028350
C       -0.77178760       1.57603399       0.86498501
O       -1.84811744       1.58050763       1.71613071
C       -0.60606322       0.16501572       0.46153065
O        0.44835946       0.01690801      -0.45686221
P        1.87460954      -0.54117612      -0.01860778
O        2.06595080      -1.00783161       1.36460597
O        2.08092377      -1.76691470      -1.09077340
O        2.87377580       0.56083565      -0.60457645
C       -1.94527590      -0.29272427      -0.35078481
O       -1.91455159      -1.56839527      -0.59866604
H       -2.49161635       2.29011142       1.40297357
H       -0.56853293      -0.51907306       1.30134559
H        2.32294957      -2.55018859      -0.58589677
H        2.47193203       1.44082919      -0.57366650
H       -2.75257581       0.04661686       0.33016332
H       -1.98414767       0.37418234      -1.23533860
H        1.03681213      -2.25877992      -2.47651704
18
Properties=species:S:1:pos:R:3 relative_energy_eV=0.474273736395844 branch=left pbc="F F F"
O       -0.11516443       2.53129290       0.48487596
C       -0.76352447       1.58939629       0.86954638
O       -1.80645891       1.64458675       1.74789118
C       -0.62275184       0.17381759       0.45648260
O        0.44074616       0.01976420      -0.45919832
P        1.86666572      -0.53672603      -0.01843758
O        2.06213848      -1.00715517       1.36327316
O        2.07688346      -1.76611790      -1.09053074
O        2.87160807       0.55987599      -0.60480375
C       -1.94758742      -0.29101621      -0.35017027
O       -1.91448958      -1.57081448      -0.60373555
H       -2.53022338       2.20570277       1.36576231
H       -0.57320803      -0.50884366       1.29698567
H        2.32207979      -2.54934854      -0.58637877
H        2.47314967       1.44143023      -0.57427894
H       -2.75917288       0.03832446       0.33180163
H       -1.99090499       0.37300181      -1.23597636
H        1.03920272      -2.25659048      -2.47278014
18
Properties=species:S:1:pos:R:3 relative_energy_eV=0.4881557738153788 branch=left pbc="F F F"
O       -0.09859926       2.52714470       0.48987601
C       -0.76155121       1.59285935       0.87173894
O       -1.79435184       1.67094786       1.75872011
C       -0.62881170       0.17633238       0.45404185
O        0.43842695       0.02055902      -0.46046513
P        1.86415171      -0.53523567      -0.01829739
O        2.06095439      -1.00697995       1.36285232
O        2.07561774      -1.76586880      -1.09041050
O        2.87097559       0.55961717      -0.60490143
C       -1.94834569      -0.29083824      -0.35013085
O       -1.91425050      -1.57215825      -0.60583141
H       -2.54164878       2.17482305       1.35421198
H       -0.57460286      -0.50533677       1.29532148
H        2.32182718      -2.54912370      -0.58652168
H        2.47352435       1.44158249      -0.57448394
H       -2.76132363       0.03561005       0.33246708
H       -1.99296181       0.37254521      -1.23620361
H        1.03995758      -2.25589940      -2.47165543
18
Properties=species:S:1:pos:R:3 relative_energy_eV=0.4954288444023405 branch=left pbc="F F F"
O       -0.08043563       2.52007310       0.49701295
C       -0.75779328       1.59841493       0.87400684
O       -1.78498792       1.71055710       1.77202674
C       -0.63636533       0.17799489       0.44960776
O        0.43608450       0.02118082      -0.46285362
P        1.86152446      -0.53333971      -0.01799188
O        2.05967982      -1.00688500       1.36241566
O        2.07421475      -1.76562194      -1.09022132
O        2.87032288       0.55930869      -0.60504312
C       -1.94940252      -0.29146067      -0.35049649
O       -1.91353460      -1.57446398      -0.60889438
H       -2.55167373       2.13363913       1.34250176
H       -0.57606919      -0.50101722       1.29305097
H        2.32158402      -2.54892941      -0.58666809
H        2.47388617       1.44172201      -0.57471688
H       -2.76379895       0.03261870       0.33356200
H       -1.99503239       0.37193257      -1.23645294
H        1.04078524      -2.25514356      -2.47051765
18
Properties=species:S:1:pos:R:3 relative_energy_eV=0.5017094899521908 branch=left pbc="F F F"
O       -0.06886368       2.51678010       0.50109059
C       -0.75575165       1.60025584       0.87539094
O       -1.78193181       1.73718781       1.78076553
C       -0.64102169       0.17844832       0.44617099
O        0.43499077       0.02139978      -0.46466918
P        1.85999472      -0.53215473      -0.01772118
O        2.05897223      -1.00686828       1.36215836
O        2.07341842      -1.76546103      -1.09005552
O        2.86995939       0.55916751      -0.60515471
C       -1.95011356      -0.29206258      -0.35078261
O       -1.91291214      -1.57614416      -0.61095097
H       -2.55623668       2.10763932       1.33620387
H       -0.57690212      -0.49831635       1.29163316
H        2.32145568      -2.54883509      -0.58674807
H        2.47408311       1.44175184      -0.57485333
H       -2.76526651       0.03096062       0.33439112
H       -1.99612089       0.37155385      -1.23660308
H        1.04123474      -2.25472234      -2.46993764
18
Properties=species:S:1:pos:R:3 relative_energy_eV=0.503637942532805 branch=left pbc="F F F"
O       -0.06653511       2.51597064       0.50204792
C       -0.75488148       1.60062804       0.87534541
O       -1.78228355       1.74345619       1.78278424
C       -0.64199756       0.17838738       0.44526766
O        0.43481713       0.02142253      -0.46510452
P        1.85966046      -0.53186252      -0.01762680
O        2.05883389      -1.00687314       1.36209254
O        2.07325623      -1.76542440      -1.09002249
O        2.86988664       0.55913671      -0.60518385
C       -1.95028522      -0.29224076      -0.35085711
O       -1.91273972      -1.57653639      -0.61141764
H       -2.55663729       2.10184563       1.33517728
H       -0.57707423      -0.49772678       1.29132626
H        2.32143433      -2.54882729      -0.58675873
H        2.47411596       1.44174811      -0.57487919
H       -2.76558323       0.03064154       0.33460802
H       -1.99631870       0.37147449      -1.23663523
H        1.04131978      -2.25463957      -2.46983554
18
Properties=species:S:1:pos:R:3 relative_energy_eV=0.5050241148746863 branch=left pbc="F F F"
O       -0.06571389       2.51595073       0.50228807
C       -0.75429387       1.60026430       0.87506323
O       -1.78400123       1.74615867       1.78311080
C       -0.64231790       0.17842744       0.44486571
O        0.43481664       0.02141319      -0.46524329
P        1.85950758      -0.53174697      -0.01756615
O        2.05879935      -1.00687556       1.36205456
O        2.07321876      -1.76542021      -1.09000673
O        2.86987520       0.55913513      -0.60520034
C       -1.95031071      -0.29228302      -0.35087031
O       -1.91267983      -1.57669690      -0.61157661
H       -2.55561754       2.09952390       1.33555731
H       -0.57711419      -0.49757295       1.29126951
H        2.32142811      -2.54882425      -0.58676348
H        2.47412161       1.44173888      -0.57488505
H       -2.76569774       0.03055404       0.33469752
H       -1.99636829       0.37145262      -1.23664682
H        1.04133630      -2.25461860      -2.46981969
18
Properties=species:S:1:pos:R:3 relative_energy_eV=0.509458843331231 branch=left pbc="F F F"
O       -0.06508499       2.51547201       0.50303015
C       -0.75464757       1.60057436       0.87469533
O       -1.77590525       1.74495883       1.78816077
C       -0.64272300       0.17858614       0.44455827
O        0.43478329       0.02143378      -0.46533252
P        1.85933384      -0.53157256      -0.01756106
O        2.05876619      -1.00689656       1.36205844
O        2.07318917      -1.76535897      -1.08995805
O        2.86987221       0.55908296      -0.60521646
C       -1.95044636      -0.29231564      -0.35088257
O       -1.91257103      -1.57702733      -0.61182172
H       -2.56310676       2.10088588       1.33064165
H       -0.57715180      -0.49748792       1.29129000
H        2.32143188      -2.54885866      -0.58675248
H        2.47411470       1.44175729      -0.57489422
H       -2.76581153       0.03049955       0.33481477
H       -1.99639112       0.37145653      -1.23666528
H        1.04133645      -2.25460926      -2.46983680
18
Properties=species:S:1:pos:R:3 relative_energy_eV=0.5160699859625311 branch=ts pbc="F F F"
O       -0.06116138       2.51305820       0.50727768
C       -0.75697445       1.60121949       0.87355156
O       -1.77195052       1.75892867       1.78941929
C       -0.64579002       0.17863461       0.44182848
O        0.43412510       0.02160331      -0.46591446
P        1.85879781      -0.53084801      -0.01739170
O        2.05847353      -1.00707091       1.36187768
O        2.07296892      -1.76540041      -1.08994482
O        2.86972440       0.55895042      -0.60526541
C       -1.94990427      -0.29437657      -0.35163259
O       -1.91194378      -1.57916778      -0.61339770
H       -2.59544144       1.95599759       1.32954415
H       -0.57587539      -0.49580033       1.28963730
H        2.32108706      -2.54908648      -0.58691764
H        2.47466897       1.44197327      -0.57440142
H       -2.76996738       0.01995434       0.33406012
H       -2.00139290       0.37122616      -1.23560043
H        1.04155939      -2.25319884      -2.46754075
18
Properties=species:S:1:pos:R:3 relative_energy_eV=0.5113235885291942 branch=right pbc="F F F"
O       -0.05723776       2.51064438       0.51152520
C       -0.75930133       1.60186463       0.87240778
O       -1.76799579       1.77289852       1.79067781
C       -0.64885703       0.17868308       0.43909870
O        0.43346690       0.02177283      -0.46649641
P        1.85826178      -0.53012345      -0.01722234
O        2.05818087      -1.00724527       1.36169692
O        2.07274868      -1.76544184      -1.08993160
O        2.86957658       0.55881787      -0.60531435
C       -1.94936218      -0.29643751      -0.35238261
O       -1.91131652      -1.58130822      -0.61497368
H       -2.62777613       1.81110931       1.32844665
H       -0.57459899      -0.49411274       1.28798460
H        2.32074223      -2.54931431      -0.58708280
H        2.47522323       1.44218924      -0.57390861
H       -2.77412323       0.00940913       0.33330547
H       -2.00639468       0.37099580      -1.23453558
H        1.04178233      -2.25178841      -2.46524471
18
Properties=species:S:1:pos:R:3 relative_energy_eV=0.5071343999625242 branch=right pbc="F F F"
O       -0.05648542       2.51034385       0.51213819
C       -0.75941582       1.60181137       0.87248688
O       -1.77534961       1.77558196       1.78617407
C       -0.64933667       0.17862158       0.43879475
O        0.43328554       0.02181300      -0.46662922
P        1.85809630      -0.52981996      -0.01710644
O        2.05811470      -1.00728234       1.36162517
O        2.07270262      -1.76552013      -1.08998170
O        2.86952775       0.55882083      -0.60531620
C       -1.94911432      -0.29694956      -0.35257586
O       -1.91115538      -1.58173374      -0.61530376
H       -2.62047194       1.80947812       1.33317690
H       -0.57455568      -0.49415030       1.28793416
H        2.32073113      -2.54928825      -0.58709911
H        2.47524084       1.44217882      -0.57388878
H       -2.77411892       0.00950753       0.33328921
H       -2.00647100       0.37096803      -1.23449334
H        1.04179485      -2.25176778      -2.46517448
18
Properties=species:S:1:pos:R:3 relative_energy_eV=0.5059078854174004 branch=right pbc="F F F"
O       -0.05610604       2.50982078       0.51299403
C       -0.76024757       1.60219850       0.87265123
O       -1.77272659       1.77738661       1.78601652
C       -0.64966616       0.17851197       0.43881434
O        0.43308392       0.02191186      -0.46668472
P        1.85796090      -0.52969801      -0.01709685
O        2.05804789      -1.00730289       1.36160003
O        2.07263570      -1.76547289      -1.08998697
O        2.86949028       0.55883266      -0.60531998
C       -1.94910637      -0.29729726      -0.35269889
O       -1.91101105      -1.58206848      -0.61557820
H       -2.62204076       1.80835817       1.33287032
H       -0.57453733      -0.49414432       1.28783579
H        2.32072542      -2.54929274      -0.58709342
H        2.47526501       1.44219521      -0.57388085
H       -2.77403040       0.00951394       0.33317450
H       -2.00653113       0.37090980      -1.23446173
H        1.04181324      -2.25174988      -2.46510470
18
Properties=species:S:1:pos:R:3 relative_energy_eV=0.5041347780024807 branch=right pbc="F F F"
O       -0.05420976       2.50866084       0.51529732
C       -0.76174551       1.60265781       0.87253055
O       -1.76942838       1.78357050       1.78455705
C       -0.65089661       0.17834849       0.43862404
O        0.43250555       0.02224311      -0.46676593
P        1.85742914      -0.52928507      -0.01707122
O        2.05782275      -1.00735669       1.36149239
O        2.07242477      -1.76536911      -1.08996912
O        2.86936805       0.55883915      -0.60533078
C       -1.94893662      -0.29826211      -0.35306150
O       -1.91060272      -1.58314155      -0.61644469
H       -2.62355373       1.80442619       1.33395737
H       -0.57445634      -0.49418254       1.28761492
H        2.32068266      -2.54923818      -0.58711256
H        2.47531682       1.44228829      -0.57384633
H       -2.77383985       0.00943312       0.33280253
H       -2.00673788       0.37066425      -1.23435839
H        1.04187662      -2.25168345      -2.46486518
18
Properties=species:S:1:pos:R:3 relative_energy_eV=0.4997678937179444 branch=right pbc="F F F"
O       -0.04667337       2.50453691       0.52252949
C       -0.76476225       1.60470176       0.87139195
O       -1.76225498       1.80499551       1.77971803
C       -0.65524820       0.17772717       0.43768430
O        0.43060693       0.02343077      -0.46687718
P        1.85550686      -0.52789467      -0.01694008
O        2.05695514      -1.00748092       1.36102158
O        2.07160068      -1.76498925      -1.08992596
O        2.86883895       0.55886397      -0.60535601
C       -1.94830546      -0.30130044      -0.35422564
O       -1.90930521      -1.58660928      -0.61932635
H       -2.62696508       1.79014382       1.33896836
H       -0.57422978      -0.49422044       1.28688620
H        2.32050017      -2.54897450      -0.58719190
H        2.47549380       1.44263582      -0.57371556
H       -2.77338474       0.00880132       0.33141923
H       -2.00749128       0.36965982      -1.23406037
H        1.04213680      -2.25141434      -2.46394960
18
Properties=species:S:1:pos:R:3 relative_energy_eV=0.49309730727327405 branch=right pbc="F F F"
O       -0.02963194       2.49777507       0.53419607
C       -0.76886080       1.60816820       0.86952783
O       -1.75335255       1.84447150       1.77097810
C       -0.66345379       0.17685717       0.43573363
O        0.42730166       0.02566225      -0.46691873
P        1.85178885      -0.52532412      -0.01679675
O        2.05516559      -1.00766152       1.36014200
O        2.06988666      -1.76424301      -1.08982180
O        2.86764241       0.55889209      -0.60537932
C       -1.94711925      -0.30638626      -0.35620961
O       -1.90708682      -1.59265719      -0.62448604
H       -2.63193049       1.76235388       1.34946336
H       -0.57396502      -0.49399593       1.28557454
H        2.32007831      -2.54831294      -0.58738283
H        2.47584207       1.44334791      -0.57345992
H       -2.77297753       0.00695862       0.32866156
H       -2.00899333       0.36754488      -1.23368650
H        1.04268502      -2.25083759      -2.46208506
18
Properties=species:S:1:pos:R:3 relative_energy_eV=0.4830878631109954 branch=right pbc="F F F"
O       -0.00194972       2.48536513       0.55068221
C       -0.77111099       1.61653915       0.86684343
O       -1.74549724       1.90270672       1.75643169
C       -0.67579586       0.17614376       0.43294289
O        0.42233089       0.02914443      -0.46681274
P        1.84609196      -0.52144205      -0.01649593
O        2.05212745      -1.00784855       1.35869781
O        2.06695803      -1.76305181      -1.08972004
O        2.86552850       0.55890684      -0.60539832
C       -1.94548121      -0.31348002      -0.35914134
O       -1.90394930      -1.60107447      -0.63194735
H       -2.63717086       1.71900422       1.36730719
H       -0.57386252      -0.49314570       1.28358661
H        2.31932118      -2.54710149      -0.58770042
H        2.47641971       1.44453387      -0.57305763
H       -2.77312630       0.00321900       0.32424385
H       -2.01144807       0.36402590      -1.23343639
H        1.04363347      -2.24983198      -2.45897488
18
Properties=species:S:1:pos:R:3 relative_energy_eV=0.4585195204526826 branch=right pbc="F F F"
O        0.02657389       2.47501653       0.56196589
C       -0.77056702       1.62423854       0.86647085
O       -1.74747797       1.94797745       1.74067148
C       -0.68589185       0.17692507       0.43115698
O        0.41831876       0.03222496      -0.46654346
P        1.84101304      -0.51819502      -0.01628818
O        2.04910508      -1.00794518       1.35746884
O        2.06399257      -1.76191632      -1.08964971
O        2.86335404       0.55895579      -0.60541252
C       -1.94444469      -0.31849647      -0.36146751
O       -1.90156566      -1.60702997      -0.63768611
H       -2.63699727       1.68199623       1.38564198
H       -0.57424906      -0.49160319       1.28196268
H        2.31849345      -2.54576820      -0.58802061
H        2.47702622       1.44565887      -0.57271586
H       -2.77445082      -0.00127683       0.32017127
H       -2.01381631       0.36063482      -1.23374878
H        1.04460283      -2.24878422      -2.45592653
18
Properties=species:S:1:pos:R:3 relative_energy_eV=0.3876086641648726 branch=right pbc="F F F"
O        0.09436545       2.44870366       0.58315435
C       -0.76019964       1.64628867       0.86822200
O       -1.76863946       2.03559503       1.69736616
C       -0.70594586       0.18203421       0.42892228
O        0.40966991       0.03925404      -0.46548526
P        1.82951968      -0.51110674      -0.01574241
O        2.04148395      -1.00807819       1.35473769
O        2.05635175      -1.75923819      -1.08959860
O        2.85784334       0.55900728      -0.60545930
C       -1.94343400      -0.32699305      -0.36616756
O       -1.89689544      -1.61688629      -0.64853899
H       -2.62681257       1.60178091       1.43216436
H       -0.57630677      -0.48641613       1.27875514
H        2.31623592      -2.54215810      -0.58885388
H        2.47860961       1.44846928      -0.57199317
H       -2.78034181      -0.01408940       0.31062562
H       -2.01963727       0.35246540      -1.23579352
H        1.04715277      -2.24601975      -2.44826408
18
Properties=species:S:1:pos:R:3 relative_energy_eV=0.36280517551858793 branch=right pbc="F F F"
O        0.12233918       2.44138178       0.58014960
C       -0.74590592       1.65557346       0.87464447
O       -1.80520553       2.03296369       1.67065169
C       -0.70585617       0.18966050       0.43157647
O        0.40824401       0.04130559      -0.46460282
P        1.82596197      -0.50964741      -0.01544571
O        2.03787133      -1.00801919       1.35403778
O        2.05216028      -1.75814002      -1.08997379
O        2.85516924       0.55912036      -0.60555366
C       -1.94579686      -0.32384479      -0.36618672
O       -1.89677801      -1.61314010      -0.64769399
H       -2.60324222       1.58528964       1.45490175
H       -0.57929497      -0.48157438       1.27891504
H        2.31485786      -2.54009372      -0.58928160
H        2.47954430       1.44966829      -0.57192354
H       -2.78760576      -0.02278754       0.30721300
H       -2.02220882       0.34928865      -1.23904896
H        1.04876585      -2.24439235      -2.44432817
18
Properties=species:S:1:pos:R:3 relative_energy_eV=0.33227350558081525 branch=right pbc="F F F"
O        0.17811119       2.41722507       0.60540205
C       -0.74005569       1.67241518       0.87783459
O       -1.81046426       2.11074680       1.61638563
C       -0.71898780       0.19877512       0.43263564
O        0.39928916       0.04797992      -0.46404750
P        1.81466840      -0.50252247      -0.01447540
O        2.03015383      -1.00869741       1.35172244
O        2.04365113      -1.75548430      -1.09027101
O        2.85016642       0.55919220      -0.60586575
C       -1.94722280      -0.32952404      -0.36978669
O       -1.89175433      -1.61977909      -0.65593959
H       -2.59294966       1.50658790       1.49933090
H       -0.58273743      -0.47522571       1.27724128
H        2.31230312      -2.53646474      -0.59021570
H        2.48145778       1.45253220      -0.57146644
H       -2.79626586      -0.03620029       0.29815491
H       -2.02825309       0.34230534      -1.24277478
H        1.05190988      -2.24124941      -2.43581364
18
Properties=species:S:1:pos:R:3 relative_energy_eV=0.30030895294839866 branch=right pbc="F F F"
O        0.13700536       2.43059775       0.59806950
C       -0.74443897       1.65926067       0.87395703
O       -1.79288970       2.06583071       1.63609751
C       -0.70740854       0.19677122       0.43439942
O        0.40320438       0.04444325      -0.46475678
P        1.82048634      -0.50558887      -0.01462616
O        2.03386927      -1.00897012       1.35319427
O        2.04701084      -1.75687521      -1.09028802
O        2.85308949       0.55900164      -0.60591467
C       -1.94816556      -0.32415171      -0.36696181
O       -1.89363579      -1.61385048      -0.64949556
H       -2.59777563       1.54557009       1.47464285
H       -0.58221763      -0.47727146       1.27975392
H        2.31318282      -2.53814626      -0.58999927
H        2.48069385       1.45124126      -0.57188696
H       -2.79459130      -0.02981371       0.30327452
H       -2.02542964       0.34700624      -1.24232812
H        1.05103022      -2.24244258      -2.43908079
18
Properties=species:S:1:pos:R:3 relative_energy_eV=0.28133951608106145 branch=right pbc="F F F"
O        0.14556461       2.42993020       0.60436881
C       -0.74217736       1.65683502       0.87341260
O       -1.79388829       2.07017221       1.61600598
C       -0.70629351       0.20066794       0.43642807
O        0.40112629       0.04587220      -0.46469406
P        1.81808156      -0.50381098      -0.01399833
O        2.03149669      -1.00963189       1.35270805
O        2.04357249      -1.75595256      -1.09037573
O        2.85191629       0.55903062      -0.60618662
C       -1.94985611      -0.32158153      -0.36649485
O       -1.89206069      -1.61085971      -0.64794211
H       -2.58795159       1.52957408       1.48478401
H       -0.58463868      -0.47362848       1.28136265
H        2.31193356      -2.53689841      -0.59054996
H        2.48146600       1.45202267      -0.57196955
H       -2.80073809      -0.03429926       0.30170164
H       -2.02726202       0.34631578      -1.24485837
H        1.05272873      -2.24114550      -2.43565133
18
Properties=species:S:1:pos:R:3 relative_energy_eV=0.25092271541507216 branch=right pbc="F F F"
O        0.18300658       2.41821390       0.63542698
C       -0.72111306       1.65897689       0.86685585
O       -1.80268634       2.10060175       1.53121689
C       -0.70656146       0.21324711       0.44133695
O        0.39154611       0.05195001      -0.46428613
P        1.80666730      -0.49460692      -0.01179681
O        2.02067435      -1.01291505       1.35052678
O        2.02817373      -1.75174707      -1.09028426
O        2.84630121       0.55885876      -0.60726007
C       -1.95697848      -0.31222668      -0.36510997
O       -1.88389697      -1.60032749      -0.64260174
H       -2.54639745       1.45138987       1.53126499
H       -0.59476565      -0.45816067       1.28867081
H        2.30606951      -2.53115148      -0.59329292
H        2.48468283       1.45579395      -0.57209947
H       -2.82668589      -0.05305402       0.29408155
H       -2.03554584       0.34316274      -1.25458200
H        1.06052965      -2.23539342      -2.42001651
18
Properties=species:S:1:pos:R:3 relative_energy_eV=0.23959821535390802 branch=right pbc="F F F"
O        0.18030953       2.42527760       0.63377624
C       -0.72227693       1.65510723       0.86504768
O       -1.80438065       2.08651641       1.53374905
C       -0.70562364       0.21033972       0.43921357
O        0.39272437       0.05017550      -0.46500743
P        1.80747764      -0.49476550      -0.01088603
O        2.02063902      -1.01346217       1.35012584
O        2.02790698      -1.75134402      -1.08960178
O        2.84659900       0.55910723      -0.60746328
C       -1.95809373      -0.30932479      -0.36381085
O       -1.88282917      -1.59788834      -0.63948569
H       -2.54134701       1.45705676       1.52571156
H       -0.59552061      -0.45721558       1.29118890
H        2.30527421      -2.53112277      -0.59375190
H        2.48479170       1.45563247      -0.57217012
H       -2.82833236      -0.05131709       0.29501781
H       -2.03550863       0.34523755      -1.25412588
H        1.06121039      -2.23539801      -2.41947682
18
Properties=species:S:1:pos:R:3 relative_energy_eV=0.23416612350411015 branch=right pbc="F F F"
O        0.19015242       2.42510245       0.64032224
C       -0.71847594       1.65777031       0.86255503
O       -1.81017777       2.08963737       1.51766987
C       -0.70761502       0.21000888       0.43721809
O        0.39111962       0.04941122      -0.46621722
P        1.80510328      -0.49230557      -0.00995808
O        2.01811403      -1.01486280       1.34956924
O        2.02460530      -1.74981204      -1.08892230
O        2.84532601       0.55928512      -0.60776541
C       -1.96030155      -0.30721832      -0.36326135
O       -1.87962626      -1.59629001      -0.63732897
H       -2.52779970       1.43950576       1.53345123
H       -0.59803057      -0.45336439       1.29420715
H        2.30311467      -2.53005285      -0.59471512
H        2.48551766       1.45657647      -0.57209415
H       -2.83388589      -0.05277425       0.29349316
H       -2.03763816       0.34633742      -1.25458939
H        1.06351808      -2.23434264      -2.41558312
18
Properties=species:S:1:pos:R:3 relative_energy_eV=0.22828796231988235 branch=right pbc="F F F"
O        0.20157841       2.42436787       0.65188478
C       -0.71346679       1.66355884       0.85725109
O       -1.81783947       2.09378769       1.49376975
C       -0.71142159       0.21032410       0.43374784
O        0.38785563       0.04634029      -0.46963055
P        1.80176611      -0.48857912      -0.00785189
O        2.01429847      -1.01749418       1.34879843
O        2.02025569      -1.74739810      -1.08787470
O        2.84347738       0.55988281      -0.60815781
C       -1.96361150      -0.30532563      -0.36257816
O       -1.87402619      -1.59520887      -0.63375582
H       -2.50409640       1.41096506       1.54342946
H       -0.60208794      -0.44689103       1.29882021
H        2.29894660      -2.52884298      -0.59640374
H        2.48663325       1.45830652      -0.57185032
H       -2.84144284      -0.05185600       0.29123436
H       -2.04147567       0.34977316      -1.25350739
H        1.06767712      -2.23309833      -2.40927465
18
Properties=species:S:1:pos:R:3 relative_energy_eV=0.22564418274487252 branch=right pbc="F F F"
O        0.20254441       2.42554858       0.65595814
C       -0.71388132       1.66549968       0.85412458
O       -1.81995231       2.09276768       1.48872017
C       -0.71302390       0.21088052       0.43209452
O        0.38622318       0.04310669      -0.47204774
P        1.80069938      -0.48729851      -0.00732661
O        2.01335210      -1.01898255       1.34921307
O        2.01997186      -1.74658278      -1.08771030
O        2.84297926       0.56034990      -0.60801727
C       -1.96450182      -0.30583300      -0.36231440
O       -1.87181159      -1.59600781      -0.63212751
H       -2.49354824       1.40130653       1.54349840
H       -0.60361325      -0.44387101       1.29992958
H        2.29661749      -2.52918397      -0.59710830
H        2.48693921       1.45921628      -0.57159611
H       -2.84242897      -0.04783506       0.29064374
H       -2.04336412       0.35275421      -1.25098390
H        1.06981894      -2.23322330      -2.40689921
18
Properties=species:S:1:pos:R:3 relative_energy_eV=0.22315557178808376 branch=right pbc="F F F"
O        0.20289982       2.42711991       0.66013945
C       -0.71571886       1.66722451       0.85057923
O       -1.82182518       2.09272095       1.48449698
C       -0.71455962       0.21321070       0.43062724
O        0.38328933       0.03857491      -0.47507643
P        1.79924177      -0.48678013      -0.00563132
O        2.01230238      -1.02024139       1.34878768
O        2.02110203      -1.74612456      -1.08832943
O        2.84224931       0.56130963      -0.60740570
C       -1.96485073      -0.30741898      -0.36200767
O       -1.87004021      -1.59773658      -0.63066934
H       -2.48141342       1.38839747       1.54262230
H       -0.60531486      -0.43949869       1.29965110
H        2.29324460      -2.53027545      -0.59783707
H        2.48727051       1.46054161      -0.57109040
H       -2.84162864      -0.04104459       0.28982351
H       -2.04621753       0.35655976      -1.24667008
H        1.07298961      -2.23392697      -2.40395920
18
Properties=species:S:1:pos:R:3 relative_energy_eV=0.22188183019170538 branch=right pbc="F F F"
O        0.19901205       2.42874776       0.65891738
C       -0.71735840       1.66739460       0.84986358
O       -1.82120829       2.09006574       1.48861334
C       -0.71414701       0.21486672       0.43002333
O        0.38233686       0.03588776      -0.47589618
P        1.79875042      -0.48682459      -0.00668790
O        2.01275459      -1.02078686       1.34960602
O        2.02381372      -1.74659887      -1.08932713
O        2.84177058       0.56152138      -0.60632704
C       -1.96405686      -0.30841345      -0.36159612
O       -1.87100288      -1.59862777      -0.63033051
H       -2.47960867       1.38633793       1.53869456
H       -0.60543839      -0.43765699       1.29792733
H        2.29153192      -2.53181415      -0.59790470
H        2.48709109       1.46122559      -0.57062143
H       -2.83842196      -0.03587739       0.29004555
H       -2.04752558       0.35824361      -1.24366226
H        1.07472711      -2.23507889      -2.40328697
18
Properties=species:S:1:pos:R:3 relative_energy_eV=0.2204899656244379 branch=right pbc="F F F"
O        0.19653666       2.43064836       0.65684655
C       -0.71790205       1.66751965       0.84986837
O       -1.82090198       2.08776243       1.49112181
C       -0.71337176       0.21688279       0.42935329
O        0.38128524       0.03389834      -0.47636347
P        1.79812616      -0.48762186      -0.00658373
O        2.01272121      -1.02076245       1.34887535
O        2.02689638      -1.74718428      -1.09072964
O        2.84078350       0.56196658      -0.60497491
C       -1.96316892      -0.30823176      -0.36086144
O       -1.87284378      -1.59845889      -0.62985238
H       -2.47846919       1.38154507       1.53608561
H       -0.60561181      -0.43524536       1.29602724
H        2.28937248      -2.53354315      -0.59792177
H        2.48693126       1.46194400      -0.56996196
H       -2.83531467      -0.03128239       0.29046781
H       -2.04924881       0.35923453      -1.24125167
H        1.07720037      -2.23645947      -2.40209419
18
Properties=species:S:1:pos:R:3 relative_energy_eV=0.21837510514160385 branch=right pbc="F F F"
O        0.19226441       2.43509171       0.65121980
C       -0.71740591       1.66745242       0.85042869
O       -1.82019470       2.08135027       1.49572929
C       -0.71136709       0.21943240       0.42789809
O        0.38076861       0.03157673      -0.47681842
P        1.79736160      -0.48882879      -0.00744559
O        2.01261895      -1.02098193       1.34774027
O        2.03244898      -1.74824737      -1.09294516
O        2.83880839       0.56250581      -0.60248004
C       -1.96183056      -0.30585644      -0.35923534
O       -1.87712469      -1.59623991      -0.62842015
H       -2.47890766       1.37378570       1.53172369
H       -0.60562880      -0.43152822       1.29352018
H        2.28549389      -2.53655055      -0.59795921
H        2.48636754       1.46305288      -0.56858337
H       -2.83062103      -0.02450376       0.29233786
H       -2.05206476       0.36023870      -1.23874736
H        1.08203312      -2.23913746      -2.39991234
18
Properties=species:S:1:pos:R:3 relative_energy_eV=0.21629412817128468 branch=right pbc="F F F"
O        0.18781226       2.44117841       0.64447006
C       -0.71577201       1.66775193       0.85005362
O       -1.81974428       2.07207240       1.49975500
C       -0.70901125       0.22120912       0.42583226
O        0.38106681       0.02959056      -0.47820212
P        1.79702665      -0.48999469      -0.00806816
O        2.01203421      -1.02195302       1.34609111
O        2.03820319      -1.74905370      -1.09495110
O        2.83676282       0.56332083      -0.60003878
C       -1.96118569      -0.30151967      -0.35733594
O       -1.88204140      -1.59220505      -0.62572537
H       -2.47875444       1.36337965       1.52726774
H       -0.60563571      -0.42760218       1.29229736
H        2.28059809      -2.53981957      -0.59813995
H        2.48543135       1.46421255      -0.56672161
H       -2.82695912      -0.01732960       0.29575448
H       -2.05529040       0.36174937      -1.23749806
H        1.08847915      -2.24237510      -2.39678963
18
Properties=species:S:1:pos:R:3 relative_energy_eV=0.21403246075715288 branch=right pbc="F F F"
O        0.18360317       2.44901022       0.63708750
C       -0.71365430       1.66869918       0.84780776
O       -1.81971975       2.06072061       1.50251458
C       -0.70638428       0.22254003       0.42312755
O        0.38207322       0.02768031      -0.48120492
P        1.79695155      -0.49036155      -0.00897695
O        2.01077773      -1.02461414       1.34451040
O        2.04406426      -1.74965815      -1.09661816
O        2.83492217       0.56453241      -0.59780750
C       -1.96175257      -0.29531195      -0.35537388
O       -1.88749378      -1.58642873      -0.62145444
H       -2.47630450       1.34769899       1.52306210
H       -0.60562665      -0.42324678       1.29255977
H        2.27406899      -2.54331702      -0.59863422
H        2.48386134       1.46559375      -0.56409177
H       -2.82460785      -0.00899376       0.30113684
H       -2.05925610       0.36447708      -1.23754914
H        1.09749762      -2.24640817      -2.39204458
18
Properties=species:S:1:pos:R:3 relative_energy_eV=0.21196923312891158 branch=right pbc="F F F"
O        0.17771949       2.45662114       0.62930027
C       -0.71278739       1.66987032       0.84416967
O       -1.81895510       2.04894970       1.50790334
C       -0.70381240       0.22266593       0.42066004
O        0.38387867       0.02652461      -0.48517220
P        1.79814564      -0.49055049      -0.00901288
O        2.00955485      -1.02827938       1.34270775
O        2.04886220      -1.75014808      -1.09778893
O        2.83463467       0.56610377      -0.59668707
C       -1.96335230      -0.28934660      -0.35417010
O       -1.89271581      -1.58075588      -0.61686271
H       -2.47446638       1.33504714       1.51786830
H       -0.60476262      -0.42074257       1.29369684
H        2.26793912      -2.54643371      -0.59899564
H        2.48166226       1.46646822      -0.56119738
H       -2.82308889      -0.00089397       0.30783565
H       -2.06235404       0.36807609      -1.23881954
H        1.10691827      -2.25056386      -2.38738447
18
Properties=species:S:1:pos:R:3 relative_energy_eV=0.21022526134402142 branch=right pbc="F F F"
O        0.17318451       2.46205726       0.62337516
C       -0.71361793       1.67103229       0.83991610
O       -1.81810013       2.04152647       1.51229650
C       -0.70217618       0.22267020       0.41892835
O        0.38567762       0.02627950      -0.48907465
P        1.79936888      -0.48933300      -0.00945259
O        2.00833833      -1.03305947       1.34166785
O        2.05132838      -1.75060125      -1.09848603
O        2.83570233       0.56759657      -0.59669665
C       -1.96579283      -0.28490562      -0.35393508
O       -1.89674183      -1.57646105      -0.61289861
H       -2.47146380       1.32368316       1.51446033
H       -0.60334930      -0.41973820       1.29483631
H        2.26279165      -2.54844270      -0.59930403
H        2.47921236       1.46689581      -0.55838176
H       -2.82288536       0.00549951       0.31403513
H       -2.06455452       0.37196357      -1.24069368
H        1.11609805      -2.25405066      -2.38254168
18
Properties=species:S:1:pos:R:3 relative_energy_eV=0.2086577989757643 branch=right pbc="F F F"
O        0.16720246       2.46539229       0.61743077
C       -0.71601523       1.67172043       0.83644070
O       -1.81636684       2.03617858       1.51942710
C       -0.70124171       0.22248901       0.41791075
O        0.38734169       0.02695535      -0.49191049
P        1.80101765      -0.48821754      -0.00892848
O        2.00763781      -1.03768058       1.33980186
O        2.05216761      -1.75133674      -1.09957545
O        2.83793760       0.56897903      -0.59746272
C       -1.96801021      -0.28233493      -0.35430201
O       -1.90029872      -1.57390533      -0.61008495
H       -2.47002683       1.31876352       1.51067414
H       -0.60101305      -0.42051400       1.29464902
H        2.25920115      -2.54979177      -0.59918587
H        2.47671302       1.46660545      -0.55585936
H       -2.82234694       0.01056264       0.31920756
H       -2.06547824       0.37563526      -1.24211169
H        1.12459898      -2.25688824      -2.37806989
18
Properties=species:S:1:pos:R:3 relative_energy_eV=0.2057452537919744 branch=right pbc="F F F"
O        0.15908313       2.46989492       0.60823794
C       -0.71985563       1.67276921       0.83153359
O       -1.81429326       2.02968065       1.52786013
C       -0.70068497       0.22365771       0.41622631
O        0.38920184       0.02839801      -0.49558929
P        1.80205835      -0.48504154      -0.00883065
O        2.00627736      -1.04622890       1.33616315
O        2.05225891      -1.75302010      -1.10262727
O        2.84104379       0.57096236      -0.59837734
C       -1.97144020      -0.27842597      -0.35458500
O       -1.90613468      -1.57019872      -0.60571719
H       -2.46442309       1.30711092       1.50683599
H       -0.59727902      -0.42067706       1.29269592
H        2.25266969      -2.55169343      -0.59912484
H        2.47280813       1.46618235      -0.55158033
H       -2.82171001       0.01870202       0.32612094
H       -2.06762004       0.38172357      -1.24318867
H        1.14105988      -2.26118355      -2.36800235
18
Properties=species:S:1:pos:R:3 relative_energy_eV=0.17955542431445792 branch=right pbc="F F F"
O        0.12065384       2.49337999       0.56344088
C       -0.73599716       1.67825108       0.80834415
O       -1.80557261       1.99517555       1.56484642
C       -0.69785263       0.23037538       0.40718421
O        0.39726396       0.03457432      -0.51342569
P        1.80537785      -0.46990938      -0.00802438
O        1.99928311      -1.08735106       1.31709797
O        2.05343770      -1.76183272      -1.11961504
O        2.85390544       0.58041339      -0.60137039
C       -1.98734926      -0.25799232      -0.35470933
O       -1.93495982      -1.55080337      -0.58369730
H       -2.43405168       1.24464848       1.48922360
H       -0.58041608      -0.41858091       1.28288933
H        2.21905701      -2.56161277      -0.59936389
H        2.45455647       1.46490599      -0.53079589
H       -2.81839309       0.05965455       0.35876280
H       -2.07972542       0.41119622      -1.24693870
H        1.22380239      -2.28187985      -2.31579756
18
Properties=species:S:1:pos:R:3 relative_energy_eV=0.0012108504597563297 branch=right pbc="F F F"
O        0.10899218       2.48144057       0.55442042
C       -0.75260717       1.67932864       0.79638314
O       -1.79738791       2.00756342       1.55390890
C       -0.70448617       0.23308284       0.41031267
O        0.40321815       0.05893952      -0.51561817
P        1.80114421      -0.44367294      -0.00021398
O        1.99293112      -1.12028711       1.29830291
O        2.01004211      -1.78842728      -1.15966497
O        2.87118822       0.58643505      -0.61275671
C       -2.00507266      -0.26328277      -0.36335428
O       -1.94191391      -1.54042264      -0.57400490
H       -2.39853130       1.23063077       1.51275901
H       -0.56473583      -0.43292204       1.27599942
H        2.20782064      -2.55036629      -0.60037562
H        2.44497641       1.45602751      -0.52098082
H       -2.84085376       0.05211684       0.36674798
H       -2.07608612       0.42869878      -1.25820317
H        1.29438172      -2.27227099      -2.24561047
18
Properties=species:S:1:pos:R:3 relative_energy_eV=-0.5129967206521542 branch=right pbc="F F F"
O        0.11483419       2.49341158       0.53482698
C       -0.75320815       1.67969171       0.78663321
O       -1.81088438       2.00775218       1.57069858
C       -0.71210179       0.23748491       0.41050857
O        0.41402048       0.05943095      -0.52379075
P        1.78814416      -0.41756139       0.00583945
O        1.98984499      -1.13310651       1.28415998
O        1.99227649      -1.81601909      -1.22415357
O        2.87250901       0.58197977      -0.60780073
C       -2.00956009      -0.25603203      -0.36384425
O       -1.95266779      -1.54711550      -0.57377327
H       -2.38495569       1.19832682       1.51571996
H       -0.55733531      -0.42981536       1.26879401
H        2.18896789      -2.56769702      -0.60466823
H        2.43798895       1.46166296      -0.51440010
H       -2.83896243       0.07171595       0.37665922
H       -2.08273791       0.43761140      -1.25471990
H        1.35684729      -2.25911014      -2.16863745
18
Properties=species:S:1:pos:R:3 relative_energy_eV=-0.7980217918957351 branch=right pbc="F F F"
O        0.09736955       2.53990678       0.47327020
C       -0.74749838       1.68578249       0.78346819
O       -1.82786374       1.96164683       1.65749312
C       -0.70954621       0.24572672       0.40046484
O        0.42957876       0.03468350      -0.54055307
P        1.77616378      -0.40627047       0.00590317
O        1.99255057      -1.13122711       1.27180900
O        2.02429613      -1.84963287      -1.30391086
O        2.85763229       0.57625562      -0.58280777
C       -1.99758558      -0.23631003      -0.35446802
O       -1.98791646      -1.55395950      -0.57476278
H       -2.41323178       1.15436096       1.46941807
H       -0.55114792      -0.40952229       1.25280057
H        2.15263911      -2.61429445      -0.61085454
H        2.42928071       1.47789547      -0.50411112
H       -2.79226927       0.14163734       0.40258002
H       -2.10332118       0.44517350      -1.23324731
H        1.42388939      -2.25924166      -2.09443948
18
Properties=species:S:1:pos:R:3 relative_energy_eV=-1.1836818974297785 branch=right pbc="F F F"
O        0.05081451       2.55156338       0.47461657
C       -0.74008051       1.71358969       0.79329093
O       -1.80074727       1.89294371       1.63284251
C       -0.68718574       0.25366309       0.37982613
O        0.39760170       0.01230735      -0.55556454
P        1.78849500      -0.42939009       0.01270184
O        1.99032670      -1.11841702       1.27344799
O        2.04494029      -1.90782451      -1.31642603
O        2.83804967       0.60123894      -0.56747344
C       -1.99115526      -0.25262830      -0.34438879
O       -1.99771062      -1.50760734      -0.55682148
H       -2.40250291       1.12040996       1.44729594
H       -0.56163034      -0.38391781       1.26116352
H        2.12476111      -2.60074615      -0.64845062
H        2.44287596       1.47063012      -0.50663957
H       -2.77257961       0.17450058       0.40712405
H       -2.11975981       0.45095024      -1.22129868
H        1.44850676      -2.23865502      -2.04719392
18
Properties=species:S:1:pos:R:3 relative_energy_eV=-1.2809055005673144 branch=right pbc="F F F"
O        0.06629132       2.55083969       0.49483563
C       -0.73442866       1.69789610       0.79366820
O       -1.80029525       1.90366217       1.58952107
C       -0.68751464       0.25701547       0.38357366
O        0.39545150       0.01357330      -0.55378152
P        1.77253365      -0.41622136       0.00890963
O        1.98979670      -1.12242048       1.27748399
O        2.04277278      -1.89765437      -1.30890007
O        2.84304732       0.59024207      -0.56952056
C       -1.99529150      -0.23640433      -0.34329105
O       -1.99104838      -1.51344708      -0.55575175
H       -2.38459586       1.10748447       1.46736325
H       -0.56615197      -0.37868585       1.26512134
H        2.12584267      -2.60501185      -0.65156209
H        2.44294998       1.48075580      -0.51013889
H       -2.78615060       0.15704377       0.39864615
H       -2.12064953       0.44595335      -1.22358679
H        1.44046020      -2.23201014      -2.04453780
18
Properties=species:S:1:pos:R:3 relative_energy_eV=-1.3360274986298464 branch=right pbc="F F F"
O        0.06445811       2.54605532       0.49405285
C       -0.73601870       1.68656426       0.79927715
O       -1.79524610       1.91387106       1.59666925
C       -0.68963955       0.25280241       0.38507035
O        0.39472043       0.02011787      -0.55272259
P        1.76482577      -0.40931790       0.00918308
O        1.99437978      -1.12572375       1.27342487
O        2.04436719      -1.89452919      -1.30733822
O        2.84949779       0.58709254      -0.57159368
C       -1.99579263      -0.23480103      -0.34484163
O       -1.99414484      -1.51737961      -0.55915111
H       -2.39947838       1.13855251       1.47141093
H       -0.55975054      -0.38707740       1.25979788
H        2.12883671      -2.61381591      -0.65623012
H        2.44426054       1.47998645      -0.51390494
H       -2.78591600       0.14176254       0.39392393
H       -2.11585686       0.44045353      -1.22538393
H        1.43951707      -2.22200297      -2.03359162
18
Properties=species:S:1:pos:R:3 relative_energy_eV=-1.447898234382592 branch=right pbc="F F F"
O        0.08635599       2.51263403       0.52012656
C       -0.73587854       1.66923266       0.81230926
O       -1.79380687       1.97065109       1.57723731
C       -0.71015488       0.24060426       0.38990679
O        0.38216322       0.03875428      -0.55384422
P        1.74559371      -0.38595338       0.01385126
O        2.00262318      -1.13484540       1.25888115
O        2.04035625      -1.88041552      -1.29120104
O        2.86090076       0.57777406      -0.57883937
C       -1.99886505      -0.24557040      -0.35104753
O       -1.98821672      -1.53536010      -0.57179289
H       -2.41141454       1.20938800       1.50869411
H       -0.54572270      -0.40941962       1.24710921
H        2.13890696      -2.63171808      -0.67540010
H        2.45592869       1.47566437      -0.53038920
H       -2.80103164       0.08663035       0.36810874
H       -2.10274995       0.42658348      -1.22945438
H        1.42803217      -2.18202364      -1.99620315
18
Properties=species:S:1:pos:R:3 relative_energy_eV=-1.507261507333169 branch=right pbc="F F F"
O        0.11063925       2.48447714       0.53687435
C       -0.73904419       1.66448443       0.82118700
O       -1.79618522       2.01436942       1.56843452
C       -0.72900587       0.22974219       0.39378895
O        0.37412476       0.05370538      -0.55683264
P        1.74050603      -0.37331186       0.01899713
O        2.00588654      -1.13998570       1.24436705
O        2.03926263      -1.87039480      -1.27779496
O        2.86284200       0.57284006      -0.58354438
C       -2.00031291      -0.26261206      -0.35650452
O       -1.98039653      -1.55249508      -0.58496061
H       -2.42168639       1.26682203       1.53884613
H       -0.53466448      -0.43052821       1.23811880
H        2.14617807      -2.64153656      -0.68911412
H        2.46831153       1.46944856      -0.54472300
H       -2.81785410       0.04863917       0.35116006
H       -2.09249085       0.41789693      -1.23392324
H        1.41690997      -2.14895087      -1.96632396
18
Properties=species:S:1:pos:R:3 relative_energy_eV=-1.546608627166279 branch=right pbc="F F F"
O        0.13919757       2.45884584       0.55551533
C       -0.73998293       1.66807218       0.82446213
O       -1.80033401       2.04867573       1.54918421
C       -0.74251816       0.22409450       0.39856905
O        0.37109375       0.06246040      -0.55897468
P        1.73636626      -0.36799380       0.02123731
O        2.00390230      -1.14281796       1.23392145
O        2.04211390      -1.86226073      -1.26607063
O        2.85837738       0.57037035      -0.58663097
C       -2.00392225      -0.28220342      -0.36084068
O       -1.96722899      -1.56593811      -0.59711877
H       -2.42014626       1.29886143       1.56919947
H       -0.53079061      -0.44485080       1.23400263
H        2.14965953      -2.64371444      -0.69826526
H        2.48201202       1.46636148      -0.55860423
H       -2.83988921       0.02251787       0.33799580
H       -2.08720800       0.41147807      -1.23721735
H        1.40231810      -2.11934872      -1.94231226
18
Properties=species:S:1:pos:R:3 relative_energy_eV=-1.5753378468216397 branch=right pbc="F F F"
O        0.16376888       2.44196422       0.56936514
C       -0.73711836       1.67349779       0.82261494
O       -1.80391145       2.06557456       1.53112302
C       -0.74898554       0.22336262       0.40226763
O        0.36892033       0.06444524      -0.56155459
P        1.73541837      -0.36998565       0.02019725
O        1.99844136      -1.14414130       1.22875930
O        2.05264605      -1.85689084      -1.26312151
O        2.84982185       0.56739216      -0.58640353
C       -2.00856114      -0.29768751      -0.36279367
O       -1.95332892      -1.57555150      -0.60760010
H       -2.41446164       1.31144412       1.59214718
H       -0.53278561      -0.45123823       1.23325333
H        2.14741252      -2.64486296      -0.70260695
H        2.49517897       1.46982102      -0.57171990
H       -2.85987193       0.01164961       0.32979444
H       -2.08810979       0.40593809      -1.23697904
H        1.38854653      -2.09212190      -1.91869031
18
Properties=species:S:1:pos:R:3 relative_energy_eV=-1.6001455014738895 branch=right pbc="F F F"
O        0.18514616       2.42474858       0.58155177
C       -0.73430270       1.67472700       0.81909743
O       -1.80189233       2.07841822       1.51627451
C       -0.75308304       0.22203235       0.40643994
O        0.36927458       0.06627281      -0.56117116
P        1.73397863      -0.37737853       0.01517972
O        1.99114670      -1.14775074       1.22788750
O        2.06857463      -1.85113855      -1.25991344
O        2.84402326       0.56636347      -0.58859461
C       -2.01544435      -0.31170108      -0.36467361
O       -1.93602670      -1.58490225      -0.61980322
H       -2.41179628       1.33184796       1.61398881
H       -0.53637374      -0.45942848       1.23408980
H        2.14531423      -2.64078136      -0.70317658
H        2.51002134       1.47405980      -0.58738602
H       -2.88240891      -0.00021177       0.32137810
H       -2.08973926       0.39759567      -1.23709811
H        1.36660825      -2.06016394      -1.89601813
18
Properties=species:S:1:pos:R:3 relative_energy_eV=-1.6203231253603008 branch=right pbc="F F F"
O        0.20428101       2.41547752       0.58954335
C       -0.72559933       1.67499916       0.81521183
O       -1.80140575       2.08203210       1.50367105
C       -0.75584513       0.22264421       0.40632779
O        0.36637352       0.05907292      -0.56346849
P        1.73127137      -0.38639446       0.00940029
O        1.98170271      -1.15004967       1.23052029
O        2.09205332      -1.84800745      -1.26908458
O        2.83715414       0.56449418      -0.58712212
C       -2.02018997      -0.31859736      -0.36393679
O       -1.92116906      -1.59172438      -0.63031440
H       -2.40654418       1.33384017       1.62945587
H       -0.54415129      -0.45802658       1.23549254
H        2.13612367      -2.64168724      -0.70231417
H        2.52454651       1.48364197      -0.60283716
H       -2.89549650      -0.00120036       0.31396928
H       -2.09898742       0.38813241      -1.23179907
H        1.34890283      -2.02603848      -1.86466263
18
Properties=species:S:1:pos:R:3 relative_energy_eV=-1.63632689748556 branch=right pbc="F F F"
O        0.20402729       2.41198170       0.58616940
C       -0.72244086       1.66805915       0.81647742
O       -1.79211588       2.07829404       1.51075753
C       -0.75572170       0.21963167       0.40485021
O        0.36586933       0.05314674      -0.56273980
P        1.73289667      -0.39427210       0.00476430
O        1.97594517      -1.15211115       1.23431436
O        2.10801942      -1.84973136      -1.27513710
O        2.83902017       0.56400454      -0.58841044
C       -2.02126444      -0.31844410      -0.36376891
O       -1.91465674      -1.59295147      -0.63618355
H       -2.41465133       1.35048479       1.62977740
H       -0.54811734      -0.45939031       1.23589289
H        2.13174950      -2.63630220      -0.69985646
H        2.53166593       1.48732049      -0.61221001
H       -2.89607039      -0.00427103       0.31035815
H       -2.10491995       0.37982958      -1.22993741
H        1.33378546      -2.00267059      -1.84706499
18
Properties=species:S:1:pos:R:3 relative_energy_eV=-1.6532841812004335 branch=right pbc="F F F"
O        0.20573406       2.40866700       0.58242655
C       -0.71709943       1.65883745       0.82146268
O       -1.78443860       2.08114497       1.51712982
C       -0.75802474       0.21544164       0.40099736
O        0.36345674       0.04234488      -0.56226042
P        1.73324490      -0.39716280       0.00244326
O        1.96984947      -1.15293288       1.23883832
O        2.11819191      -1.84973549      -1.28310393
O        2.84446692       0.56322670      -0.59035083
C       -2.01815404      -0.31494257      -0.36378118
O       -1.91021421      -1.59308995      -0.64020400
H       -2.42195889       1.35884215       1.62891072
H       -0.55375078      -0.45698913       1.23594068
H        2.12795101      -2.63000855      -0.69597181
H        2.53642803       1.48812141      -0.61964425
H       -2.88793309      -0.01035844       0.30499290
H       -2.11366596       0.37128840      -1.22887050
H        1.31893700      -1.98008670      -1.83090224
18
Properties=species:S:1:pos:R:3 relative_energy_eV=-1.665094460178807 branch=right pbc="F F F"
O        0.19915205       2.40736074       0.57466585
C       -0.71577777       1.65280473       0.82765246
O       -1.77638093       2.07901061       1.53228893
C       -0.75854254       0.21120441       0.39801340
O        0.36289548       0.03230548      -0.56199065
P        1.73725221      -0.39588423       0.00417753
O        1.96754090      -1.15122273       1.24064738
O        2.11663491      -1.84903237      -1.28778161
O        2.85092518       0.56085525      -0.59210991
C       -2.01149131      -0.31264662      -0.36490240
O       -1.91037031      -1.59269999      -0.64063016
H       -2.43225389       1.37082972       1.61921345
H       -0.55719516      -0.45618625       1.23527463
H        2.12798704      -2.62300630      -0.69244169
H        2.53578042       1.48456293      -0.62160353
H       -2.87466115      -0.01480799       0.30386053
H       -2.11899903       0.36852144      -1.23060625
H        1.31052412      -1.96936084      -1.82567476
18
Properties=species:S:1:pos:R:3 relative_energy_eV=-1.6779258147907967 branch=right pbc="F F F"
O        0.20815403       2.39492778       0.57646758
C       -0.71196198       1.64804101       0.83346121
O       -1.76964986       2.08901175       1.53595555
C       -0.76261667       0.20627222       0.39691399
O        0.36117185       0.02005305      -0.56240031
P        1.73885603      -0.39172277       0.00726550
O        1.96289924      -1.14915343       1.24125668
O        2.11265710      -1.84041469      -1.28854430
O        2.85591476       0.55662028      -0.59556502
C       -2.00461019      -0.31836169      -0.36938787
O       -1.90108869      -1.59879855      -0.64549066
H       -2.43771136       1.38861918       1.62047072
H       -0.56426317      -0.45825028       1.23548489
H        2.12893156      -2.61220074      -0.69010152
H        2.54100297       1.47836068      -0.62982219
H       -2.86893448      -0.03040534       0.29769182
H       -2.12554578       0.36374922      -1.23463929
H        1.28981490      -1.94373998      -1.81096352
18
Properties=species:S:1:pos:R:3 relative_energy_eV=-1.694700133673905 branch=right pbc="F F F"
O        0.22645248       2.37635711       0.58478141
C       -0.70492262       1.64493765       0.83833275
O       -1.76237659       2.09981678       1.53218619
C       -0.76561928       0.20215305       0.39612472
O        0.35754409       0.00171988      -0.56425349
P        1.74000546      -0.38436847       0.01375455
O        1.95790835      -1.14376679       1.24341829
O        2.09739132      -1.82295690      -1.28657956
O        2.85994735       0.54951200      -0.59931021
C       -1.99614439      -0.32896154      -0.37787157
O       -1.88360885      -1.60881801      -0.65127595
H       -2.43804679       1.40683168       1.62259209
H       -0.57743028      -0.45978973       1.23842840
H        2.12999181      -2.59497033      -0.68955028
H        2.54875066       1.46842848      -0.64115280
H       -2.86307633      -0.05327277       0.29008816
H       -2.13424676       0.35946331      -1.24107797
H        1.26050071      -1.90970801      -1.79058141
18
Properties=species:S:1:pos:R:3 relative_energy_eV=-1.7089188379432017 branch=right pbc="F F F"
O        0.25262355       2.35681938       0.59920236
C       -0.69631879       1.64301829       0.83835323
O       -1.75715762       2.11039479       1.51831093
C       -0.76723386       0.20007521       0.39595571
O        0.35312046      -0.01225973      -0.56585035
P        1.73853242      -0.37930662       0.01955116
O        1.95416212      -1.13808565       1.24814294
O        2.07993735      -1.80210301      -1.28210941
O        2.86084929       0.54209229      -0.60201099
C       -1.99277821      -0.34124687      -0.38662491
O       -1.86082123      -1.61971378      -0.65871122
H       -2.43244507       1.42041233       1.62921919
H       -0.59180284      -0.46180253       1.24329383
H        2.12933241      -2.57759184      -0.69223032
H        2.55831146       1.46133550      -0.65402290
H       -2.86381640      -0.07762571       0.28272472
H       -2.14088136       0.35424821      -1.24747262
H        1.22940674      -1.87605314      -1.76766798
18
Properties=species:S:1:pos:R:3 relative_energy_eV=-1.7227248856543156 branch=right pbc="F F F"
O        0.27560995       2.34321169       0.61352479
C       -0.68800413       1.64226317       0.83362032
O       -1.75227461       2.11293961       1.50257565
C       -0.76516676       0.20043960       0.39521060
O        0.34964703      -0.01979845      -0.56589052
P        1.73568534      -0.37681309       0.02525506
O        1.95465943      -1.13086612       1.25706685
O        2.05675623      -1.78137301      -1.27722625
O        2.85963477       0.53678647      -0.60233389
C       -1.99281844      -0.35025094      -0.39389115
O       -1.83910799      -1.62715767      -0.66458764
H       -2.42373774       1.42392984       1.63041805
H       -0.60524626      -0.46215845       1.24904094
H        2.12668289      -2.56160820      -0.69769895
H        2.56454504       1.45625479      -0.66270738
H       -2.86448694      -0.09699937       0.28050432
H       -2.14370515       0.35028065      -1.25363922
H        1.20434784      -1.85647352      -1.75118823
18
Properties=species:S:1:pos:R:3 relative_energy_eV=-1.7342518790028407 branch=right pbc="F F F"
O        0.29486640       2.33193509       0.62448627
C       -0.68050919       1.63919784       0.82737511
O       -1.74491468       2.11391275       1.49212639
C       -0.76437673       0.19984064       0.39373010
O        0.34769219      -0.02067652      -0.56402107
P        1.73285417      -0.37887402       0.02866715
O        1.95595333      -1.12478318       1.26747697
O        2.04391396      -1.76565572      -1.27602812
O        2.85756439       0.53281565      -0.60095843
C       -1.99526453      -0.35762499      -0.39834746
O       -1.81881460      -1.63289920      -0.67361625
H       -2.41860311       1.43042499       1.62988366
H       -0.61536647      -0.46373980       1.25205214
H        2.12045176      -2.54935446      -0.70462415
H        2.57090212       1.45643117      -0.67201618
H       -2.86733883      -0.11312571       0.28000347
H       -2.14445447       0.34274381      -1.25764787
H        1.17846484      -1.83796148      -1.73048835
18
Properties=species:S:1:pos:R:3 relative_energy_eV=-1.745933375106688 branch=right pbc="F F F"
O        0.29897458       2.33094453       0.62639716
C       -0.67720728       1.63689178       0.82073327
O       -1.73698476       2.10623045       1.49376223
C       -0.76148189       0.20048200       0.39097309
O        0.34970412      -0.01240616      -0.55934879
P        1.73139137      -0.38030530       0.03360346
O        1.96388784      -1.11689359       1.27992471
O        2.02583303      -1.75628321      -1.27723143
O        2.85596205       0.53359150      -0.59656952
C       -1.99637102      -0.35882528      -0.40005166
O       -1.80907560      -1.63234770      -0.67923019
H       -2.41657536       1.42804836       1.61474733
H       -0.61919451      -0.46375741       1.25161078
H        2.11348725      -2.54290436      -0.71302979
H        2.56831965       1.45663346      -0.67124235
H       -2.86307297      -0.11963403       0.28779925
H       -2.13932584       0.33812886      -1.26053681
H        1.16474992      -1.84498691      -1.72425741
18
Properties=species:S:1:pos:R:3 relative_energy_eV=-1.7591550165780063 branch=right pbc="F F F"
O        0.30774046       2.32228882       0.62698348
C       -0.67320337       1.63139495       0.81840946
O       -1.72368458       2.10699549       1.50225430
C       -0.76374434       0.19743715       0.38715429
O        0.35274003      -0.00508166      -0.55378535
P        1.73126911      -0.38035482       0.04015801
O        1.96991426      -1.10811893       1.29254269
O        2.01482203      -1.74710217      -1.28292219
O        2.85614763       0.53307092      -0.59195717
C       -1.99410271      -0.36455324      -0.40270520
O       -1.79418567      -1.63610212      -0.69235624
H       -2.42002426       1.44006984       1.59896881
H       -0.62315575      -0.46687167       1.24711569
H        2.10350158      -2.53540006      -0.72286514
H        2.56904107       1.45789194      -0.67625294
H       -2.85817272      -0.13443950       0.29213085
H       -2.13613738       0.32722954      -1.26288707
H        1.13425520      -1.83574756      -1.70193292
18
Properties=species:S:1:pos:R:3 relative_energy_eV=-1.7733557089886745 branch=right pbc="F F F"
O        0.30965260       2.31552377       0.62178899
C       -0.67142660       1.62727026       0.82062241
O       -1.70847302       2.10638625       1.52101316
C       -0.76569406       0.19473289       0.38241727
O        0.35907366       0.00529810      -0.54657430
P        1.73418588      -0.37495828       0.05084739
O        1.97968835      -1.09549015       1.30560286
O        1.99557454      -1.74143318      -1.29115963
O        2.85842902       0.53547365      -0.58474737
C       -1.98622995      -0.37011127      -0.40539885
O       -1.78303240      -1.63876342      -0.70565762
H       -2.42585687       1.45109547       1.57019583
H       -0.62356576      -0.46981139       1.23870605
H        2.09303893      -2.53106097      -0.73507625
H        2.56379277       1.45706821      -0.67585525
H       -2.84629493      -0.14984893       0.29910077
H       -2.13100873       0.31776554      -1.26515888
H        1.10116717      -1.83652957      -1.68261325
18
Properties=species:S:1:pos:R:3 relative_energy_eV=-1.7834566446472309 branch=right pbc="F F F"
O        0.31589461       2.30781299       0.62241262
C       -0.66872318       1.62641844       0.82509857
O       -1.70119318       2.10954754       1.52815881
C       -0.76710035       0.19397907       0.38043370
O        0.36287899       0.01060832      -0.54261396
P        1.73677177      -0.36766081       0.05903856
O        1.98462526      -1.08561273       1.31227121
O        1.97984723      -1.73875183      -1.29597976
O        2.86073271       0.53852165      -0.57917100
C       -1.97908641      -0.37689429      -0.40809242
O       -1.77218518      -1.64300931      -0.71539108
H       -2.42463174       1.45844791       1.55232792
H       -0.62349776      -0.47162336       1.23285554
H        2.08650018      -2.53073682      -0.74506666
H        2.56111690       1.45635922      -0.67686400
H       -2.84113196      -0.16576365       0.29884993
H       -2.12956891       0.31241744      -1.26602947
H        1.07177164      -1.83145286      -1.66418519
18
Properties=species:S:1:pos:R:3 relative_energy_eV=-1.7978330240766809 branch=right pbc="F F F"
O        0.33053215       2.29615146       0.63036794
C       -0.66160709       1.62769016       0.83297652
O       -1.69611191       2.11607243       1.52559537
C       -0.76638636       0.19581220       0.37985249
O        0.36713185       0.01962990      -0.53774684
P        1.74029180      -0.35451588       0.06971059
O        1.99048650      -1.07003713       1.32043049
O        1.95139435      -1.73751597      -1.30019363
O        2.86452687       0.54541550      -0.56956337
C       -1.96962546      -0.38737838      -0.41254797
O       -1.75352712      -1.64893353      -0.72820685
H       -2.41525506       1.46231414       1.53066736
H       -0.62181031      -0.47318601       1.22631206
H        2.07797250      -2.53498411      -0.76246958
H        2.55698830       1.45734150      -0.67826132
H       -2.83897216      -0.19446467       0.29298809
H       -2.12884091       0.30656873      -1.26683969
H        1.02583283      -1.82337348      -1.63501839
18
Properties=species:S:1:pos:R:3 relative_energy_eV=-1.811347760642093 branch=right pbc="F F F"
O        0.35039640       2.28476618       0.64481830
C       -0.65128942       1.62967248       0.84028969
O       -1.69425058       2.12387038       1.51270980
C       -0.76268696       0.19934302       0.38129597
O        0.37022526       0.03029922      -0.53352148
P        1.74333637      -0.34321923       0.07676530
O        1.99487460      -1.05367702       1.32892560
O        1.91767879      -1.73690155      -1.30147090
O        2.86923052       0.55458373      -0.55917752
C       -1.96249527      -0.39740118      -0.41766026
O       -1.73054278      -1.65435665      -0.74065277
H       -2.40289724       1.46231334       1.51352897
H       -0.61887561      -0.47468301       1.22292851
H        2.07004998      -2.54175258      -0.78171214
H        2.55326695       1.46073949      -0.68068192
H       -2.84063524      -0.22818457       0.28258635
H       -2.12937664       0.30119859      -1.26781790
H        0.97701178      -1.81400391      -1.60310033
18
Properties=species:S:1:pos:R:3 relative_energy_eV=-1.8266424899084086 branch=right pbc="F F F"
O        0.37221763       2.27710801       0.66528960
C       -0.63863838       1.63275215       0.84725583
O       -1.69483718       2.13072056       1.49344661
C       -0.75542678       0.20457925       0.38472222
O        0.37418993       0.04501563      -0.52998320
P        1.74691388      -0.33444660       0.07942239
O        1.99900425      -1.03434987       1.33830706
O        1.87568877      -1.74041730      -1.30054180
O        2.87536963       0.56786990      -0.54567983
C       -1.95624761      -0.40632702      -0.42280922
O       -1.70220419      -1.65804540      -0.75356769
H       -2.38945457       1.45689155       1.49475831
H       -0.61158854      -0.47567211       1.22207357
H        2.06066453      -2.55366071      -0.80561861
H        2.54718669       1.46862420      -0.68226633
H       -2.84303575      -0.26575908       0.26802307
H       -2.13069023       0.29690178      -1.26758898
H        0.92390897      -1.80917821      -1.56718983
18
Properties=species:S:1:pos:R:3 relative_energy_eV=-1.840084031722654 branch=right pbc="F F F"
O        0.38821695       2.27508305       0.68551728
C       -0.62867137       1.63455362       0.85126298
O       -1.69516151       2.13443454       1.47830782
C       -0.74844316       0.20768120       0.38860087
O        0.37834694       0.05642582      -0.52948557
P        1.75045791      -0.33303474       0.07583706
O        2.00034775      -1.01854897       1.34533344
O        1.84076498      -1.74477113      -1.29826765
O        2.88074323       0.58055256      -0.53454566
C       -1.95132417      -0.41240643      -0.42706176
O       -1.67391175      -1.66006736      -0.76478222
H       -2.38355254       1.45477782       1.47989234
H       -0.60256565      -0.47677233       1.22455861
H        2.05192602      -2.56510469      -0.82575481
H        2.54249614       1.47723231      -0.68460594
H       -2.84371188      -0.29518265       0.25395439
H       -2.13326359       0.29419028      -1.26607717
H        0.88032684      -1.80643622      -1.53463086
18
Properties=species:S:1:pos:R:3 relative_energy_eV=-1.8539370222533762 branch=right pbc="F F F"
O        0.38964105       2.28358554       0.70173013
C       -0.62545778       1.63616765       0.85331178
O       -1.69763903       2.13337699       1.47282087
C       -0.74128419       0.20850247       0.39350992
O        0.38389671       0.06633230      -0.53297565
P        1.75568904      -0.33989905       0.06354737
O        1.99900522      -1.00904232       1.34552024
O        1.81643295      -1.75408252      -1.29290559
O        2.88525207       0.59230055      -0.52701304
C       -1.94663925      -0.41330772      -0.42912834
O       -1.65181592      -1.65746785      -0.77132356
H       -2.38985878       1.45656425       1.46910917
H       -0.58707120      -0.47840748       1.22994831
H        2.04619084      -2.57951798      -0.83985927
H        2.53644366       1.48646767      -0.68401469
H       -2.84203865      -0.30996805       0.24258065
H       -2.13508645       0.29641561      -1.26276066
H        0.85736085      -1.81541331      -1.51404457
18
Properties=species:S:1:pos:R:3 relative_energy_eV=-1.8659320961487538 branch=right pbc="F F F"
O        0.39690496       2.28275160       0.72061556
C       -0.62148281       1.63346276       0.85657519
O       -1.69129768       2.13690303       1.47682542
C       -0.73741371       0.20434390       0.39572307
O        0.39094111       0.07379495      -0.53601056
P        1.76186608      -0.34552033       0.05480807
O        1.99795196      -0.99655027       1.34901444
O        1.78754642      -1.75346801      -1.29042690
O        2.89036725       0.60055753      -0.52089619
C       -1.93560318      -0.42099515      -0.43494664
O       -1.61415323      -1.66071448      -0.78852988
H       -2.40493307       1.47993439       1.45231709
H       -0.57431767      -0.48352836       1.23349244
H        2.03598901      -2.58683489      -0.85732134
H        2.53440220       1.49221950      -0.69056004
H       -2.83593114      -0.33761244       0.23144691
H       -2.13710038       0.29238707      -1.26174446
H        0.80928501      -1.80852414      -1.47232908
18
Properties=species:S:1:pos:R:3 relative_energy_eV=-1.8848922454599233 branch=right pbc="F F F"
O        0.38911130       2.29244723       0.73994397
C       -0.62509156       1.63309591       0.86167295
O       -1.68970943       2.13666433       1.49281185
C       -0.73166092       0.19987098       0.39742438
O        0.40267070       0.08715146      -0.54169812
P        1.76976693      -0.35085768       0.04291409
O        1.99953204      -0.98476351       1.34621088
O        1.75041252      -1.76004761      -1.28388929
O        2.89572190       0.61022039      -0.51603892
C       -1.91715767      -0.42592623      -0.43918569
O       -1.57278417      -1.65872673      -0.80625424
H       -2.42999068       1.50454238       1.42545514
H       -0.54929411      -0.48731125       1.23617465
H        2.02447757      -2.60083916      -0.87833363
H        2.52457972       1.49741193      -0.68946736
H       -2.82135136      -0.35922443       0.22391182
H       -2.13392083       0.29468198      -1.25842012
H        0.76770917      -1.82578325      -1.43517928
18
Properties=species:S:1:pos:R:3 relative_energy_eV=-1.920307217475056 branch=right pbc="F F F"
O        0.39157341       2.29596516       0.77178642
C       -0.62419051       1.63211704       0.86983805
O       -1.68519233       2.14062332       1.50560200
C       -0.72416060       0.19514840       0.39904731
O        0.41700058       0.10589675      -0.54677105
P        1.77922804      -0.35289710       0.03263427
O        2.00302460      -0.96355487       1.34822749
O        1.69026903      -1.76369834      -1.27643210
O        2.90351517       0.62362195      -0.50719991
C       -1.89154803      -0.43773844      -0.44735425
O       -1.50747037      -1.65985680      -0.83543456
H       -2.45499939       1.53761946       1.38664327
H       -0.52089779      -0.49217056       1.23819901
H        2.00560184      -2.61581949      -0.91247452
H        2.51355576       1.50382896      -0.69199953
H       -2.80326945      -0.40242762       0.21059188
H       -2.13056127       0.29296066      -1.25548797
H        0.69154240      -1.83701164      -1.37136276
18
Properties=species:S:1:pos:R:3 relative_energy_eV=-2.0094867524348956 branch=right pbc="F F F"
O        0.41064518       2.29090344       0.81718822
C       -0.61515078       1.63498982       0.87522643
O       -1.69604817       2.14689441       1.47937870
C       -0.71851943       0.19501534       0.39708348
O        0.41913995       0.10769768      -0.55431696
P        1.77827051      -0.35434084       0.02441975
O        1.99658905      -0.94907808       1.34817042
O        1.64434588      -1.76911675      -1.26469296
O        2.90365402       0.63253021      -0.50533592
C       -1.87257244      -0.44911885      -0.45280125
O       -1.43137865      -1.65949250      -0.85896659
H       -2.44485913       1.54009025       1.37418635
H       -0.50988681      -0.48224930       1.24396012
H        1.98074008      -2.61543911      -0.94378211
H        2.51556248       1.50841416      -0.70155157
H       -2.79270849      -0.43923934       0.18976355
H       -2.13564341       0.28994697      -1.24833998
H        0.62084142      -1.82580109      -1.30153659
18
Properties=species:S:1:pos:R:3 relative_energy_eV=-2.0827760872452927 branch=right pbc="F F F"
O        0.42645422       2.28515025       0.85892049
C       -0.60765166       1.63682971       0.88157277
O       -1.70379067       2.15283985       1.45986002
C       -0.71236967       0.19451782       0.39518218
O        0.42291414       0.11376930      -0.56011893
P        1.77863534      -0.35481895       0.01746667
O        1.99260661      -0.93425087       1.34886045
O        1.59456620      -1.77228822      -1.25317332
O        2.90477722       0.64047530      -0.50383897
C       -1.85212622      -0.46032841      -0.45900653
O       -1.35605188      -1.65831434      -0.88378531
H       -2.44071626       1.54835197       1.35735259
H       -0.49723873      -0.47469804       1.24803507
H        1.95686965      -2.61522266      -0.97504369
H        2.51546933       1.51151166      -0.70976416
H       -2.77981093      -0.47853410       0.17190705
H       -2.13774704       0.28587325      -1.24318086
H        0.54823170      -1.81825742      -1.23319245
18
Properties=species:S:1:pos:R:3 relative_energy_eV=-2.1513442575815134 branch=right pbc="F F F"
O        0.43110590       2.28314461       0.89461338
C       -0.60378880       1.63892404       0.89103889
O       -1.71085134       2.15608814       1.44842553
C       -0.70279312       0.19624237       0.39456136
O        0.43119844       0.13600338      -0.56252447
P        1.78086062      -0.35430253       0.01042306
O        1.99320419      -0.91992309       1.34810959
O        1.54378324      -1.78182739      -1.24193565
O        2.90657987       0.65094839      -0.50187329
C       -1.82899347      -0.46793792      -0.46338420
O       -1.28622321      -1.64983096      -0.90954519
H       -2.44389711       1.55750519       1.33199408
H       -0.47539195      -0.46868530       1.24708953
H        1.93046607      -2.62125428      -1.01054489
H        2.50888521       1.51520713      -0.71195480
H       -2.76383636      -0.51990157       0.15871307
H       -2.13216647       0.28055293      -1.23917419
H        0.47487974      -1.82834724      -1.16597872
18
Properties=species:S:1:pos:R:3 relative_energy_eV=-2.2375447365084256 branch=right pbc="F F F"
O        0.43171101       2.28011165       0.92527733
C       -0.60328002       1.64076479       0.90247835
O       -1.71793964       2.16106818       1.44160219
C       -0.69178285       0.19999942       0.39517295
O        0.44220566       0.17180435      -0.56033534
P        1.78382576      -0.35054625       0.00611047
O        1.99784032      -0.90714706       1.34686744
O        1.49292062      -1.79244813      -1.23123970
O        2.90954607       0.66153154      -0.50069809
C       -1.80574877      -0.47443928      -0.46718398
O       -1.22481366      -1.63843088      -0.93495186
H       -2.44977742       1.56848179       1.30318896
H       -0.44922130      -0.46516501       1.24145057
H        1.90474693      -2.63004951      -1.04740423
H        2.49839983       1.51796610      -0.71048161
H       -2.74626070      -0.56511361       0.14852125
H       -2.11952959       0.27318411      -1.23754648
H        0.40017930      -1.84896646      -1.10277514
18
Properties=species:S:1:pos:R:3 relative_energy_eV=-2.354535898379254 branch=right pbc="F F F"
O        0.42984712       2.28082064       0.95586166
C       -0.60337476       1.64452970       0.91449462
O       -1.72818777       2.16498088       1.43369260
C       -0.68028696       0.20543112       0.39641381
O        0.45455559       0.21362264      -0.55812477
P        1.78669607      -0.34384870       0.00293917
O        2.00478471      -0.89314995       1.34443192
O        1.44146196      -1.80909805      -1.22160214
O        2.91153768       0.67524975      -0.49669969
C       -1.78251249      -0.47914611      -0.46933829
O       -1.16520100      -1.62427968      -0.96062070
H       -2.45338204       1.57320806       1.27131068
H       -0.41796478      -0.46088687       1.23382402
H        1.87743947      -2.64657744      -1.08801385
H        2.48449523       1.52326208      -0.70520942
H       -2.73061861      -0.60862931       0.13936511
H       -2.10458285       0.26730002      -1.23403396
H        0.32831509      -1.88018307      -1.04063773
18
Properties=species:S:1:pos:R:3 relative_energy_eV=-2.4633374502009246 branch=right pbc="F F F"
O        0.42794694       2.27796983       0.98023118
C       -0.60199115       1.64739557       0.92755752
O       -1.73478374       2.16859192       1.42478783
C       -0.66945212       0.21256227       0.39591001
O        0.46475484       0.25691237      -0.55321587
P        1.78755947      -0.32804877       0.00865998
O        2.01646863      -0.87780639       1.34560430
O        1.39153172      -1.82614404      -1.21700470
O        2.91184742       0.68755391      -0.49051154
C       -1.76028827      -0.48211056      -0.47044891
O       -1.10762137      -1.60748003      -0.98537208
H       -2.45252190       1.57123982       1.23618788
H       -0.39053482      -0.45552849       1.22128818
H        1.84802689      -2.66329999      -1.13048095
H        2.46947536       1.52728791      -0.69770196
H       -2.71464830      -0.65304799       0.13514731
H       -2.08715148       0.25784351      -1.23169508
H        0.25440376      -1.91128518      -0.98089014
18
Properties=species:S:1:pos:R:3 relative_energy_eV=-2.6272242812810873 branch=right pbc="F F F"
O        0.41680637       2.28221891       0.98065706
C       -0.61466109       1.64629022       0.93302759
O       -1.73458084       2.17220592       1.43007508
C       -0.65888343       0.21715347       0.39462264
O        0.46784155       0.27283901      -0.54772467
P        1.78673010      -0.35031115      -0.01561303
O        2.01490103      -0.88825317       1.34424391
O        1.39706297      -1.82565477      -1.20482238
O        2.91818401       0.68913518      -0.49771050
C       -1.75259673      -0.48352345      -0.46953345
O       -1.10947335      -1.61070957      -0.97546966
H       -2.46505293       1.57207545       1.23563880
H       -0.38134313      -0.45655385       1.21993154
H        1.84872504      -2.66533549      -1.12931518
H        2.46823682       1.52832732      -0.69762758
H       -2.69630092      -0.65781543       0.12723469
H       -2.08065042       0.25600224      -1.23352095
H        0.22807672      -1.89548527      -0.97604087
18
Properties=species:S:1:pos:R:3 relative_energy_eV=-3.0010402835396235 branch=right pbc="F F F"
O        0.41644622       2.26899423       1.00244302
C       -0.63482351       1.64001829       0.94294516
O       -1.74751634       2.20707128       1.40640294
C       -0.64451094       0.22536302       0.39539956
O        0.47084804       0.32027998      -0.53517496
P        1.78221711      -0.38899935      -0.05534602
O        2.01216407      -0.91579592       1.32730037
O        1.39324595      -1.79452799      -1.15813573
O        2.93069819       0.67629261      -0.52382331
C       -1.73547709      -0.48626024      -0.47232140
O       -1.10401888      -1.62826990      -0.95263563
H       -2.47585810       1.58111699       1.26262207
H       -0.36413311      -0.46384049       1.21541831
H        1.85528325      -2.66592341      -1.13159805
H        2.47119198       1.52292225      -0.70349641
H       -2.66829509      -0.70365016       0.10397475
H       -2.05443892       0.24384058      -1.24907860
H        0.14999904      -1.83602673      -0.95684298
18
Properties=species:S:1:pos:R:3 relative_energy_eV=-3.3512285363904084 branch=right pbc="F F F"
O        0.39833241       2.26547883       1.00640125
C       -0.64972711       1.63290840       0.95229900
O       -1.74849331       2.21805510       1.40700716
C       -0.62754558       0.23156079       0.39163381
O        0.47974784       0.35588839      -0.52500584
P        1.78343365      -0.42917181      -0.08978826
O        2.00977715      -0.93883093       1.31317940
O        1.40206258      -1.76869023      -1.12726094
O        2.93774065       0.66068152      -0.54607474
C       -1.71313582      -0.48181883      -0.47222455
O       -1.10093166      -1.64006587      -0.93285306
H       -2.50010409       1.58734012       1.26804347
H       -0.35136925      -0.46525841       1.20965024
H        1.84920698      -2.65798771      -1.13160014
H        2.47268910       1.51637365      -0.70741454
H       -2.62797591      -0.73421225       0.09465900
H       -2.03321151       0.22957005      -1.26351244
H        0.07252575      -1.77921636      -0.92908562
18
Properties=species:S:1:pos:R:3 relative_energy_eV=-3.606113762820314 branch=right pbc="F F F"
O        0.39068355       2.26055596       1.01392543
C       -0.65683319       1.62959873       0.96020615
O       -1.75132247       2.22432786       1.40093272
C       -0.61268029       0.23956362       0.38628809
O        0.48856673       0.38716518      -0.51417294
P        1.78487281      -0.45079345      -0.10689368
O        2.01215615      -0.94928266       1.30809869
O        1.39444732      -1.74832984      -1.10901167
O        2.94136475       0.64944133      -0.56038224
C       -1.69023720      -0.47843026      -0.47199771
O       -1.08658928      -1.64711172      -0.91987614
H       -2.50820411       1.57738326       1.25960451
H       -0.34322982      -0.46141548       1.20210745
H        1.83547573      -2.64990566      -1.13944694
H        2.47073900       1.50957013      -0.70770289
H       -2.58986488      -0.76768148       0.08937769
H       -2.01417494       0.21431711      -1.27545254
H       -0.01214786      -1.73636863      -0.89755070
18
Properties=species:S:1:pos:R:3 relative_energy_eV=-3.8472096636796778 branch=right pbc="F F F"
O        0.38680012       2.25336141       1.00384073
C       -0.65667755       1.62419183       0.96246204
O       -1.74655808       2.21996369       1.40426603
C       -0.60229481       0.24560778       0.37872307
O        0.49715412       0.39199854      -0.50218446
P        1.79109572      -0.46784283      -0.11067281
O        2.01198497      -0.96036110       1.30911014
O        1.40292373      -1.71486255      -1.10594303
O        2.94370999       0.62679956      -0.57727851
C       -1.67322851      -0.47251896      -0.47246778
O       -1.09790427      -1.66033392      -0.89581751
H       -2.51424627       1.56176569       1.25222551
H       -0.35749319      -0.45626936       1.19801921
H        1.82877593      -2.62082345      -1.12667496
H        2.47516780       1.49435078      -0.71130385
H       -2.54698421      -0.78731890       0.09301435
H       -2.00242629       0.19538582      -1.29323039
H       -0.08677714      -1.67049064      -0.88803439
18
Properties=species:S:1:pos:R:3 relative_energy_eV=-4.0799122340395115 branch=right pbc="F F F"
O        0.38306718       2.25050639       0.97010607
C       -0.65146094       1.62004423       0.94859692
O       -1.73936392       2.19907147       1.42725911
C       -0.60356774       0.23992618       0.37128667
O        0.50951039       0.35874446      -0.49438774
P        1.80893612      -0.48891032      -0.10103347
O        2.00310227      -0.98222337       1.30784632
O        1.44707358      -1.65638402      -1.12074132
O        2.93975304       0.58264467      -0.60685053
C       -1.67239931      -0.45730088      -0.47378366
O       -1.15182465      -1.68456075      -0.85581829
H       -2.52876983       1.55208604       1.26290802
H       -0.39932698      -0.45412808       1.20596171
H        1.84257935      -2.55905056      -1.06986835
H        2.49300460       1.46238354      -0.72010651
H       -2.51007521      -0.77179411       0.11495236
H       -1.99825857       0.17637661      -1.31990972
H       -0.11895743      -1.58482881      -0.92836403
18
Properties=species:S:1:pos:R:3 relative_energy_eV=-4.285660761033796 branch=right pbc="F F F"
O        0.35619772       2.27669331       0.96226215
C       -0.64724878       1.62923282       0.94285054
O       -1.75224931       2.15422685       1.45513038
C       -0.58913148       0.23840392       0.36553884
O        0.54215624       0.36576238      -0.49069506
P        1.84357630      -0.49205919      -0.08364249
O        2.00239265      -0.98699028       1.30047478
O        1.45146991      -1.64361273      -1.15557275
O        2.93086097       0.55710367      -0.62775785
C       -1.64906997      -0.43579372      -0.47083079
O       -1.14070876      -1.67447032      -0.83940066
H       -2.55488307       1.53146120       1.22537102
H       -0.39800487      -0.44152545       1.20934079
H        1.82140353      -2.53070610      -1.04691482
H        2.49154408       1.43761752      -0.71391157
H       -2.46012101      -0.77293835       0.14043513
H       -1.97851108       0.15536832      -1.33459933
H       -0.21665111      -1.56517175      -0.92002465
18
Properties=species:S:1:pos:R:3 relative_energy_eV=-4.578450113884173 branch=right pbc="F F F"
O        0.36538734       2.29566794       0.97169604
C       -0.64121727       1.64609480       0.91669819
O       -1.77431703       2.13770651       1.43419813
C       -0.59832557       0.23761682       0.36896060
O        0.54138311       0.33745103      -0.49285879
P        1.85148382      -0.49383848      -0.07251683
O        1.99442282      -0.99227252       1.29785086
O        1.47717808      -1.62488528      -1.18327098
O        2.91956156       0.54243520      -0.63606255
C       -1.67136766      -0.43423137      -0.46713975
O       -1.15230305      -1.68103969      -0.82927602
H       -2.52687489       1.49779194       1.25344351
H       -0.41603677      -0.43430874       1.22664582
H        1.83771034      -2.51486383      -1.00258486
H        2.50404851       1.42559422      -0.71405021
H       -2.49580664      -0.72403388       0.15669451
H       -1.98342072       0.16289950      -1.33142468
H       -0.17848412      -1.58118213      -0.97894943
18
Properties=species:S:1:pos:R:3 relative_energy_eV=-4.757167186067818 branch=right pbc="F F F"
O        0.34283822       2.33310019       0.99428078
C       -0.65297350       1.66743177       0.90716023
O       -1.81035174       2.12570638       1.42851760
C       -0.59898979       0.24161593       0.37599104
O        0.54635998       0.33524878      -0.49614359
P        1.85651345      -0.51107468      -0.09717777
O        1.98549678      -1.01078640       1.27471971
O        1.52006377      -1.63072806      -1.20752912
O        2.92044771       0.53359331      -0.65211581
C       -1.67019134      -0.43829136      -0.45585731
O       -1.14261899      -1.68629376      -0.83057904
H       -2.53219521       1.49310286       1.27941444
H       -0.39193093      -0.43028875       1.23615201
H        1.84681416      -2.52933092      -0.96628523
H        2.51317305       1.41766791      -0.71287673
H       -2.52759348      -0.67772925       0.16090408
H       -1.97607842       0.17121243      -1.31857410
H       -0.17576211      -1.60155467      -1.00194755
18
Properties=species:S:1:pos:R:3 relative_energy_eV=-4.928476140445127 branch=right pbc="F F F"
O        0.30898565       2.38121657       1.00136728
C       -0.65856808       1.69218987       0.91138638
O       -1.84178249       2.09837245       1.43079094
C       -0.58622691       0.25365144       0.37863436
O        0.54177694       0.31427257      -0.48810505
P        1.85801464      -0.51118958      -0.11086926
O        1.98229708      -1.02489399       1.25818490
O        1.59213953      -1.65601228      -1.27207207
O        2.93531995       0.51802045      -0.66313307
C       -1.66470465      -0.44428025      -0.44125135
O       -1.15494275      -1.70042381      -0.83171637
H       -2.53333847       1.47085624       1.29057351
H       -0.37720372      -0.41268975       1.23713325
H        1.85213632      -2.53635082      -0.91801668
H        2.52732085       1.40152054      -0.71287911
H       -2.56209701      -0.61260536       0.17168000
H       -1.97506064       0.16926002      -1.29879785
H       -0.19104497      -1.59831347      -1.02485598
18
Properties=species:S:1:pos:R:3 relative_energy_eV=-5.0418640580028296 branch=right pbc="F F F"
O        0.27595809       2.42489568       1.00893221
C       -0.68194408       1.70086112       0.92057544
O       -1.86658946       2.09074113       1.44265136
C       -0.57268911       0.25886230       0.38341323
O        0.54758733       0.31424035      -0.48805317
P        1.86004950      -0.53591085      -0.14523844
O        1.97817993      -1.04901392       1.23180184
O        1.65058735      -1.67167542      -1.29298760
O        2.94843076       0.50377428      -0.68372164
C       -1.65801872      -0.43924348      -0.42897756
O       -1.16077858      -1.70944195      -0.82538628
H       -2.56199142       1.46085747       1.30249216
H       -0.35246625      -0.39910627       1.23859527
H        1.85815084      -2.53543494      -0.88500117
H        2.53687983       1.38524526      -0.71067936
H       -2.56311287      -0.57396757       0.17452458
H       -1.96300584       0.16741902      -1.28993081
H       -0.22220630      -1.59050200      -1.03495602
18
Properties=species:S:1:pos:R:3 relative_energy_eV=-5.107709530606371 branch=right pbc="F F F"
O        0.24468656       2.45395098       1.00211525
C       -0.69227538       1.69981296       0.93911976
O       -1.87850726       2.08481298       1.45120793
C       -0.56020588       0.26406510       0.38991788
O        0.55420085       0.31341739      -0.48926629
P        1.86437151      -0.54619401      -0.16648089
O        1.97775330      -1.06809950       1.20992663
O        1.69532010      -1.69136638      -1.30614036
O        2.96478916       0.49084529      -0.69942424
C       -1.65897886      -0.42862570      -0.42041966
O       -1.17871254      -1.70909974      -0.81126863
H       -2.58923344       1.45428999       1.30898298
H       -0.33653497      -0.38840242       1.24214597
H        1.86704389      -2.52667350      -0.86174880
H        2.54521514       1.36894366      -0.70849888
H       -2.56257174      -0.55745071       0.17692696
H       -1.95345995       0.16449544      -1.29098138
H       -0.24987978      -1.57612225      -1.04806006
18
Properties=species:S:1:pos:R:3 relative_energy_eV=-5.141261046912405 branch=right pbc="F F F"
O        0.22189666       2.47946678       0.99741702
C       -0.69911891       1.70073783       0.94696603
O       -1.89226513       2.07310020       1.44906900
C       -0.55443360       0.27039348       0.39335172
O        0.55935298       0.30938483      -0.49068616
P        1.87092201      -0.55375242      -0.17718793
O        1.98007616      -1.08748265       1.19363843
O        1.73823389      -1.69429689      -1.32455142
O        2.97463602       0.47313162      -0.71563771
C       -1.66411073      -0.41886461      -0.41090980
O       -1.19823812      -1.70668147      -0.78975101
H       -2.59622603       1.43007814       1.31541193
H       -0.33169966      -0.37419322       1.24994642
H        1.87550325      -2.51393895      -0.83155762
H        2.55871602       1.35062612      -0.70715607
H       -2.56557716      -0.53864765       0.18464783
H       -1.94276734       0.16345795      -1.29376286
H       -0.28187982      -1.55992010      -1.07119351
18
Properties=species:S:1:pos:R:3 relative_energy_eV=-5.175145844477811 branch=right pbc="F F F"
O        0.20375046       2.49440078       0.99476575
C       -0.70583697       1.70190020       0.95629990
O       -1.90588785       2.07161400       1.43974379
C       -0.55506107       0.27836435       0.39983772
O        0.56087052       0.31732321      -0.49489643
P        1.87563425      -0.55494237      -0.18742405
O        1.98832718      -1.10540004       1.17812979
O        1.76709955      -1.70769631      -1.32856189
O        2.98507968       0.46369328      -0.72581929
C       -1.67164562      -0.40976816      -0.40228119
O       -1.21391112      -1.69667885      -0.77053382
H       -2.59485374       1.40464151       1.32002931
H       -0.32026631      -0.36274802       1.25707166
H        1.88293916      -2.51019313      -0.81873335
H        2.57168858       1.34139442      -0.70432191
H       -2.57679634      -0.53342142       0.18799549
H       -1.92991380       0.16898447      -1.29385482
H       -0.30819632      -1.55886940      -1.08939237
18
Properties=species:S:1:pos:R:3 relative_energy_eV=-5.211790627548908 branch=right pbc="F F F"
O        0.18625811       2.50992262       0.99193893
C       -0.71407733       1.71125646       0.95547356
O       -1.92485379       2.06290779       1.42567418
C       -0.55682591       0.28870772       0.40483736
O        0.56074956       0.32319852      -0.49844511
P        1.88073864      -0.55802542      -0.19407603
O        2.00040822      -1.12505787       1.16517435
O        1.79630027      -1.71412729      -1.33618826
O        2.99279473       0.45436887      -0.73568449
C       -1.67943741      -0.39731022      -0.39081799
O       -1.23174336      -1.68643772      -0.74367345
H       -2.57542112       1.35320615       1.31904248
H       -0.31291785      -0.34450622       1.26656820
H        1.88832151      -2.50945410      -0.80251933
H        2.58996123       1.33492326      -0.69987543
H       -2.58899181      -0.51973303       0.19560292
H       -1.91646246       0.18182736      -1.28969146
H       -0.34178124      -1.56306885      -1.11528610
18
Properties=species:S:1:pos:R:3 relative_energy_eV=-5.247819213032926 branch=right pbc="F F F"
O        0.17276538       2.51993899       0.98945062
C       -0.72451278       1.72335453       0.94477823
O       -1.94245058       2.05002373       1.41236155
C       -0.55881783       0.29937257       0.40872876
O        0.55929190       0.33220863      -0.50178577
P        1.88358073      -0.55692169      -0.19534842
O        2.01728967      -1.13932090       1.15575484
O        1.80649075      -1.72030130      -1.33246095
O        2.99575922       0.45289087      -0.73895260
C       -1.68202458      -0.38274409      -0.37985320
O       -1.24480795      -1.67434740      -0.71923034
H       -2.54630398       1.29503998       1.30709663
H       -0.30396582      -0.32665575       1.27456402
H        1.88769382      -2.52048715      -0.80440046
H        2.60814875       1.33899162      -0.69355366
H       -2.59811685      -0.51022086       0.20371322
H       -1.90428029       0.20405339      -1.28039376
H       -0.37271989      -1.58227750      -1.13241446
18
Properties=species:S:1:pos:R:3 relative_energy_eV=-5.272300829336018 branch=right pbc="F F F"
O        0.15669519       2.53488982       0.98129376
C       -0.73376056       1.73342231       0.92949917
O       -1.95486823       2.02478665       1.41507631
C       -0.55313991       0.30672883       0.40982463
O        0.56179006       0.33325929      -0.50124750
P        1.88780306      -0.55948954      -0.19580281
O        2.02865303      -1.14697980       1.15124217
O        1.80965666      -1.72163061      -1.33134889
O        2.99586907       0.45361134      -0.74066419
C       -1.67801545      -0.36957171      -0.37174955
O       -1.25570867      -1.66962946      -0.70116854
H       -2.53053093       1.25416340       1.28888325
H       -0.29716247      -0.31384239       1.27982789
H        1.88444560      -2.53330875      -0.80769013
H        2.62080174       1.34505967      -0.68735842
H       -2.59660978      -0.49278155       0.21457148
H       -1.89787664       0.22447931      -1.27067338
H       -0.39502243      -1.60056933      -1.14446098
18
Properties=species:S:1:pos:R:3 relative_energy_eV=-5.2928344642605225 branch=right pbc="F F F"
O        0.14283205       2.54863422       0.96644482
C       -0.74032563       1.73931822       0.91436155
O       -1.96204828       1.99482677       1.42512021
C       -0.54220757       0.31345452       0.40874795
O        0.56749071       0.33332456      -0.49657883
P        1.89061095      -0.55958247      -0.19229414
O        2.04031179      -1.14780893       1.15281259
O        1.80069458      -1.72144459      -1.32597072
O        2.99462755       0.45795971      -0.73927952
C       -1.67019928      -0.35863444      -0.36589157
O       -1.26723216      -1.66871162      -0.68982924
H       -2.52194158       1.22269139       1.26402434
H       -0.29116289      -0.30506879       1.28104453
H        1.87745909      -2.54773917      -0.82304419
H        2.63116115       1.35392468      -0.68105664
H       -2.58620221      -0.47734506       0.22742017
H       -1.89360491       0.24273998      -1.26145299
H       -0.41724427      -1.61794163      -1.14652403
18
Properties=species:S:1:pos:R:3 relative_energy_eV=-5.308009485157527 branch=right pbc="F F F"
O        0.12226447       2.56940399       0.94632893
C       -0.74691853       1.74194868       0.90645663
O       -1.96889066       1.96414111       1.43891339
C       -0.52899401       0.31793911       0.40828026
O        0.57718839       0.33094746      -0.49050122
P        1.89618561      -0.56296346      -0.19198515
O        2.04923205      -1.15083320       1.15319311
O        1.80012150      -1.72260168      -1.32510597
O        2.99767522       0.45757727      -0.74309568
C       -1.66325140      -0.34869615      -0.35987872
O       -1.28461834      -1.66988448      -0.67754369
H       -2.52484839       1.19858074       1.24395668
H       -0.28379762      -0.29748880       1.28291962
H        1.87477370      -2.55486805      -0.83080077
H        2.64173875       1.35765136      -0.67467066
H       -2.57463249      -0.45518098       0.24256899
H       -1.88849363       0.25603374      -1.25457785
H       -0.44171591      -1.62910955      -1.15640356
18
Properties=species:S:1:pos:R:3 relative_energy_eV=-5.3244972418106045 branch=right pbc="F F F"
O        0.10125365       2.58615975       0.92075726
C       -0.75180562       1.73900866       0.90606363
O       -1.96993955       1.93855913       1.45623286
C       -0.51613069       0.31791577       0.40848406
O        0.59088983       0.33268590      -0.48200295
P        1.90178734      -0.56374755      -0.18889028
O        2.05798498      -1.15016621       1.15669050
O        1.79522562      -1.72250967      -1.32207262
O        3.00107971       0.45779483      -0.74782027
C       -1.65631219      -0.34508214      -0.35575269
O       -1.30269298      -1.67405116      -0.67672182
H       -2.54048314       1.19658523       1.22776557
H       -0.27290439      -0.29799923       1.28024157
H        1.87164165      -2.56250608      -0.84684077
H        2.65311549       1.36021168      -0.67041838
H       -2.56060533      -0.43618488       0.25820080
H       -1.88198538       0.26122218      -1.24875779
H       -0.46710063      -1.63529943      -1.15710415
18
Properties=species:S:1:pos:R:3 relative_energy_eV=-5.338184408941743 branch=right pbc="F F F"
O        0.08090540       2.59994197       0.89789804
C       -0.75506011       1.73406919       0.90954060
O       -1.97112208       1.92387474       1.46585159
C       -0.50871670       0.31543483       0.41064721
O        0.60205596       0.33554875      -0.47479431
P        1.90953194      -0.56568921      -0.18691702
O        2.06497165      -1.15154149       1.16022055
O        1.79561499      -1.72132513      -1.32112099
O        3.00703485       0.45345703      -0.75606928
C       -1.65440219      -0.34309037      -0.35140015
O       -1.32182309      -1.67580229      -0.67419479
H       -2.55386226       1.19463530       1.22192540
H       -0.26403065      -0.29938683       1.28064081
H        1.87390889      -2.56119518      -0.85428827
H        2.66514112       1.35821597      -0.66672896
H       -2.55242077      -0.41700784       0.27191147
H       -1.87502102       0.26221570      -1.24522916
H       -0.48968789      -1.63975874      -1.16983811
18
Properties=species:S:1:pos:R:3 relative_energy_eV=-5.352348175860243 branch=right pbc="F F F"
O        0.06844493       2.60154371       0.88068615
C       -0.75492606       1.72650722       0.91627820
O       -1.96952909       1.92666606       1.46587143
C       -0.50734902       0.30795714       0.41439443
O        0.60950341       0.34205151      -0.46770142
P        1.91515816      -0.56371803      -0.18187724
O        2.07008078      -1.14929120       1.16602331
O        1.79252471      -1.71499812      -1.31908881
O        3.01240681       0.44796831      -0.76464055
C       -1.65517960      -0.34785507      -0.34894735
O       -1.33573394      -1.67797813      -0.68224772
H       -2.56700260       1.20707074       1.23038553
H       -0.25583046      -0.30810026       1.28023778
H        1.87765479      -2.55858113      -0.86396846
H        2.67837606       1.35409960      -0.66655652
H       -2.54983846      -0.40473320       0.28050717
H       -1.86920141       0.25508708      -1.24262387
H       -0.50654119      -1.64110024      -1.17867729
18
Properties=species:S:1:pos:R:3 relative_energy_eV=-5.364900705488253 branch=right pbc="F F F"
O        0.05776208       2.60442919       0.86777350
C       -0.75580652       1.72301107       0.91698586
O       -1.97474976       1.93158816       1.45551109
C       -0.50590905       0.30271348       0.41943965
O        0.61268502       0.34746437      -0.46137106
P        1.92032022      -0.56152842      -0.17741075
O        2.07710476      -1.14707251       1.17081000
O        1.78966880      -1.70780887      -1.31781814
O        3.01830611       0.44109858      -0.77299951
C       -1.65635836      -0.34855030      -0.34356552
O       -1.35000334      -1.67681695      -0.68487923
H       -2.56697853       1.19720875       1.24201366
H       -0.24882383      -0.31167993       1.28503383
H        1.88227125      -2.55612964      -0.87142360
H        2.69612719       1.34990984      -0.66474102
H       -2.55081848      -0.38796123       0.28856827
H       -1.86453494       0.25302106      -1.23721135
H       -0.52724502      -1.65030121      -1.19666080
18
Properties=species:S:1:pos:R:3 relative_energy_eV=-5.376499491067079 branch=right pbc="F F F"
O        0.05691829       2.59939663       0.86381111
C       -0.75677376       1.72193513       0.91515852
O       -1.98150055       1.94841787       1.43222142
C       -0.50608877       0.29643833       0.42653768
O        0.61092414       0.35252146      -0.45601376
P        1.92148776      -0.55699273      -0.17292013
O        2.08245625      -1.13976426       1.17504433
O        1.78092213      -1.69806978      -1.31391266
O        3.02329584       0.43408603      -0.77870512
C       -1.65652480      -0.35027404      -0.33958235
O       -1.35897231      -1.67596061      -0.69052567
H       -2.55969849       1.18569004       1.26572229
H       -0.24383226      -0.31782359       1.29213747
H        1.88799614      -2.55495139      -0.88117788
H        2.71521903       1.34606778      -0.66466265
H       -2.55540944      -0.37778325       0.28978808
H       -1.86378465       0.25040011      -1.23144924
H       -0.54361710      -1.66073882      -1.21341644
18
Properties=species:S:1:pos:R:3 relative_energy_eV=-5.383158730270225 branch=right pbc="F F F"
O        0.05825070       2.59888069       0.86446790
C       -0.75953746       1.72381173       0.91081703
O       -1.98794416       1.95623529       1.41651385
C       -0.50454117       0.29410472       0.43164872
O        0.60920514       0.35356488      -0.45354478
P        1.92057871      -0.55471227      -0.17236045
O        2.08536738      -1.13263976       1.17584417
O        1.77445154      -1.69472396      -1.31246641
O        3.02614409       0.43008737      -0.77972331
C       -1.65428039      -0.34924105      -0.33689664
O       -1.36280319      -1.67590307      -0.69228354
H       -2.55462804       1.17616205       1.28222219
H       -0.24072110      -0.32095902       1.29805725
H        1.89162591      -2.55655478      -0.88738521
H        2.72725205       1.34442180      -0.66448409
H       -2.55758303      -0.37232478       0.28847061
H       -1.86527024       0.25209326      -1.22728371
H       -0.55254936      -1.66970853      -1.22355857
18
Properties=species:S:1:pos:R:3 relative_energy_eV=-5.389579621089069 branch=right pbc="F F F"
O        0.06394680       2.59555052       0.86765736
C       -0.76224410       1.72684920       0.90529545
O       -1.99268458       1.96356132       1.40322107
C       -0.50358592       0.29278319       0.43622314
O        0.60729249       0.35341980      -0.45166628
P        1.91733573      -0.55305744      -0.17299167
O        2.08731211      -1.12180924       1.17718478
O        1.76541265      -1.69324744      -1.31190194
O        3.02831976       0.42681234      -0.77704973
C       -1.65140496      -0.34870364      -0.33638714
O       -1.36374193      -1.67786054      -0.69386823
H       -2.55157994       1.17429195       1.29978774
H       -0.24039682      -0.32580757       1.30266360
H        1.89516882      -2.55795639      -0.89398076
H        2.73664908       1.34338890      -0.66550542
H       -2.55711666      -0.37408534       0.28385536
H       -1.86832082       0.25414369      -1.22484614
H       -0.55734431      -1.67567900      -1.22963613
18
Properties=species:S:1:pos:R:3 relative_energy_eV=-5.393945613333926 branch=right pbc="F F F"
O        0.06513859       2.59589046       0.86776014
C       -0.76482479       1.72878831       0.90174089
O       -1.99692978       1.96517705       1.39664180
C       -0.50301053       0.29312700       0.43887377
O        0.60733043       0.35299055      -0.45011727
P        1.91499918      -0.55316616      -0.17478589
O        2.09050828      -1.11345539       1.17823194
O        1.76114275      -1.69466085      -1.31396745
O        3.03157900       0.42296236      -0.77480463
C       -1.64947742      -0.34750017      -0.33575896
O       -1.36680907      -1.67946520      -0.69176552
H       -2.55142110       1.17325305       1.31173797
H       -0.24081514      -0.32756231       1.30546843
H        1.89844300      -2.55797792      -0.89811494
H        2.74555500       1.34169836      -0.66617369
H       -2.55440319      -0.37582814       0.28175359
H       -1.86890741       0.25724020      -1.22301688
H       -0.56508050      -1.67891716      -1.23564818
18
Properties=species:S:1:pos:R:3 relative_energy_eV=-5.397573712551093 branch=right pbc="F F F"
O        0.06433681       2.59550144       0.86609229
C       -0.76669051       1.72923259       0.90066689
O       -2.00061682       1.96810108       1.39135565
C       -0.50393825       0.29302145       0.44041482
O        0.60785420       0.35324912      -0.44854824
P        1.91320263      -0.55398527      -0.17661769
O        2.09464967      -1.10524667       1.17992619
O        1.75868679      -1.69595731      -1.31700526
O        3.03584193       0.41768326      -0.77335496
C       -1.64899521      -0.34742958      -0.33557366
O       -1.37089290      -1.68097418      -0.68917120
H       -2.55276789       1.17494033       1.32517546
H       -0.24255222      -0.32831279       1.30699101
H        1.90251459      -2.55661108      -0.90211306
H        2.75691019       1.33867325      -0.66760446
H       -2.55092895      -0.37908482       0.28077333
H       -1.86770613       0.25961258      -1.22133547
H       -0.57589067      -1.67981970      -1.24201644
18
Properties=species:S:1:pos:R:3 relative_energy_eV=-5.400476466300461 branch=right pbc="F F F"
O        0.05819406       2.59806356       0.86201867
C       -0.76930535       1.72863788       0.90115651
O       -2.00456182       1.96887947       1.38915040
C       -0.50497095       0.29256147       0.44067771
O        0.60897065       0.35338076      -0.44755748
P        1.91334276      -0.55551670      -0.17851667
O        2.09956734      -1.09971670       1.18051378
O        1.75962588      -1.69752155      -1.32041971
O        3.04068262       0.41138178      -0.77414686
C       -1.64909805      -0.34717878      -0.33462405
O       -1.37585229      -1.68128041      -0.68552233
H       -2.55579110       1.17628393       1.33730172
H       -0.24387819      -0.32641657       1.30807593
H        1.90706398      -2.55581174      -0.90531086
H        2.77095852       1.33491228      -0.66883803
H       -2.54821100      -0.37916337       0.28313083
H       -1.86450099       0.26319106      -1.21866951
H       -0.58921896      -1.68209304      -1.25036475
18
Properties=species:S:1:pos:R:3 relative_energy_eV=-5.402824609122035 branch=right pbc="F F F"
O        0.05265455       2.59923182       0.85833283
C       -0.77100563       1.72787185       0.90234284
O       -2.00772747       1.97137952       1.38728359
C       -0.50666789       0.29235216       0.43960581
O        0.60884165       0.35283807      -0.44738874
P        1.91410575      -0.55668813      -0.17948725
O        2.10355453      -1.09566214       1.18118006
O        1.76108171      -1.69769810      -1.32280495
O        3.04461248       0.40531978      -0.77582831
C       -1.65027307      -0.34755437      -0.33389416
O       -1.37887540      -1.68130451      -0.68282435
H       -2.55756486       1.17672661       1.34970538
H       -0.24729218      -0.32288908       1.30853918
H        1.91149409      -2.55513549      -0.90819059
H        2.78565924       1.33118080      -0.67054462
H       -2.54684269      -0.37957668       0.28638247
H       -1.86156432       0.26633825      -1.21613846
H       -0.60117352      -1.68413742      -1.25821533
18
Properties=species:S:1:pos:R:3 relative_energy_eV=-5.404595162264741 branch=right pbc="F F F"
O        0.04560543       2.60231474       0.85450961
C       -0.77334187       1.72752423       0.90310786
O       -2.00951473       1.97059052       1.39096764
C       -0.50766587       0.29271309       0.43752486
O        0.60869398       0.35118027      -0.44860571
P        1.91588195      -0.55788437      -0.18021425
O        2.10575460      -1.09519949       1.18027107
O        1.76399617      -1.69822580      -1.32352654
O        3.04719013       0.40093858      -0.77878912
C       -1.65101011      -0.34739138      -0.33308669
O       -1.37954575      -1.68104038      -0.68081839
H       -2.56096735       1.17852181       1.35727271
H       -0.25038950      -0.31825604       1.30837338
H        1.91503296      -2.55644331      -0.90992142
H        2.79782248       1.32879151      -0.67176837
H       -2.54650718      -0.37804736       0.29102969
H       -1.85930771       0.26994435      -1.21374694
H       -0.60871077      -1.68743828      -1.26452391
18
Properties=species:S:1:pos:R:3 relative_energy_eV=-5.406012397088489 branch=right pbc="F F F"
O        0.04372980       2.60276370       0.85267407
C       -0.77413670       1.72834488       0.90295790
O       -2.01049333       1.97278020       1.39214780
C       -0.50897027       0.29434547       0.43563330
O        0.60680366       0.34885618      -0.45015887
P        1.91674467      -0.55800841      -0.17998043
O        2.10605316      -1.09509214       1.18028483
O        1.76562324      -1.69761631      -1.32264621
O        3.04880566       0.39762403      -0.78164948
C       -1.65252777      -0.34733447      -0.33259635
O       -1.37847505      -1.68110451      -0.67971502
H       -2.56076508       1.17654429       1.36595371
H       -0.25592220      -0.31354203       1.30863473
H        1.91842984      -2.55710716      -0.91122485
H        2.80868490       1.32716247      -0.67317834
H       -2.54750605      -0.37843350       0.29384724
H       -1.85967259       0.27162960      -1.21246674
H       -0.61338909      -1.68921983      -1.27046176
18
Properties=species:S:1:pos:R:3 relative_energy_eV=-5.407398301118519 branch=right pbc="F F F"
O        0.04282492       2.60401966       0.85096637
C       -0.77490303       1.72947615       0.90221794
O       -2.00854160       1.97201198       1.40000557
C       -0.50995107       0.29616459       0.43330956
O        0.60541076       0.34613290      -0.45250321
P        1.91741912      -0.55799270      -0.17952416
O        2.10388271      -1.09675337       1.17992007
O        1.76742186      -1.69805061      -1.32054668
O        3.04897102       0.39671481      -0.78442091
C       -1.65326282      -0.34759097      -0.33283896
O       -1.37502712      -1.68157665      -0.68059840
H       -2.56339923       1.18001991       1.36948716
H       -0.26093060      -0.31022193       1.30783630
H        1.92067626      -2.55944884      -0.91187960
H        2.81478537       1.32730570      -0.67433676
H       -2.54820032      -0.37933775       0.29588285
H       -1.86220097       0.27154716      -1.21232849
H       -0.61195853      -1.68982764      -1.27259306
18
Properties=species:S:1:pos:R:3 relative_energy_eV=-5.408945846025745 branch=right pbc="F F F"
O        0.04475185       2.60488553       0.84934464
C       -0.77510028       1.73176492       0.90049312
O       -2.00584305       1.97272035       1.40674700
C       -0.51132609       0.29866565       0.43191058
O        0.60355440       0.34369936      -0.45439610
P        1.91721571      -0.55755324      -0.17884385
O        2.10064642      -1.09770330       1.18055114
O        1.76917283      -1.69873300      -1.31798712
O        3.04967584       0.39535904      -0.78761704
C       -1.65453993      -0.34779126      -0.33309762
O       -1.37237612      -1.68218280      -0.68116377
H       -2.56406589       1.18152127       1.37570862
H       -0.26716207      -0.30752631       1.30807077
H        1.92425828      -2.56117182      -0.91218591
H        2.82208647       1.32759309      -0.67547976
H       -2.54964006      -0.38153373       0.29621918
H       -1.86735528       0.26910385      -1.21311094
H       -0.61093635      -1.68852524      -1.27710735
18
Properties=species:S:1:pos:R:3 relative_energy_eV=-5.4104853817370895 branch=right pbc="F F F"
O        0.04893408       2.60489719       0.84750834
C       -0.77415300       1.73401266       0.89891307
O       -2.00066895       1.97441662       1.41552795
C       -0.51361241       0.30060026       0.43057556
O        0.60191141       0.34239196      -0.45554657
P        1.91593705      -0.55676316      -0.17777994
O        2.09618997      -1.09679804       1.18271293
O        1.77057875      -1.69998394      -1.31575941
O        3.05009762       0.39437098      -0.78998993
C       -1.65626588      -0.34933908      -0.33414282
O       -1.36954943      -1.68314369      -0.68370540
H       -2.56486541       1.18705272       1.38236672
H       -0.27367926      -0.30681970       1.30780871
H        1.92824736      -2.56308061      -0.91286205
H        2.82860162       1.32807208      -0.67689846
H       -2.55081285      -0.38628170       0.29456422
H       -1.87514759       0.26312259      -1.21510582
H       -0.60872641      -1.68413488      -1.28013142
18
Properties=species:S:1:pos:R:3 relative_energy_eV=-5.41174607432913 branch=right pbc="F F F"
O        0.04964583       2.60718176       0.84384904
C       -0.77390363       1.73611792       0.89763060
O       -1.99690004       1.97468939       1.42278920
C       -0.51539842       0.30179517       0.43005694
O        0.60168863       0.34293073      -0.45515326
P        1.91511963      -0.55671667      -0.17737726
O        2.09385908      -1.09476559       1.18476534
O        1.77308954      -1.70167448      -1.31490015
O        3.05157407       0.39173685      -0.79242279
C       -1.65810844      -0.35015829      -0.33448669
O       -1.37043787      -1.68339519      -0.68410941
H       -2.56410155       1.18958650       1.38878902
H       -0.27751982      -0.30603048       1.30840067
H        1.93302168      -2.56450375      -0.91335503
H        2.83712424       1.32737154      -0.67730128
H       -2.55174854      -0.38913029       0.29377095
H       -1.88169030       0.25784599      -1.21655412
H       -0.61229746      -1.68028903      -1.28633604
18
Properties=species:S:1:pos:R:3 relative_energy_eV=-5.412929602218355 branch=right pbc="F F F"
O        0.04918376       2.60970122       0.83980071
C       -0.77323617       1.73769187       0.89725088
O       -1.99294502       1.97525599       1.42995385
C       -0.51733621       0.30231485       0.42924491
O        0.60186116       0.34469495      -0.45398912
P        1.91406815      -0.55669654      -0.17696002
O        2.09232962      -1.09104336       1.18725171
O        1.77540856      -1.70323905      -1.31464307
O        3.05264267       0.38877908      -0.79391664
C       -1.66019978      -0.35141556      -0.33506514
O       -1.37184835      -1.68335359      -0.68517130
H       -2.56150272       1.19173534       1.39397231
H       -0.27984368      -0.30531983       1.30855289
H        1.93764540      -2.56588001      -0.91414381
H        2.84545372       1.32570152      -0.67705771
H       -2.55241976      -0.39221097       0.29304344
H       -1.88839244       0.25229458      -1.21805122
H       -0.61785236      -1.67641858      -1.29201688
18
Properties=species:S:1:pos:R:3 relative_energy_eV=-5.4140464115844225 branch=right pbc="F F F"
O        0.04490817       2.61456129       0.83438734
C       -0.77351638       1.73946794       0.89714228
O       -1.99055401       1.97385645       1.43705956
C       -0.51835603       0.30301167       0.42837157
O        0.60270795       0.34694110      -0.45255733
P        1.91372745      -0.55727137      -0.17699627
O        2.09244121      -1.08709082       1.18892899
O        1.77838586      -1.70461461      -1.31449193
O        3.05388167       0.38447146      -0.79580659
C       -1.66211881      -0.35151923      -0.33517815
O       -1.37473915      -1.68282197      -0.68451993
H       -2.55681137       1.18962678       1.39743153
H       -0.28006330      -0.30296022       1.30897932
H        1.94261260      -2.56704383      -0.91446174
H        2.85508800       1.32271522      -0.67532502
H       -2.55295427      -0.39297998       0.29432126
H       -1.89399963       0.24912644      -1.21889777
H       -0.62762352      -1.67488464      -1.30033128
18
Properties=species:S:1:pos:R:3 relative_energy_eV=-5.415044530203886 branch=right pbc="F F F"
O        0.03980856       2.61967776       0.82922273
C       -0.77382443       1.74120668       0.89744551
O       -1.98867391       1.97178499       1.44397162
C       -0.51867943       0.30410623       0.42711274
O        0.60329173       0.34872506      -0.45180099
P        1.91336693      -0.55770563      -0.17694288
O        2.09282972      -1.08279851       1.19029798
O        1.78036342      -1.70538070      -1.31374579
O        3.05433780       0.38036441      -0.79729114
C       -1.66362102      -0.35117842      -0.33544523
O       -1.37651976      -1.68231382      -0.68425836
H       -2.55065192       1.18528196       1.39870870
H       -0.27911461      -0.29979766       1.30886411
H        1.94688848      -2.56790548      -0.91447864
H        2.86307808       1.31899983      -0.67242815
H       -2.55321194      -0.39297715       0.29648036
H       -1.89941251       0.24775666      -1.21956806
H       -0.63723886      -1.67525475      -1.30808860
18
Properties=species:S:1:pos:R:3 relative_energy_eV=-5.415731950495683 branch=right pbc="F F F"
O        0.03488684       2.62432047       0.82477914
C       -0.77455546       1.74288381       0.89748517
O       -1.98808346       1.96897364       1.44905627
C       -0.51812335       0.30569119       0.42609516
O        0.60348565       0.34927344      -0.45228287
P        1.91326352      -0.55804396      -0.17694709
O        2.09332732      -1.07951151       1.19098117
O        1.78113413      -1.70554461      -1.31232739
O        3.05472785       0.37668769      -0.79898369
C       -1.66429061      -0.35005185      -0.33552843
O       -1.37742825      -1.68205279      -0.68347247
H       -2.54552302       1.17961808       1.39949164
H       -0.27771704      -0.29653883       1.30861126
H        1.95030783      -2.56817764      -0.91412399
H        2.86923509       1.31552969      -0.66909498
H       -2.55304676      -0.39190557       0.29925066
H       -1.90321730       0.24885187      -1.21962079
H       -0.64536672      -1.67741181      -1.31531282
18
Properties=species:S:1:pos:R:3 relative_energy_eV=-5.4161941096317605 branch=right pbc="F F F"
O        0.03250818       2.62687184       0.82198131
C       -0.77475925       1.74395638       0.89743852
O       -1.98745223       1.96699439       1.45208336
C       -0.51751020       0.30714422       0.42527262
O        0.60297356       0.34896713      -0.45392029
P        1.91278023      -0.55786572      -0.17676523
O        2.09295773      -1.07673599       1.19176785
O        1.78032534      -1.70548437      -1.31057060
O        3.05480397       0.37451178      -0.80011978
C       -1.66443268      -0.34921417      -0.33581180
O       -1.37679271      -1.68203514      -0.68356009
H       -2.54229716       1.17587237       1.40061440
H       -0.27653790      -0.29467097       1.30779251
H        1.95258608      -2.56803259      -0.91363048
H        2.87224834       1.31293124      -0.66611655
H       -2.55265556      -0.39166552       0.30092784
H       -1.90618033       0.25037985      -1.21948425
H       -0.64954922      -1.67933353      -1.31984339
18
Properties=species:S:1:pos:R:3 relative_energy_eV=-5.41665740816461 branch=right pbc="F F F"
O        0.03099279       2.62895178       0.81891154
C       -0.77477424       1.74490024       0.89699722
O       -1.98662473       1.96509744       1.45458509
C       -0.51696072       0.30863679       0.42438900
O        0.60205766       0.34842162      -0.45658216
P        1.91202992      -0.55747560      -0.17652613
O        2.09189435      -1.07356799       1.19294874
O        1.77898249      -1.70560508      -1.30840194
O        3.05518785       0.37218630      -0.80164568
C       -1.66455648      -0.34841763      -0.33604986
O       -1.37597933      -1.68203395      -0.68361988
H       -2.53990124       1.17278797       1.40374506
H       -0.27530833      -0.29347724       1.30650904
H        1.95538514      -2.56767495      -0.91276869
H        2.87536957       1.31040308      -0.66272586
H       -2.55217476      -0.39194000       0.30221937
H       -1.90921833       0.25208770      -1.21896332
H       -0.65338547      -1.68068935      -1.32496557
18
Properties=species:S:1:pos:R:3 relative_energy_eV=-5.4173062169065815 branch=right pbc="F F F"
O        0.03082297       2.63039980       0.81499677
C       -0.77397809       1.74558182       0.89618599
O       -1.98450503       1.96333743       1.45745917
C       -0.51660941       0.31015457       0.42278700
O        0.60035581       0.34791845      -0.46112952
P        1.91041548      -0.55658570      -0.17606931
O        2.08919088      -1.06860949       1.19525930
O        1.77667132      -1.70625331      -1.30532664
O        3.05540815       0.36985345      -0.80332727
C       -1.66497676      -0.34799482      -0.33649910
O       -1.37440615      -1.68190166      -0.68453290
H       -2.53733064       1.17052863       1.40944097
H       -0.27337983      -0.29325367       1.30365827
H        1.95924929      -2.56723163      -0.91098786
H        2.87829514       1.30742671      -0.65782193
H       -2.55175327      -0.39364962       0.30283988
H       -1.91358988       0.25356928      -1.21799886
H       -0.65686390      -1.68069920      -1.33087799
18
Properties=species:S:1:pos:R:3 relative_energy_eV=-5.41816449966791 branch=right pbc="F F F"
O        0.03095543       2.63196123       0.80887179
C       -0.77261255       1.74603006       0.89452269
O       -1.98095350       1.96122917       1.46160801
C       -0.51647359       0.31156877       0.41994657
O        0.59810401       0.34783329      -0.46776728
P        1.90800243      -0.55544782      -0.17560794
O        2.08463297      -1.06140052       1.19872956
O        1.77440507      -1.70798021      -1.30130378
O        3.05561702       0.36676291      -0.80568493
C       -1.66608346      -0.34786562      -0.33674282
O       -1.37320219      -1.68139217      -0.68572833
H       -2.53416842       1.16837737       1.41906870
H       -0.27030182      -0.29371411       1.29880059
H        1.96517475      -2.56715382      -0.90776618
H        2.88301046       1.30394455      -0.65074724
H       -2.55161857      -0.39637364       0.30339408
H       -1.91933936       0.25480653      -1.21606984
H       -0.66213267      -1.67859509      -1.33946766
18
Properties=species:S:1:pos:R:3 relative_energy_eV=-5.419223730004887 branch=right pbc="F F F"
O        0.03209456       2.63249301       0.80148368
C       -0.77032917       1.74562945       0.89212742
O       -1.97543365       1.95939707       1.46688422
C       -0.51666602       0.31223807       0.41546854
O        0.59540598       0.34832526      -0.47621536
P        1.90466060      -0.55409412      -0.17532488
O        2.07776517      -1.05228732       1.20302389
O        1.77265269      -1.71114329      -1.29675140
O        3.05480762       0.36443911      -0.80757533
C       -1.66799441      -0.34847255      -0.33685259
O       -1.37215358      -1.68034022      -0.68805553
H       -2.53037460       1.16736529       1.43107125
H       -0.26588415      -0.29530239       1.29132538
H        1.97211086      -2.56792179      -0.90269563
H        2.88754606       1.30079085      -0.64187579
H       -2.55212402      -0.40041506       0.30359716
H       -1.92584284       0.25517791      -1.21332003
H       -0.66722515      -1.67328853      -1.34825899
18
Properties=species:S:1:pos:R:3 relative_energy_eV=-5.42028551473777 branch=right pbc="F F F"
O        0.03207349       2.63303702       0.79340572
C       -0.76845031       1.74469620       0.88911650
O       -1.96965926       1.95739043       1.47311795
C       -0.51690836       0.31213126       0.41015983
O        0.59330754       0.34902782      -0.48419148
P        1.90159332      -0.55329327      -0.17572518
O        2.07050276      -1.04366898       1.20641911
O        1.77335832      -1.71535855      -1.29286094
O        3.05331255       0.36268806      -0.80908643
C       -1.67039340      -0.34916240      -0.33631019
O       -1.37284325      -1.67883678      -0.69024074
H       -2.52634376       1.16613926       1.44291008
H       -0.26114182      -0.29654343       1.28330592
H        1.97899989      -2.56986832      -0.89660064
H        2.89314299       1.29878716      -0.63304911
H       -2.55309651      -0.40346433       0.30483607
H       -1.93119470       0.25508043      -1.21020922
H       -0.67324363      -1.66619100      -1.35694123
18
Properties=species:S:1:pos:R:3 relative_energy_eV=-5.421203712608985 branch=right pbc="F F F"
O        0.03186727       2.63242699       0.78746719
C       -0.76703599       1.74315068       0.88642792
O       -1.96454303       1.95587271       1.47845048
C       -0.51702884       0.31121275       0.40528304
O        0.59187930       0.34917818      -0.49022528
P        1.89926196      -0.55300283      -0.17676781
O        2.06397239      -1.03758629       1.20795190
O        1.77589127      -1.71956071      -1.29041192
O        3.05071570       0.36326548      -0.80897902
C       -1.67252999      -0.34981645      -0.33566709
O       -1.37420038      -1.67724368      -0.69300003
H       -2.52272809       1.16528494       1.45031941
H       -0.25706399      -0.29744341       1.27639717
H        1.98318552      -2.57245450      -0.89043210
H        2.89609089       1.29874186      -0.62621757
H       -2.55409203      -0.40508013       0.30674086
H       -1.93420261       0.25461521      -1.20796875
H       -0.67642350      -1.65897031      -1.36131238
18
Properties=species:S:1:pos:R:3 relative_energy_eV=-5.421991951701784 branch=right pbc="F F F"
O        0.02917736       2.63341268       0.78106326
C       -0.76696517       1.74227492       0.88377045
O       -1.96095406       1.95330369       1.48424105
C       -0.51677692       0.31075950       0.40137147
O        0.59096460       0.34826720      -0.49467208
P        1.89801441      -0.55327560      -0.17833154
O        2.05904221      -1.03312046       1.20805237
O        1.78032524      -1.72333362      -1.28867541
O        3.04880176       0.36318975      -0.80948179
C       -1.67441766      -0.34943530      -0.33475679
O       -1.37725459      -1.67578069      -0.69505126
H       -2.51869337       1.16189782       1.45612990
H       -0.25410458      -0.29640420       1.27192708
H        1.98688977      -2.57526254      -0.88476216
H        2.90147359       1.29899303      -0.62040725
H       -2.55435215      -0.40410464       0.31079750
H       -1.93643911       0.25491967      -1.20650021
H       -0.68171554      -1.65371082      -1.36665854
18
Properties=species:S:1:pos:R:3 relative_energy_eV=-5.422847205656581 branch=right pbc="F F F"
O        0.02694512       2.63339369       0.77517490
C       -0.76684170       1.74110846       0.88129580
O       -1.95721641       1.95061800       1.48931675
C       -0.51640678       0.31019161       0.39794623
O        0.58929878       0.34595362      -0.49953431
P        1.89675189      -0.55326694      -0.18024987
O        2.05377276      -1.02876568       1.20755524
O        1.78506239      -1.72701882      -1.28691743
O        3.04643487       0.36470503      -0.80914376
C       -1.67620062      -0.34864749      -0.33448084
O       -1.38035585      -1.67421152      -0.69884708
H       -2.51375888       1.15781411       1.46046880
H       -0.25134346      -0.29528955       1.26831892
H        1.98924907      -2.57797067      -0.87825408
H        2.90516408       1.29977416      -0.61441919
H       -2.55374396      -0.40258837       0.31580550
H       -1.93865402       0.25580059      -1.20603171
H       -0.68514150      -1.64900987      -1.36994779
18
Properties=species:S:1:pos:R:3 relative_energy_eV=-5.42388541416949 branch=right pbc="F F F"
O        0.02234485       2.63559231       0.76385844
C       -0.76713245       1.74060805       0.87753888
O       -1.95233498       1.94571157       1.49759560
C       -0.51605672       0.31046691       0.39372613
O        0.58611839       0.34197561      -0.50743340
P        1.89504599      -0.55282079      -0.18260348
O        2.04694919      -1.02073795       1.20792726
O        1.79143056      -1.73169184      -1.28333960
O        3.04529317       0.36379299      -0.81104132
C       -1.67903301      -0.34678439      -0.33446563
O       -1.38578486      -1.67221226      -0.70375583
H       -2.50557002       1.14987383       1.47097191
H       -0.24826023      -0.29267611       1.26469490
H        1.99509706      -2.58094456      -0.86953135
H        2.91584302       1.29882000      -0.60461296
H       -2.55176660      -0.40026056       0.32405177
H       -1.94424025       0.25814216      -1.20548067
H       -0.69492742      -1.64426481      -1.38004457
18
Properties=species:S:1:pos:R:3 relative_energy_eV=-5.4251181463223475 branch=right pbc="F F F"
O        0.01990709       2.63570459       0.75184578
C       -0.76638159       1.73936688       0.87364344
O       -1.94593947       1.94120574       1.50440573
C       -0.51628784       0.31012821       0.38967099
O        0.58084775       0.33635238      -0.51786522
P        1.89257916      -0.55112167      -0.18486136
O        2.03866310      -1.01038498       1.20917928
O        1.79726146      -1.73634398      -1.27865752
O        3.04435962       0.36452563      -0.81241937
C       -1.68254852      -0.34497325      -0.33586302
O       -1.39149284      -1.66990816      -0.71165852
H       -2.49519823       1.14221793       1.48384239
H       -0.24528653      -0.29148541       1.26123386
H        2.00066366      -2.58292787      -0.85882391
H        2.92521949       1.29736646      -0.59294080
H       -2.54862277      -0.39948967       0.33229906
H       -1.95164364       0.26139262      -1.20568705
H       -0.70308433      -1.63903545      -1.38928764
18
Properties=species:S:1:pos:R:3 relative_energy_eV=-5.426236833227449 branch=right pbc="F F F"
O        0.01774398       2.63692645       0.73740201
C       -0.76511922       1.73864629       0.86930545
O       -1.93907004       1.93671788       1.51177577
C       -0.51720425       0.30985298       0.38545997
O        0.57509374       0.33113274      -0.52908224
P        1.89011139      -0.54874591      -0.18619916
O        2.03070684      -0.99797929       1.21229824
O        1.80274271      -1.74038326      -1.27298626
O        3.04521030       0.36294520      -0.81571621
C       -1.68692386      -0.34362881      -0.33755840
O       -1.39819590      -1.66782249      -0.71939827
H       -2.48371817       1.13472287       1.50146487
H       -0.24315089      -0.29090340       1.25780016
H        2.00831137      -2.58392137      -0.84856480
H        2.93848462       1.29425880      -0.58015008
H       -2.54556861      -0.40012212       0.33957112
H       -1.96161923       0.26481552      -1.20506588
H       -0.71481930      -1.63392232      -1.40230013
18
Properties=species:S:1:pos:R:3 relative_energy_eV=-5.427376684361661 branch=right pbc="F F F"
O        0.01918941       2.63518774       0.72849802
C       -0.76305506       1.73724584       0.86623122
O       -1.93394762       1.93518170       1.51277862
C       -0.51873313       0.30806117       0.38326124
O        0.57024543       0.32660165      -0.53689177
P        1.88884517      -0.54599404      -0.18651087
O        2.02587511      -0.98920074       1.21499617
O        1.80695526      -1.74192181      -1.26911043
O        3.04648012       0.36415800      -0.81721944
C       -1.69085185      -0.34338929      -0.33980431
O       -1.40427915      -1.66641488      -0.72659557
H       -2.47389324       1.13091958       1.51454253
H       -0.24317246      -0.29295233       1.25636293
H        2.01150063      -2.58289075      -0.84057054
H        2.94503528       1.29234499      -0.57162376
H       -2.54382648      -0.40217186       0.34240900
H       -1.96900338       0.26808691      -1.20448968
H       -0.72034858      -1.63026225      -1.40820721
18
Properties=species:S:1:pos:R:3 relative_energy_eV=-5.428824708149477 branch=right pbc="F F F"
O        0.01967103       2.63513563       0.71386906
C       -0.76021580       1.73592047       0.86099854
O       -1.92690384       1.93261931       1.51662042
C       -0.52068135       0.30566319       0.37876111
O        0.56509680       0.32156619      -0.54670470
P        1.88787931      -0.54279749      -0.18663713
O        2.01977644      -0.97677917       1.21936578
O        1.81483055      -1.74425763      -1.26371080
O        3.04831716       0.36359291      -0.82088098
C       -1.69691182      -0.34355163      -0.34164363
O       -1.41388525      -1.66456203      -0.73546405
H       -2.46005618       1.12504699       1.53516899
H       -0.24346556      -0.29532124       1.25261838
H        2.01738967      -2.58246651      -0.83028680
H        2.95847649       1.28977238      -0.55945973
H       -2.54384594      -0.40448114       0.34589052
H       -1.98044123       0.27226553      -1.20139549
H       -0.73201506      -1.62477641      -1.41905330
18
Properties=species:S:1:pos:R:3 relative_energy_eV=-5.431478660073481 branch=right pbc="F F F"
O        0.02304440       2.63184038       0.69672194
C       -0.75535193       1.73276006       0.85323678
O       -1.91810560       1.93145307       1.51497380
C       -0.52390776       0.29970941       0.37321048
O        0.55920781       0.31308979      -0.55725011
P        1.88904718      -0.53812243      -0.18642581
O        2.01451474      -0.96272027       1.22407051
O        1.82970332      -1.74531369      -1.25785193
O        3.05058985       0.36731186      -0.82411347
C       -1.70646253      -0.34416237      -0.34427904
O       -1.43033740      -1.66207881      -0.74860874
H       -2.43842858       1.11788439       1.56186481
H       -0.24703974      -0.30149631       1.24831214
H        2.02022477      -2.58044751      -0.81516939
H        2.97263049       1.28853986      -0.54523279
H       -2.54774714      -0.40800088       0.34702991
H       -1.99495042       0.28039655      -1.19532208
H       -0.74361606      -1.61805407      -1.42711083
18
Properties=species:S:1:pos:R:3 relative_energy_eV=-5.434844700859685 branch=right pbc="F F F"
O        0.02336443       2.63024451       0.66484506
C       -0.74876163       1.72822346       0.83965574
O       -1.90201809       1.92594517       1.52152407
C       -0.52745359       0.29198536       0.36100971
O        0.55147576       0.29927166      -0.57531681
P        1.89078950      -0.53254184      -0.18735369
O        2.00397213      -0.93938441       1.23059415
O        1.85655882      -1.74999243      -1.24751741
O        3.05123535       0.37186160      -0.82995518
C       -1.72164176      -0.34359639      -0.34669338
O       -1.45557837      -1.65726113      -0.76897790
H       -2.40411085       1.10428135       1.60401086
H       -0.25024596      -0.30843199       1.23674505
H        2.02730741      -2.58110056      -0.78953872
H        2.99918912       1.28729501      -0.51951607
H       -2.55576129      -0.41133743       0.35244732
H       -2.01990339       0.29359291      -1.18433567
H       -0.76540228      -1.60646637      -1.44357091
18
Properties=species:S:1:pos:R:3 relative_energy_eV=-5.438489922118606 branch=right pbc="F F F"
O        0.02691382       2.62340623       0.64334982
C       -0.74225581       1.72176151       0.82777433
O       -1.88865171       1.92367260       1.51975945
C       -0.53088626       0.28171073       0.35146419
O        0.54836151       0.28325200      -0.58390512
P        1.89745922      -0.52836883      -0.18725668
O        2.00202095      -0.92770219       1.23245958
O        1.88662868      -1.75002761      -1.24119447
O        3.04933698       0.38520469      -0.83054366
C       -1.73582301      -0.34231078      -0.34922321
O       -1.48006316      -1.65289644      -0.78706704
H       -2.37272619       1.09706453       1.62971038
H       -0.25916397      -0.31924019       1.22733341
H        2.02173028      -2.57972830      -0.76717245
H        3.00975850       1.29189529      -0.50323452
H       -2.56941733      -0.41434784       0.35078726
H       -2.03926715       0.30968999      -1.17297942
H       -0.77093998      -1.60044711      -1.44200568
18
Properties=species:S:1:pos:R:3 relative_energy_eV=-5.4405956143273215 branch=right pbc="F F F"
O        0.02400277       2.62109370       0.60643030
C       -0.73661708       1.71635046       0.81341950
O       -1.86682934       1.91643826       1.53448763
C       -0.53346532       0.27593797       0.33581221
O        0.54002828       0.26621528      -0.60528849
P        1.89716725      -0.52403387      -0.18910062
O        1.98886227      -0.90039103       1.23843440
O        1.91373141      -1.75787780      -1.22721326
O        3.04497590       0.39075994      -0.83461700
C       -1.75132245      -0.33848843      -0.35162743
O       -1.50179221      -1.64571398      -0.80846538
H       -2.33667478       1.08204907       1.67273383
H       -0.25976866      -0.32491409       1.20930592
H        2.03109267      -2.58300976      -0.73955448
H        3.03696881       1.29086145      -0.47271781
H       -2.57801258      -0.41813065       0.35997542
H       -2.06806665       0.32430846      -1.16259349
H       -0.79126506      -1.58886724      -1.46136503
18
Properties=species:S:1:pos:R:3 relative_energy_eV=-5.443056116379012 branch=right pbc="F F F"
O        0.02191246       2.61964611       0.59944953
C       -0.73621379       1.71459394       0.81241646
O       -1.85811139       1.91317699       1.54726341
C       -0.53329024       0.27658071       0.33175201
O        0.54101009       0.26103848      -0.60593715
P        1.89754916      -0.52517846      -0.18822023
O        1.98899179      -0.89939350       1.23828869
O        1.91730313      -1.75923814      -1.22328835
O        3.03899807       0.39555244      -0.83203593
C       -1.75275598      -0.33535369      -0.35291715
O       -1.49982163      -1.64318828      -0.81083071
H       -2.33457978       1.08490252       1.66687792
H       -0.26064651      -0.32647466       1.20202988
H        2.02891578      -2.58458892      -0.73781204
H        3.03247202       1.29303262      -0.46914040
H       -2.57968798      -0.41920298       0.36143034
H       -2.07449412       0.32602324      -1.16327084
H       -0.78453587      -1.58934055      -1.45799926
18
Properties=species:S:1:pos:R:3 relative_energy_eV=-5.4445496931584785 branch=right pbc="F F F"
O        0.02471849       2.61284934       0.59301593
C       -0.73446612       1.71179918       0.81099173
O       -1.84998828       1.91643016       1.54683935
C       -0.53516578       0.27490523       0.32985597
O        0.53818507       0.25230131      -0.60801084
P        1.89701016      -0.52457405      -0.18745555
O        1.98969535      -0.89535013       1.23842638
O        1.92291012      -1.75840122      -1.22028362
O        3.03446136       0.40124026      -0.82888882
C       -1.75595221      -0.33230650      -0.35494687
O       -1.50182853      -1.64033796      -0.81549135
H       -2.32784708       1.08386740       1.67327576
H       -0.26291043      -0.33185723       1.19686174
H        2.02653333      -2.58330999      -0.73259566
H        3.02922088       1.29401032      -0.46502213
H       -2.58138255      -0.42033217       0.36081914
H       -2.08132535       0.32895236      -1.16392437
H       -0.77885315      -1.58729838      -1.45541064
18
Properties=species:S:1:pos:R:3 relative_energy_eV=-5.44674292136915 branch=right pbc="F F F"
O        0.02355051       2.61105047       0.56378777
C       -0.72915101       1.70848554       0.80314736
O       -1.82924350       1.90937931       1.56686962
C       -0.53856833       0.27186593       0.31995284
O        0.53078231       0.23783005      -0.62227905
P        1.89608837      -0.52174753      -0.18711502
O        1.98131253      -0.87881809       1.24360056
O        1.94222226      -1.76287689      -1.21120895
O        3.02972417       0.40739796      -0.83093283
C       -1.76653950      -0.32913390      -0.35913346
O       -1.51436891      -1.63501735      -0.83002036
H       -2.30730626       1.07819447       1.69515774
H       -0.26442493      -0.33815473       1.18396182
H        2.03168994      -2.58488466      -0.71282658
H        3.04033543       1.29212421      -0.44443083
H       -2.58196432      -0.42223467       0.36692803
H       -2.10422810       0.33460943      -1.16213713
H       -0.78689549      -1.57548189      -1.46526536
18
Properties=species:S:1:pos:R:3 relative_energy_eV=-5.448559233402193 branch=right pbc="F F F"
O        0.02399622       2.60731842       0.53979726
C       -0.72393569       1.70525970       0.79743452
O       -1.80961005       1.90653032       1.58207812
C       -0.54350526       0.26757787       0.31360286
O        0.52338383       0.22538760      -0.63182621
P        1.89559722      -0.51893207      -0.18544603
O        1.97955286      -0.86672573       1.24846519
O        1.95819661      -1.76461695      -1.20321147
O        3.02599560       0.41307030      -0.83240555
C       -1.77586954      -0.32780952      -0.36407182
O       -1.52435155      -1.62985858      -0.84209895
H       -2.29336287       1.07988515       1.71389638
H       -0.26876253      -0.34735472       1.17446707
H        2.03381949      -2.58564227      -0.70078174
H        3.04693889       1.29165343      -0.42996152
H       -2.58234565      -0.42500620       0.36849736
H       -2.12273133       0.33859309      -1.16149273
H       -0.78999116      -1.56674235      -1.46888654
18
Properties=species:S:1:pos:R:3 relative_energy_eV=-5.449874876441754 branch=right pbc="F F F"
O        0.02466907       2.60446326       0.53053407
C       -0.72095985       1.70322696       0.79582679
O       -1.80014736       1.90730137       1.58660536
C       -0.54687964       0.26397502       0.31317243
O        0.51972293       0.21834236      -0.63239597
P        1.89679754      -0.51823761      -0.18446781
O        1.98560737      -0.86604831       1.24939034
O        1.96865763      -1.76410331      -1.20179432
O        3.02396257       0.41777111      -0.83214172
C       -1.78009583      -0.32733321      -0.36697770
O       -1.52925361      -1.62694130      -0.84632961
H       -2.29171299       1.08564174       1.71967592
H       -0.27457073      -0.35472635       1.17245152
H        2.03038550      -2.58591556      -0.69868664
H        3.04464220       1.29383867      -0.42744430
H       -2.58362896      -0.42478529       0.36624902
H       -2.12760841       0.34032924      -1.16207919
H       -0.78657237      -1.56421133      -1.46353198
18
Properties=species:S:1:pos:R:3 relative_energy_eV=-5.450911128675216 branch=right pbc="F F F"
O        0.02405365       2.60163253       0.51718195
C       -0.71743992       1.70012546       0.79192801
O       -1.78900739       1.90718261       1.59163286
C       -0.54948716       0.25940175       0.31060916
O        0.51597274       0.20935589      -0.63534688
P        1.89856447      -0.51747853      -0.18425681
O        1.99157697      -0.86212670       1.25039516
O        1.98246967      -1.76515224      -1.19840935
O        3.02076140       0.42368673      -0.83230916
C       -1.78569735      -0.32574827      -0.36928159
O       -1.53731318      -1.62333244      -0.85285004
H       -2.28518426       1.08830010       1.73038556
H       -0.28075202      -0.36248885       1.16851667
H        2.02745733      -2.58704128      -0.69394193
H        3.04469925       1.29700180      -0.42053171
H       -2.58763055      -0.42433932       0.36544356
H       -2.13348599       0.34577968      -1.16056512
H       -0.78654265      -1.56217158      -1.46054414
18
Properties=species:S:1:pos:R:3 relative_energy_eV=-5.452097895748011 branch=right pbc="F F F"
O        0.02321054       2.60010200       0.51076192
C       -0.71484792       1.69808589       0.79059701
O       -1.78264434       1.90776745       1.59390613
C       -0.55017147       0.25583850       0.31123114
O        0.51501452       0.20304962      -0.63374889
P        1.90138038      -0.51824485      -0.18416594
O        2.00168510      -0.86398758       1.24965974
O        1.99179436      -1.76529226      -1.19808413
O        3.01733067       0.42953645      -0.83188058
C       -1.78756005      -0.32428580      -0.37029423
O       -1.54197009      -1.62174318      -0.85506167
H       -2.28492206       1.09176706       1.73060623
H       -0.28776901      -0.36867554       1.16909083
H        2.02171650      -2.58796064      -0.69459343
H        3.03636089       1.30179255      -0.41841394
H       -2.59105691      -0.42131342       0.36327224
H       -2.13078699       0.34960358      -1.16120196
H       -0.78374910      -1.56345247      -1.45362426
18
Properties=species:S:1:pos:R:3 relative_energy_eV=-5.453662033851288 branch=right pbc="F F F"
O        0.02252353       2.59815719       0.49667373
C       -0.71011779       1.69500620       0.78697659
O       -1.77064235       1.90682172       1.60040036
C       -0.55055963       0.25061180       0.30994967
O        0.51293028       0.19144408      -0.63552065
P        1.90530028      -0.51882641      -0.18434113
O        2.01212316      -0.86128454       1.24992322
O        2.00677004      -1.76740608      -1.19570965
O        3.01140828       0.43909741      -0.83213900
C       -1.79148110      -0.32181375      -0.37205679
O       -1.55079783      -1.61947171      -0.86106906
H       -2.27783518       1.09249329       1.73553309
H       -0.29779155      -0.37688926       1.16832576
H        2.01613457      -2.58974580      -0.69038641
H        3.02530452       1.30818703      -0.40937744
H       -2.59659951      -0.41737718       0.36149372
H       -2.12982152       0.35650161      -1.16163805
H       -0.78383324      -1.56291825      -1.44898177
18
Properties=species:S:1:pos:R:3 relative_energy_eV=-5.455384882810904 branch=right pbc="F F F"
O        0.02403493       2.59725838       0.49322214
C       -0.70674879       1.69444560       0.78740636
O       -1.76431735       1.90832823       1.60437677
C       -0.54923294       0.24804517       0.31286964
O        0.51382534       0.18498570      -0.63214566
P        1.90870578      -0.52094251      -0.18376836
O        2.02389227      -0.86216160       1.25012075
O        2.00889297      -1.76828558      -1.19602919
O        3.00582678       0.44582382      -0.83217002
C       -1.78966765      -0.32116492      -0.37300778
O       -1.55096733      -1.62065146      -0.86058892
H       -2.27852507       1.09575522       1.72976420
H       -0.30821947      -0.38131616       1.17372149
H        2.01159833      -2.59122261      -0.69499228
H        3.00461841       1.31463224      -0.40654292
H       -2.59995372      -0.41339183       0.35648000
H       -2.11888849       0.35803713      -1.16605327
H       -0.78185906      -1.56558736      -1.44460680
18
Properties=species:S:1:pos:R:3 relative_energy_eV=-5.457090137162595 branch=right pbc="F F F"
O        0.02851564       2.59314575       0.47719869
C       -0.70032459       1.69142835       0.78311307
O       -1.74805148       1.90779634       1.61381135
C       -0.55027093       0.24236140       0.31118168
O        0.51066744       0.16867405      -0.63602718
P        1.91273839      -0.52125366      -0.18364978
O        2.02894453      -0.85386844       1.25181851
O        2.02373077      -1.77160627      -1.19318003
O        2.99790889       0.45851708      -0.83282524
C       -1.79430512      -0.31968819      -0.37634949
O       -1.55924746      -1.61971148      -0.86878386
H       -2.26362185       1.09533964       1.73826102
H       -0.32095949      -0.38874557       1.17434242
H        2.00928356      -2.59366832      -0.68535957
H        2.98646162       1.32172313      -0.39301144
H       -2.60708673      -0.41071014       0.35166704
H       -2.11799178       0.36340117      -1.16875366
H       -0.78337649      -1.56054738      -1.44539743
18
Properties=species:S:1:pos:R:3 relative_energy_eV=-5.459234830035712 branch=right pbc="F F F"
O        0.03602932       2.58983964       0.47730914
C       -0.69766944       1.69171296       0.78392985
O       -1.74211801       1.91161628       1.61728319
C       -0.55100080       0.24166479       0.31358262
O        0.50984999       0.16407369      -0.63408993
P        1.91259621      -0.52193924      -0.18220253
O        2.02909292      -0.84719194       1.25492460
O        2.01622558      -1.77241904      -1.19227612
O        2.99391248       0.46160176      -0.83286862
C       -1.79247165      -0.32180844      -0.37841727
O       -1.55357008      -1.62249023      -0.86798680
H       -2.25934348       1.09967596       1.74063419
H       -0.32788690      -0.38843601       1.17957730
H        2.01405216      -2.59540915      -0.68855818
H        2.97042878       1.32412893      -0.39060499
H       -2.61010683      -0.41254336       0.34419174
H       -2.11042342       0.35978681      -1.17432134
H       -0.78458195      -1.55927590      -1.45205079
18
Properties=species:S:1:pos:R:3 relative_energy_eV=-5.4619688977218175 branch=right pbc="F F F"
O        0.04807420       2.58072842       0.46936918
C       -0.69286886       1.68941770       0.78137651
O       -1.72811083       1.91703756       1.62308121
C       -0.55610792       0.23802358       0.31347196
O        0.50436223       0.15282819      -0.63504809
P        1.91129120      -0.52071262      -0.17998234
O        2.02489146      -0.83395748       1.25966866
O        2.01627980      -1.77304513      -1.18792706
O        2.98822914       0.46795996      -0.83280276
C       -1.79644986      -0.32433778      -0.38288210
O       -1.55208209      -1.62355006      -0.87311083
H       -2.24395522       1.10658849       1.75772141
H       -0.33601763      -0.39102888       1.18138831
H        2.02234052      -2.59792372      -0.68442765
H        2.95805220       1.32680545      -0.38382873
H       -2.61743260      -0.41755989       0.33440307
H       -2.10992179       0.35764890      -1.17956216
H       -0.78755910      -1.55233531      -1.46285257
18
Properties=species:S:1:pos:R:3 relative_energy_eV=-5.464989915366459 branch=right pbc="F F F"
O        0.06271895       2.56601368       0.45007452
C       -0.68493620       1.68349336       0.77573910
O       -1.70393113       1.92401478       1.63232866
C       -0.56504257       0.23038419       0.31166235
O        0.49394534       0.13371173      -0.63734138
P        1.90910892      -0.51802074      -0.17651478
O        2.02265839      -0.81501555       1.26650349
O        2.02496054      -1.77376866      -1.17891604
O        2.97878890       0.47866781      -0.83218189
C       -1.80602547      -0.32633215      -0.38954391
O       -1.55586255      -1.62192423      -0.88419473
H       -2.21861752       1.11715403       1.78869054
H       -0.34647471      -0.39839160       1.18012622
H        2.03281846      -2.60152815      -0.67720601
H        2.94598175       1.33154474      -0.37239207
H       -2.63032423      -0.42334279       0.32198302
H       -2.11363737       0.35893769      -1.18508730
H       -0.79311474      -1.54301104      -1.47567377
18
Properties=species:S:1:pos:R:3 relative_energy_eV=-5.468202867341461 branch=right pbc="F F F"
O        0.07755700       2.54782450       0.42978944
C       -0.67588943       1.67565998       0.76958403
O       -1.67873077       1.93145335       1.63848484
C       -0.57497398       0.22041857       0.31127192
O        0.48236565       0.11070391      -0.63695687
P        1.90776515      -0.51568676      -0.17268892
O        2.02578728      -0.80144278       1.27158687
O        2.04116100      -1.77293038      -1.17016402
O        2.96638085       0.49220672      -0.83049426
C       -1.81718299      -0.32718700      -0.39634284
O       -1.56357693      -1.61908038      -0.89616420
H       -2.19115195       1.12905338       1.81948103
H       -0.35826082      -0.40767255       1.18034785
H        2.03989448      -2.60393952      -0.67018905
H        2.92926641       1.34019388      -0.36367378
H       -2.64678779      -0.42542211       0.30797633
H       -2.11349380       0.36314519      -1.19140630
H       -0.79711469      -1.53471118      -1.48238605
18
Properties=species:S:1:pos:R:3 relative_energy_eV=-5.472184993825067 branch=right pbc="F F F"
O        0.09170544       2.52530675       0.39359866
C       -0.66233559       1.66295841       0.75947169
O       -1.64258958       1.93618222       1.64875850
C       -0.58627091       0.20546455       0.30845745
O        0.46668189       0.07485055      -0.63974139
P        1.90746867      -0.51291107      -0.16823732
O        2.03264240      -0.78498260       1.27845288
O        2.07312801      -1.77290549      -1.15648710
O        2.94725222       0.51293778      -0.82810371
C       -1.83390773      -0.32486488      -0.40491749
O       -1.58254712      -1.61219455      -0.91604716
H       -2.15029918       1.13862069       1.86137442
H       -0.37288942      -0.42209682       1.17776850
H        2.04624721      -2.60526807      -0.65697505
H        2.90945114       1.35360382      -0.34818807
H       -2.66843731      -0.42178022       0.29350136
H       -2.11725287       0.37498673      -1.19686872
H       -0.80503277      -1.52532140      -1.48776142
18
Properties=species:S:1:pos:R:3 relative_energy_eV=-5.477034253333841 branch=right pbc="F F F"
O        0.10330783       2.50260943       0.37612627
C       -0.65215299       1.65061001       0.75486703
O       -1.62336631       1.94026524       1.64225131
C       -0.59441894       0.19207030       0.31402419
O        0.45582448       0.04282459      -0.63028133
P        1.90752396      -0.51310722      -0.16284167
O        2.04568406      -0.79075793       1.27996816
O        2.10222669      -1.76663583      -1.15018324
O        2.92687582       0.52946319      -0.82376909
C       -1.84350303      -0.32122064      -0.40972669
O       -1.60025617      -1.60708986      -0.92557169
H       -2.11851004       1.14601684       1.88410470
H       -0.38194664      -0.42892480       1.18699641
H        2.04818860      -2.60078732      -0.65546866
H        2.88024289       1.37165898      -0.35313873
H       -2.68965219      -0.40522131       0.27652820
H       -2.10219224       0.38579343      -1.20437131
H       -0.81086141      -1.52498101      -1.48145783
18
Properties=species:S:1:pos:R:3 relative_energy_eV=-5.48167705101514 branch=right pbc="F F F"
O        0.11652580       2.47419770       0.31729732
C       -0.63075999       1.63211731       0.73799616
O       -1.57301760       1.93923504       1.65920022
C       -0.60491927       0.17014557       0.30662561
O        0.43652095      -0.01620461      -0.64074762
P        1.90989970      -0.51079128      -0.15602950
O        2.05449400      -0.77223857       1.29120130
O        2.15755338      -1.76720818      -1.12923704
O        2.89587911       0.55979941      -0.82176825
C       -1.86552216      -0.31289140      -0.42119568
O       -1.63815511      -1.59547540      -0.95680248
H       -2.05596292       1.14780843       1.94177937
H       -0.40440634      -0.44904618       1.18308176
H        2.05564626      -2.59630749      -0.63269665
H        2.85308837       1.39355126      -0.32922401
H       -2.71557898      -0.38908560       0.26132076
H       -2.11047427       0.40954278      -1.20728172
H       -0.82779684      -1.51456333      -1.48546353
18
Properties=species:S:1:pos:R:3 relative_energy_eV=-5.4882444449795 branch=right pbc="F F F"
O        0.10605263       2.48015484       0.31597117
C       -0.63135269       1.63163803       0.73927958
O       -1.58280810       1.93015644       1.65438543
C       -0.59703819       0.17055995       0.30891831
O        0.44308833      -0.02099978      -0.63732234
P        1.91242637      -0.51441552      -0.15389859
O        2.05719385      -0.78467648       1.29290578
O        2.16066914      -1.76392679      -1.13054104
O        2.89213657       0.55602303      -0.82211444
C       -1.85919463      -0.30688491      -0.41799199
O       -1.64889952      -1.59421583      -0.95226468
H       -2.05488196       1.13436511       1.93280829
H       -0.40057766      -0.44308122       1.19041856
H        2.05743690      -2.58825650      -0.64120736
H        2.85301794       1.39673527      -0.33940325
H       -2.70960611      -0.36930385       0.26472645
H       -2.10310654       0.41498828      -1.20347861
H       -0.84154236      -1.52627483      -1.48313519
18
Properties=species:S:1:pos:R:3 relative_energy_eV=-5.492171191021043 branch=right pbc="F F F"
O        0.11049204       2.47164657       0.30624272
C       -0.62364194       1.62576751       0.73565653
O       -1.57455388       1.92786902       1.64882279
C       -0.59472681       0.16188360       0.31187365
O        0.44190523      -0.04969052      -0.63613816
P        1.91889785      -0.51768050      -0.15051656
O        2.06181621      -0.79397470       1.29399028
O        2.18721517      -1.76208307      -1.13083069
O        2.87779748       0.56981326      -0.82047376
C       -1.86012052      -0.30115454      -0.42002285
O       -1.66836113      -1.59028298      -0.95747810
H       -2.03358412       1.12790704       1.94095990
H       -0.41512507      -0.44693298       1.20204975
H        2.05663086      -2.58182657      -0.63775629
H        2.82586125       1.41319282      -0.34453451
H       -2.71690748      -0.34851226       0.25498464
H       -2.09072002       0.42581372      -1.20494424
H       -0.84986123      -1.52917034      -1.47382902
18
Properties=species:S:1:pos:R:3 relative_energy_eV=-5.4949361071921885 branch=right pbc="F F F"
O        0.11372367       2.46518740       0.29095390
C       -0.61794163       1.62081320       0.73188277
O       -1.55992474       1.92656131       1.65462193
C       -0.59523646       0.15581781       0.31134919
O        0.43888574      -0.07073845      -0.63686387
P        1.92119421      -0.51881323      -0.14614532
O        2.05984062      -0.79078069       1.29913286
O        2.20342675      -1.76130067      -1.12635869
O        2.86711570       0.57804396      -0.81905351
C       -1.86324385      -0.29728693      -0.42334156
O       -1.68092707      -1.58584337      -0.96219433
H       -2.01386078       1.12656003       1.95507883
H       -0.42432065      -0.45141438       1.20446712
H        2.06473866      -2.57975130      -0.63611093
H        2.81160986       1.42103808      -0.34440529
H       -2.72076021      -0.33785483       0.24927920
H       -2.08884248       0.43125104      -1.20714968
H       -0.86246357      -1.52890417      -1.47708651
18
Properties=species:S:1:pos:R:3 relative_energy_eV=-5.501194895117806 branch=right pbc="F F F"
O        0.11652535       2.45311763       0.26161103
C       -0.60878789       1.61141462       0.72164201
O       -1.53148610       1.92371762       1.66273048
C       -0.59593433       0.14284954       0.30992249
O        0.43469527      -0.10882423      -0.63641599
P        1.92684739      -0.52064563      -0.13727108
O        2.05308578      -0.78276922       1.31070580
O        2.23742094      -1.75735299      -1.11703490
O        2.84983213       0.59182045      -0.81672450
C       -1.87001244      -0.28904670      -0.42875188
O       -1.71117543      -1.57690855      -0.96914800
H       -1.97231355       1.12289840       1.98486195
H       -0.44044564      -0.46445817       1.20632029
H        2.08462676      -2.57661325      -0.63440531
H        2.78767749       1.43526748      -0.34534405
H       -2.72675147      -0.31564963       0.24166663
H       -2.08440173       0.44501669      -1.20905490
H       -0.89638916      -1.53124990      -1.48725389
18
Properties=species:S:1:pos:R:3 relative_energy_eV=-5.510507062157558 branch=right pbc="F F F"
O        0.11250729       2.43639777       0.21001472
C       -0.59564765       1.59553250       0.70536987
O       -1.48004884       1.91628592       1.68271675
C       -0.59765408       0.12157589       0.30809000
O        0.42932893      -0.16817021      -0.63169543
P        1.93648068      -0.52349403      -0.12246728
O        2.04630165      -0.77170741       1.32920887
O        2.29870191      -1.75089231      -1.10133964
O        2.82387005       0.61460230      -0.81236982
C       -1.88157135      -0.27292902      -0.43616433
O       -1.76485169      -1.56181995      -0.97575848
H       -1.90556277       1.11905177       2.02432037
H       -0.46486128      -0.49087876       1.20547324
H        2.11956779      -2.57599614      -0.63633096
H        2.74358875       1.45864361      -0.34715322
H       -2.73634264      -0.27420320       0.23487045
H       -2.07242996       0.47067874      -1.21353516
H       -0.95836415      -1.54009445      -1.50519366
18
Properties=species:S:1:pos:R:3 relative_energy_eV=-5.517878221980936 branch=right pbc="F F F"
O        0.10372978       2.42206439       0.17642519
C       -0.58865902       1.58129195       0.69039685
O       -1.44499614       1.91460225       1.68225497
C       -0.59790379       0.10290155       0.30771214
O        0.42710256      -0.20719254      -0.62603147
P        1.94193895      -0.52346395      -0.10953648
O        2.02669226      -0.75562892       1.34895035
O        2.34275821      -1.74067335      -1.08681802
O        2.81330701       0.62070088      -0.80755833
C       -1.88935456      -0.25816537      -0.43830953
O       -1.81667558      -1.55054789      -0.97161694
H       -1.84558415       1.11446054       2.07301729
H       -0.47580911      -0.51606199       1.20111395
H        2.17054537      -2.57605640      -0.64826142
H        2.71853457       1.47102559      -0.35893274
H       -2.74078888      -0.23620062       0.23701816
H       -2.05405262       0.49703669      -1.21327996
H       -1.03777305      -1.55751122      -1.53848757
18
Properties=species:S:1:pos:R:3 relative_energy_eV=-5.5251265691331355 branch=right pbc="F F F"
O        0.09226266       2.42451820       0.17424279
C       -0.58790230       1.58037945       0.69252061
O       -1.42944668       1.91091620       1.69767613
C       -0.59713543       0.10235190       0.30789536
O        0.43130752      -0.20287018      -0.61943528
P        1.94281281      -0.52568620      -0.10639273
O        2.02518543      -0.75973747       1.35219408
O        2.35052998      -1.73603634      -1.08493624
O        2.81569945       0.61968543      -0.80362804
C       -1.88784016      -0.25218683      -0.43741067
O       -1.82254141      -1.54913385      -0.95689089
H       -1.84785697       1.12183407       2.05212672
H       -0.47889556      -0.52924216       1.19314227
H        2.18329245      -2.58379044      -0.66251108
H        2.69305882       1.47345590      -0.36654288
H       -2.73399153      -0.22476792       0.24662275
H       -2.04172262       0.49734866      -1.22104108
H       -1.05380500      -1.56445685      -1.53957537
18
Properties=species:S:1:pos:R:3 relative_energy_eV=-5.529899854758696 branch=right pbc="F F F"
O        0.09169652       2.40430716       0.12209216
C       -0.56908054       1.56303892       0.68268368
O       -1.38444624       1.90510313       1.70942819
C       -0.60578276       0.08467195       0.30246333
O        0.41813124      -0.24300109      -0.62378072
P        1.94366203      -0.52229323      -0.10071316
O        2.03823694      -0.74593991       1.36016936
O        2.40258496      -1.73011159      -1.06650783
O        2.79962874       0.64005862      -0.79789578
C       -1.90836009      -0.24055296      -0.44409922
O       -1.86470813      -1.53973781      -0.97647847
H       -1.79370602       1.11890683       2.08933586
H       -0.49489051      -0.55105044       1.18597853
H        2.19245673      -2.58367759      -0.65295281
H        2.67038184       1.48872430      -0.35099827
H       -2.75364083      -0.20261395       0.24562076
H       -2.04683827       0.52071265      -1.22500070
H       -1.08231458      -1.56396415      -1.54128840
18
Properties=species:S:1:pos:R:3 relative_energy_eV=-5.537287248025677 branch=right pbc="F F F"
O        0.09760765       2.41051854       0.15648769
C       -0.57282687       1.57182733       0.69272177
O       -1.41075506       1.91005347       1.69666284
C       -0.60638074       0.09884528       0.29851525
O        0.41920225      -0.20458533      -0.63501985
P        1.93262017      -0.51831288      -0.10971661
O        2.02864681      -0.74769108       1.35027442
O        2.36609613      -1.73438452      -1.07224498
O        2.81914997       0.62298923      -0.79511960
C       -1.90395927      -0.24941491      -0.43959890
O       -1.83282956      -1.54775614      -0.97217337
H       -1.82551829       1.11942593       2.07212270
H       -0.47962466      -0.53515249       1.17940209
H        2.18248149      -2.58445070      -0.64984411
H        2.69656828       1.47317429      -0.35198956
H       -2.74792663      -0.22947569       0.25281651
H       -2.06188923       0.50447620      -1.22184334
H       -1.04765097      -1.55750510      -1.53339648
18
Properties=species:S:1:pos:R:3 relative_energy_eV=-5.5421885230825865 branch=right pbc="F F F"
O        0.09540129       2.40716530       0.14535377
C       -0.56641809       1.56781384       0.68975992
O       -1.39454229       1.90566652       1.70178125
C       -0.60450148       0.09451694       0.29572191
O        0.42122874      -0.21523079      -0.63707173
P        1.93472449      -0.51971818      -0.10639214
O        2.01863692      -0.74163014       1.35582071
O        2.37936988      -1.73164977      -1.06557713
O        2.81830711       0.62579343      -0.78879642
C       -1.90640956      -0.24331093      -0.43986820
O       -1.85058697      -1.54443883      -0.96995835
H       -1.80416768       1.11445329       2.08059032
H       -0.48868418      -0.54237605       1.17675003
H        2.20086714      -2.58547674      -0.65538543
H        2.68050476       1.47984231      -0.35621364
H       -2.74840395      -0.21380961       0.25505784
H       -2.06167096       0.51091842      -1.22205501
H       -1.07064398      -1.56594797      -1.54146116
18
Properties=species:S:1:pos:R:3 relative_energy_eV=-5.550615663549252 branch=right pbc="F F F"
O        0.09817444       2.38956971       0.11136151
C       -0.54411180       1.55256600       0.68198817
O       -1.34108808       1.89432243       1.71867790
C       -0.60624955       0.08137837       0.28338242
O        0.41810060      -0.24828587      -0.64944728
P        1.93435258      -0.51954846      -0.09733922
O        1.99069669      -0.72455034       1.36749549
O        2.42591004      -1.72323045      -1.04534986
O        2.81241066       0.63493914      -0.76795331
C       -1.91904116      -0.22891608      -0.44434895
O       -1.89776942      -1.53360646      -0.97234796
H       -1.73872627       1.10390852       2.10933016
H       -0.51323915      -0.56067579       1.16311656
H        2.24567504      -2.58578233      -0.65889670
H        2.63528725       1.49781728      -0.36339706
H       -2.75381443      -0.17726062       0.25935310
H       -2.07077230       0.52531971      -1.22513262
H       -1.12278463      -1.57538467      -1.55243570
18
Properties=species:S:1:pos:R:3 relative_energy_eV=-5.557068790858466 branch=right pbc="F F F"
O        0.11453516       2.36612701       0.08383520
C       -0.52032416       1.53497157       0.67514588
O       -1.29152334       1.88436557       1.72582801
C       -0.60907089       0.06646645       0.27399118
O        0.41246071      -0.27806691      -0.65897340
P        1.93215917      -0.51920187      -0.08927660
O        1.96966683      -0.71010466       1.37692962
O        2.45990457      -1.71194646      -1.02652865
O        2.80277427       0.65084231      -0.74533421
C       -1.92970074      -0.21955060      -0.45017719
O       -1.93567422      -1.52492761      -0.97862249
H       -1.68085648       1.09677373       2.13072918
H       -0.53354938      -0.57770667       1.15326971
H        2.27564687      -2.58350561      -0.65906309
H        2.57776156       1.51845342      -0.36761284
H       -2.76136575      -0.14702676       0.25553747
H       -2.07474284       0.53572309      -1.23111967
H       -1.15509122      -1.57910648      -1.55050146
18
Properties=species:S:1:pos:R:3 relative_energy_eV=-5.567278355498274 branch=right pbc="F F F"
O        0.14566236       2.32453677       0.04193294
C       -0.48432906       1.50772824       0.66105312
O       -1.21311203       1.87286735       1.73974435
C       -0.61734495       0.04271043       0.25982977
O        0.39922608      -0.33197539      -0.67216973
P        1.92635815      -0.51746584      -0.07507994
O        1.93736632      -0.68916648       1.39353181
O        2.51434842      -1.69616225      -0.99801477
O        2.77875139       0.67826813      -0.71225656
C       -1.94743494      -0.20567038      -0.46152846
O       -1.98821171      -1.51031721      -0.99010771
H       -1.58921099       1.09143108       2.17038469
H       -0.56437967      -0.60327625       1.13898258
H        2.32264090      -2.57758063      -0.65495733
H        2.48623379       1.55052811      -0.37409722
H       -2.77684745      -0.10446816       0.24412879
H       -2.07704021       0.55162979      -1.24320819
H       -1.19966689      -1.58103854      -1.55011148
18
Properties=species:S:1:pos:R:3 relative_energy_eV=-5.569377932941279 branch=right pbc="F F F"
O        0.17907527       2.28286553       0.00328072
C       -0.44869727       1.48062773       0.64801825
O       -1.13759149       1.86180434       1.75071992
C       -0.62505875       0.01931401       0.24724536
O        0.38690413      -0.38402283      -0.68308950
P        1.92073561      -0.51584851      -0.06074904
O        1.90668970      -0.67047862       1.40969781
O        2.56462338      -1.67923035      -0.97088778
O        2.75374249       0.70614449      -0.67911861
C       -1.96372262      -0.19234208      -0.47270632
O       -2.03781706      -1.49653773      -1.00054660
H       -1.50108734       1.08640016       2.20575416
H       -0.59383222      -0.62818577       1.12642162
H        2.36663772      -2.57055730      -0.65181802
H        2.39173953       1.58232805      -0.38181725
H       -2.79225257      -0.06258966       0.23132151
H       -2.07662482       0.56606470      -1.25624239
H       -1.24045472      -1.58317803      -1.54742720
18
Properties=species:S:1:pos:R:3 relative_energy_eV=-5.579675778761157 branch=right pbc="F F F"
O        0.18219302       2.29322320       0.02445656
C       -0.45802973       1.48853204       0.65144449
O       -1.15946799       1.85896981       1.74843898
C       -0.62573830       0.03205403       0.24196032
O        0.38856352      -0.35608749      -0.69022937
P        1.91403238      -0.51304286      -0.06726718
O        1.89871849      -0.67442038       1.40112783
O        2.54102629      -1.68198538      -0.97767890
O        2.76585278       0.69380325      -0.67897266
C       -1.96042335      -0.19932690      -0.46997787
O       -2.01487350      -1.49993931      -0.99947074
H       -1.52830307       1.08162641       2.19066048
H       -0.57807332      -0.61095765       1.11973152
H        2.35307436      -2.56774573      -0.64228463
H        2.42761104       1.56476397      -0.38183478
H       -2.78193134      -0.08404212       0.23977756
H       -2.09673358       0.55255798      -1.25106688
H       -1.21448837      -1.57540430      -1.54075807
18
Properties=species:S:1:pos:R:3 relative_energy_eV=-5.59036057459889 branch=right pbc="F F F"
O        0.19752923       2.29236074       0.04414034
C       -0.45994216       1.48925267       0.65349858
O       -1.16983762       1.85866637       1.73740602
C       -0.62579039       0.03400611       0.24586518
O        0.39035832      -0.34980139      -0.68478302
P        1.91334814      -0.51375522      -0.06916059
O        1.90246432      -0.68806924       1.39385674
O        2.53247672      -1.67843170      -0.98561072
O        2.76520303       0.69724933      -0.67403686
C       -1.95405412      -0.20236535      -0.46899839
O       -2.00616557      -1.50390316      -0.99297696
H       -1.54039052       1.08159198       2.17656050
H       -0.57638645      -0.60396305       1.12913340
H        2.34552645      -2.56237154      -0.64296179
H        2.40511288       1.56521279      -0.39284407
H       -2.78215207      -0.08069004       0.23176709
H       -2.08046446       0.54913099      -1.25446614
H       -1.20382623      -1.58154129      -1.52833271
18
Properties=species:S:1:pos:R:3 relative_energy_eV=-5.614837861096021 branch=right pbc="F F F"
O        0.25909357       2.25871698       0.04797587
C       -0.44138802       1.47124453       0.64191777
O       -1.13316559       1.85022179       1.73236922
C       -0.63388953       0.02239853       0.24024428
O        0.38197641      -0.37507370      -0.68197364
P        1.90646027      -0.50952211      -0.06259678
O        1.88569168      -0.69606184       1.39832413
O        2.54431714      -1.65659277      -0.97939415
O        2.73696485       0.72680475      -0.64313247
C       -1.95660929      -0.19859824      -0.47961533
O       -2.01946104      -1.50194685      -0.99329111
H       -1.50403971       1.08113743       2.18560710
H       -0.58549864      -0.60844635       1.13134751
H        2.36271822      -2.53966909      -0.63110570
H        2.30777579       1.57457805      -0.41376731
H       -2.79095960      -0.05399184       0.20943187
H       -2.05645556       0.55258582      -1.27138752
H       -1.21052145      -1.59520571      -1.51289726
18
Properties=species:S:1:pos:R:3 relative_energy_eV=-5.628659305581095 branch=right pbc="F F F"
O        0.28325680       2.24683920       0.05839072
C       -0.43114727       1.46300226       0.64270136
O       -1.11409084       1.84945450       1.73254431
C       -0.63240918       0.01620866       0.24313752
O        0.38328020      -0.39161173      -0.67254839
P        1.90735805      -0.50667701      -0.05801282
O        1.87896212      -0.71904696       1.40266195
O        2.56414477      -1.64214865      -0.98317201
O        2.71883558       0.74095244      -0.62809152
C       -1.95370288      -0.18716871      -0.48546953
O       -2.03351350      -1.50074262      -0.97863034
H       -1.49523385       1.08665998       2.18055810
H       -0.58931279      -0.61974960       1.13279381
H        2.38536376      -2.52354166      -0.63368380
H        2.22920288       1.57510801      -0.44188886
H       -2.79147825      -0.02208554       0.19810435
H       -2.02382062       0.55858641      -1.28576290
H       -1.23268578      -1.62145953      -1.50557546
18
Properties=species:S:1:pos:R:3 relative_energy_eV=-5.6342744002140535 branch=right pbc="F F F"
O        0.27811960       2.25505087       0.06988747
C       -0.43716127       1.46983758       0.64909986
O       -1.13185686       1.86358416       1.73274951
C       -0.62700447       0.01909042       0.25394275
O        0.38931033      -0.39269567      -0.65698874
P        1.91662696      -0.50442883      -0.05814320
O        1.90483640      -0.74454449       1.40418455
O        2.56011981      -1.63949182      -0.99447709
O        2.70822946       0.74522577      -0.64458567
C       -1.94800010      -0.18255855      -0.48845919
O       -2.02575170      -1.50491153      -0.96941165
H       -1.53193782       1.10324772       2.17584610
H       -0.58627769      -0.62537463       1.14116416
H        2.37714860      -2.51617445      -0.63907125
H        2.22900800       1.56090581      -0.45212801
H       -2.78898010      -0.02481019       0.19215661
H       -2.00216447       0.56336291      -1.29201155
H       -1.23125552      -1.64273551      -1.50569810
18
Properties=species:S:1:pos:R:3 relative_energy_eV=-5.644113160600682 branch=right pbc="F F F"
O        0.29637627       2.24005187       0.06842192
C       -0.41836675       1.46401602       0.65622293
O       -1.10581799       1.86852065       1.74275851
C       -0.62824637       0.01687465       0.24950588
O        0.38727509      -0.39990504      -0.66316723
P        1.91190081      -0.50375926      -0.05391412
O        1.89574620      -0.74379224       1.40808840
O        2.56209095      -1.63370308      -0.98708750
O        2.70029776       0.75375813      -0.63124711
C       -1.95002451      -0.18079799      -0.49455416
O       -2.02799043      -1.50285136      -0.96907912
H       -1.52313275       1.11305017       2.17748241
H       -0.59905183      -0.63280545       1.13101019
H        2.39012681      -2.51512960      -0.64309728
H        2.18800643       1.56745548      -0.46000413
H       -2.79013580      -0.02186640       0.18404068
H       -2.00871921       0.55580376      -1.30351089
H       -1.22732562      -1.64234070      -1.49381282
18
Properties=species:S:1:pos:R:3 relative_energy_eV=-5.6479735363973305 branch=right pbc="F F F"
O        0.29063478       2.24364530       0.06737035
C       -0.41412063       1.46386430       0.66301957
O       -1.10242628       1.86286845       1.74447130
C       -0.62296076       0.01956018       0.24900152
O        0.39081799      -0.39882017      -0.66436953
P        1.91144463      -0.50559352      -0.05283831
O        1.89289808      -0.74703910       1.40786549
O        2.56573964      -1.63362692      -0.98987243
O        2.70034714       0.75307357      -0.62489214
C       -1.94621895      -0.17697234      -0.49293950
O       -2.03812214      -1.49997931      -0.96334691
H       -1.52275719       1.10438936       2.17104354
H       -0.59783959      -0.62951718       1.12684917
H        2.39775196      -2.51770112      -0.65025100
H        2.18326453       1.56800847      -0.46841662
H       -2.78358770      -0.00937334       0.18960907
H       -2.01130941       0.55472536      -1.30481399
H       -1.24054722      -1.64893268      -1.48943292
18
Properties=species:S:1:pos:R:3 relative_energy_eV=-5.651317136609578 branch=right pbc="F F F"
O        0.29285019       2.24358820       0.07074814
C       -0.40997613       1.46547634       0.66877912
O       -1.09833818       1.86527733       1.75014158
C       -0.62077039       0.02153037       0.25110022
O        0.39278850      -0.40128033      -0.65971356
P        1.91392781      -0.50894713      -0.05119139
O        1.90224895      -0.75457326       1.40731284
O        2.56536967      -1.63176434      -0.99562833
O        2.69307175       0.75745677      -0.62203118
C       -1.94094607      -0.17560744      -0.49363404
O       -2.04171510      -1.50004079      -0.95627999
H       -1.53208472       1.10809705       2.16805562
H       -0.60459266      -0.62706102       1.12956795
H        2.40188732      -2.51968152      -0.65989266
H        2.16962664       1.56827274      -0.47950203
H       -2.77847150      -0.00185702       0.18573412
H       -2.00335526       0.55217992      -1.31195497
H       -1.24851215      -1.65848678      -1.48355466
18
Properties=species:S:1:pos:R:3 relative_energy_eV=-5.6540378132449405 branch=right pbc="F F F"
O        0.29519091       2.24582977       0.07695597
C       -0.40718293       1.46686709       0.67344132
O       -1.09507204       1.86468932       1.75479196
C       -0.61805560       0.02269938       0.25250292
O        0.39388955      -0.39987778      -0.65737098
P        1.91632860      -0.51106113      -0.05130577
O        1.91036264      -0.76278339       1.40528827
O        2.56467848      -1.62960219      -1.00224054
O        2.68689349       0.76115988      -0.61820995
C       -1.93512690      -0.17287080      -0.49450522
O       -2.04886456      -1.49981445      -0.94749411
H       -1.54210217       1.10937996       2.16451445
H       -0.60371898      -0.62454242       1.13113761
H        2.40960713      -2.51894202      -0.66515467
H        2.15139886       1.56357777      -0.48956415
H       -2.77062594       0.00973568       0.18254685
H       -1.99300291       0.55095564      -1.31722630
H       -1.26158920      -1.67282149      -1.48005079
18
Properties=species:S:1:pos:R:3 relative_energy_eV=-5.656010094160592 branch=right pbc="F F F"
O        0.29909065       2.24735658       0.08275128
C       -0.40497943       1.46758630       0.67569762
O       -1.09026904       1.86314559       1.76025832
C       -0.61688716       0.02313893       0.25250645
O        0.39382449      -0.39889973      -0.65631658
P        1.91811594      -0.51353382      -0.05280547
O        1.91587473      -0.76942411       1.40251612
O        2.56846035      -1.62864685      -1.00780021
O        2.68075537       0.76480399      -0.61512862
C       -1.93185539      -0.17119407      -0.49543320
O       -2.05811409      -1.49967348      -0.94038599
H       -1.54605898       1.11036534       2.16502654
H       -0.60134829      -0.62110760       1.13370359
H        2.42057801      -2.51760203      -0.66537180
H        2.13218478       1.55916185      -0.49726843
H       -2.76722950       0.02187615       0.17764351
H       -1.98113263       0.54872624      -1.32128677
H       -1.27800161      -1.68350072      -1.48024936
18
Properties=species:S:1:pos:R:3 relative_energy_eV=-5.657217283391219 branch=right pbc="F F F"
O        0.30099912       2.24926263       0.08636756
C       -0.40405749       1.46784839       0.67690273
O       -1.08724436       1.86106096       1.76402977
C       -0.61612532       0.02343267       0.25174825
O        0.39381185      -0.39548405      -0.65851088
P        1.91914059      -0.51419145      -0.05489859
O        1.91831102      -0.77196203       1.39997849
O        2.57020194      -1.62853526      -1.00973957
O        2.67932942       0.76606031      -0.61472507
C       -1.93138448      -0.17085551      -0.49544858
O       -2.06648252      -1.49975993      -0.93652763
H       -1.54727771       1.11025430       2.16671925
H       -0.59612420      -0.61864462       1.13447121
H        2.43052727      -2.51716018      -0.66210977
H        2.12153147       1.55453389      -0.49881209
H       -2.76620273       0.02927267       0.17487124
H       -1.97382855       0.54626383      -1.32248853
H       -1.29211728      -1.68881832      -1.48377076
18
Properties=species:S:1:pos:R:3 relative_energy_eV=-5.657998498492816 branch=right pbc="F F F"
O        0.30158767       2.25020677       0.08834039
C       -0.40377377       1.46782173       0.67704203
O       -1.08603446       1.85950901       1.76595093
C       -0.61549866       0.02344521       0.25085326
O        0.39402174      -0.39401777      -0.66149974
P        1.91987196      -0.51462455      -0.05679393
O        1.91891154      -0.77316816       1.39836839
O        2.57302646      -1.62970137      -1.01001432
O        2.67914443       0.76682549      -0.61638014
C       -1.93264953      -0.17106315      -0.49487554
O       -2.07357435      -1.49943340      -0.93575047
H       -1.54573937       1.10939850       2.16918314
H       -0.59196818      -0.61687664       1.13504983
H        2.43799535      -2.51719411      -0.65717755
H        2.11775751       1.55307208      -0.49768705
H       -2.76819210       0.03365316       0.17325812
H       -1.96980020       0.54419199      -1.32233999
H       -1.30207808      -1.68946658      -1.48747029
18
Properties=species:S:1:pos:R:3 relative_energy_eV=-5.658612257549976 branch=right pbc="F F F"
O        0.30046341       2.25151212       0.08976304
C       -0.40497614       1.46819466       0.67758253
O       -1.08734177       1.85932916       1.76691936
C       -0.61515665       0.02373365       0.25014917
O        0.39486950      -0.39131842      -0.66403381
P        1.92013745      -0.51429064      -0.05820979
O        1.91943602      -0.77211890       1.39741946
O        2.57232392      -1.63094312      -1.00955183
O        2.68191995       0.76514551      -0.61961577
C       -1.93413228      -0.17196271      -0.49371304
O       -2.07770451      -1.49960375      -0.93582552
H       -1.54612267       1.10921205       2.17060170
H       -0.58811678      -0.61613332       1.13472645
H        2.44354963      -2.51829078      -0.65335055
H        2.12172348       1.55208039      -0.49486117
H       -2.76982943       0.03408997       0.17386317
H       -1.96909979       0.54167051      -1.32185916
H       -1.30893546      -1.68772827      -1.49194716
18
Properties=species:S:1:pos:R:3 relative_energy_eV=-5.659364781866316 branch=right pbc="F F F"
O        0.29944402       2.25211252       0.09139692
C       -0.40640743       1.46834787       0.67770581
O       -1.09037245       1.85861551       1.76635352
C       -0.61444275       0.02384984       0.24944908
O        0.39574457      -0.39084251      -0.66653405
P        1.92072323      -0.51418396      -0.05951023
O        1.92107753      -0.77138317       1.39677864
O        2.57159487      -1.63277718      -1.00944505
O        2.68452184       0.76402168      -0.62331983
C       -1.93596961      -0.17210744      -0.49244181
O       -2.08248455      -1.49888783      -0.93639598
H       -1.54618237       1.10729238       2.17089616
H       -0.58491251      -0.61546825       1.13433003
H        2.44832365      -2.51909443      -0.64846557
H        2.12876276       1.55387848      -0.49167016
H       -2.77189231       0.03472858       0.17523048
H       -1.96994816       0.54037740      -1.32132826
H       -1.31457249      -1.68590142      -1.49497262
18
Properties=species:S:1:pos:R:3 relative_energy_eV=-5.6605095362210704 branch=right pbc="F F F"
O        0.29955310       2.25321625       0.09651397
C       -0.40895633       1.46919105       0.67896032
O       -1.09680271       1.85887423       1.76552876
C       -0.61389730       0.02478337       0.24829269
O        0.39706684      -0.38876271      -0.66841804
P        1.92109500      -0.51380394      -0.06142779
O        1.92525150      -0.76996063       1.39562763
O        2.56643945      -1.63518667      -1.01122759
O        2.68903185       0.76099286      -0.62835308
C       -1.93754969      -0.17254152      -0.49112384
O       -2.08602941      -1.49867275      -0.93584107
H       -1.55128904       1.10595101       2.16899086
H       -0.58103110      -0.61470281       1.13287968
H        2.45483073      -2.52011061      -0.64233058
H        2.14172193       1.55610081      -0.48827122
H       -2.77306794       0.03358127       0.17788419
H       -1.97295843       0.53759670      -1.32192947
H       -1.32040061      -1.68396785      -1.49769830
18
Properties=species:S:1:pos:R:3 relative_energy_eV=-5.662307544094801 branch=right pbc="F F F"
O        0.30441352       2.25357713       0.10709310
C       -0.41064172       1.46965751       0.68141688
O       -1.10601857       1.85788534       1.76368978
C       -0.61275890       0.02616616       0.24655955
O        0.39851629      -0.38821487      -0.66971201
P        1.92231255      -0.51351940      -0.06418852
O        1.93443105      -0.77108838       1.39308853
O        2.55826359      -1.63795841      -1.01647909
O        2.69260165       0.75953539      -0.63306048
C       -1.93878050      -0.17108173      -0.49054109
O       -2.09197870      -1.49776540      -0.93224690
H       -1.56191219       1.10304638       2.16307243
H       -0.57708002      -0.61377260       1.13038871
H        2.46569607      -2.51939651      -0.63289572
H        2.15424192       1.56087001      -0.48692537
H       -2.77311981       0.03581728       0.18054896
H       -1.97644874       0.53564723      -1.32496728
H       -1.32872967      -1.68682703      -1.49678432
18
Properties=species:S:1:pos:R:3 relative_energy_eV=-5.66450981383241 branch=right pbc="F F F"
O        0.31534567       2.25455910       0.12575180
C       -0.41105959       1.47080656       0.68596270
O       -1.11828116       1.85663052       1.76205820
C       -0.61170498       0.02927112       0.24370741
O        0.39971310      -0.38473340      -0.67044771
P        1.92351914      -0.51316740      -0.06872467
O        1.94622126      -0.77436260       1.38814361
O        2.54480579      -1.64170992      -1.02617707
O        2.69584032       0.75834617      -0.63688595
C       -1.93876879      -0.16928630      -0.49124881
O       -2.09496843      -1.49807120      -0.92496993
H       -1.58203773       1.10100852       2.15220882
H       -0.57338391      -0.61219160       1.12598189
H        2.47994822      -2.51681005      -0.62030335
H        2.16586303       1.56474130      -0.48791699
H       -2.77094996       0.03814233       0.18270246
H       -1.98159192       0.53247598      -1.33039328
H       -1.33550224      -1.69307092      -1.49139193
18
Properties=species:S:1:pos:R:3 relative_energy_eV=-5.666564002898667 branch=right pbc="F F F"
O        0.32925615       2.25479220       0.14513006
C       -0.40864482       1.47104718       0.69102828
O       -1.12792536       1.85455155       1.76064763
C       -0.61089707       0.03222014       0.24128666
O        0.40022719      -0.38112202      -0.67055731
P        1.92490686      -0.51291467      -0.07309551
O        1.95577879      -0.78076707       1.38183548
O        2.53335467      -1.64477596      -1.03592275
O        2.69681788       0.75970988      -0.63768157
C       -1.93774810      -0.16636893      -0.49303230
O       -2.09604463      -1.49918317      -0.91533272
H       -1.60346887       1.10015917       2.14024636
H       -0.57279087      -0.61191633       1.12147170
H        2.49482565      -2.51210017      -0.60961374
H        2.16761813       1.56737321      -0.49262060
H       -2.76789169       0.04368472       0.18304541
H       -1.98475058       0.53187279      -1.33621643
H       -1.33961553      -1.70368419      -1.48256141
18
Properties=species:S:1:pos:R:3 relative_energy_eV=-5.668338068091543 branch=right pbc="F F F"
O        0.34004816       2.25610608       0.16144009
C       -0.40615312       1.47186421       0.69516272
O       -1.13560148       1.85228850       1.75999858
C       -0.61072881       0.03560389       0.23869164
O        0.39988221      -0.37340081      -0.67297759
P        1.92500143      -0.51283917      -0.07811529
O        1.95745229      -0.78494765       1.37525752
O        2.52451581      -1.64916241      -1.04249021
O        2.69906764       0.75978183      -0.63840418
C       -1.93722403      -0.16531357      -0.49425885
O       -2.09230090      -1.50155325      -0.90754271
H       -1.62121889       1.09978086       2.12996323
H       -0.57311531      -0.61191252       1.11645965
H        2.50670893      -2.50834058      -0.60001462
H        2.17032049       1.56695558      -0.49476624
H       -2.76536628       0.04561664       0.18368907
H       -1.98986637       0.53130169      -1.33876890
H       -1.33841389      -1.70925083      -1.47526666
18
Properties=species:S:1:pos:R:3 relative_energy_eV=-5.670121779454348 branch=right pbc="F F F"
O        0.35049246       2.25620892       0.17600265
C       -0.40260186       1.47135966       0.69945379
O       -1.13964087       1.84906134       1.76043101
C       -0.61038256       0.03804838       0.23590036
O        0.39983415      -0.36447935      -0.67806488
P        1.92461547      -0.51271162      -0.08354934
O        1.95382996      -0.78929886       1.36816034
O        2.51990286      -1.65299824      -1.04639974
O        2.70165812       0.76032103      -0.63960136
C       -1.93766787      -0.16372168      -0.49459956
O       -2.09292849      -1.50378191      -0.89841838
H       -1.63521324       1.09910520       2.12165249
H       -0.57354954      -0.61415425       1.11059014
H        2.52611297      -2.50433291      -0.58960272
H        2.16881825       1.56528409      -0.49703305
H       -2.76368396       0.05250435       0.18487950
H       -1.99294385       0.53136900      -1.34056554
H       -1.34364414      -1.71520455      -1.47117842
18
Properties=species:S:1:pos:R:3 relative_energy_eV=-5.672011888371344 branch=right pbc="F F F"
O        0.36027190       2.25531343       0.18988742
C       -0.39960132       1.47046383       0.70364591
O       -1.14346981       1.84483664       1.76139226
C       -0.60989763       0.04038480       0.23187264
O        0.39935292      -0.35267219      -0.68799812
P        1.92248193      -0.51244610      -0.09063131
O        1.94449047      -0.79078086       1.36061825
O        2.51652444      -1.65892288      -1.04797984
O        2.70532163       0.75921438      -0.64425790
C       -1.93999521      -0.16287325      -0.49348704
O       -2.09523979      -1.50561979      -0.88993274
H       -1.64604955       1.09629226       2.11382063
H       -0.57225982      -0.61750483       1.10267624
H        2.55201751      -2.50006237      -0.57365480
H        2.17340772       1.56278612      -0.49414520
H       -2.76333873       0.05902882       0.18768355
H       -1.99863828       0.53022272      -1.34074422
H       -1.35237054      -1.71508207      -1.47070843
18
Properties=species:S:1:pos:R:3 relative_energy_eV=-5.673626180789142 branch=right pbc="F F F"
O        0.36655139       2.25083356       0.19527242
C       -0.39650154       1.46733398       0.70648514
O       -1.14219396       1.84199037       1.76230453
C       -0.60927159       0.03941120       0.22981077
O        0.39917867      -0.34710010      -0.69597630
P        1.92016186      -0.51236809      -0.09469759
O        1.93482920      -0.79177194       1.35670005
O        2.51926866      -1.66119492      -1.04614490
O        2.70565097       0.75856274      -0.64933998
C       -1.94223056      -0.16056082      -0.49175844
O       -2.10291078      -1.50521111      -0.88295983
H       -1.64834831       1.09397668       2.11024103
H       -0.57329010      -0.62413750       1.09738691
H        2.57821564      -2.49459820      -0.56284699
H        2.17388669       1.56160294      -0.49211715
H       -2.76392480       0.06969967       0.18985403
H       -1.99974579       0.53053438      -1.34100151
H       -1.36631792      -1.71442424      -1.47315489
18
Properties=species:S:1:pos:R:3 relative_energy_eV=-5.674720981325663 branch=right pbc="F F F"
O        0.37500704       2.24575789       0.20508511
C       -0.39517154       1.46441120       0.71026844
O       -1.14541523       1.83944079       1.76229093
C       -0.60838719       0.03844939       0.22799737
O        0.39883450      -0.34206561      -0.70358007
P        1.91780191      -0.51243634      -0.10039006
O        1.93149981      -0.79117683       1.35207983
O        2.51645394      -1.66454018      -1.04790431
O        2.70573027       0.75668396      -0.65786143
C       -1.94420770      -0.15832691      -0.48938494
O       -2.11309728      -1.50353142      -0.87479181
H       -1.65520547       1.09050864       2.10423992
H       -0.57138949      -0.62921480       1.09283897
H        2.60935357      -2.48875408      -0.54757455
H        2.18085545       1.56166307      -0.48737082
H       -2.76415156       0.08070773       0.19151832
H       -1.99979064       0.52808390      -1.34292484
H       -1.38571279      -1.71308189      -1.47647872
18
Properties=species:S:1:pos:R:3 relative_energy_eV=-5.675644876333536 branch=right pbc="F F F"
O        0.37245725       2.23509739       0.19279573
C       -0.39479232       1.45845303       0.70841179
O       -1.13964307       1.84017899       1.76049045
C       -0.60925436       0.03139946       0.23122726
O        0.39623646      -0.35034904      -0.70459529
P        1.91458018      -0.51273037      -0.09929393
O        1.92749531      -0.78592105       1.35521144
O        2.52533639      -1.66237943      -1.04156418
O        2.69849834       0.75552788      -0.66546273
C       -1.94586661      -0.15599927      -0.48674015
O       -2.12228570      -1.49812429      -0.87615693
H       -1.64178227       1.08873411       2.10736682
H       -0.57638786      -0.63782803       1.09561192
H        2.62214811      -2.48238542      -0.54722508
H        2.18528150       1.56407501      -0.48014619
H       -2.76690557       0.08902752       0.19003240
H       -1.99476010       0.53036196      -1.34079256
H       -1.39734815      -1.70456014      -1.48111342
18
Properties=species:S:1:pos:R:3 relative_energy_eV=-5.677086954328843 branch=right pbc="F F F"
O        0.37530945       2.23433006       0.19772759
C       -0.39428082       1.45783419       0.71009280
O       -1.14238229       1.84035347       1.75977607
C       -0.60886009       0.03079150       0.23271914
O        0.39644169      -0.35356845      -0.70052905
P        1.91623098      -0.51297240      -0.10015498
O        1.93674348      -0.78793402       1.35384045
O        2.52168045      -1.66125749      -1.04663377
O        2.69689549       0.75629015      -0.66644564
C       -1.94396446      -0.15401089      -0.48723996
O       -2.12689999      -1.49693101      -0.87206664
H       -1.64922723       1.08970599       2.10418726
H       -0.57694696      -0.63772901       1.09779594
H        2.62827553      -2.48074034      -0.54795715
H        2.18298213       1.56504064      -0.48316103
H       -2.76499155       0.09514259       0.18837499
H       -1.98906213       0.52999976      -1.34333994
H       -1.40493625      -1.71176654      -1.47892868
18
Properties=species:S:1:pos:R:3 relative_energy_eV=-5.678697929099144 branch=right pbc="F F F"
O        0.38026979       2.22965670       0.20331532
C       -0.39317087       1.45486477       0.71211142
O       -1.14644467       1.84034597       1.75708803
C       -0.60929804       0.02768535       0.23622781
O        0.39450197      -0.36178358      -0.69378606
P        1.91775229      -0.51292170      -0.10265949
O        1.95116120      -0.78727819       1.35100887
O        2.51600341      -1.66054800      -1.05381019
O        2.69239306       0.75775731      -0.67059481
C       -1.94164086      -0.15111354      -0.48758320
O       -2.13386782      -1.49310828      -0.86757268
H       -1.65926064       1.09155627       2.09820358
H       -0.57959067      -0.63925847       1.10225292
H        2.63936982      -2.47619512      -0.54792808
H        2.18198685       1.56732481      -0.48281657
H       -2.76293917       0.10471237       0.18397632
H       -1.97883400       0.53027070      -1.34555470
H       -1.41538436      -1.71938930      -1.47382099
18
Properties=species:S:1:pos:R:3 relative_energy_eV=-5.679840011391207 branch=right pbc="F F F"
O        0.38293194       2.22380238       0.20443982
C       -0.39132912       1.45073827       0.71353172
O       -1.14717118       1.83994743       1.75505823
C       -0.60974781       0.02308659       0.24035874
O        0.39261393      -0.37151438      -0.68715347
P        1.91932251      -0.51282940      -0.10471981
O        1.96240222      -0.78528810       1.34864458
O        2.51474552      -1.65915328      -1.05848353
O        2.68737051       0.75953305      -0.67592740
C       -1.93996519      -0.14804323      -0.48747968
O       -2.14299978      -1.48871310      -0.86439923
H       -1.66555448       1.09408994       2.09367854
H       -0.58460648      -0.64301492       1.10718642
H        2.65156688      -2.47069954      -0.54963467
H        2.17925588       1.56850390      -0.48096289
H       -2.76176339       0.11610714       0.17988646
H       -1.96686996       0.53161988      -1.34624561
H       -1.42719487      -1.72559474      -1.46972066
18
Properties=species:S:1:pos:R:3 relative_energy_eV=-5.680896773341374 branch=right pbc="F F F"
O        0.38776806       2.21593379       0.20621601
C       -0.38830435       1.44534710       0.71573043
O       -1.14656666       1.83893452       1.75339093
C       -0.61064892       0.01772048       0.24411717
O        0.39010492      -0.38150644      -0.68241984
P        1.92036383      -0.51221924      -0.10835528
O        1.97078052      -0.78105563       1.34488697
O        2.51425945      -1.65912316      -1.06221044
O        2.68247661       0.76174763      -0.68383705
C       -1.93975671      -0.14534430      -0.48703973
O       -2.15309842      -1.48389396      -0.86211091
H       -1.67269967       1.09769061       2.08790244
H       -0.59136829      -0.64848067       1.11080601
H        2.66886836      -2.46335971      -0.54815352
H        2.17696840       1.56889024      -0.47549846
H       -2.76190879       0.12783981       0.17554641
H       -1.95533769       0.53261940      -1.34645440
H       -1.43889366      -1.72916271      -1.46445912
18
Properties=species:S:1:pos:R:3 relative_energy_eV=-5.681455335503415 branch=right pbc="F F F"
O        0.39137902       2.21104527       0.20781744
C       -0.38556423       1.44175656       0.71761884
O       -1.14441570       1.83730763       1.75369584
C       -0.61091924       0.01466318       0.24550395
O        0.38912602      -0.38693620      -0.68131500
P        1.92101967      -0.51177500      -0.11095026
O        1.97306504      -0.77807336       1.34244347
O        2.51566433      -1.65944504      -1.06353166
O        2.68012851       0.76311819      -0.68951272
C       -1.94045522      -0.14327889      -0.48660724
O       -2.16136918      -1.48090654      -0.86046262
H       -1.67735453       1.09976489       2.08366303
H       -0.59644241      -0.65261025       1.11137390
H        2.68351293      -2.45779823      -0.54627800
H        2.17496593       1.56780361      -0.47171626
H       -2.76226737       0.13623077       0.17409465
H       -1.94952374       0.53330447      -1.34666729
H       -1.44754292      -1.73159342      -1.46111241
18
Properties=species:S:1:pos:R:3 relative_energy_eV=-5.681822284135706 branch=right pbc="F F F"
O        0.39606491       2.20813447       0.21202122
C       -0.38379058       1.43991900       0.71942493
O       -1.14376485       1.83604739       1.75426017
C       -0.61134391       0.01380482       0.24502068
O        0.38852434      -0.38822818      -0.68258259
P        1.92090824      -0.51132137      -0.11331948
O        1.97254387      -0.77533853       1.34051759
O        2.51476441      -1.66100000      -1.06419091
O        2.68001862       0.76338762      -0.69363021
C       -1.94172223      -0.14257691      -0.48650866
O       -2.16502865      -1.47982557      -0.85985913
H       -1.68293288       1.10140194       2.07935788
H       -0.59910015      -0.65467537       1.10972899
H        2.69419565      -2.45385135      -0.54300847
H        2.17573154       1.56657713      -0.46836141
H       -2.76307070       0.13903810       0.17400883
H       -1.94915518       0.53300051      -1.34729895
H       -1.44983555      -1.73191598      -1.45752279
18
Properties=species:S:1:pos:R:3 relative_energy_eV=-5.682231108316046 branch=right pbc="F F F"
O        0.40100585       2.20635071       0.21809640
C       -0.38241482       1.43892463       0.72130877
O       -1.14345954       1.83441598       1.75540826
C       -0.61169512       0.01409231       0.24367291
O        0.38831363      -0.38834987      -0.68449987
P        1.92082581      -0.51115390      -0.11521073
O        1.97153568      -0.77282103       1.33916859
O        2.51341239      -1.66288031      -1.06462904
O        2.68075493       0.76292732      -0.69713537
C       -1.94320953      -0.14164725      -0.48665032
O       -2.16840291      -1.47920359      -0.85910180
H       -1.68962118       1.10255649       2.07422003
H       -0.60070996      -0.65537911       1.10732853
H        2.70466966      -2.45031352      -0.54101707
H        2.17732976       1.56489647      -0.46630619
H       -2.76396899       0.14076582       0.17485778
H       -1.95085815       0.53307777      -1.34841189
H       -1.45050058      -1.73368116      -1.45304132
18
Properties=species:S:1:pos:R:3 relative_energy_eV=-5.68270137509171 branch=right pbc="F F F"
O        0.41031500       2.20370400       0.23116987
C       -0.38130047       1.43815479       0.72476161
O       -1.14668465       1.83280768       1.75593852
C       -0.61229566       0.01535254       0.24157662
O        0.38772945      -0.38620647      -0.68751521
P        1.92007478      -0.51128651      -0.11843432
O        1.97147522      -0.76978039       1.33673320
O        2.50772024      -1.66656827      -1.06654831
O        2.68210408       0.76092356      -0.70297754
C       -1.94507134      -0.14060735      -0.48696570
O       -2.17141629      -1.47919734      -0.85672694
H       -1.70305202       1.10404949       2.06476510
H       -0.60082577      -0.65549738       1.10402260
H        2.72148382      -2.44524552      -0.53719507
H        2.18277869       1.56335729      -0.46394549
H       -2.76548576       0.14239057       0.17565029
H       -1.95433371       0.53240236      -1.35068712
H       -1.45020863      -1.73617515      -1.44556440
18
Properties=species:S:1:pos:R:3 relative_energy_eV=-5.682994641534606 branch=right pbc="F F F"
O        0.41571015       2.20459384       0.24214114
C       -0.38243971       1.44016979       0.72654509
O       -1.15063582       1.83307908       1.75623383
C       -0.61341886       0.01849041       0.23988071
O        0.38739898      -0.38359173      -0.68799679
P        1.91966951      -0.51201270      -0.11850516
O        1.97210555      -0.76721463       1.33732099
O        2.50165836      -1.66925066      -1.06738093
O        2.68409415       0.75789245      -0.70479969
C       -1.94625655      -0.14133370      -0.48826647
O       -2.16745536      -1.48084412      -0.85813793
H       -1.71389134       1.10629615       2.05758236
H       -0.59856682      -0.65089457       1.10323691
H        2.72248028      -2.44451024      -0.54173501
H        2.18811755       1.56166606      -0.46488889
H       -2.76752280       0.13632359       0.17568752
H       -1.96006906       0.53212615      -1.35222587
H       -1.43797111      -1.73840704      -1.43663410
18
Properties=species:S:1:pos:R:3 relative_energy_eV=-5.6832981734442 branch=right pbc="F F F"
O        0.41974031       2.20227763       0.24877282
C       -0.38222236       1.43937181       0.72863491
O       -1.15439837       1.83280599       1.75525556
C       -0.61342791       0.01840166       0.24056767
O        0.38654323      -0.38324560      -0.68804005
P        1.91899153      -0.51259570      -0.11995188
O        1.97472342      -0.76735450       1.33577964
O        2.49828272      -1.67054934      -1.06958269
O        2.68268041       0.75653059      -0.70834443
C       -1.94618335      -0.13992705      -0.48795946
O       -2.17030141      -1.48022153      -0.85434489
H       -1.72037425       1.10591524       2.05257948
H       -0.59723246      -0.65103052       1.10418674
H        2.73389430      -2.44225375      -0.54108293
H        2.19051662       1.56212457      -0.46537630
H       -2.76779406       0.14132499       0.17432090
H       -1.95791005       0.53229759      -1.35326130
H       -1.44252124      -1.74129394      -1.43409605
18
Properties=species:S:1:pos:R:3 relative_energy_eV=-5.683434490823856 branch=right pbc="F F F"
O        0.41890864       2.20204007       0.24836502
C       -0.38287228       1.43959858       0.72870655
O       -1.15661504       1.83424558       1.75379118
C       -0.61337225       0.01804904       0.24230729
O        0.38619151      -0.38341611      -0.68607316
P        1.91885537      -0.51302227      -0.11934479
O        1.97644216      -0.76853186       1.33612682
O        2.49732428      -1.66991456      -1.07046471
O        2.68133575       0.75617284      -0.70834426
C       -1.94516157      -0.14032203      -0.48785685
O       -2.16846123      -1.48055309      -0.85392584
H       -1.72055884       1.10623453       2.05268741
H       -0.59619478      -0.65048769       1.10703857
H        2.73137769      -2.44323186      -0.54365850
H        2.19005675       1.56282749      -0.46685010
H       -2.76779789       0.14185742       0.17239475
H       -1.95519076       0.53206673      -1.35275802
H       -1.44126045      -1.74103469      -1.43408361
18
Properties=species:S:1:pos:R:3 relative_energy_eV=-5.683489989613008 branch=right pbc="F F F"
O        0.41937476       2.20174428       0.24976147
C       -0.38323658       1.43979226       0.72937879
O       -1.15894182       1.83535079       1.75270606
C       -0.61348984       0.01810687       0.24365963
O        0.38573879      -0.38343457      -0.68477506
P        1.91869233      -0.51333127      -0.11915414
O        1.97762912      -0.76911587       1.33607695
O        2.49591410      -1.66995275      -1.07151521
O        2.68048166       0.75574395      -0.70884965
C       -1.94463192      -0.14057964      -0.48777672
O       -2.16656955      -1.48078456      -0.85356703
H       -1.72297662       1.10699754       2.05121688
H       -0.59537125      -0.64963495       1.10916899
H        2.73032672      -2.44380593      -0.54614217
H        2.18977590       1.56281854      -0.46803398
H       -2.76809815       0.14198959       0.17070067
H       -1.95345857       0.53191892      -1.35249533
H       -1.43815196      -1.74124504      -1.43230242
18
Properties=species:S:1:pos:R:3 relative_energy_eV=-5.6835476407904935 branch=right pbc="F F F"
O        0.41993262       2.20135377       0.25109264
C       -0.38350092       1.43987323       0.72999126
O       -1.16121754       1.83618742       1.75169492
C       -0.61353357       0.01811277       0.24477315
O        0.38537137      -0.38343967      -0.68384698
P        1.91863598      -0.51356815      -0.11918823
O        1.97815839      -0.76905268       1.33606136
O        2.49471056      -1.67005784      -1.07246691
O        2.68016117       0.75523442      -0.70968402
C       -1.94428445      -0.14080955      -0.48754603
O       -2.16501988      -1.48111840      -0.85362119
H       -1.72576363       1.10782272       2.04931341
H       -0.59500244      -0.64921242       1.11072829
H        2.72961015      -2.44422002      -0.54822034
H        2.18994366       1.56254145      -0.46861686
H       -2.76847961       0.14196615       0.16976371
H       -1.95212456       0.53183404      -1.35202902
H       -1.43459021      -1.74086905      -1.43014141
18
Properties=species:S:1:pos:R:3 relative_energy_eV=-5.683616206610168 branch=right pbc="F F F"
O        0.42079971       2.20078730       0.25274794
C       -0.38369507       1.43996774       0.73097479
O       -1.16395558       1.83738159       1.75059401
C       -0.61369812       0.01818115       0.24619686
O        0.38475339      -0.38362588      -0.68292628
P        1.91851184      -0.51379926      -0.11936549
O        1.97832388      -0.76862107       1.33594299
O        2.49359600      -1.67020428      -1.07372549
O        2.68001351       0.75461451      -0.71075589
C       -1.94404822      -0.14104325      -0.48705840
O       -2.16260272      -1.48143469      -0.85391443
H       -1.72985375       1.10938735       2.04665237
H       -0.59504417      -0.64888219       1.11236685
H        2.72860333      -2.44518118      -0.55104430
H        2.18981060       1.56174301      -0.46932349
H       -2.76928272       0.14149310       0.16883548
H       -1.95063974       0.53179158      -1.35139027
H       -1.42858504      -1.73997732      -1.42674948
18
Properties=species:S:1:pos:R:3 relative_energy_eV=-5.683670121772593 branch=right pbc="F F F"
O        0.42101138       2.20068925       0.25320320
C       -0.38393621       1.44019721       0.73135086
O       -1.16562291       1.83817983       1.74984856
C       -0.61374119       0.01828194       0.24700994
O        0.38442925      -0.38385693      -0.68248347
P        1.91859533      -0.51395633      -0.11937948
O        1.97805596      -0.76821092       1.33605734
O        2.49353868      -1.66997671      -1.07442698
O        2.68028971       0.75426669      -0.71114151
C       -1.94396350      -0.14116294      -0.48660350
O       -2.16068944      -1.48170403      -0.85469602
H       -1.73212598       1.11049242       2.04515080
H       -0.59541687      -0.64889506       1.11305459
H        2.72658981      -2.44644022      -0.55294091
H        2.18957820       1.56108374      -0.46982181
H       -2.77001338       0.14045560       0.16883102
H       -1.95016346       0.53195977      -1.35070341
H       -1.42340822      -1.73882503      -1.42425147
18
Properties=species:S:1:pos:R:3 relative_energy_eV=-5.683709567736514 branch=right pbc="F F F"
O        0.42046682       2.20123188       0.25273429
C       -0.38428630       1.44071581       0.73132492
O       -1.16627065       1.83895227       1.74952881
C       -0.61378206       0.01855681       0.24740217
O        0.38431196      -0.38403338      -0.68229412
P        1.91875560      -0.51408457      -0.11918156
O        1.97779450      -0.76820707       1.33630516
O        2.49441948      -1.66944714      -1.07469771
O        2.68069685       0.75414989      -0.71073088
C       -1.94393532      -0.14128061      -0.48624919
O       -2.15867834      -1.48186060      -0.85577875
H       -1.73284430       1.11144439       2.04494194
H       -0.59587970      -0.64890828       1.11312779
H        2.72322245      -2.44832016      -0.55438323
H        2.18884344       1.56051837      -0.47049303
H       -2.77067328       0.13863798       0.16927418
H       -1.95045409       0.53224077      -1.35016412
H       -1.41869988      -1.73772806      -1.42260891
18
Properties=species:S:1:pos:R:3 relative_energy_eV=-5.683738839485159 branch=right pbc="F F F"
O        0.41964492       2.20202643       0.25184594
C       -0.38470122       1.44126840       0.73085929
O       -1.16627935       1.83935756       1.74934702
C       -0.61376813       0.01881009       0.24739798
O        0.38443207      -0.38418401      -0.68217044
P        1.91902228      -0.51419659      -0.11881045
O        1.97788768      -0.76861853       1.33662045
O        2.49561604      -1.66877572      -1.07456719
O        2.68090787       0.75424330      -0.70999859
C       -1.94392463      -0.14134108      -0.48615856
O       -2.15747687      -1.48189053      -0.85689137
H       -1.73208865       1.11167976       2.04555887
H       -0.59607976      -0.64877077       1.11298734
H        2.71978029      -2.44995033      -0.55510757
H        2.18815774       1.56042836      -0.47109497
H       -2.77103433       0.13700512       0.16984637
H       -1.95121651       0.53269578      -1.34973723
H       -1.41587226      -1.73720893      -1.42186916
18
Properties=species:S:1:pos:R:3 relative_energy_eV=-5.683750901956955 branch=right pbc="F F F"
O        0.41900797       2.20267596       0.25133479
C       -0.38501688       1.44169082       0.73050270
O       -1.16613364       1.83965356       1.74926054
C       -0.61378100       0.01901361       0.24733997
O        0.38456435      -0.38429382      -0.68196336
P        1.91921611      -0.51431638      -0.11854976
O        1.97836173      -0.76915927       1.33679319
O        2.49653133      -1.66831839      -1.07441386
O        2.68075005       0.75433367      -0.70958996
C       -1.94387724      -0.14137745      -0.48623535
O       -2.15678917      -1.48177749      -0.85768572
H       -1.73142188       1.11175978       2.04613173
H       -0.59611541      -0.64848910       1.11299880
H        2.71742648      -2.45107478      -0.55558375
H        2.18753487       1.56046837      -0.47152196
H       -2.77111368       0.13589643       0.17015402
H       -1.95177948       0.53313831      -1.34952126
H       -1.41435733      -1.73724552      -1.42139300
18
Properties=species:S:1:pos:R:3 relative_energy_eV=-5.6837738800059014 branch=right pbc="F F F"
O        0.41865915       2.20300321       0.25099860
C       -0.38525748       1.44189915       0.73014191
O       -1.16609361       1.83975770       1.74905816
C       -0.61383322       0.01907572       0.24728861
O        0.38462973      -0.38454146      -0.68169886
P        1.91935981      -0.51441194      -0.11836780
O        1.97887903      -0.76951964       1.33688356
O        2.49724289      -1.66802817      -1.07420946
O        2.68030641       0.75440027      -0.70963830
C       -1.94387526      -0.14136823      -0.48638558
O       -2.15656619      -1.48154027      -0.85846296
H       -1.73076204       1.11157474       2.04645404
H       -0.59610137      -0.64810967       1.11321837
H        2.71597757      -2.45178290      -0.55586972
H        2.18719376       1.56062912      -0.47159624
H       -2.77106277       0.13525321       0.17035067
H       -1.95224818       0.53375754      -1.34920893
H       -1.41344104      -1.73747011      -1.42089834
18
Properties=species:S:1:pos:R:3 relative_energy_eV=-5.683780930670764 branch=right pbc="F F F"
O        0.41855561       2.20303735       0.25086571
C       -0.38535614       1.44193939       0.72997258
O       -1.16617340       1.83990837       1.74881002
C       -0.61390841       0.01905259       0.24735937
O        0.38458902      -0.38488068      -0.68133118
P        1.91942353      -0.51452769      -0.11835222
O        1.97937742      -0.76965860       1.33688385
O        2.49775438      -1.66794699      -1.07410022
O        2.67956413       0.75440296      -0.71023558
C       -1.94384123      -0.14134525      -0.48654925
O       -2.15635318      -1.48122903      -0.85924792
H       -1.73068569       1.11157418       2.04645457
H       -0.59625083      -0.64773008       1.11365066
H        2.71526026      -2.45227433      -0.55617880
H        2.18682663       1.56065086      -0.47135831
H       -2.77089195       0.13482027       0.17046477
H       -1.95246999       0.53446283      -1.34884899
H       -1.41241298      -1.73767785      -1.42020132
18
Properties=species:S:1:pos:R:3 relative_energy_eV=-5.683790447532374 branch=right pbc="F F F"
O        0.41862488       2.20277685       0.25058753
C       -0.38537343       1.44181217       0.72979473
O       -1.16631432       1.83998628       1.74850233
C       -0.61404300       0.01894401       0.24744080
O        0.38440526      -0.38535105      -0.68105032
P        1.91938037      -0.51459207      -0.11840716
O        1.97946697      -0.76932179       1.33688550
O        2.49814441      -1.66805794      -1.07391612
O        2.67875887       0.75431453      -0.71120164
C       -1.94389758      -0.14131760      -0.48666528
O       -2.15610174      -1.48090722      -0.86022539
H       -1.73058419       1.11156677       2.04640123
H       -0.59654585      -0.64735824       1.11410693
H        2.71503077      -2.45264254      -0.55626862
H        2.18675233       1.56059750      -0.47066585
H       -2.77075156       0.13434972       0.17068986
H       -1.95282203       0.53531682      -1.34829993
H       -1.41112302      -1.73753793      -1.41965088
18
Properties=species:S:1:pos:R:3 relative_energy_eV=-5.683804827800486 branch=right pbc="F F F"
O        0.41884901       2.20239832       0.25036699
C       -0.38525619       1.44165022       0.72979616
O       -1.16637544       1.84017198       1.74831557
C       -0.61415650       0.01886818       0.24754706
O        0.38416797      -0.38570332      -0.68086063
P        1.91924826      -0.51465126      -0.11854555
O        1.97926829      -0.76876519       1.33690145
O        2.49822577      -1.66832246      -1.07381979
O        2.67807135       0.75417562      -0.71219264
C       -1.94392209      -0.14133301      -0.48672666
O       -2.15560979      -1.48076773      -0.86107520
H       -1.73086378       1.11192456       2.04639634
H       -0.59698693      -0.64714388       1.11442805
H        2.71517826      -2.45284131      -0.55619778
H        2.18665460       1.56035725      -0.46990313
H       -2.77067345       0.13377734       0.17092923
H       -1.95311841       0.53590433      -1.34788206
H       -1.40969379      -1.73712138      -1.41941970
18
Properties=species:S:1:pos:R:3 relative_energy_eV=-5.683817978064326 branch=right pbc="F F F"
O        0.41900315       2.20210222       0.25002337
C       -0.38518500       1.44156491       0.72973205
O       -1.16631754       1.84035057       1.74822254
C       -0.61428970       0.01886747       0.24756696
O        0.38392090      -0.38591095      -0.68086162
P        1.91905411      -0.51464750      -0.11860602
O        1.97880499      -0.76809911       1.33698196
O        2.49811387      -1.66861708      -1.07363935
O        2.67773666       0.75398869      -0.71281130
C       -1.94401573      -0.14141689      -0.48672079
O       -2.15498943      -1.48081992      -0.86180980
H       -1.73071180       1.11227517       2.04670987
H       -0.59732434      -0.64698390       1.11451348
H        2.71523211      -2.45299031      -0.55585885
H        2.18683866       1.56016002      -0.46920588
H       -2.77076069       0.13296881       0.17120049
H       -1.95362997       0.53623758      -1.34754777
H       -1.40847312      -1.73645151      -1.41983163
18
Properties=species:S:1:pos:R:3 relative_energy_eV=-5.683820828282478 branch=right pbc="F F F"
O        0.41921611       2.20191673       0.24988537
C       -0.38511495       1.44160220       0.72976324
O       -1.16621818       1.84069996       1.74818113
C       -0.61439706       0.01895868       0.24761877
O        0.38371396      -0.38594747      -0.68082567
P        1.91885041      -0.51466779      -0.11863841
O        1.97849588      -0.76764439       1.33706661
O        2.49773957      -1.66889869      -1.07354242
O        2.67750937       0.75382437      -0.71316389
C       -1.94404132      -0.14158714      -0.48671690
O       -2.15417497      -1.48107015      -0.86239342
H       -1.73071834       1.11289205       2.04710953
H       -0.59760480      -0.64687490       1.11453797
H        2.71514587      -2.45306202      -0.55549138
H        2.18689224       1.55996208      -0.46881143
H       -2.77094501       0.13201660       0.17136428
H       -1.95406499       0.53626099      -1.34739199
H       -1.40727666      -1.73580283      -1.42049366
18
Properties=species:S:1:pos:R:3 relative_energy_eV=-5.683830929989199 branch=right pbc="F F F"
O        0.41940251       2.20184509       0.24984664
C       -0.38514549       1.44177651       0.72975296
O       -1.16619579       1.84119863       1.74805552
C       -0.61455300       0.01913268       0.24769971
O        0.38347428      -0.38592138      -0.68076166
P        1.91860524      -0.51468365      -0.11861367
O        1.97831540      -0.76727955       1.33715255
O        2.49716427      -1.66920538      -1.07339932
O        2.67734843       0.75360133      -0.71337853
C       -1.94409810      -0.14186611      -0.48668606
O       -2.15308614      -1.48144104      -0.86308715
H       -1.73052476       1.11359959       2.04758996
H       -0.59778866      -0.64668896       1.11458248
H        2.71473117      -2.45319102      -0.55503706
H        2.18710259       1.55984663      -0.46853867
H       -2.77125497       0.13067582       0.17150517
H       -1.95464893       0.53620475      -1.34718198
H       -1.40584092      -1.73502568      -1.42144319
18
Properties=species:S:1:pos:R:3 relative_energy_eV=-5.683835700525378 branch=right pbc="F F F"
O        0.41976929       2.20181956       0.25019373
C       -0.38520375       1.44205925       0.72984373
O       -1.16637753       1.84193801       1.74777209
C       -0.61472444       0.01935005       0.24791322
O        0.38321534      -0.38586431      -0.68052021
P        1.91834970      -0.51475103      -0.11859702
O        1.97850171      -0.76719794       1.33716123
O        2.49634048      -1.66952719      -1.07334236
O        2.67705384       0.75338617      -0.71361287
C       -1.94410348      -0.14224302      -0.48665058
O       -2.15175197      -1.48189740      -0.86388218
H       -1.73069950       1.11457963       2.04780703
H       -0.59794145      -0.64647364       1.11477789
H        2.71415169      -2.45329994      -0.55467056
H        2.18717650       1.55977185      -0.46854766
H       -2.77164404       0.12913123       0.17156657
H       -1.95512501       0.53608731      -1.34691839
H       -1.40398027      -1.73429031      -1.42223596
18
Properties=species:S:1:pos:R:3 relative_energy_eV=-5.683845337731327 branch=right pbc="F F F"
O        0.42018676       2.20183995       0.25081360
C       -0.38530759       1.44238012       0.72996417
O       -1.16683585       1.84272569       1.74729980
C       -0.61490296       0.01954541       0.24821328
O        0.38293050      -0.38585312      -0.68021551
P        1.91810111      -0.51484671      -0.11861989
O        1.97892346      -0.76727631       1.33707425
O        2.49545973      -1.66987908      -1.07330327
O        2.67669673       0.75312811      -0.71396172
C       -1.94413193      -0.14262717      -0.48654628
O       -2.15042736      -1.48224931      -0.86475142
H       -1.73109837       1.11551176       2.04759384
H       -0.59802738      -0.64626106       1.11509791
H        2.71362031      -2.45341071      -0.55438673
H        2.18733724       1.55975313      -0.46870081
H       -2.77200812       0.12756015       0.17168378
H       -1.95553784       0.53611709      -1.34645015
H       -1.40197132      -1.73357965      -1.42274714
18
Properties=species:S:1:pos:R:3 relative_energy_eV=-5.683846470299613 branch=right pbc="F F F"
O        0.42077359       2.20180156       0.25169106
C       -0.38534639       1.44262026       0.73017060
O       -1.16751555       1.84344953       1.74669823
C       -0.61503015       0.01963265       0.24858186
O        0.38265798      -0.38593365      -0.67987869
P        1.91789578      -0.51498994      -0.11872246
O        1.97949518      -0.76751116       1.33687582
O        2.49465129      -1.67024768      -1.07332995
O        2.67623486       0.75290227      -0.71447649
C       -1.94414522      -0.14292353      -0.48637375
O       -2.14939420      -1.48239860      -0.86557602
H       -1.73198167       1.11636196       2.04683017
H       -0.59808659      -0.64617025       1.11549773
H        2.71353849      -2.45340800      -0.55421509
H        2.18737366       1.55972611      -0.46904245
H       -2.77226990       0.12632472       0.17191090
H       -1.95573542       0.53634840      -1.34581218
H       -1.40010865      -1.73300634      -1.42277158
18
Properties=species:S:1:pos:R:3 relative_energy_eV=-5.683861747238552 branch=right pbc="F F F"
O        0.42139024       2.20172617       0.25260975
C       -0.38531513       1.44276413       0.73038907
O       -1.16836639       1.84403707       1.74598814
C       -0.61509504       0.01960644       0.24895814
O        0.38237098      -0.38611590      -0.67964705
P        1.91770196      -0.51518059      -0.11890787
O        1.97997040      -0.76768234       1.33662389
O        2.49398122      -1.67071954      -1.07331907
O        2.67577766       0.75259750      -0.71517886
C       -1.94420205      -0.14309558      -0.48605451
O       -2.14865860      -1.48227109      -0.86643512
H       -1.73312328       1.11702344       2.04563410
H       -0.59809249      -0.64622548       1.11588710
H        2.71404423      -2.45333284      -0.55399219
H        2.18746349       1.55962421      -0.46945423
H       -2.77238302       0.12524724       0.17245861
H       -1.95594389       0.53691317      -1.34486177
H       -1.39851321      -1.73233767      -1.42264041
18
Properties=species:S:1:pos:R:3 relative_energy_eV=-5.683874563961581 branch=right pbc="F F F"
O        0.42216373       2.20154273       0.25349672
C       -0.38515333       1.44278199       0.73061640
O       -1.16933259       1.84454734       1.74515359
C       -0.61507770       0.01943491       0.24935136
O        0.38205672      -0.38643212      -0.67952300
P        1.91749852      -0.51545872      -0.11915343
O        1.98026280      -0.76774885       1.33635816
O        2.49342479      -1.67136428      -1.07323042
O        2.67528770       0.75220613      -0.71606130
C       -1.94428807      -0.14314955      -0.48554714
O       -2.14818134      -1.48186036      -0.86748079
H       -1.73459045       1.11763990       2.04408333
H       -0.59801586      -0.64646070       1.11625563
H        2.71531724      -2.45314254      -0.55357953
H        2.18742512       1.55937354      -0.47006620
H       -2.77237780       0.12417137       0.17348678
H       -1.95626632       0.53790301      -1.34348623
H       -1.39714612      -1.73140546      -1.42261621
18
Properties=species:S:1:pos:R:3 relative_energy_eV=-5.683899119972921 branch=right pbc="F F F"
O        0.42289300       2.20129926       0.25402412
C       -0.38487452       1.44269770       0.73074023
O       -1.17026861       1.84497688       1.74423805
C       -0.61495717       0.01913807       0.24970755
O        0.38172126      -0.38686633      -0.67959438
P        1.91727825      -0.51583989      -0.11939700
O        1.98016901      -0.76753567       1.33620540
O        2.49304876      -1.67224892      -1.07293658
O        2.67491532       0.75161533      -0.71700872
C       -1.94444534      -0.14308856      -0.48477822
O       -2.14787591      -1.48113059      -0.86886929
H       -1.73604007       1.11818688       2.04247863
H       -0.59777125      -0.64684567       1.11654786
H        2.71730439      -2.45292588      -0.55278891
H        2.18729910       1.55888479      -0.47090514
H       -2.77222498       0.12273607       0.17522081
H       -1.95703073       0.53943129      -1.34152378
H       -1.39613353      -1.72990642      -1.42330284
18
Properties=species:S:1:pos:R:3 relative_energy_eV=-5.683913821434544 branch=right pbc="F F F"
O        0.42349953       2.20096635       0.25391774
C       -0.38453962       1.44253480       0.73067711
O       -1.17088684       1.84537808       1.74340267
C       -0.61476247       0.01876528       0.24999590
O        0.38144727      -0.38735397      -0.67975942
P        1.91709675      -0.51628406      -0.11949092
O        1.97973890      -0.76710125       1.33628871
O        2.49288820      -1.67324562      -1.07242550
O        2.67474840       0.75093345      -0.71771805
C       -1.94463667      -0.14299828      -0.48386557
O       -2.14763065      -1.48026928      -0.87059023
H       -1.73713111       1.11877796       2.04134043
H       -0.59731730      -0.64723290       1.11678886
H        2.71951657      -2.45275634      -0.55163744
H        2.18686248       1.55819457      -0.47206337
H       -2.77204217       0.12085943       0.17745829
H       -1.95830359       0.54129046      -1.33920410
H       -1.39554077      -1.72788035      -1.42505733
18
Properties=species:S:1:pos:R:3 relative_energy_eV=-5.683942959207343 branch=right pbc="F F F"
O        0.42368594       2.20064196       0.25307594
C       -0.38431259       1.44240642       0.73037907
O       -1.17102585       1.84578682       1.74280010
C       -0.61455511       0.01845614       0.25020651
O        0.38131702      -0.38774696      -0.67987830
P        1.91703481      -0.51669843      -0.11934372
O        1.97921371      -0.76655932       1.33666524
O        2.49290730      -1.67415586      -1.07177108
O        2.67492431       0.75023912      -0.71794437
C       -1.94484287      -0.14298945      -0.48297407
O       -2.14720494      -1.47952263      -0.87246356
H       -1.73753058       1.11941763       2.04099867
H       -0.59671349      -0.64740245       1.11705345
H        2.72107187      -2.45281134      -0.55035164
H        2.18621269       1.55741999      -0.47341759
H       -2.77189979       0.11851469       0.17976518
H       -1.96005591       0.54310822      -1.33688147
H       -1.39521970      -1.72552626      -1.42786051
18
Properties=species:S:1:pos:R:3 relative_energy_eV=-5.683967896220565 branch=right pbc="F F F"
O        0.42367498       2.20024585       0.25199113
C       -0.38430465       1.44235907       0.72999134
O       -1.17087637       1.84634371       1.74239162
C       -0.61444723       0.01827217       0.25047028
O        0.38133051      -0.38800639      -0.67966885
P        1.91713138      -0.51701069      -0.11898704
O        1.97912853      -0.76621055       1.33717640
O        2.49285802      -1.67483808      -1.07120219
O        2.67527426       0.74970532      -0.71779404
C       -1.94501405      -0.14318675      -0.48228112
O       -2.14634940      -1.47913375      -0.87432612
H       -1.73769378       1.12033379       2.04113196
H       -0.59613603      -0.64721612       1.11754538
H        2.72148028      -2.45309243      -0.54927344
H        2.18537248       1.55674200      -0.47489357
H       -2.77198786       0.11594268       0.18159649
H       -1.96190780       0.54455336      -1.33489740
H       -1.39452648      -1.72322489      -1.43091297
18
Properties=species:S:1:pos:R:3 relative_energy_eV=-5.683986334963265 branch=right pbc="F F F"
O        0.42356718       2.19976424       0.25114390
C       -0.38452676       1.44239978       0.72966539
O       -1.17074512       1.84705646       1.74203895
C       -0.61447405       0.01821720       0.25087804
O        0.38141716      -0.38816101      -0.67907640
P        1.91736848      -0.51720647      -0.11857803
O        1.97974568      -0.76612805       1.33763923
O        2.49257184      -1.67532311      -1.07084584
O        2.67565008       0.74931316      -0.71760158
C       -1.94516980      -0.14357261      -0.48177865
O       -2.14499190      -1.47907838      -0.87609251
H       -1.73815329       1.12155117       2.04107654
H       -0.59576705      -0.64673335       1.11834434
H        2.72084790      -2.45355715      -0.54858099
H        2.18462229       1.55621948      -0.47630672
H       -2.77228117       0.11332034       0.18283810
H       -1.96366157       0.54561359      -1.33323523
H       -1.39301319      -1.72111698      -1.43347065
18
Properties=species:S:1:pos:R:3 relative_energy_eV=-5.684004870221543 branch=right pbc="F F F"
O        0.42374213       2.19913991       0.25106640
C       -0.38485044       1.44242713       0.72959412
O       -1.17090976       1.84782368       1.74163289
C       -0.61464672       0.01818900       0.25145007
O        0.38146005      -0.38832925      -0.67819465
P        1.91763821      -0.51729074      -0.11832539
O        1.98104212      -0.76631057       1.33781526
O        2.49195882      -1.67567347      -1.07080267
O        2.67575453       0.74911592      -0.71778143
C       -1.94530121      -0.14403569      -0.48147094
O       -2.14342444      -1.47924034      -0.87753653
H       -1.73943526       1.12298675       2.04023786
H       -0.59577028      -0.64621230       1.11935415
H        2.71991951      -2.45394305      -0.54834566
H        2.18413629       1.55592781      -0.47738271
H       -2.77275524       0.11123715       0.18340798
H       -1.96486507       0.54629959      -1.33199874
H       -1.39068653      -1.71953319      -1.43466208
18
Properties=species:S:1:pos:R:3 relative_energy_eV=-5.684012579073169 branch=right pbc="F F F"
O        0.42404179       2.19864553       0.25155780
C       -0.38503703       1.44237343       0.72974556
O       -1.17123645       1.84824735       1.74130919
C       -0.61481708       0.01811878       0.25190496
O        0.38141456      -0.38852278      -0.67755960
P        1.91779570      -0.51729867      -0.11834993
O        1.98219270      -0.76647868       1.33769643
O        2.49139492      -1.67590009      -1.07093492
O        2.67559128       0.74904772      -0.71831210
C       -1.94540462      -0.14428741      -0.48131331
O       -2.14244950      -1.47933655      -0.87823387
H       -1.74091824       1.12396273       2.03893330
H       -0.59606390      -0.64602134       1.12005521
H        2.71959565      -2.45404609      -0.54840330
H        2.18411718       1.55584502      -0.47776081
H       -2.77307763       0.11036308       0.18352947
H       -1.96529610       0.54664867      -1.33133553
H       -1.38883654      -1.71878234      -1.43447062
