17
Properties=species:S:1:pos:R:3 relative_energy_eV=3.1754098294768482 branch=ts pbc="F F F"
O       -1.92546051      -2.28797548      -0.14812084
C       -2.44092862      -1.28292672      -0.56197713
C       -1.78767716       0.51568889       0.33281272
O       -1.81960236       1.44672695      -0.61301712
C       -0.46104912       0.07891000       0.77198789
O        0.43469214       0.21169940      -0.41368141
P        2.03544630       0.27744691      -0.24023932
O        2.72880801       0.47609878      -1.52783906
O        2.41095057      -1.03690302       0.61520382
O        2.25136797       1.40371505       0.90154122
H       -2.66715606      -0.99517046      -1.59257333
H       -2.77337045      -0.35481907       0.27535756
H       -0.93102752       1.44002889      -1.03626356
H       -0.06122972       0.71058548       1.56884281
H       -0.46194326      -0.96038274       1.08981467
H        2.84493897      -1.69669613       0.06004208
H        2.67262780       2.18751295       0.52743805
