17
Properties=species:S:1:pos:R:3 relative_energy_eV=0.3522617900453042 branch=ts pbc="F F F"
O        1.55306820       1.08113286      -0.55952639
C        1.39927017      -0.19764290      -0.41196501
C        0.02663464      -0.64413432      -0.03752119
O       -0.92571935      -0.40727494      -1.09922851
P       -2.37640868       0.18855698      -0.74839423
O       -3.17683264       0.50470870      -1.94609978
O       -3.00791948      -0.89196950       0.27760420
O       -2.05065490       1.40301371       0.27552352
C        3.08717213      -0.42979457       0.99299569
O        3.72398444       0.60221460       0.88582268
H        0.06366386      -1.71796775       0.11281218
H       -0.28794905      -0.16559074       0.89717845
H       -3.83256123      -1.24167502      -0.08359083
H       -2.22317330       2.25532251      -0.14387820
H        2.67142763      -0.87660526      -0.00369735
H        2.84598589      -0.88354623       1.96254752
H        2.50930722       1.32106070      -0.41565144
