17
Properties=species:S:1:pos:R:3 relative_energy_eV=0.0 branch=left pbc="F F F"
O       -1.42263983      -2.20609627       0.05028692
C       -2.05252981      -1.26283548      -0.36410667
C       -1.84151444       0.17646591       0.07425633
O       -2.13442975       1.07088032      -0.98290675
C       -0.46908497       0.40961092       0.65849053
O        0.44271617       0.35439514      -0.46159832
P        2.02542544       0.16181713      -0.24817725
O        2.76380240       0.12266599      -1.52416054
O        2.14802017      -1.11888967       0.72334310
O        2.42450529       1.33651538       0.78534732
H       -2.87523104      -1.37701924      -1.09588346
H       -2.59005118       0.36883667       0.85295996
H       -1.35359750       1.08436382      -1.55551739
H       -0.41016770       1.39641626       1.11086983
H       -0.21468896      -0.35293221       1.38754491
H        2.40839308      -1.90853668       0.23159758
H        3.07366299       1.92697563       0.38228909
17
Properties=species:S:1:pos:R:3 relative_energy_eV=7.690944039495662e-05 branch=left pbc="F F F"
O       -1.41786395      -2.20614813       0.04543965
C       -2.04985185      -1.26264241      -0.36529863
C       -1.84205593       0.17672854       0.07537080
O       -2.13549971       1.07106995      -0.98215443
C       -0.46961775       0.41123904       0.65909065
O        0.44148648       0.35656104      -0.46142515
P        2.02377702       0.16074365      -0.24864251
O        2.76233637       0.12131453      -1.52454612
O        2.14243784      -1.11948877       0.72363364
O        2.42565138       1.33470798       0.78456073
H       -2.87329332      -1.37577337      -1.09604155
H       -2.59159898       0.36796772       0.85365960
H       -1.35440023       1.08416909      -1.55430151
H       -0.41023472       1.39746025       1.11261357
H       -0.21423036      -0.35144864       1.38734296
H        2.41197797      -1.90862584       0.23627365
H        3.07357011       1.92479888       0.37905990
17
Properties=species:S:1:pos:R:3 relative_energy_eV=0.00014794857634115033 branch=left pbc="F F F"
O       -1.41620654      -2.20544569       0.04585672
C       -2.04816784      -1.26250414      -0.36566913
C       -1.84225135       0.17722683       0.07570234
O       -2.13642485       1.07157362      -0.98164491
C       -0.47018119       0.41198500       0.65978676
O        0.44098772       0.35972058      -0.46089931
P        2.02301489       0.16056140      -0.24840266
O        2.76095219       0.11883243      -1.52459499
O        2.13910366      -1.12068021       0.72242955
O        2.42838726       1.33368507       0.78532762
H       -2.87022744      -1.37671647      -1.09797249
H       -2.59269614       0.36756175       0.85342475
H       -1.35541508       1.08601078      -1.55398350
H       -0.41224680       1.39763675       1.11440898
H       -0.21456992      -0.35169628       1.38700630
H        2.41556220      -1.90956020       0.23846312
H        3.07296964       1.92444224       0.37539616
17
Properties=species:S:1:pos:R:3 relative_energy_eV=0.0002770568316918798 branch=left pbc="F F F"
O       -1.40836455      -2.20221708       0.04003984
C       -2.04729168      -1.26194191      -0.36713453
C       -1.84324384       0.17697106       0.07560286
O       -2.13703594       1.07236822      -0.98056833
C       -0.47168009       0.41290445       0.66019101
O        0.43999244       0.36300702      -0.46022379
P        2.02124094       0.15867603      -0.24771234
O        2.75926376       0.11316492      -1.52368377
O        2.13294039      -1.12292939       0.72317663
O        2.43042184       1.33249118       0.78398362
H       -2.87140950      -1.37914723      -1.09667114
H       -2.59264806       0.36659838       0.85414964
H       -1.35460507       1.08880767      -1.55119084
H       -0.41637617       1.39908372       1.11441361
H       -0.21376174      -0.35052017       1.38697035
H        2.42189839      -1.90862688       0.24120260
H        3.07324929       1.92394334       0.37208993
17
Properties=species:S:1:pos:R:3 relative_energy_eV=0.00035507398933987133 branch=left pbc="F F F"
O       -1.40433054      -2.20072266       0.03712952
C       -2.04648387      -1.26160370      -0.36769136
C       -1.84402404       0.17720590       0.07552573
O       -2.13872546       1.07201499      -0.98137134
C       -0.47196559       0.41347834       0.65913402
O        0.44036083       0.36430786      -0.46035470
P        2.02123635       0.15744311      -0.24731644
O        2.75977473       0.11067674      -1.52301553
O        2.12986952      -1.12385266       0.72455949
O        2.43121339       1.33167911       0.78306520
H       -2.87308601      -1.37969461      -1.09438277
H       -2.59295406       0.36585622       0.85516132
H       -1.35459145       1.09051614      -1.54903615
H       -0.41693296       1.39893998       1.11441948
H       -0.21444066      -0.35021351       1.38541600
H        2.42428601      -1.90718383       0.24213539
H        3.07338425       1.92378585       0.37125753
17
Properties=species:S:1:pos:R:3 relative_energy_eV=0.0004512375599006191 branch=left pbc="F F F"
O       -1.40124593      -2.20045965       0.03482312
C       -2.04475825      -1.26161419      -0.36809084
C       -1.84391842       0.17783396       0.07532277
O       -2.14004191       1.07185571      -0.98216710
C       -0.47235428       0.41449146       0.65970331
O        0.44058277       0.36564295      -0.45932292
P        2.02115613       0.15657131      -0.24689645
O        2.75971344       0.10590024      -1.52254833
O        2.12816440      -1.12456019       0.72504967
O        2.43238213       1.33099890       0.78277605
H       -2.87386857      -1.38052263      -1.09217683
H       -2.59432794       0.36499577       0.85421671
H       -1.35553855       1.09348468      -1.54903873
H       -0.41749967       1.39937235       1.11596278
H       -0.21644528      -0.34981292       1.38592981
H        2.42742194      -1.90515117       0.24125846
H        3.07316849       1.92360669       0.36983389
17
Properties=species:S:1:pos:R:3 relative_energy_eV=0.0005806757581012789 branch=left pbc="F F F"
O       -1.39675277      -2.20027861       0.02937059
C       -2.04381586      -1.26174111      -0.36890440
C       -1.84358026       0.17758995       0.07521166
O       -2.13920217       1.07212755      -0.98158278
C       -0.47335907       0.41567870       0.66187888
O        0.43925252       0.36542829      -0.45768566
P        2.01957044       0.15577695      -0.24662457
O        2.75778793       0.10052023      -1.52224886
O        2.12710948      -1.12516675       0.72492388
O        2.43192224       1.33112217       0.78189995
H       -2.87507150      -1.38093263      -1.09022885
H       -2.59531345       0.36441278       0.85229031
H       -1.35496453       1.09485889      -1.54927532
H       -0.41845207       1.40154151       1.11712769
H       -0.21722124      -0.34767233       1.38939325
H        2.43114746      -1.90342915       0.24034256
H        3.07353342       1.92279681       0.36874703
17
Properties=species:S:1:pos:R:3 relative_energy_eV=0.0007868959728511982 branch=left pbc="F F F"
O       -1.39279217      -2.19914121       0.02648932
C       -2.04265142      -1.26155673      -0.36976893
C       -1.84492624       0.17739874       0.07531656
O       -2.13877397       1.07142707      -0.98256231
C       -0.47515947       0.41698431       0.66336644
O        0.43727812       0.36455157      -0.45581984
P        2.01763400       0.15424537      -0.24579749
O        2.75325627       0.09907094      -1.52273240
O        2.12889830      -1.12788556       0.72468632
O        2.42983394       1.33273716       0.77956983
H       -2.87338525      -1.38001302      -1.09060859
H       -2.59821544       0.36408153       0.85041553
H       -1.35165426       1.09571322      -1.54576512
H       -0.41722424       1.40301032       1.11789268
H       -0.21967426      -0.34434262       1.39310555
H        2.43542318      -1.90529806       0.23966912
H        3.07472352       1.92165016       0.36717868
17
Properties=species:S:1:pos:R:3 relative_energy_eV=0.0012244656245457008 branch=left pbc="F F F"
O       -1.38563301      -2.19669214       0.01868860
C       -2.03984771      -1.26053785      -0.37165658
C       -1.84631320       0.17943453       0.07592004
O       -2.13902920       1.07216085      -0.98418012
C       -0.47711294       0.41822103       0.66548635
O        0.43722466       0.36232022      -0.45135302
P        2.01761053       0.15193896      -0.24501029
O        2.74951762       0.09927920      -1.52425486
O        2.13399480      -1.13044004       0.72542869
O        2.42778421       1.33398886       0.77708070
H       -2.87712927      -1.38324158      -1.08516306
H       -2.60368034       0.36340999       0.84942457
H       -1.34999058       1.09992199      -1.54507502
H       -0.41984302       1.40555516       1.11582164
H       -0.22321527      -0.34222921       1.39663915
H        2.44101155      -1.90848712       0.24147883
H        3.07724182       1.91803031       0.36535974
17
Properties=species:S:1:pos:R:3 relative_energy_eV=0.0019041019986616448 branch=left pbc="F F F"
O       -1.36877291      -2.19119289      -0.00145993
C       -2.04043708      -1.25894568      -0.37328627
C       -1.84781040       0.17955176       0.07638330
O       -2.13755372       1.07258745      -0.98406659
C       -0.47950883       0.41945205       0.66799511
O        0.43486143       0.35188947      -0.44792921
P        2.01603494       0.14965160      -0.24606706
O        2.74597230       0.09994276      -1.52679449
O        2.13894971      -1.12918937       0.72715877
O        2.42254127       1.33396420       0.77441813
H       -2.88737748      -1.38577891      -1.07479168
H       -2.60630703       0.36398110       0.84792334
H       -1.34597736       1.10190233      -1.54173739
H       -0.42519383       1.41145581       1.11107399
H       -0.22551015      -0.33682813       1.40362035
H        2.44716566      -1.90874811       0.24705519
H        3.08151422       1.90893769       0.36513976
17
Properties=species:S:1:pos:R:3 relative_energy_eV=0.0023627260598004796 branch=left pbc="F F F"
O       -1.35803782      -2.18704899      -0.01398464
C       -2.04066321      -1.25832682      -0.37406244
C       -1.84940327       0.17908505       0.07630891
O       -2.13954813       1.07209121      -0.98446044
C       -0.48087245       0.41906650       0.66619015
O        0.43292493       0.34764078      -0.45063468
P        2.01521267       0.14906724      -0.24605570
O        2.74593924       0.10119930      -1.52642029
O        2.14194450      -1.12747938       0.72997834
O        2.42314159       1.33261599       0.77490749
H       -2.89443735      -1.38504396      -1.06627293
H       -2.60632663       0.36527091       0.84785523
H       -1.34654716       1.10067729      -1.53892402
H       -0.42468827       1.41135409       1.10798104
H       -0.23047084      -0.33423465       1.40619865
H        2.44967329      -1.90767283       0.25069497
H        3.08474967       1.90437136       0.36533570
17
Properties=species:S:1:pos:R:3 relative_energy_eV=0.0029490263332263567 branch=left pbc="F F F"
O       -1.35005802      -2.18661282      -0.02889949
C       -2.03968762      -1.25859848      -0.37730357
C       -1.84940329       0.17931327       0.07714190
O       -2.13883422       1.07432191      -0.98207631
C       -0.48143991       0.41772323       0.66549655
O        0.43224723       0.34803695      -0.45116858
P        2.01400025       0.14913852      -0.24473481
O        2.74562726       0.10032363      -1.52435155
O        2.14321134      -1.12577454       0.73302632
O        2.42502019       1.33177322       0.77569661
H       -2.90515585      -1.38773805      -1.05630505
H       -2.60558327       0.36720911       0.85046724
H       -1.34957176       1.09834159      -1.54328043
H       -0.42446859       1.41096603       1.10179135
H       -0.23207563      -0.33268853       1.40911126
H        2.45079587      -1.90571116       0.25325099
H        3.08796678       1.90260919       0.36677293
17
Properties=species:S:1:pos:R:3 relative_energy_eV=0.004688617216743296 branch=left pbc="F F F"
O       -1.33843866      -2.18661680      -0.06175823
C       -2.04421596      -1.25861176      -0.37940426
C       -1.84888341       0.17788846       0.08120289
O       -2.13619979       1.07340493      -0.97867688
C       -0.47845668       0.41876809       0.66486517
O        0.43305818       0.34395875      -0.45059579
P        2.01281933       0.15022139      -0.24106161
O        2.74022202       0.09658513      -1.52269910
O        2.13399160      -1.12439025       0.73741260
O        2.41943735       1.33725436       0.77678920
H       -2.91899193      -1.38701387      -1.04669034
H       -2.60042794       0.37038231       0.85719631
H       -1.34944523       1.08311135      -1.54519168
H       -0.41552087       1.41548168       1.09331242
H       -0.22728112      -0.32756958       1.41178584
H        2.44967683      -1.90003212       0.25643352
H        3.09124702       1.89981099       0.37171531
17
Properties=species:S:1:pos:R:3 relative_energy_eV=0.0071354729880113155 branch=left pbc="F F F"
O       -1.33108656      -2.18589300      -0.08225130
C       -2.04528110      -1.25733917      -0.38151964
C       -1.84872495       0.17796922       0.08415328
O       -2.13664342       1.07274989      -0.97851553
C       -0.47628884       0.42253095       0.66389707
O        0.43061888       0.33859568      -0.45730292
P        2.01187313       0.15035114      -0.23986607
O        2.74174462       0.09400650      -1.52033730
O        2.12716812      -1.12488356       0.74125919
O        2.41548104       1.34206558       0.77661632
H       -2.93050129      -1.38327274      -1.03752619
H       -2.59774846       0.36694948       0.86194266
H       -1.34713561       1.07125184      -1.54174915
H       -0.41019712       1.42223859       1.09165960
H       -0.22303845      -0.32723648       1.40789898
H        2.44808901      -1.89821466       0.25931258
H        3.09426174       1.90076378       0.37696379
17
Properties=species:S:1:pos:R:3 relative_energy_eV=0.014682782562886132 branch=left pbc="F F F"
O       -1.30302340      -2.18028871      -0.17275909
C       -2.05114157      -1.25773118      -0.38938255
C       -1.84043344       0.17395397       0.08388579
O       -2.13961085       1.07471489      -0.96995510
C       -0.46749915       0.42312766       0.65214361
O        0.43408279       0.34480447      -0.47523099
P        2.01229720       0.15065197      -0.24009142
O        2.77736302       0.07789407      -1.49792630
O        2.11382610      -1.11680404       0.75292610
O        2.40003170       1.35045216       0.77080502
H       -2.99781048      -1.38934489      -0.95316680
H       -2.58214877       0.35969173       0.87172252
H       -1.37009056       1.06621943      -1.56214128
H       -0.41415084       1.42556132       1.07608010
H       -0.19106614      -0.32470883       1.38983285
H        2.43886845      -1.89746476       0.28543788
H        3.10309656       1.90190380       0.40245515
17
Properties=species:S:1:pos:R:3 relative_energy_eV=0.02097637588667567 branch=left pbc="F F F"
O       -1.28447007      -2.17101334      -0.23184437
C       -2.05935921      -1.25715711      -0.38660415
C       -1.83632206       0.16853549       0.08231131
O       -2.14665035       1.07135378      -0.96581053
C       -0.45897133       0.41855755       0.63641687
O        0.44595322       0.35573012      -0.48688236
P        2.02002236       0.15155124      -0.24105342
O        2.80324593       0.06679544      -1.48727847
O        2.10306023      -1.10986215       0.75938637
O        2.38398482       1.35757619       0.76945254
H       -3.03487382      -1.38586748      -0.89651462
H       -2.57340908       0.35614166       0.87355724
H       -1.38820569       1.06216575      -1.57022439
H       -0.41362940       1.41467817       1.06675186
H       -0.17258190      -0.31662093       1.38016778
H        2.43132672      -1.89607772       0.30502862
H        3.10347017       1.89614640       0.41777527
17
Properties=species:S:1:pos:R:3 relative_energy_eV=0.023158870550105348 branch=left pbc="F F F"
O       -1.28288861      -2.17051365      -0.23619383
C       -2.06039519      -1.25745914      -0.38508119
C       -1.83682184       0.16771661       0.08219171
O       -2.14990587       1.07069681      -0.96712377
C       -0.45608497       0.41857420       0.63118768
O        0.44849378       0.35860256      -0.49590360
P        2.02270109       0.15198425      -0.24284586
O        2.80875487       0.06473475      -1.48782901
O        2.09883193      -1.10898643       0.76042929
O        2.37535606       1.36110220       0.76977151
H       -3.03880591      -1.38418639      -0.88968612
H       -2.57293099       0.35278575       0.87400407
H       -1.38235134       1.06298466      -1.55924610
H       -0.41054198       1.41389768       1.06376825
H       -0.17127958      -0.31610792       1.37784236
H        2.42904751      -1.89592354       0.30844760
H        3.10141160       1.89273066       0.42090257
17
Properties=species:S:1:pos:R:3 relative_energy_eV=0.03239113004747196 branch=left pbc="F F F"
O       -1.27992572      -2.16834026      -0.26237091
C       -2.06705303      -1.26336433      -0.38333142
C       -1.83672551       0.16938356       0.07120997
O       -2.17723196       1.06302798      -0.97820645
C       -0.44966477       0.41803676       0.61294187
O        0.45849200       0.36768550      -0.51593075
P        2.02972232       0.15395509      -0.24035815
O        2.83505271       0.06719138      -1.47275078
O        2.09860778      -1.10284725       0.76960422
O        2.37356156       1.36244208       0.77704596
H       -3.06665611      -1.41780305      -0.83467652
H       -2.55383180       0.36337361       0.87882166
H       -1.40040584       1.10351487      -1.55231518
H       -0.39538828       1.41484795       1.04790656
H       -0.17472325      -0.33545162       1.35074952
H        2.42297142      -1.89813072       0.32790203
H        3.10578890       1.88511151       0.42839395
17
Properties=species:S:1:pos:R:3 relative_energy_eV=0.04066711343330098 branch=left pbc="F F F"
O       -1.26621454      -2.15557748      -0.30480334
C       -2.07513015      -1.26161485      -0.37777747
C       -1.83652950       0.17134456       0.06640933
O       -2.20148328       1.04816773      -0.98553560
C       -0.44852667       0.41704009       0.59839120
O        0.46718160       0.36301566      -0.51516420
P        2.03642459       0.15459581      -0.23066376
O        2.85063941       0.07266102      -1.45643115
O        2.10088657      -1.09952137       0.78041471
O        2.39241480       1.35871172       0.78484437
H       -3.09013703      -1.42926331      -0.78630733
H       -2.53979950       0.37629847       0.88236053
H       -1.44281667       1.11499899      -1.57850766
H       -0.38333220       1.40418492       1.04832546
H       -0.17998300      -0.34223924       1.32525491
H        2.42104597      -1.89799818       0.34237852
H        3.11794994       1.88782850       0.43144710
17
Properties=species:S:1:pos:R:3 relative_energy_eV=0.04807655244439957 branch=left pbc="F F F"
O       -1.25210501      -2.14709667      -0.32473650
C       -2.07668956      -1.26396638      -0.37106744
C       -1.84234355       0.17385323       0.06434493
O       -2.21736079       1.04740292      -0.99188554
C       -0.44993728       0.41811403       0.58753527
O        0.47463771       0.35394257      -0.52194782
P        2.04562366       0.15408496      -0.22383285
O        2.85542336       0.07616935      -1.45339493
O        2.10061276      -1.10161275       0.78986942
O        2.40697770       1.35949125       0.79328770
H       -3.10257810      -1.42159791      -0.76505980
H       -2.54105339       0.37408758       0.88719008
H       -1.45991693       1.11049734      -1.59100885
H       -0.37862991       1.39705471       1.05532869
H       -0.18882582      -0.34324058       1.31240928
H        2.42151135      -1.89719844       0.34615958
H        3.12724412       1.89264782       0.43144440
17
Properties=species:S:1:pos:R:3 relative_energy_eV=0.06138243448731373 branch=left pbc="F F F"
O       -1.24507395      -2.11990507      -0.39609634
C       -2.07506774      -1.24578668      -0.39357459
C       -1.84083955       0.18282235       0.05799766
O       -2.23254748       1.06786402      -0.98197207
C       -0.44592607       0.41427506       0.59359363
O        0.49386992       0.36239608      -0.50150093
P        2.06388502       0.15483806      -0.20469603
O        2.85263291       0.07362202      -1.44779736
O        2.12064140      -1.10393482       0.80454563
O        2.45587745       1.35070843       0.81279400
H       -3.11919240      -1.42219135      -0.71261636
H       -2.54621774       0.37565487       0.88127846
H       -1.53749184       1.04719541      -1.65642191
H       -0.39517130       1.39008888       1.07294478
H       -0.20243292      -0.35213760       1.32606402
H        2.43115584      -1.89748029       0.34927987
H        3.14448874       1.90460364       0.42081317
17
Properties=species:S:1:pos:R:3 relative_energy_eV=0.08387220469012391 branch=left pbc="F F F"
O       -1.23474848      -2.09280031      -0.45876221
C       -2.07722524      -1.22761454      -0.39697670
C       -1.83770433       0.19071537       0.05926539
O       -2.23427837       1.08365424      -0.97086870
C       -0.45320777       0.41634633       0.61012517
O        0.50050325       0.38061778      -0.46668071
P        2.07022027       0.15743824      -0.19645889
O        2.85538401       0.06788601      -1.44129252
O        2.14022530      -1.10015171       0.80924486
O        2.49244479       1.33791354       0.82370696
H       -3.13020618      -1.40616740      -0.68569605
H       -2.55083060       0.36114970       0.86922049
H       -1.59679325       0.97149291      -1.69900495
H       -0.39077926       1.39276881       1.07517596
H       -0.22202697      -0.36479262       1.32815602
H        2.43887936      -1.89664261       0.35268022
H        3.15273379       1.91081927       0.41280128
17
Properties=species:S:1:pos:R:3 relative_energy_eV=0.1087024092048523 branch=left pbc="F F F"
O       -1.22923696      -2.09098179      -0.48841143
C       -2.08444125      -1.24228556      -0.40616852
C       -1.84198524       0.19148063       0.05017624
O       -2.20409546       1.12163234      -0.96180476
C       -0.45582760       0.42127297       0.61516235
O        0.51349263       0.39921458      -0.45400741
P        2.08303237       0.15782394      -0.18873578
O        2.85666218       0.06394945      -1.44075030
O        2.16088189      -1.10155751       0.81804109
O        2.51922155       1.33149016       0.83587986
H       -3.15180863      -1.42710081      -0.65964723
H       -2.55514543       0.35621815       0.87185464
H       -1.64911459       0.95449883      -1.73582822
H       -0.40494808       1.40614106       1.08141242
H       -0.23823145      -0.37305393       1.32826219
H        2.44573291      -1.89920644       0.35395200
H        3.15840150       1.91309694       0.40524847
17
Properties=species:S:1:pos:R:3 relative_energy_eV=0.14196291443295195 branch=left pbc="F F F"
O       -1.24777040      -2.08797338      -0.53721351
C       -2.08788657      -1.22945203      -0.43004504
C       -1.82598964       0.19466152       0.04957982
O       -2.16949486       1.14264462      -0.94582541
C       -0.44558421       0.42597952       0.62056787
O        0.52296195       0.40325292      -0.44049880
P        2.08941597       0.15524918      -0.17414188
O        2.84116635       0.06251311      -1.44066721
O        2.17322304      -1.10936173       0.82736400
O        2.53781353       1.33168591       0.84189753
H       -3.15227802      -1.45695265      -0.64784246
H       -2.54550948       0.37951307       0.86233364
H       -1.71882770       0.90767046      -1.77273184
H       -0.43315634       1.39816157       1.11538297
H       -0.23159491      -0.34942130       1.34812535
H        2.45291233      -1.90339061       0.35227460
H        3.16318927       1.91785283       0.39607595
17
Properties=species:S:1:pos:R:3 relative_energy_eV=0.18914660503651248 branch=left pbc="F F F"
O       -1.24604372      -2.06892140      -0.61931251
C       -2.08469143      -1.21684351      -0.43026070
C       -1.81542096       0.20384731       0.05351858
O       -2.15400610       1.14431624      -0.96133514
C       -0.44717247       0.42353738       0.65036796
O        0.51658372       0.39921140      -0.40434477
P        2.08212153       0.15383986      -0.16868566
O        2.82117580       0.05994649      -1.43866076
O        2.17137135      -1.11414201       0.82890115
O        2.54353268       1.33264064       0.83875010
H       -3.14414276      -1.42426185      -0.66814315
H       -2.52205452       0.41058097       0.84961542
H       -1.79046795       0.80068197      -1.78999325
H       -0.43305198       1.38770884       1.15391201
H       -0.19502191      -0.32811839       1.39114689
H        2.45737769      -1.90365815       0.35053239
H        3.16250135       1.92226723       0.38862700
17
Properties=species:S:1:pos:R:3 relative_energy_eV=0.24381049224029994 branch=left pbc="F F F"
O       -1.22851847      -2.05239924      -0.66861096
C       -2.07531096      -1.22215768      -0.44583792
C       -1.81515119       0.20113669       0.06098737
O       -2.14655016       1.11984614      -0.98735224
C       -0.43764684       0.41298686       0.68574807
O        0.51343378       0.39920377      -0.37969614
P        2.07705429       0.15414016      -0.16752515
O        2.80860643       0.05701204      -1.44159235
O        2.16431691      -1.11564036       0.82852935
O        2.54226051       1.33457539       0.83733082
H       -3.15168524      -1.38534180      -0.67789705
H       -2.51531118       0.44980600       0.86223699
H       -1.84232421       0.75127365      -1.82757602
H       -0.43356429       1.38940658       1.17152821
H       -0.15528606      -0.33268433       1.44095289
H        2.45878080      -1.90129542       0.34963588
H        3.15948620       1.92276459       0.38377378
17
Properties=species:S:1:pos:R:3 relative_energy_eV=0.35159758980444167 branch=left pbc="F F F"
O       -1.22298312      -2.00298912      -0.74959905
C       -2.05497595      -1.17353891      -0.46900985
C       -1.79570563       0.18694541       0.12127353
O       -2.10149393       1.03231797      -0.99781611
C       -0.41641267       0.42141955       0.72341101
O        0.50875571       0.40620211      -0.36642782
P        2.07115843       0.15386449      -0.16676911
O        2.79014340       0.05192414      -1.44760120
O        2.15008100      -1.11682909       0.82738383
O        2.53278547       1.33764935       0.83557469
H       -3.13708069      -1.30222085      -0.70798677
H       -2.54616066       0.47226183       0.88250749
H       -1.91041017       0.62131363      -1.86117174
H       -0.40153372       1.40379548       1.20085125
H       -0.15551058      -0.33406418       1.47501212
H        2.46096127      -1.89539331       0.34815426
H        3.15097219       1.91997452       0.37684898
17
Properties=species:S:1:pos:R:3 relative_energy_eV=0.5489513669490407 branch=left pbc="F F F"
O       -1.23199106      -1.93147883      -0.86243276
C       -2.04747276      -1.15110385      -0.43488796
C       -1.78851516       0.20808291       0.16019376
O       -2.04666516       0.99505863      -1.00587896
C       -0.41589258       0.45823938       0.73929098
O        0.49377953       0.40945035      -0.35760549
P        2.05502637       0.15369001      -0.16676328
O        2.77722229       0.04751183      -1.44896860
O        2.14045369      -1.11803401       0.82519664
O        2.52452033       1.33731221       0.82979279
H       -3.08787487      -1.18469934      -0.76756836
H       -2.57423932       0.43136161       0.88301014
H       -1.95670506       0.39623500      -1.79625089
H       -0.32981326       1.42371211       1.24438405
H       -0.19666454      -0.32058426       1.46434973
H        2.46431025      -1.89195081       0.34682824
H        3.14311168       1.91983005       0.37194544
17
Properties=species:S:1:pos:R:3 relative_energy_eV=0.8266344261901395 branch=left pbc="F F F"
O       -1.22275995      -1.91562942      -0.91015217
C       -2.01528584      -1.12312817      -0.48121070
C       -1.79591824       0.24943644       0.15089551
O       -2.02410785       1.00317760      -1.06153300
C       -0.42616653       0.48107592       0.75001282
O        0.48452656       0.40587242      -0.35639782
P        2.04585500       0.15305424      -0.16819948
O        2.77412566       0.04616832      -1.44751269
O        2.13884257      -1.11905665       0.82435716
O        2.52321851       1.33616833       0.82647701
H       -3.10531646      -1.13171079      -0.78997669
H       -2.59083595       0.40154868       0.90519159
H       -1.96909356       0.24686935      -1.66024871
H       -0.29023449       1.43817214       1.26960756
H       -0.21133034      -0.31905703       1.45635903
H        2.46598962      -1.89217502       0.34631613
H        3.14108165       1.92184661       0.37064988
17
Properties=species:S:1:pos:R:3 relative_energy_eV=2.334711915340449 branch=left pbc="F F F"
O       -1.20303276      -1.92945346      -0.90074421
C       -2.00998858      -1.04989210      -0.67546953
C       -1.79660811       0.34438887       0.16942667
O       -2.01311285       1.05100056      -1.01543809
C       -0.42547639       0.49168739       0.75519573
O        0.47749290       0.40357307      -0.35819487
P        2.05052977       0.15171833      -0.16869748
O        2.77298524       0.04547308      -1.44902417
O        2.13813747      -1.12007259       0.82512875
O        2.52250917       1.33563691       0.82578494
H       -3.12654214      -1.12143873      -0.77023389
H       -2.60189298       0.38919921       0.92342553
H       -1.97216671       0.03842600      -1.58744946
H       -0.27842902       1.44371171       1.28093374
H       -0.21800864      -0.32113307       1.45376277
H        2.46660940      -1.89202124       0.34600749
H        3.13958462       1.92182905       0.37022150
17
Properties=species:S:1:pos:R:3 relative_energy_eV=3.1315256053385383 branch=ts pbc="F F F"
O       -1.19272054      -1.93852821      -0.87653462
C       -2.02443556      -1.07055709      -0.80149078
C       -1.78940255       0.44404259       0.18564449
O       -2.01268251       1.07742383      -0.94551566
C       -0.41544064       0.49352873       0.75491177
O        0.47546384       0.40420297      -0.35706827
P        2.05296982       0.14982375      -0.16905049
O        2.77296006       0.04551610      -1.45038202
O        2.13801601      -1.11980204       0.82514644
O        2.52186346       1.33534817       0.82598834
H       -3.12296872      -1.12485856      -0.67660991
H       -2.60202094       0.37404066       0.92761746
H       -1.98206637      -0.12346802      -1.63546830
H       -0.27289375       1.43763948       1.29464506
H       -0.24646310      -0.33140237       1.44700773
H        2.46679543      -1.89155528       0.34652249
H        3.13734973       1.92212036       0.36896645
17
Properties=species:S:1:pos:R:3 relative_energy_eV=1.2445915726020758 branch=right pbc="F F F"
O       -1.24976609      -2.04467874      -0.83469721
C       -2.14144757      -1.30840002      -1.16015361
C       -1.79127875       0.80307394       0.30719973
O       -2.06913220       1.36813026      -0.73173678
C       -0.37957740       0.54932667       0.79578492
O        0.48027624       0.42550941      -0.33809313
P        2.05293978       0.15118434      -0.16253429
O        2.76303659       0.04998624      -1.44818928
O        2.14902782      -1.11901164       0.82521728
O        2.52698430       1.33503950       0.82749776
H       -3.04880234      -1.24897087      -0.60269966
H       -2.58197480       0.39393324       0.97290387
H       -1.97495018      -0.51051361      -1.86922260
H       -0.15129837       1.44801816       1.36932050
H       -0.30280127      -0.33583405       1.43744525
H        2.46741721      -1.89634089       0.34840293
H        3.13740402       1.92394517       0.36757926
17
Properties=species:S:1:pos:R:3 relative_energy_eV=0.875441997548478 branch=right pbc="F F F"
O       -1.27900348      -2.27972139      -0.88535551
C       -2.13080871      -1.52565239      -1.28179362
C       -1.76801664       1.00746273       0.43597841
O       -2.06219056       1.76218639      -0.45597151
C       -0.35590482       0.64638480       0.83777774
O        0.46514544       0.48248451      -0.32015355
P        2.04003348       0.17403230      -0.16104508
O        2.72434234       0.05788219      -1.45960815
O        2.12807114      -1.10268873       0.82345343
O        2.55395646       1.33641211       0.83827878
H       -3.09190114      -1.38887393      -0.75496814
H       -2.54946795       0.52450598       1.07501272
H       -2.01679823      -0.92747801      -2.20306115
H        0.03497978       1.44066015       1.48035581
H       -0.40694391      -0.27347101       1.41824589
H        2.44459894      -1.87989354       0.34416529
H        3.15596494       1.93016492       0.37271366
17
Properties=species:S:1:pos:R:3 relative_energy_eV=0.838937298674864 branch=right pbc="F F F"
O       -1.29178057      -2.34822323      -0.87982639
C       -2.12009032      -1.58558121      -1.31198849
C       -1.74475789       1.04778425       0.47095379
O       -1.97147791       1.78211826      -0.45618783
C       -0.35636928       0.62013154       0.87227238
O        0.44563040       0.51397363      -0.30115800
P        2.01601794       0.20351375      -0.17630873
O        2.67238635       0.08029409      -1.48889872
O        2.06969176      -1.07627950       0.80455752
O        2.56569884       1.35239617       0.82030623
H       -3.09893159      -1.43859255      -0.81577652
H       -2.56653894       0.66958112       1.12488221
H       -1.95566328      -0.99704828      -2.23251722
H        0.02519710       1.39746644       1.54074208
H       -0.38181174      -0.31663630       1.43061368
H        2.38564658      -1.85492469       0.32945448
H        3.19320958       1.93442370       0.37290453
17
Properties=species:S:1:pos:R:3 relative_energy_eV=0.7738032444140117 branch=right pbc="F F F"
O       -1.31136234      -2.49203541      -0.85099508
C       -2.05610717      -1.67388394      -1.33350283
C       -1.73019797       1.16199364       0.52740056
O       -1.97452692       1.65926862      -0.54367450
C       -0.38277853       0.62713154       0.92904269
O        0.42648664       0.60785827      -0.23133552
P        1.98211219       0.24943278      -0.18958385
O        2.58814731       0.14098980      -1.52725168
O        2.09413827      -1.04196389       0.77106538
O        2.57102604       1.39548100       0.77878457
H       -3.09753831      -1.52536509      -0.97989761
H       -2.52500061       1.02772251       1.29188218
H       -1.74568403      -1.03573644      -2.17635476
H        0.04285837       1.24169871       1.73006543
H       -0.51169591      -0.38511042       1.32479500
H        2.25065212      -1.85247738       0.26806355
H        3.26552777       1.87939302       0.31552136
17
Properties=species:S:1:pos:R:3 relative_energy_eV=0.7310477143983007 branch=right pbc="F F F"
O       -1.33205907      -2.56265044      -0.82071750
C       -2.00550330      -1.71224083      -1.34885559
C       -1.75297953       1.21165493       0.56262859
O       -2.08172914       1.59584661      -0.53125660
C       -0.41926288       0.61034231       0.91143158
O        0.41668395       0.60028857      -0.23144809
P        1.98609934       0.26452332      -0.18964096
O        2.56070864       0.15353171      -1.54157856
O        2.10330498      -1.02856923       0.76930480
O        2.63359284       1.38693165       0.77338487
H       -3.06699678      -1.56292978      -1.07581026
H       -2.45169108       1.25885435       1.42652773
H       -1.61512986      -1.04040912      -2.13411409
H        0.02182934       1.16152020       1.74594659
H       -0.61829687      -0.40924477       1.25774337
H        2.19110384      -1.82535485       0.22934618
H        3.31638248       1.88230281       0.30113278
17
Properties=species:S:1:pos:R:3 relative_energy_eV=0.7115949833496416 branch=right pbc="F F F"
O       -1.32700734      -2.57850296      -0.80201309
C       -1.97022978      -1.72087463      -1.35669852
C       -1.75873078       1.23000150       0.59652492
O       -2.15743147       1.58911513      -0.48280237
C       -0.41574592       0.61669469       0.88057141
O        0.40442296       0.62774681      -0.27678247
P        1.96703480       0.24965795      -0.21009794
O        2.57414892       0.14054326      -1.54775896
O        2.04897185      -1.03875320       0.75872408
O        2.58714784       1.36301753       0.78005784
H       -3.03641990      -1.54808847      -1.11972120
H       -2.38443194       1.33697401       1.51292165
H       -1.54387932      -1.06346601      -2.13435677
H        0.03535033       1.16608156       1.71219798
H       -0.59213615      -0.41188572       1.21569026
H        2.19603525      -1.85308449       0.26015804
H        3.25895756       1.87922043       0.31741003
17
Properties=species:S:1:pos:R:3 relative_energy_eV=0.7039666075579589 branch=right pbc="F F F"
O       -1.32377681      -2.58709225      -0.78649859
C       -1.94428682      -1.73037984      -1.36766115
C       -1.75166105       1.25559269       0.62233180
O       -2.19137404       1.57198617      -0.45304450
C       -0.41205488       0.62843231       0.87675346
O        0.38463592       0.62483525      -0.29698300
P        1.94577374       0.24574000      -0.21701350
O        2.56917566       0.12618063      -1.54615520
O        1.99049115      -1.04452790       0.75086905
O        2.56232144       1.35888029       0.77804871
H       -3.01404413      -1.54070645      -1.15728934
H       -2.34223082       1.38633265       1.55589756
H       -1.48379751      -1.09493814      -2.14283510
H        0.08080335       1.14551979       1.70422588
H       -0.60387928      -0.39815251       1.20690372
H        2.18701945      -1.84817722       0.25228146
H        3.23294157       1.88487191       0.32419360
17
Properties=species:S:1:pos:R:3 relative_energy_eV=0.7003941610528273 branch=right pbc="F F F"
O       -1.30701062      -2.54606152      -0.75352663
C       -1.91808431      -1.70042280      -1.36163361
C       -1.76145150       1.24342281       0.62746633
O       -2.20587072       1.54513948      -0.44913075
C       -0.41666777       0.62224985       0.88047380
O        0.36877132       0.59279113      -0.30308820
P        1.93524146       0.23072781      -0.21997872
O        2.57353519       0.10844246      -1.54179281
O        1.99872787      -1.06066945       0.74356245
O        2.53257220       1.35702461       0.77127523
H       -2.98542969      -1.49140039      -1.15898841
H       -2.35427463       1.38382254       1.55966564
H       -1.45358379      -1.09516391      -2.15934442
H        0.08638034       1.16809679       1.68340671
H       -0.60260446      -0.39752246       1.23777817
H        2.19132688      -1.85675447       0.23111539
H        3.20447921       1.88067488       0.31676466
17
Properties=species:S:1:pos:R:3 relative_energy_eV=0.6946958799999265 branch=right pbc="F F F"
O       -1.29139275      -2.52060162      -0.70309978
C       -1.86587726      -1.71720353      -1.39652372
C       -1.75889397       1.27816400       0.66636222
O       -2.21271075       1.57296678      -0.40882860
C       -0.42917440       0.62636107       0.91126711
O        0.33428211       0.55873637      -0.28319940
P        1.90437958       0.21711298      -0.23173933
O        2.51011895       0.11543989      -1.57098897
O        2.00550494      -1.07723173       0.72641451
O        2.50025345       1.34923353       0.75467512
H       -2.92140315      -1.44097435      -1.22042633
H       -2.32503867       1.45145763       1.60884793
H       -1.37498212      -1.21734173      -2.25020896
H        0.09477229       1.17373042       1.69856379
H       -0.62999909      -0.38035681       1.29395404
H        2.17148741      -1.87546026       0.20780433
H        3.17473036       1.87036461       0.30115079
17
Properties=species:S:1:pos:R:3 relative_energy_eV=0.6934728329251811 branch=right pbc="F F F"
O       -1.28606987      -2.50955564      -0.68417525
C       -1.84240891      -1.71026650      -1.39810428
C       -1.76512528       1.27987780       0.67601694
O       -2.22115421       1.55888797      -0.40246686
C       -0.43406266       0.62749968       0.92046493
O        0.32434756       0.56214458      -0.27798996
P        1.89331059       0.21272716      -0.23799293
O        2.48330136       0.11720415      -1.58511187
O        2.00035830      -1.07925094       0.72202258
O        2.50940222       1.33132937       0.75149087
H       -2.89494993      -1.41509959      -1.23599329
H       -2.33216797       1.46884002       1.61478367
H       -1.33484867      -1.23513352      -2.25668362
H        0.09742838       1.16966808       1.70610634
H       -0.63436577      -0.38127741       1.29732162
H        2.16098670      -1.88161555       0.20891765
H        3.16207498       1.86841761       0.28541821
17
Properties=species:S:1:pos:R:3 relative_energy_eV=0.6906129810267885 branch=right pbc="F F F"
O       -1.26684452      -2.46521748      -0.59914971
C       -1.72401405      -1.68965355      -1.40856860
C       -1.79401361       1.28575873       0.72108129
O       -2.27227661       1.52907143      -0.35639283
C       -0.45978285       0.63763299       0.95684516
O        0.29886778       0.61216601      -0.24382366
P        1.85325528       0.19209801      -0.25626913
O        2.38509953       0.07339647      -1.62746680
O        1.93310344      -1.10487484       0.69618484
O        2.56917508       1.27273036       0.71403266
H       -2.75834955      -1.30040116      -1.32033154
H       -2.33154656       1.50664557       1.66878671
H       -1.13573564      -1.33227269      -2.27883528
H        0.06284850       1.17200403       1.75350288
H       -0.66139760      -0.38123158       1.31045437
H        2.07794541      -1.90893071       0.18015903
H        3.10972248       1.88547546       0.19381518
17
Properties=species:S:1:pos:R:3 relative_energy_eV=0.6737610547606891 branch=right pbc="F F F"
O       -1.21586479      -2.34129543      -0.49022313
C       -1.54980423      -1.64768026      -1.42821912
C       -1.82455957       1.28782019       0.78706963
O       -2.30760555       1.51845397      -0.29192220
C       -0.48142137       0.65950461       1.01793180
O        0.24528019       0.62774183      -0.20168737
P        1.77998138       0.15021067      -0.28443577
O        2.23233966       0.00836467      -1.68163729
O        1.88681833      -1.14646695       0.66353784
O        2.57668579       1.20813958       0.64367837
H       -2.52177752      -1.11841337      -1.44565216
H       -2.36988531       1.50827481       1.72997652
H       -0.89682298      -1.50220461      -2.31618554
H        0.03551073       1.20689640       1.81072274
H       -0.65775457      -0.35538421       1.38739584
H        1.94360318      -1.94699661       0.12127204
H        3.01133272       1.86743133       0.08240212
17
Properties=species:S:1:pos:R:3 relative_energy_eV=0.6387467977219785 branch=right pbc="F F F"
O       -1.16866998      -2.26637656      -0.44742800
C       -1.33940744      -1.67648761      -1.48566415
C       -1.84531546       1.34318119       0.90396459
O       -2.36190480       1.60753123      -0.14929859
C       -0.50131190       0.69626178       1.07892217
O        0.18368070       0.68551671      -0.16415721
P        1.68448279       0.12721952      -0.32866574
O        2.01145107      -0.04967614      -1.75621968
O        1.80448388      -1.16350220       0.62495895
O        2.59378022       1.13679800       0.54494883
H       -2.21068851      -1.02497499      -1.64755797
H       -2.36018146       1.55287594       1.86511550
H       -0.63007900      -1.75526372      -2.32794986
H        0.05456340       1.23331065       1.85283158
H       -0.66974175      -0.32721634       1.43389635
H        1.67625580      -1.97415997       0.11072602
H        2.96465796       1.83935855      -0.00439883
17
Properties=species:S:1:pos:R:3 relative_energy_eV=0.6259763091984496 branch=right pbc="F F F"
O       -1.12489243      -2.24689963      -0.45748041
C       -1.33648321      -1.66151526      -1.49581621
C       -1.84943367       1.32622321       0.90748626
O       -2.34425485       1.65023719      -0.14165195
C       -0.49335753       0.70279272       1.07722695
O        0.17088546       0.64152215      -0.17580565
P        1.68699142       0.11874564      -0.33476282
O        2.04432406      -0.04381743      -1.75670184
O        1.81191329      -1.15867792       0.63349656
O        2.57130269       1.14850142       0.54107297
H       -2.20297200      -0.99492054      -1.62998942
H       -2.39327086       1.45482414       1.86975896
H       -0.66396081      -1.76534583      -2.36738074
H        0.06745124       1.28177464       1.81716088
H       -0.64990930      -0.30030839       1.48539966
H        1.62083290      -1.98230400       0.16149303
H        2.97088916       1.81356391      -0.02948242
17
Properties=species:S:1:pos:R:3 relative_energy_eV=0.6131228426675079 branch=right pbc="F F F"
O       -1.11177450      -2.33533372      -0.51941593
C       -1.35748670      -1.67168646      -1.50285527
C       -1.84508637       1.30960032       0.89646904
O       -2.34797123       1.63855146      -0.14732801
C       -0.48362964       0.69985478       1.05252255
O        0.18108858       0.66055026      -0.19841043
P        1.70219470       0.13795115      -0.31845861
O        2.07475964      -0.05444273      -1.73174879
O        1.81433002      -1.11743730       0.68162688
O        2.56757789       1.19832294       0.53849211
H       -2.27766892      -1.06741671      -1.57646303
H       -2.38458562       1.41898451       1.86344594
H       -0.67293167      -1.64390719      -2.37133459
H        0.07877131       1.27681773       1.79148277
H       -0.62405705      -0.31046901       1.45084361
H        1.50005152      -1.92410043       0.24969084
H        3.07247368       1.76855672      -0.05453537
17
Properties=species:S:1:pos:R:3 relative_energy_eV=0.6086496733332751 branch=right pbc="F F F"
O       -1.09124114      -2.36125758      -0.55303542
C       -1.36514822      -1.65530939      -1.49824207
C       -1.85295499       1.29212727       0.87836113
O       -2.36145603       1.59712939      -0.16939970
C       -0.48578799       0.69644564       1.04739785
O        0.18605934       0.65187143      -0.19997579
P        1.71134410       0.13877267      -0.32372626
O        2.08297901      -0.06942718      -1.73522733
O        1.83461447      -1.09905651       0.69677827
O        2.56869134       1.21204610       0.52219422
H       -2.31024583      -1.08734058      -1.53859182
H       -2.39261588       1.40930690       1.84355494
H       -0.68534024      -1.54689369      -2.36315858
H        0.06391289       1.27698373       1.79454357
H       -0.62622776      -0.31064704       1.45492135
H        1.48429260      -1.90960793       0.30175770
H        3.12518005       1.74925324      -0.05412826
17
Properties=species:S:1:pos:R:3 relative_energy_eV=0.5989372187577828 branch=right pbc="F F F"
O       -0.99466808      -2.42817341      -0.68872043
C       -1.33496087      -1.66765313      -1.56706214
C       -1.86960167       1.31763592       0.90666590
O       -2.37479967       1.60329134      -0.14852223
C       -0.49734601       0.73484284       1.08876949
O        0.17182117       0.66182756      -0.15759843
P        1.68289743       0.11715599      -0.29754667
O        2.02063157      -0.14403076      -1.70909784
O        1.80735474      -1.09106643       0.75659684
O        2.58418726       1.20752146       0.47924682
H       -2.29493866      -1.12435297      -1.51840997
H       -2.41383442       1.44543153       1.86854739
H       -0.70553815      -1.48063716      -2.45645327
H        0.04980436       1.33999364       1.81757987
H       -0.62933238      -0.26129365       1.52568016
H        1.54012720      -1.92827832       0.35402558
H        3.14425230       1.68218228      -0.14967687
17
Properties=species:S:1:pos:R:3 relative_energy_eV=0.5971372753192554 branch=right pbc="F F F"
O       -0.97202582      -2.45478750      -0.73947287
C       -1.33987445      -1.65708714      -1.57121350
C       -1.87291772       1.30979109       0.90095032
O       -2.39270902       1.55937634      -0.15555558
C       -0.49572990       0.74090068       1.08250484
O        0.16419238       0.64170825      -0.16724622
P        1.68167568       0.10727791      -0.29156595
O        2.03932873      -0.15798867      -1.69796503
O        1.80175581      -1.09364112       0.77404144
O        2.56407357       1.21625388       0.48126107
H       -2.31035320      -1.14010133      -1.48332966
H       -2.40552189       1.46333148       1.86494969
H       -0.72596274      -1.40566973      -2.45426415
H        0.05631786       1.36672248       1.78863519
H       -0.61621138      -0.24429172       1.54682164
H        1.56412504      -1.93843954       0.36639755
H        3.14589324       1.67104147      -0.14092439
17
Properties=species:S:1:pos:R:3 relative_energy_eV=0.5930051487084711 branch=right pbc="F F F"
O       -0.93697287      -2.58218761      -0.88314251
C       -1.31505321      -1.69188007      -1.60715422
C       -1.87323516       1.33077023       0.91524232
O       -2.41916083       1.49017230      -0.14677143
C       -0.48327161       0.79492739       1.11235371
O        0.15038182       0.62279195      -0.14427608
P        1.66556363       0.08625403      -0.28693283
O        2.02166305      -0.15644603      -1.69778448
O        1.77674524      -1.13752941       0.75112022
O        2.55690693       1.17246513       0.50797227
H       -2.26858567      -1.16995140      -1.42823258
H       -2.38896784       1.55804567       1.87315016
H       -0.72832702      -1.35935791      -2.48006321
H        0.06270932       1.48003663       1.76822505
H       -0.57225729      -0.15541835       1.64844109
H        1.53831443      -1.97030727       0.32044175
H        3.09960303       1.67201164      -0.11856460
17
Properties=species:S:1:pos:R:3 relative_energy_eV=0.5906180320998828 branch=right pbc="F F F"
O       -0.93818138      -2.57675729      -0.86277065
C       -1.30741481      -1.69599413      -1.60656992
C       -1.87316875       1.33097124       0.91834851
O       -2.41672678       1.47871591      -0.14510640
C       -0.47878840       0.80690747       1.11742936
O        0.14629428       0.61182649      -0.13826276
P        1.66123716       0.07887194      -0.29106742
O        2.00440254      -0.13314644      -1.70935856
O        1.78211346      -1.16457027       0.72143624
O        2.55548597       1.14490550       0.52726193
H       -2.24383537      -1.14221971      -1.42549465
H       -2.38861597       1.56305130       1.87546625
H       -0.72443465      -1.40329701      -2.49797063
H        0.07342761       1.51185073       1.74578703
H       -0.55984742      -0.13205523       1.67506632
H        1.53010167      -1.98908190       0.28164952
H        3.06400667       1.69441827      -0.08181968
17
Properties=species:S:1:pos:R:3 relative_energy_eV=0.5869705576405977 branch=right pbc="F F F"
O       -0.87772975      -2.62397302      -0.96876502
C       -1.32254694      -1.70367178      -1.61731414
C       -1.88528317       1.29195473       0.90718676
O       -2.44297964       1.36770857      -0.15761250
C       -0.45538341       0.87671570       1.11258382
O        0.16662646       0.64892236      -0.13842009
P        1.66658745       0.06947290      -0.28059633
O        2.00894763      -0.13942049      -1.69932905
O        1.73859258      -1.19017550       0.71643327
O        2.58553551       1.08929912       0.57026105
H       -2.27106127      -1.20947107      -1.34733178
H       -2.40973978       1.51836872       1.86163426
H       -0.79668756      -1.30938220      -2.50581938
H        0.05445745       1.66138545       1.68206514
H       -0.46137364      -0.02670682       1.73209030
H        1.49352871      -2.00227343       0.25042610
H        3.09456557       1.66564402      -0.01346733
17
Properties=species:S:1:pos:R:3 relative_energy_eV=0.5764272016167524 branch=right pbc="F F F"
O       -0.75949095      -2.74581762      -1.22251642
C       -1.28654032      -1.75570865      -1.68009870
C       -1.89321581       1.26297060       0.95462598
O       -2.50635090       1.17659506      -0.07821707
C       -0.41897950       1.01740568       1.11266588
O        0.16147927       0.70381772      -0.14160218
P        1.63388176       0.05281099      -0.26555000
O        2.00687633      -0.14357122      -1.67798284
O        1.60363640      -1.22905625       0.70423586
O        2.58393664       1.00694498       0.62459096
H       -2.24196867      -1.37264490      -1.28177266
H       -2.39332370       1.54211403       1.90807331
H       -0.83456257      -1.18870280      -2.51508290
H        0.02971383       1.91918098       1.54356875
H       -0.28134463       0.21193013       1.84080977
H        1.32881652      -2.02039537       0.21757352
H        3.15349271       1.54652453       0.06070513
17
Properties=species:S:1:pos:R:3 relative_energy_eV=0.499019105311163 branch=right pbc="F F F"
O       -0.49943272      -2.53477446      -1.15396188
C       -1.18230502      -1.64407882      -1.60751652
C       -1.87697429       0.96051026       0.97485741
O       -2.49072219       0.59652973       0.00136915
C       -0.38798341       1.21271473       1.02650399
O        0.24051875       0.96399221      -0.21488420
P        1.59075475       0.06098929      -0.27978011
O        2.00742081      -0.17230609      -1.67171959
O        1.26775882      -1.21418102       0.63670454
O        2.63028471       0.84337611       0.68704638
H       -2.22419781      -1.45100377      -1.29805156
H       -2.39762596       1.14362365       1.94467867
H       -0.78829119      -0.95480633      -2.37903341
H       -0.22298615       2.26164464       1.30899484
H        0.03473764       0.59762192       1.82458732
H        0.82790694      -1.92501262       0.11455583
H        3.35719464       1.23955984       0.18967683
17
Properties=species:S:1:pos:R:3 relative_energy_eV=0.45808325876350864 branch=right pbc="F F F"
O       -0.44243868      -2.52357535      -1.13038817
C       -1.13777302      -1.67443031      -1.65083554
C       -1.84771989       0.94767198       1.02699555
O       -2.46538377       0.52814268       0.08189886
C       -0.37586854       1.28250678       1.03799784
O        0.24671556       1.01646519      -0.20382837
P        1.55520546       0.05555025      -0.27810479
O        1.96262503      -0.14520086      -1.68117990
O        1.18592764      -1.22128652       0.59840242
O        2.61518124       0.77303089       0.70900612
H       -2.17948094      -1.49844564      -1.33846225
H       -2.35634018       1.13360596       1.99887299
H       -0.74334777      -1.03547568      -2.45226060
H       -0.27712555       2.34761278       1.27483053
H        0.08968484       0.73247993       1.85529962
H        0.69249972      -1.87314337       0.04098788
H        3.36369765       1.13889073       0.21479549
17
Properties=species:S:1:pos:R:3 relative_energy_eV=0.4456147880664503 branch=right pbc="F F F"
O       -0.45049826      -2.56074910      -1.13840312
C       -1.18676071      -1.77267445      -1.69932165
C       -1.82076245       0.96115592       1.04137669
O       -2.38828796       0.48117287       0.09167731
C       -0.36756721       1.33425198       1.10150845
O        0.30503082       1.12804816      -0.12462194
P        1.56617474       0.10641788      -0.26666465
O        1.95706506      -0.01943713      -1.68262932
O        1.14996041      -1.20063364       0.53767266
O        2.68906507       0.71388722       0.72996952
H       -2.23427919      -1.64304509      -1.39588590
H       -2.37130135       1.19431232       1.97756298
H       -0.82547396      -1.15513325      -2.53545946
H       -0.32449946       2.39651639       1.34535431
H        0.09074271       0.80158198       1.93774141
H        0.65218409      -1.82548126      -0.04340968
H        3.44526695       1.04420908       0.22756027
17
Properties=species:S:1:pos:R:3 relative_energy_eV=0.42923354077356635 branch=right pbc="F F F"
O       -0.45286547      -2.52006107      -1.08206136
C       -1.17646384      -1.80584367      -1.74667851
C       -1.79175502       0.94369621       1.02790064
O       -2.26740871       0.43848762       0.04140146
C       -0.35444518       1.35468518       1.19692571
O        0.37873254       1.29671764      -0.01067918
P        1.52510704       0.17536541      -0.25847820
O        1.81076210       0.02061428      -1.69940582
O        1.06288458      -1.09906974       0.57006319
O        2.76273138       0.69718971       0.64610161
H       -2.24520855      -1.69192691      -1.51300416
H       -2.41706799       1.14943722       1.92354299
H       -0.78361148      -1.25208969      -2.61251614
H       -0.33250352       2.38258598       1.56929916
H        0.08184869       0.72228069       1.97798165
H        0.56905195      -1.73304579      -0.00721339
H        3.51627140       0.90537719       0.08084787
17
Properties=species:S:1:pos:R:3 relative_energy_eV=0.4146127105341293 branch=right pbc="F F F"
O       -0.47897793      -2.58885245      -1.13554229
C       -1.12033870      -1.82900614      -1.83587525
C       -1.72514021       0.87344467       1.11019499
O       -2.13625192       0.25638002       0.16474143
C       -0.34485250       1.45550520       1.23458961
O        0.40469661       1.38037778       0.03867741
P        1.45472383       0.18285546      -0.25161697
O        1.69315858       0.02395689      -1.70034064
O        0.93485470      -1.06501886       0.58252280
O        2.74906827       0.60544783       0.62187271
H       -2.15256515      -1.54768469      -1.59167523
H       -2.36886346       1.06328478       1.99614570
H       -0.68131869      -1.39682100      -2.74742283
H       -0.44152862       2.50900802       1.49687490
H        0.14514262       0.95297871       2.07523767
H        0.46794975      -1.71726872       0.00734444
H        3.48630259       0.82581220       0.03829903
17
Properties=species:S:1:pos:R:3 relative_energy_eV=0.4023737024253933 branch=right pbc="F F F"
O       -0.50222467      -2.55765213      -1.10103298
C       -1.02029226      -1.79840134      -1.89447270
C       -1.72699390       0.84769591       1.18323734
O       -2.14666034       0.19202850       0.26441196
C       -0.35685876       1.46919667       1.25327796
O        0.36592716       1.37471108       0.04295333
P        1.39603808       0.16212116      -0.25593212
O        1.57010461      -0.03132674      -1.71046136
O        0.89147757      -1.05835958       0.62597022
O        2.72837751       0.58861696       0.55874775
H       -2.01280744      -1.37195316      -1.70970960
H       -2.35590089       1.05444997       2.07567801
H       -0.50577361      -1.50983170      -2.82033429
H       -0.47718480       2.53057658       1.47823817
H        0.17619769       1.02375717       2.09858897
H        0.41676923      -1.72509550       0.06777218
H        3.44586440       0.79386534      -0.05290587
17
Properties=species:S:1:pos:R:3 relative_energy_eV=0.3952926923520863 branch=right pbc="F F F"
O       -0.61145905      -2.53513266      -1.02962703
C       -1.03002485      -1.78321548      -1.88739903
C       -1.74276196       0.83945498       1.19378620
O       -2.20420019       0.20565183       0.27904707
C       -0.36216359       1.44110412       1.22780709
O        0.32615226       1.32334552      -0.00169954
P        1.41668030       0.15365293      -0.26594052
O        1.62341821      -0.05572986      -1.71462790
O        0.95763192      -1.07828945       0.62740509
O        2.71385740       0.65483511       0.56444256
H       -1.99663689      -1.27463877      -1.77854364
H       -2.33720017       1.03899439       2.11149478
H       -0.44661662      -1.58320477      -2.79718217
H       -0.45923215       2.50671644       1.45100150
H        0.18515438       0.98795348       2.06112562
H        0.41137111      -1.71001525       0.10029892
H        3.44208934       0.85291621      -0.03736258
17
Properties=species:S:1:pos:R:3 relative_energy_eV=0.39502741782416706 branch=right pbc="F F F"
O       -0.60905838      -2.53811596      -1.03711478
C       -1.03496032      -1.78413387      -1.88958180
C       -1.73487103       0.83084780       1.19870792
O       -2.20007316       0.19866976       0.28462100
C       -0.36212756       1.44990648       1.21934186
O        0.32566429       1.32200880      -0.00929689
P        1.41789792       0.15105623      -0.26382227
O        1.63409346      -0.06059112      -1.71064715
O        0.95192288      -1.07941421       0.62834214
O        2.70971056       0.65258419       0.57490573
H       -2.00004525      -1.27534208      -1.77124080
H       -2.32087498       1.01865476       2.12440297
H       -0.46000001      -1.58165566      -2.80493235
H       -0.47379245       2.51777085       1.42425582
H        0.19379357       1.02208581       2.05956650
H        0.40749564      -1.71096997       0.09933589
H        3.44128433       0.85103687      -0.02281730
