18
Properties=species:S:1:pos:R:3 relative_energy_eV=1.5514035550404515 branch=ts pbc="F F F"
C        0.86833102       1.01194781      -2.83830821
C        0.79993678       0.57922861      -1.42376538
O        1.70611005       0.78643263      -0.61618354
C       -0.42323418      -0.21449279      -0.96040019
O       -0.63579345      -1.30520443      -1.48801501
O       -1.05967228       0.38425204      -0.01463622
O       -1.63234427      -1.49062926       1.66356655
P       -1.13897386      -0.01968915       2.06663456
O       -1.94696204       1.20319277       2.17292302
O        0.89033201      -0.47741105       1.48521118
O       -0.50711658      -0.32925129       3.51860163
H        0.78221134       0.13842182      -3.48498401
H        0.01194865       1.64584451      -3.07003562
H        1.79190890       1.54585259      -3.03309338
H        0.77030474      -1.32245045       1.02621823
H       -1.94189959      -1.50286671       0.74317456
H        1.31060773       0.13385592       0.78101546
H        0.35427406      -0.76698740       3.47182695
