18
Properties=species:S:1:pos:R:3 relative_energy_eV=5.787248410360917 branch=ts pbc="F F F"
C        1.76383372      -1.14323259       0.72200810
C        1.15134494      -0.35339691      -0.15501028
O        0.11958071      -0.83588432      -0.90142647
P       -1.43483470      -0.30489199      -0.83059246
O       -2.06152506       0.96094404      -1.28666953
O       -1.87747232      -1.50779333      -1.85211807
O       -0.67546078       0.91348456       0.88999596
C        1.61479639       1.01805695      -0.52387434
O        1.33900381       1.56638915      -1.56286706
O        2.40134803       1.57118482       0.42446948
O       -1.90308543      -0.33373096       1.86010561
H        1.42046687      -2.15140726       0.89539553
H        2.60891491      -0.76570750       1.26910553
H       -2.64113572      -1.21533617      -2.36682461
H       -1.40854999       1.55338364       0.83327062
H        2.62357345       2.45875609       0.09947361
H       -2.02054137      -0.73083174       0.56818502
H       -1.02026237      -0.69997633       1.91736816
