37
Properties=species:S:1:pos:R:3 relative_energy_eV=2.1240903512880323 branch=ts pbc="F F F"
O        3.19896079       0.57178083      -5.50653420
P        2.95002389       0.34470587      -4.07010255
O        2.66312926      -1.18637692      -3.63365181
O        4.17486927       0.64671068      -3.06762602
O        1.69388106       1.20219147      -3.54103899
C        1.08216597       0.93823077      -2.29519555
C        0.94757473       2.01504514      -1.42546010
O        1.69849004       3.02235408      -1.32286302
C        0.12196504       1.80419779      -0.14486172
O        1.21951282       1.93985354       0.85569962
C       -0.70029585       0.52834403       0.05054089
O       -1.81538757       0.69107593      -0.81327463
C       -1.16145209       0.33976946       1.50618750
O       -0.05522145       0.08942783       2.36173010
C       -2.09666551      -0.84128288       1.62148007
O       -2.66352929      -0.83328662       2.94186891
P       -3.31276677      -2.15051190       3.56676675
O       -3.98550477      -1.93692228       4.86192103
O       -2.08634886      -3.20451314       3.56834426
O       -4.23811699      -2.71410454       2.36335561
O        2.52233192       0.15064812      -0.11033209
H        2.45536211      -1.70365321      -4.42126802
H        4.56278444       1.51216007      -3.24874958
H        0.28916824       0.21300170      -2.39084543
H        2.48025934      -0.77525092       0.17563002
H       -0.53265039       2.65869703       0.02362751
H        1.70368629       2.70149623       0.37522436
H       -0.11244287      -0.35231958      -0.22527390
H       -2.08545234      -0.16659108      -1.15295047
H       -1.70835655       1.24167537       1.80115567
H        0.45305437       0.91151105       2.40047769
H       -2.90695048      -0.76114620       0.90121165
H       -1.55859816      -1.77453629       1.46080722
H       -1.92781181      -3.52452020       4.46495564
H       -5.13576160      -2.87455107       2.68113111
H        1.97029270       0.29484108      -1.13726267
H        1.89584132       0.98184817       0.52516434
