18
Properties=species:S:1:pos:R:3 relative_energy_eV=1.6839993096182297 branch=ts pbc="F F F"
C        1.18628795       1.98887960      -0.09541846
C        0.57107957       0.83743719       0.12808410
O       -0.77371747       0.65682182      -0.13543934
P       -1.29501860      -0.23211774      -1.43789740
O       -2.34350369       0.45814830      -2.19568388
O        0.09644150      -0.52222288      -2.20217528
O       -1.72483642      -1.61869314      -0.78797217
C        1.18733957      -0.33861659       0.76308006
O        0.52330225      -1.31735076       1.08131229
O        2.49759992      -0.26169241       0.98244483
O       -1.89892245      -0.50395104       2.42374333
H        0.65671682       2.82168554      -0.52977755
H        2.22640494       2.11137605       0.15929094
H        0.04233817      -0.20317508      -3.11192605
H       -1.08383741      -1.94071048      -0.13286373
H        2.75536124      -1.08631499       1.42674404
H       -1.08953739      -0.73021806       2.01132718
H       -1.53349966      -0.11928291       1.65312580
