32
Properties=species:S:1:pos:R:3 relative_energy_eV=2.543077858907054 branch=ts pbc="F F F"
O        1.21615234       4.32315274       2.37846616
C        1.56965568       3.81632145       1.33410333
C        0.55594433       3.41032382       0.29729535
O       -0.73615898       3.80245143       0.69636241
C        0.62138211       1.89556872       0.06735025
O        1.91543436       1.60217751      -0.41645999
C       -0.51793137       1.44425160      -0.85508040
O       -0.53075495       2.18951071      -2.07319303
C       -0.42865814      -0.02215019      -1.26854332
O        0.75456121      -0.26122508      -2.03612949
C       -0.40653177      -0.95209766      -0.07689144
O       -0.66231963      -2.27409551      -0.55471109
P       -0.17916176      -3.60061860       0.19607373
O        1.20442050      -3.87681708       0.68069988
O       -0.39382868      -4.61479361      -1.08362142
O       -1.89048668      -4.29322870       0.77781010
O       -0.68392003      -2.78904062       1.92722319
H        2.62715223       3.61350812       1.10567960
H        0.83360495       3.89258470      -0.64899869
H       -0.61027918       4.22352170       1.56577312
H        0.46257605       1.41970928       1.04336008
H        1.83989458       0.85544659      -1.03828784
H       -1.45382943       1.59092665      -0.31007300
H       -0.99731394       3.01680861      -1.91020312
H       -1.30921058      -0.24064493      -1.88066505
H        0.67950770       0.28384769      -2.83102138
H       -1.18703687      -0.67996039       0.63280358
H        0.56066755      -0.90542951       0.42711272
H        0.47368113      -4.98888607      -1.27502573
H       -1.77729488      -5.23487608       0.96040526
H       -1.62949192      -3.62761974       1.69407919
H        0.07959135      -3.01859502       2.47431252
