32
Properties=species:S:1:pos:R:3 relative_energy_eV=2.8071182390340255 branch=ts pbc="F F F"
O       -4.05361069       2.99597130       1.15729178
C       -4.01387797       1.83985992       0.78995187
C       -3.06910727       0.86267553       1.43609915
O       -2.40814988       1.46563849       2.52338396
C       -2.06721239       0.34240193       0.39599148
O       -2.81638605      -0.38196590      -0.55803496
C       -0.96605251      -0.47083020       1.08248382
O       -1.51706873      -1.54973000       1.84110914
C        0.03884743      -1.09679706       0.12248880
O       -0.61585516      -2.02726024      -0.74718028
C        0.78388398      -0.07927580      -0.72189753
O        1.89228893      -0.72232622      -1.31679321
P        3.33217937       0.15850215      -1.78947101
O        2.91198555       1.45484857      -1.13304411
O        3.64543423      -1.24519390      -2.59940785
O        4.65350608       0.75077787      -2.60869830
O        4.48745103      -0.54920418      -0.16500896
H       -4.63633862       1.46115659      -0.03560152
H       -3.65695022      -0.00238166       1.76974112
H       -2.73392529       2.38374286       2.53232917
H       -1.59219051       1.21742654      -0.06482896
H       -2.21408421      -1.02608875      -0.96822964
H       -0.42927884       0.21454153       1.74046152
H       -1.79902370      -1.19709629       2.69272749
H        0.77573495      -1.62976605       0.73328840
H       -1.01422343      -2.69980879      -0.17844627
H        1.11531516       0.76199914      -0.11553594
H        0.13118845       0.29964581      -1.51233563
H        2.84911226      -1.77432510      -2.46893226
H        4.67779414       1.68962156      -2.37537956
H        4.16061694      -1.45073802      -0.01486465
H        4.14785048       0.00418866       0.55667001
