18
Properties=species:S:1:pos:R:3 relative_energy_eV=0.0 branch=left pbc="F F F"
C        1.61575048      -1.31434895      -0.58755690
C        0.29302193      -1.40283625      -0.50289275
O       -0.56534972      -0.38170129      -0.15540764
P       -0.16660490       1.18749648      -0.05529404
O       -1.55196448       1.80524701       0.39520342
O        1.00513691       1.50721165       0.79540435
O        0.07196247       1.64519573      -1.57803472
C       -0.48682840      -2.64052263      -0.76563038
O       -1.69257176      -2.69627551      -0.75193313
O        0.29703595      -3.71623791      -1.03221015
O       -0.57711670       2.85428039       2.61680571
H        2.12988871      -0.38959398      -0.39258270
H        2.20026169      -2.18090379      -0.84274617
H       -0.45428951       3.80952338       2.61180880
H       -0.73556703       1.61825610      -2.10822418
H       -0.31954599      -4.44934258      -1.18378113
H       -1.39925973       2.27019361       1.27356448
H        0.25863780       2.49167860       2.25411596
18
Properties=species:S:1:pos:R:3 relative_energy_eV=3.092338010901585e-05 branch=left pbc="F F F"
C        1.61564790      -1.31409158      -0.58702180
C        0.29277487      -1.40306269      -0.50254909
O       -0.56646833      -0.38193658      -0.15637780
P       -0.16729188       1.18744601      -0.05553777
O       -1.55279723       1.80480266       0.39478664
O        1.00458710       1.50653638       0.79544840
O        0.07147413       1.64693345      -1.57781381
C       -0.48685501      -2.64103474      -0.76539934
O       -1.69262159      -2.69744924      -0.75147582
O        0.29749162      -3.71615579      -1.03276861
O       -0.57623761       2.85436496       2.61665222
H        2.12973205      -0.38892833      -0.39265904
H        2.20035141      -2.18121149      -0.84058493
H       -0.45225688       3.80955744       2.61253872
H       -0.73534922       1.61950092      -2.10915616
H       -0.31896232      -4.44933729      -1.18424882
H       -1.39998887       2.26962781       1.27297523
H        0.25936751       2.49175821       2.25380058
18
Properties=species:S:1:pos:R:3 relative_energy_eV=7.196661317721009e-05 branch=left pbc="F F F"
C        1.61574931      -1.31402378      -0.58641256
C        0.29271706      -1.40319601      -0.50221883
O       -0.56756557      -0.38211120      -0.15785115
P       -0.16823715       1.18722818      -0.05579423
O       -1.55362649       1.80477748       0.39442623
O        1.00368423       1.50610243       0.79510030
O        0.07121400       1.64881899      -1.57720990
C       -0.48687632      -2.64138257      -0.76508221
O       -1.69261441      -2.69878242      -0.75100211
O        0.29781302      -3.71583440      -1.03349973
O       -0.57499074       2.85461159       2.61633697
H        2.12934514      -0.38826436      -0.39273401
H        2.20056616      -2.18182371      -0.83833586
H       -0.45003930       3.80970553       2.61333888
H       -0.73501490       1.62045571      -2.10930843
H       -0.31810087      -4.44953847      -1.18468577
H       -1.40144676       2.26959484       1.27260594
H        0.26002119       2.49098231       2.25293525
18
Properties=species:S:1:pos:R:3 relative_energy_eV=0.00012106934082112275 branch=left pbc="F F F"
C        1.61561856      -1.31430267      -0.58550548
C        0.29259014      -1.40327084      -0.50232472
O       -0.56791795      -0.38181135      -0.15973894
P       -0.16930718       1.18728736      -0.05589679
O       -1.55472330       1.80511698       0.39457730
O        1.00268863       1.50566304       0.79472022
O        0.07115944       1.65032557      -1.57650926
C       -0.48668305      -2.64167033      -0.76498819
O       -1.69233819      -2.69969910      -0.75033223
O        0.29832005      -3.71566452      -1.03433867
O       -0.57382427       2.85486347       2.61582032
H        2.12877933      -0.38821581      -0.39299880
H        2.20066456      -2.18224375      -0.83609341
H       -0.44770997       3.80970691       2.61413233
H       -0.73473373       1.62106578      -2.10884650
H       -0.31709094      -4.44993126      -1.18502426
H       -1.40310586       2.27041217       1.27265838
H        0.26021131       2.48968851       2.25129749
18
Properties=species:S:1:pos:R:3 relative_energy_eV=0.00014548654144164175 branch=left pbc="F F F"
C        1.61535940      -1.31447051      -0.58488774
C        0.29238034      -1.40331531      -0.50253115
O       -0.56800796      -0.38151080      -0.16076477
P       -0.16972790       1.18748714      -0.05586807
O       -1.55535096       1.80522270       0.39470166
O        1.00245213       1.50528079       0.79465081
O        0.07110688       1.65100989      -1.57622919
C       -0.48651947      -2.64184758      -0.76505619
O       -1.69213559      -2.69995914      -0.74987734
O        0.29873771      -3.71566711      -1.03477634
O       -0.57331912       2.85492565       2.61577327
H        2.12842289      -0.38833485      -0.39313262
H        2.20061269      -2.18225597      -0.83496246
H       -0.44630162       3.80959441       2.61434601
H       -0.73470221       1.62126867      -2.10863352
H       -0.31649928      -4.45011133      -1.18516347
H       -1.40399831       2.27096157       1.27260342
H        0.26008795       2.48904192       2.25041647
18
Properties=species:S:1:pos:R:3 relative_energy_eV=0.00019655780124594457 branch=left pbc="F F F"
C        1.61480447      -1.31467315      -0.58384637
C        0.29185686      -1.40329653      -0.50299028
O       -0.56846861      -0.38098793      -0.16227194
P       -0.16992958       1.18796766      -0.05569323
O       -1.55613539       1.80494289       0.39474769
O        1.00272917       1.50446647       0.79493391
O        0.07087333       1.65209046      -1.57598825
C       -0.48624871      -2.64210938      -0.76530146
O       -1.69184094      -2.70016044      -0.74906059
O        0.29950813      -3.71567773      -1.03539008
O       -0.57275073       2.85484220       2.61620801
H        2.12784140      -0.38847415      -0.39328341
H        2.20043463      -2.18220194      -0.83325120
H       -0.44377091       3.80931112       2.61448357
H       -0.73492543       1.62148735      -2.10847843
H       -0.31550513      -4.45034999      -1.18535739
H       -1.40549675       2.27169069       1.27209804
H        0.25962178       2.48845260       2.24905018
18
Properties=species:S:1:pos:R:3 relative_energy_eV=0.00025911412376444787 branch=left pbc="F F F"
C        1.61450313      -1.31454646      -0.58328421
C        0.29134510      -1.40267367      -0.50369083
O       -0.56968425      -0.38047380      -0.16358644
P       -0.16966067       1.18835817      -0.05549130
O       -1.55606172       1.80428327       0.39492527
O        1.00297352       1.50379617       0.79603654
O        0.07046061       1.65311791      -1.57591069
C       -0.48616335      -2.64194118      -0.76556253
O       -1.69171884      -2.70066244      -0.74820240
O        0.30001518      -3.71522869      -1.03580520
O       -0.57268047       2.85453582       2.61630131
H        2.12739885      -0.38815205      -0.39293093
H        2.20021232      -2.18263782      -0.83155201
H       -0.44085282       3.80869702       2.61425070
H       -0.73552845       1.62144739      -2.10834346
H       -0.31428233      -4.45056683      -1.18549350
H       -1.40634815       2.27231812       1.27155979
H        0.25866993       2.48764930       2.24738865
18
Properties=species:S:1:pos:R:3 relative_energy_eV=0.00038396883610403165 branch=left pbc="F F F"
C        1.61445201      -1.31400773      -0.58330514
C        0.29096762      -1.40143603      -0.50517174
O       -0.57083508      -0.37959624      -0.16603585
P       -0.16992373       1.18861451      -0.05547684
O       -1.55563787       1.80417870       0.39603264
O        1.00155431       1.50336998       0.79782312
O        0.06981059       1.65447670      -1.57564004
C       -0.48637187      -2.64139682      -0.76578687
O       -1.69177404      -2.70216493      -0.74691217
O        0.30059591      -3.71389925      -1.03650145
O       -0.57306787       2.85447851       2.61443458
H        2.12718714      -0.38757701      -0.39164075
H        2.19959492      -2.18372502      -0.82863482
H       -0.43629140       3.80776922       2.61373704
H       -0.73649912       1.62093892      -2.10759885
H       -0.31212470      -4.45075392      -1.18545732
H       -1.40571784       2.27383274       1.27194726
H        0.25667860       2.48421790       2.24479594
18
Properties=species:S:1:pos:R:3 relative_energy_eV=0.0005294483817124274 branch=left pbc="F F F"
C        1.61401551      -1.31320064      -0.58343384
C        0.29055718      -1.40094769      -0.50664748
O       -0.57081871      -0.37886590      -0.16874706
P       -0.17083072       1.18873014      -0.05571943
O       -1.55593095       1.80476710       0.39689290
O        0.99980823       1.50282563       0.79862276
O        0.06913991       1.65589146      -1.57523807
C       -0.48676742      -2.64131135      -0.76587840
O       -1.69205324      -2.70363703      -0.74566050
O        0.30161958      -3.71251319      -1.03733530
O       -0.57338649       2.85500038       2.61241071
H        2.12721820      -0.38735011      -0.39002532
H        2.19851021      -2.18384357      -0.82571451
H       -0.43185056       3.80743456       2.61285245
H       -0.73728763       1.62015619      -2.10676045
H       -0.30996001      -4.45038906      -1.18519579
H       -1.40399792       2.27509143       1.27247577
H        0.25461243       2.47948189       2.24371029
18
Properties=species:S:1:pos:R:3 relative_energy_eV=0.000696779512509238 branch=left pbc="F F F"
C        1.61293027      -1.31237192      -0.58292333
C        0.28966950      -1.40100299      -0.50755093
O       -0.57130955      -0.37856099      -0.17094132
P       -0.17149571       1.18882236      -0.05626442
O       -1.55672372       1.80481535       0.39632137
O        0.99973966       1.50144043       0.79799029
O        0.06836889       1.65794762      -1.57500514
C       -0.48699274      -2.64157961      -0.76597371
O       -1.69228364      -2.70460775      -0.74452214
O        0.30302621      -3.71134775      -1.03817612
O       -0.57369334       2.85599619       2.61222516
H        2.12719797      -0.38745987      -0.38856316
H        2.19742791      -2.18278677      -0.82347876
H       -0.42744350       3.80793222       2.61159136
H       -0.73809004       1.61922413      -2.10624250
H       -0.30809706      -4.44954960      -1.18480212
H       -1.40236038       2.27491371       1.27161345
H        0.25272684       2.47549549       2.24531073
18
Properties=species:S:1:pos:R:3 relative_energy_eV=0.0009600205448805355 branch=left pbc="F F F"
C        1.61164713      -1.31193800      -0.58093652
C        0.28818723      -1.40008824      -0.50764251
O       -0.57473625      -0.37826824      -0.17298400
P       -0.17223236       1.18901990      -0.05760378
O       -1.55736010       1.80450755       0.39524581
O        1.00065877       1.49869833       0.79584834
O        0.06735318       1.66149681      -1.57529298
C       -0.48636759      -2.64135743      -0.76624255
O       -1.69159054      -2.70582083      -0.74315620
O        0.30460768      -3.71011073      -1.03953106
O       -0.57479556       2.85750950       2.61300657
H        2.12682958      -0.38772585      -0.38705098
H        2.19714176      -2.18169910      -0.82184497
H       -0.42118568       3.80865542       2.60931340
H       -0.73909462       1.61795045      -2.10624183
H       -0.30613794      -4.44896090      -1.18417696
H       -1.40065251       2.27430472       1.27009504
H        0.25032535       2.47114688       2.24980387
18
Properties=species:S:1:pos:R:3 relative_energy_eV=0.0013951171349617653 branch=left pbc="F F F"
C        1.61119363      -1.31183427      -0.57782813
C        0.28715139      -1.39828093      -0.50684708
O       -0.57938827      -0.37746941      -0.17562420
P       -0.17434157       1.18944796      -0.05937131
O       -1.55746345       1.80646222       0.39667123
O        0.99921157       1.49594076       0.79375629
O        0.06613796       1.66458409      -1.57624593
C       -0.48487643      -2.64080153      -0.76640258
O       -1.68978713      -2.70785167      -0.74173349
O        0.30605949      -3.70921796      -1.04162308
O       -0.57619681       2.85846136       2.61218000
H        2.12577088      -0.38725780      -0.38501820
H        2.19756448      -2.18143027      -0.82097343
H       -0.41379391       3.80796860       2.60461443
H       -0.73934171       1.61689572      -2.10822717
H       -0.30421114      -4.44936021      -1.18350613
H       -1.39917466       2.27669262       1.27145230
H        0.24808321       2.46437096       2.25533517
18
Properties=species:S:1:pos:R:3 relative_energy_eV=0.0016657640226185322 branch=left pbc="F F F"
C        1.61113313      -1.31150743      -0.57611928
C        0.28693183      -1.39781755      -0.50630734
O       -0.58094760      -0.37695289      -0.17782691
P       -0.17591108       1.18976501      -0.06019240
O       -1.55747087       1.80859287       0.39828199
O        0.99748175       1.49476070       0.79317448
O        0.06503202       1.66558972      -1.57695713
C       -0.48412613      -2.64096946      -0.76630152
O       -1.68887324      -2.70924069      -0.74096802
O        0.30703522      -3.70893999      -1.04298066
O       -0.57653772       2.85870071       2.61153380
H        2.12492954      -0.38645779      -0.38341178
H        2.19737528      -2.18112620      -0.82050861
H       -0.40951372       3.80714341       2.60090716
H       -0.73917720       1.61653422      -2.11063805
H       -0.30308867      -4.44971037      -1.18319547
H       -1.39884442       2.27934309       1.27314399
H        0.24716942       2.45961286       2.25897443
18
Properties=species:S:1:pos:R:3 relative_energy_eV=0.0023283595546672586 branch=left pbc="F F F"
C        1.61051845      -1.30980261      -0.57328445
C        0.28659939      -1.39854805      -0.50543822
O       -0.58192097      -0.37626514      -0.18327955
P       -0.17835330       1.19038511      -0.06128228
O       -1.55768409       1.81260115       0.40035303
O        0.99507795       1.49251735       0.79290745
O        0.06161239       1.66700499      -1.57829433
C       -0.48335599      -2.64248884      -0.76572194
O       -1.68802611      -2.71209265      -0.73948063
O        0.30942180      -3.70854962      -1.04557856
O       -0.57595586       2.85926512       2.61262807
H        2.12301501      -0.38408570      -0.37936790
H        2.19554932      -2.17921809      -0.81911405
H       -0.40074275       3.80591264       2.59250853
H       -0.73902947       1.61605141      -2.11728787
H       -0.30052031      -4.44985414      -1.18276623
H       -1.39944160       2.28436592       1.27503735
H        0.24583369       2.45012135       2.26807029
18
Properties=species:S:1:pos:R:3 relative_energy_eV=0.002879550571378786 branch=left pbc="F F F"
C        1.60933819      -1.30766465      -0.57229553
C        0.28586277      -1.39929184      -0.50534212
O       -0.58229331      -0.37595005      -0.18654235
P       -0.17886412       1.19092081      -0.06166079
O       -1.55844384       1.81347385       0.39903650
O        0.99558502       1.49072142       0.79309983
O        0.05878897       1.66804919      -1.57893386
C       -0.48350692      -2.64383187      -0.76508920
O       -1.68831792      -2.71417534      -0.73841154
O        0.31094497      -3.70812384      -1.04649454
O       -0.57416134       2.85980646       2.61721065
H        2.12140088      -0.38208154      -0.37592286
H        2.19383871      -2.17664351      -0.81762958
H       -0.39484455       3.80598992       2.58626746
H       -0.73921061       1.61572783      -2.12212725
H       -0.29842828      -4.44972510      -1.18305018
H       -1.40055418       2.28546394       1.27307628
H        0.24546309       2.44465449       2.27541779
18
Properties=species:S:1:pos:R:3 relative_energy_eV=0.003731776203494519 branch=left pbc="F F F"
C        1.60705803      -1.30386708      -0.57235929
C        0.28346587      -1.39702287      -0.50664044
O       -0.58585016      -0.37444610      -0.18758749
P       -0.18081889       1.19240402      -0.06241692
O       -1.56155544       1.81448537       0.39576561
O        0.99417932       1.48923316       0.79356011
O        0.05797214       1.66870657      -1.57943668
C       -0.48407016      -2.64402896      -0.76418119
O       -1.68872271      -2.71787667      -0.73619570
O        0.31204271      -3.70723635      -1.04522086
O       -0.56891042       2.85860975       2.62522241
H        2.11758915      -0.37882461      -0.36969854
H        2.19416846      -2.17197330      -0.81508217
H       -0.38746937       3.80426518       2.57402373
H       -0.73771994       1.61510282      -2.12611761
H       -0.29471074      -4.45058396      -1.18538007
H       -1.40080319       2.28488287       1.26977020
H        0.24675286       2.43549032       2.28258367
18
Properties=species:S:1:pos:R:3 relative_energy_eV=0.00474597485299455 branch=left pbc="F F F"
C        1.60508454      -1.30078561      -0.57252521
C        0.28089930      -1.39376645      -0.50882024
O       -0.59032988      -0.37280061      -0.18676097
P       -0.18494700       1.19378597      -0.06360056
O       -1.56495555       1.81822812       0.39527549
O        0.98799359       1.49006835       0.79409592
O        0.06064074       1.66811914      -1.57999021
C       -0.48455257      -2.64343284      -0.76369214
O       -1.68871227      -2.72093766      -0.73359970
O        0.31299734      -3.70652294      -1.04287228
O       -0.56340279       2.85527864       2.62833601
H        2.11335343      -0.37590251      -0.36383523
H        2.19649524      -2.16767593      -0.81296141
H       -0.38169525       3.79959429       2.56072967
H       -0.73452647       1.61446088      -2.12693091
H       -0.29107614      -4.45154501      -1.18829400
H       -1.39989519       2.28568290       1.27082541
H        0.24922650       2.42547142       2.28522913
18
Properties=species:S:1:pos:R:3 relative_energy_eV=0.005688382443622686 branch=left pbc="F F F"
C        1.60326011      -1.29920593      -0.57188503
C        0.27897840      -1.39339460      -0.51101338
O       -0.59318630      -0.37301734      -0.18682216
P       -0.18807616       1.19375189      -0.06450980
O       -1.56616308       1.82243967       0.39573010
O        0.98186016       1.49307919       0.79453250
O        0.06409218       1.66746509      -1.58043107
C       -0.48523524      -2.64369053      -0.76373458
O       -1.68917795      -2.72164408      -0.73147472
O        0.31453959      -3.70582924      -1.04078844
O       -0.56046258       2.85167791       2.62664954
H        2.11014843      -0.37424632      -0.36043486
H        2.19805354      -2.16393452      -0.81183781
H       -0.37753786       3.79456863       2.55168654
H       -0.73205908       1.61376462      -2.12531918
H       -0.28840479      -4.45075113      -1.19021552
H       -1.40024617       2.28609420       1.27366356
H        0.25221434       2.42019265       2.28681311
18
Properties=species:S:1:pos:R:3 relative_energy_eV=0.007278342862264253 branch=left pbc="F F F"
C        1.59883324      -1.29550553      -0.56859634
C        0.27541078      -1.39459006      -0.51074680
O       -0.59796808      -0.37452719      -0.18842749
P       -0.18837723       1.19225775      -0.06351130
O       -1.56517631       1.82526396       0.39178240
O        0.98159399       1.49476548       0.79507637
O        0.06663728       1.66707963      -1.57857634
C       -0.48674439      -2.64406550      -0.76261691
O       -1.69094710      -2.72149597      -0.72954005
O        0.31721327      -3.70252972      -1.03840571
O       -0.55770895       2.84616948       2.62359951
H        2.10411768      -0.37014407      -0.35667468
H        2.19691423      -2.15564068      -0.81107960
H       -0.37086642       3.78762628       2.53988198
H       -0.72958496       1.61282556      -2.12322783
H       -0.28427233      -4.44673336      -1.19199899
H       -1.40362525       2.28030456       1.27396509
H        0.25714811       2.41625954       2.28970548
18
Properties=species:S:1:pos:R:3 relative_energy_eV=0.008478981610096525 branch=left pbc="F F F"
C        1.59579083      -1.29214156      -0.56579776
C        0.27273805      -1.39389156      -0.50814316
O       -0.60165534      -0.37423230      -0.18898205
P       -0.18741659       1.19165836      -0.06184393
O       -1.56454979       1.82573476       0.38820042
O        0.98497869       1.49299053       0.79545258
O        0.06728211       1.66641082      -1.57616819
C       -0.48760691      -2.64328141      -0.76095575
O       -1.69190528      -2.72199516      -0.72911424
O        0.31836433      -3.69952464      -1.03738750
O       -0.55559504       2.84265212       2.62147579
H        2.09931104      -0.36607251      -0.35430545
H        2.19530871      -2.14980964      -0.81103472
H       -0.36725530       3.78336861       2.53204133
H       -0.72780814       1.61249535      -2.12265026
H       -0.28163218      -4.44415649      -1.19293373
H       -1.40581706       2.27443059       1.27300551
H        0.26006542       2.41268432       2.28974989
18
Properties=species:S:1:pos:R:3 relative_energy_eV=0.01162254859082168 branch=left pbc="F F F"
C        1.59064183      -1.28466839      -0.55996498
C        0.26750758      -1.38852948      -0.49935921
O       -0.60852883      -0.36949936      -0.18798918
P       -0.18589273       1.19300315      -0.05831325
O       -1.56536960       1.82662406       0.38338695
O        0.99156968       1.48524453       0.79671506
O        0.06996521       1.66324808      -1.57174184
C       -0.48896736      -2.63969534      -0.75626872
O       -1.69287487      -2.72476571      -0.72957709
O        0.31950440      -3.69328682      -1.03631029
O       -0.55015813       2.83480114       2.61313235
H        2.08826759      -0.35551998      -0.34933517
H        2.19234313      -2.13949426      -0.81185447
H       -0.36295057       3.77514430       2.51566821
H       -0.72305077       1.61215971      -2.12143922
H       -0.27685141      -4.44077935      -1.19484173
H       -1.40859741       2.26323732       1.27435503
H        0.26603979       2.40009659       2.28434628
18
Properties=species:S:1:pos:R:3 relative_energy_eV=0.014476354299404193 branch=left pbc="F F F"
C        1.58868663      -1.27966935      -0.55676378
C        0.26474606      -1.38425943      -0.49242252
O       -0.61053683      -0.36464008      -0.18401511
P       -0.18608477       1.19575520      -0.05889671
O       -1.56691521       1.82769050       0.38540097
O        0.99106300       1.47746754       0.79808954
O        0.07566564       1.66154942      -1.57311912
C       -0.48989909      -2.63722178      -0.75316074
O       -1.69322736      -2.72701961      -0.73044708
O        0.32021138      -3.69007565      -1.03640783
O       -0.54525319       2.82935841       2.60447811
H        2.08154142      -0.34770603      -0.34620162
H        2.19034332      -2.13442349      -0.81263906
H       -0.36318237       3.76974838       2.50545624
H       -0.71947542       1.61189072      -2.11943773
H       -0.27452115      -4.43943430      -1.19577874
H       -1.40969969       2.25982633       1.28015226
H        0.26913512       2.38848342       2.27632161
18
Properties=species:S:1:pos:R:3 relative_energy_eV=0.01912067679950269 branch=left pbc="F F F"
C        1.58524975      -1.27184493      -0.55356197
C        0.26211240      -1.38425954      -0.48543980
O       -0.61273841      -0.36551860      -0.17347709
P       -0.18554402       1.19527353      -0.06303429
O       -1.56369257       1.82577938       0.38932622
O        0.98985878       1.46434521       0.79882188
O        0.08346137       1.66590056      -1.57860991
C       -0.49112506      -2.63641142      -0.75107188
O       -1.69479364      -2.72693924      -0.73086591
O        0.32241005      -3.68565571      -1.03672086
O       -0.53964395       2.82222981       2.60378915
H        2.07786360      -0.33933566      -0.34318030
H        2.18449980      -2.12575700      -0.81180935
H       -0.36307578       3.76289202       2.49302156
H       -0.71592333       1.61223865      -2.11909301
H       -0.27227748      -4.43442912      -1.19532107
H       -1.41162639       2.25935276       1.28577875
H        0.26758240       2.37945949       2.26205658
18
Properties=species:S:1:pos:R:3 relative_energy_eV=0.027237241425609682 branch=left pbc="F F F"
C        1.57970546      -1.26207659      -0.55018549
C        0.25879867      -1.38509484      -0.47990477
O       -0.62137224      -0.37316640      -0.16033690
P       -0.18509656       1.18754509      -0.06193211
O       -1.55631138       1.82404625       0.38951748
O        0.99602919       1.45021159       0.79733115
O        0.08292203       1.67183235      -1.57427778
C       -0.49073803      -2.63479220      -0.74994065
O       -1.69566305      -2.72417965      -0.73035987
O        0.32465055      -3.67944789      -1.03648812
O       -0.53531373       2.81318253       2.61589895
H        2.07839102      -0.33279233      -0.34085759
H        2.17789296      -2.11361510      -0.80939305
H       -0.36081134       3.75278543       2.47707655
H       -0.70990510       1.61536159      -2.12586606
H       -0.27030897      -4.42691232      -1.19388894
H       -1.40905121       2.25911580       1.28542069
H        0.25877923       2.37531683       2.23879518
18
Properties=species:S:1:pos:R:3 relative_energy_eV=0.04594969390382175 branch=left pbc="F F F"
C        1.57574627      -1.25291268      -0.54700535
C        0.25539196      -1.37901981      -0.47486522
O       -0.63654199      -0.37897196      -0.14502025
P       -0.19301302       1.17669149      -0.04971805
O       -1.55538902       1.83752424       0.39742837
O        0.99842157       1.44054374       0.79607770
O        0.07515594       1.66732178      -1.55406921
C       -0.48651187      -2.62922192      -0.74884654
O       -1.69324620      -2.72011882      -0.72912226
O        0.32663149      -3.67428180      -1.03627846
O       -0.53111191       2.79797030       2.62068438
H        2.08134819      -0.32699000      -0.33883106
H        2.17756568      -2.10318759      -0.80744204
H       -0.36276212       3.73209241       2.45338652
H       -0.69291116       1.62322327      -2.13814179
H       -0.26969510      -4.42153229      -1.19281879
H       -1.39135552       2.26814811       1.29606491
H        0.24487434       2.36004166       2.18912582
18
Properties=species:S:1:pos:R:3 relative_energy_eV=0.07134497713195742 branch=left pbc="F F F"
C        1.57915834      -1.25108881      -0.54631391
C        0.25720723      -1.37193657      -0.47294516
O       -0.64331635      -0.37606885      -0.13495184
P       -0.21536786       1.18201826      -0.03696744
O       -1.56429301       1.86325306       0.41941097
O        0.98280977       1.44243212       0.80067989
O        0.07782798       1.65177423      -1.54018797
C       -0.48335723      -2.62644844      -0.74866491
O       -1.68826489      -2.71737992      -0.72808363
O        0.32819561      -3.67511124      -1.03690008
O       -0.52370204       2.77917856       2.59534545
H        2.08238213      -0.32378649      -0.33777842
H        2.18391982      -2.10248677      -0.80794922
H       -0.37251451       3.71254336       2.43521145
H       -0.67420656       1.62957789      -2.14227198
H       -0.27066507      -4.42177113      -1.19299191
H       -1.36813942       2.28915340       1.32728905
H        0.23492355       2.33346749       2.13867832
18
Properties=species:S:1:pos:R:3 relative_energy_eV=0.11458553569900687 branch=left pbc="F F F"
C        1.58118625      -1.25063577      -0.54614191
C        0.25850516      -1.36873517      -0.47235865
O       -0.64786822      -0.37326037      -0.13142777
P       -0.22555176       1.18817437      -0.02883930
O       -1.56545692       1.87614486       0.43444523
O        0.97989248       1.44062672       0.79859086
O        0.07803191       1.64424415      -1.53302747
C       -0.48237167      -2.62571297      -0.74868726
O       -1.68590375      -2.71645756      -0.72772001
O        0.32878071      -3.67626459      -1.03730431
O       -0.50739840       2.76618033       2.58402091
H        2.08250533      -0.32269896      -0.33737328
H        2.18756906      -2.10321680      -0.80850567
H       -0.37795328       3.71021687       2.42896899
H       -0.66693270       1.63218461      -2.14442290
H       -0.27108643      -4.42227042      -1.19315155
H       -1.36247202       2.29163342       1.32686630
H        0.21912176       2.32716744       2.12667646
18
Properties=species:S:1:pos:R:3 relative_energy_eV=0.1516094833605166 branch=left pbc="F F F"
C        1.58534088      -1.25191069      -0.54661198
C        0.26175970      -1.36885031      -0.47305124
O       -0.64396161      -0.37240531      -0.12757210
P       -0.24661556       1.19666162      -0.02743944
O       -1.57235618       1.89402112       0.45465407
O        0.96168428       1.44883750       0.80966703
O        0.08997393       1.63507729      -1.53505513
C       -0.48063720      -2.62637464      -0.74907012
O       -1.68383288      -2.71528028      -0.72721881
O        0.32922275      -3.67758159      -1.03768132
O       -0.52983027       2.75958895       2.56555107
H        2.08215613      -0.32208342      -0.33724835
H        2.19048930      -2.10462074      -0.80902731
H       -0.38249411       3.70225362       2.41991748
H       -0.65920346       1.63381648      -2.14224794
H       -0.27175317      -4.42309456      -1.19340440
H       -1.34733571       2.30945119       1.35792989
H        0.23999066       2.29981394       2.08851725
18
Properties=species:S:1:pos:R:3 relative_energy_eV=0.27519586116613937 branch=left pbc="F F F"
C        1.58838445      -1.25310882      -0.54702419
C        0.26724749      -1.37191027      -0.47463375
O       -0.63549278      -0.37175884      -0.12368536
P       -0.25911457       1.20030324      -0.03122005
O       -1.58982266       1.90352394       0.45323034
O        0.92589822       1.46420824       0.82740088
O        0.10578225       1.62608735      -1.54069158
C       -0.47833503      -2.62577551      -0.74915519
O       -1.68240357      -2.71432159      -0.72672853
O        0.32942913      -3.67903142      -1.03805714
O       -0.55838361       2.74514230       2.53612960
H        2.08172453      -0.32177026      -0.33731138
H        2.19251269      -2.10645950      -0.80947733
H       -0.38426986       3.68965213       2.40832216
H       -0.65129727       1.63492091      -2.13729200
H       -0.27229789      -4.42396220      -1.19367985
H       -1.32550576       2.34854081       1.42930906
H        0.26854175       2.27303969       2.04517300
18
Properties=species:S:1:pos:R:3 relative_energy_eV=0.46041661681738333 branch=left pbc="F F F"
C        1.59032160      -1.25483962      -0.54752133
C        0.26926061      -1.37097921      -0.47445434
O       -0.62257076      -0.37983965      -0.12364605
P       -0.28036880       1.20821658      -0.03539653
O       -1.60534079       1.88428161       0.40296566
O        0.89119568       1.48677855       0.85621615
O        0.11940410       1.61964162      -1.54520781
C       -0.47745223      -2.62549334      -0.74921609
O       -1.68156318      -2.71316959      -0.72625673
O        0.32914507      -3.67978082      -1.03823583
O       -0.55365877       2.71714401       2.48677990
H        2.08189966      -0.32133535      -0.33742784
H        2.19323552      -2.10793945      -0.80961858
H       -0.38534812       3.66372284       2.39596724
H       -0.64552948       1.63545537      -2.13179550
H       -0.27233975      -4.42454910      -1.19387665
H       -1.29426695       2.41077387       1.54268664
H        0.26657415       2.26923185       2.01864636
18
Properties=species:S:1:pos:R:3 relative_energy_eV=0.5670703010655416 branch=ts pbc="F F F"
C        1.59047889      -1.25521498      -0.54754244
C        0.26949105      -1.37068358      -0.47421749
O       -0.61917872      -0.38068298      -0.12337791
P       -0.29866148       1.21056361      -0.04088075
O       -1.60055779       1.87738119       0.39230306
O        0.89443672       1.49308739       0.86886634
O        0.12351714       1.61864736      -1.54451960
C       -0.47767091      -2.62580313      -0.74932729
O       -1.68138183      -2.71300828      -0.72619353
O        0.32912462      -3.67994679      -1.03827168
O       -0.55054089       2.70874518       2.47682412
H        2.08385506      -0.32242055      -0.33863678
H        2.19383122      -2.10773167      -0.80967739
H       -0.38774980       3.66357413       2.39471681
H       -0.64669311       1.63529754      -2.12751919
H       -0.27224611      -4.42463190      -1.19393650
H       -1.26204941       2.45833767       1.64236398
H        0.31198078       2.21438295       1.93901690
18
Properties=species:S:1:pos:R:3 relative_energy_eV=0.46305540284811286 branch=right pbc="F F F"
C        1.59049185      -1.25528864      -0.54741288
C        0.27027921      -1.37132725      -0.47417603
O       -0.61620765      -0.38074757      -0.12236921
P       -0.31746289       1.21477506      -0.04384576
O       -1.59587072       1.87050258       0.38185976
O        0.89875692       1.49844240       0.88064772
O        0.12761511       1.61798960      -1.54395974
C       -0.47784618      -2.62603299      -0.74940192
O       -1.68144512      -2.71321961      -0.72625356
O        0.32914387      -3.68002430      -1.03828606
O       -0.54977450       2.71560663       2.48605671
H        2.08587800      -0.32373261      -0.33994738
H        2.19441785      -2.10730369      -0.80976878
H       -0.39077189       3.66491037       2.39637924
H       -0.64772342       1.63518943      -2.12335531
H       -0.27217691      -4.42477179      -1.19400280
H       -1.23748228       2.49834193       1.72798233
H        0.36755201       2.14915658       1.84922630
18
Properties=species:S:1:pos:R:3 relative_energy_eV=0.2631558591128851 branch=right pbc="F F F"
C        1.59396032      -1.25649212      -0.54700092
C        0.27672260      -1.37596947      -0.47386385
O       -0.59872999      -0.37476561      -0.10902824
P       -0.34687744       1.21970110      -0.05236445
O       -1.64574094       1.85596970       0.31931953
O        0.86825717       1.52694704       0.92583177
O        0.14573954       1.61291857      -1.53901198
C       -0.47850055      -2.62811734      -0.74980695
O       -1.68302966      -2.71493347      -0.72695823
O        0.32934713      -3.68038220      -1.03840988
O       -0.56054835       2.75765479       2.55052382
H        2.08911688      -0.32471163      -0.34161446
H        2.19621783      -2.10618890      -0.81034337
H       -0.39150481       3.70108177       2.41765461
H       -0.63472225       1.63702301      -2.11580701
H       -0.27197184      -4.42531357      -1.19413315
H       -1.24092047       2.51244994       1.77837446
H        0.43055814       2.04559461       1.71601094
18
Properties=species:S:1:pos:R:3 relative_energy_eV=0.1446197639525053 branch=right pbc="F F F"
C        1.59994516      -1.25913076      -0.54778469
C        0.28028893      -1.37592433      -0.47112876
O       -0.58506339      -0.38137267      -0.09543038
P       -0.37198525       1.21973716      -0.06381464
O       -1.68300095       1.85016503       0.27565428
O        0.85198738       1.50389146       0.87659852
O        0.16115110       1.60694128      -1.53059836
C       -0.47897681      -2.62838610      -0.74957483
O       -1.68308264      -2.71428236      -0.72732481
O        0.32898760      -3.68035768      -1.03852386
O       -0.60661422       2.78833508       2.57384231
H        2.09346571      -0.32491435      -0.34366639
H        2.20187012      -2.10888487      -0.81208985
H       -0.39930164       3.72054909       2.43444412
H       -0.61360728       1.64188504      -2.10892869
H       -0.27103646      -4.42609569      -1.19437793
H       -1.21837264       2.55169673       1.86575244
H        0.47071887       1.99861422       1.66632418
18
Properties=species:S:1:pos:R:3 relative_energy_eV=0.10903234275247087 branch=right pbc="F F F"
C        1.60134468      -1.25999928      -0.54843445
C        0.28246567      -1.37745416      -0.47023908
O       -0.59129241      -0.38703089      -0.09141013
P       -0.39056352       1.21189030      -0.07589007
O       -1.67629907       1.85109985       0.27972153
O        0.85009310       1.50475297       0.87183309
O        0.16430724       1.60500675      -1.53190508
C       -0.47788884      -2.62799082      -0.74941617
O       -1.68198404      -2.71223565      -0.72713695
O        0.32903933      -3.68040419      -1.03864415
O       -0.59260607       2.79263043       2.58541505
H        2.09552864      -0.32574499      -0.34500617
H        2.20540123      -2.11077878      -0.81313342
H       -0.40525625       3.72287306       2.43725977
H       -0.60619561       1.64578792      -2.11469516
H       -0.27077946      -4.42637483      -1.19453760
H       -1.23610260       2.56229513       1.87003181
H        0.47816154       1.99414345       1.66555984
18
Properties=species:S:1:pos:R:3 relative_energy_eV=0.0736327145496034 branch=right pbc="F F F"
C        1.60659280      -1.26320920      -0.55042090
C        0.28649263      -1.38601185      -0.46677120
O       -0.60623297      -0.40803734      -0.08248658
P       -0.40695881       1.19774845      -0.08473349
O       -1.69161611       1.85765401       0.28042677
O        0.84229692       1.49069219       0.83300356
O        0.16964551       1.58923612      -1.53838979
C       -0.47133787      -2.63069870      -0.74946836
O       -1.67950719      -2.70599416      -0.72701317
O        0.32998583      -3.68301075      -1.03975176
O       -0.58666017       2.80827186       2.60810973
H        2.10218011      -0.32889431      -0.35026603
H        2.21357370      -2.11318165      -0.81585964
H       -0.41780068       3.74589998       2.45572870
H       -0.57737323       1.66309834      -2.14554955
H       -0.27006969      -4.42776450      -1.19534561
H       -1.27002779       2.60326725       1.92689916
H        0.50419064       1.97340051       1.65126084
18
Properties=species:S:1:pos:R:3 relative_energy_eV=0.06081213645666139 branch=right pbc="F F F"
C        1.60571218      -1.26427767      -0.55039023
C        0.28635108      -1.38898438      -0.46372138
O       -0.61165205      -0.41247228      -0.08312947
P       -0.41206205       1.19562595      -0.08492939
O       -1.69479102       1.85635628       0.28489822
O        0.84729233       1.48625674       0.82773732
O        0.16345635       1.57184628      -1.54359153
C       -0.47092602      -2.63511962      -0.74953843
O       -1.67347212      -2.70509029      -0.72804409
O        0.33233910      -3.68834593      -1.04132638
O       -0.58323507       2.81997130       2.60866515
H        2.10426445      -0.33095019      -0.35407858
H        2.21512950      -2.11232073      -0.81717891
H       -0.41940755       3.76062265       2.47347123
H       -0.56024773       1.67602091      -2.17407544
H       -0.27094434      -4.43085389      -1.19666172
H       -1.29231842       2.61732426       1.95815694
H        0.51188508       1.96685688       1.64310936
18
Properties=species:S:1:pos:R:3 relative_energy_eV=0.05399708180630114 branch=right pbc="F F F"
C        1.60347532      -1.26358108      -0.54875723
C        0.28397944      -1.38784601      -0.46271551
O       -0.60691312      -0.40856924      -0.08709428
P       -0.41015690       1.19582986      -0.08857273
O       -1.68553724       1.85097224       0.29748519
O        0.84878437       1.48437995       0.83226508
O        0.15962292       1.55466294      -1.55191388
C       -0.46821447      -2.63844229      -0.74886958
O       -1.67287061      -2.71451231      -0.73103632
O        0.33291621      -3.69400793      -1.04195793
O       -0.57767841       2.82584702       2.60218569
H        2.10095828      -0.32969360      -0.35692997
H        2.21041252      -2.11124113      -0.81786012
H       -0.41911340       3.76906775       2.49026643
H       -0.55014636       1.68622321      -2.19302622
H       -0.27190880      -4.43615470      -1.19914709
H       -1.30560035       2.62281317       1.97375715
H        0.50536437       1.97671841       1.64129401
18
Properties=species:S:1:pos:R:3 relative_energy_eV=0.05170793785509886 branch=right pbc="F F F"
C        1.60329161      -1.26341788      -0.54857248
C        0.28402710      -1.38963253      -0.46439595
O       -0.60383066      -0.40954528      -0.08707910
P       -0.40825950       1.19456528      -0.09306077
O       -1.68207228       1.84911283       0.30187544
O        0.84410390       1.48418960       0.83104933
O        0.16592411       1.54743032      -1.55848938
C       -0.46943627      -2.64180714      -0.74927107
O       -1.67353489      -2.72295819      -0.73284167
O        0.33335437      -3.69613306      -1.04109522
O       -0.57461364       2.82854399       2.60656719
H        2.09726816      -0.32666202      -0.35813338
H        2.20718410      -2.11245788      -0.81823426
H       -0.42227049       3.77342736       2.50000861
H       -0.54604045       1.69134800      -2.19438586
H       -0.27117659      -4.43805885      -1.20073488
H       -1.30626439       2.63041967       1.98241361
H        0.49971961       1.98410204       1.63375253
18
Properties=species:S:1:pos:R:3 relative_energy_eV=0.049684373603668064 branch=right pbc="F F F"
C        1.60228382      -1.26469033      -0.55040968
C        0.28297704      -1.39401096      -0.46635142
O       -0.60677165      -0.41426324      -0.08679457
P       -0.40741955       1.19142867      -0.09568053
O       -1.68079470       1.84931788       0.29938747
O        0.84371883       1.48648791       0.82825737
O        0.17190862       1.54122661      -1.56191284
C       -0.47071768      -2.64650353      -0.75074251
O       -1.67410069      -2.72900817      -0.73365716
O        0.33564360      -3.69870513      -1.04006521
O       -0.57169891       2.83218705       2.61388336
H        2.09336639      -0.32514966      -0.35976819
H        2.20705620      -2.11434901      -0.81851683
H       -0.42607781       3.77928575       2.51190329
H       -0.54161803       1.69730699      -2.19344708
H       -0.26908799      -4.43929064      -1.20222325
H       -1.30449760       2.63876505       1.99140835
H        0.49320389       1.99243102       1.62410209
18
Properties=species:S:1:pos:R:3 relative_energy_eV=0.047173714639939135 branch=right pbc="F F F"
C        1.59703015      -1.26842482      -0.55452308
C        0.27837909      -1.39877257      -0.46815047
O       -0.61260203      -0.41918675      -0.08855748
P       -0.40558334       1.18600727      -0.09746308
O       -1.67640698       1.85006862       0.28964426
O        0.84492079       1.49355547       0.82752592
O        0.17429901       1.52961215      -1.56221531
C       -0.46980994      -2.65304288      -0.75196320
O       -1.67355867      -2.73770756      -0.73515516
O        0.33906100      -3.70412533      -1.03952283
O       -0.56664715       2.83954003       2.61961559
H        2.08563854      -0.32840940      -0.36413532
H        2.20867035      -2.11486218      -0.81836580
H       -0.42910762       3.78943160       2.53575878
H       -0.53459430       1.70816677      -2.19251704
H       -0.26426907      -4.44513722      -1.20517070
H       -1.30217581       2.64577513       2.00064862
H        0.48412977       2.00997794       1.61391891
18
Properties=species:S:1:pos:R:3 relative_energy_eV=0.04626200501297717 branch=right pbc="F F F"
C        1.59460685      -1.27064133      -0.55585290
C        0.27667252      -1.40011958      -0.46823062
O       -0.61226562      -0.41961457      -0.08805121
P       -0.40670061       1.18523885      -0.09904065
O       -1.67714155       1.85149493       0.28420751
O        0.84098757       1.49574627       0.82702448
O        0.17540036       1.52384410      -1.56311848
C       -0.46935743      -2.65566341      -0.75150394
O       -1.67304945      -2.74151851      -0.73620144
O        0.33967053      -3.70655295      -1.04020507
O       -0.56477597       2.84274734       2.61999930
H        2.08252479      -0.33138778      -0.36715924
H        2.20899378      -2.11448863      -0.81848059
H       -0.43045677       3.79411180       2.54801929
H       -0.53169649       1.71373157      -2.19157377
H       -0.26096494      -4.45006914      -1.20648405
H       -1.30201437       2.64882631       2.00298542
H        0.48694062       2.01678098       1.61303851
18
Properties=species:S:1:pos:R:3 relative_energy_eV=0.045553672327514505 branch=right pbc="F F F"
C        1.59382011      -1.27260636      -0.55672477
C        0.27585095      -1.40248306      -0.46809769
O       -0.61156435      -0.42035336      -0.08576678
P       -0.40877853       1.18597210      -0.10041601
O       -1.68079236       1.85373958       0.27873977
O        0.83744575       1.49674258       0.82670421
O        0.17786504       1.51893060      -1.56549670
C       -0.47044574      -2.65880299      -0.75169886
O       -1.67379203      -2.74511577      -0.73684644
O        0.34069071      -3.70853844      -1.04094900
O       -0.56320678       2.84461022       2.62064755
H        2.08070298      -0.33226176      -0.37013720
H        2.20879071      -2.11599156      -0.81926405
H       -0.43338667       3.79755990       2.55930876
H       -0.52989326       1.71957602      -2.19004063
H       -0.25706118      -4.45431854      -1.20727992
H       -1.30088288       2.65402569       2.00365319
H        0.49201138       2.02178138       1.61303710
18
Properties=species:S:1:pos:R:3 relative_energy_eV=0.04497135934070684 branch=right pbc="F F F"
C        1.59434695      -1.27355396      -0.55696229
C        0.27560940      -1.40379098      -0.46705542
O       -0.61126387      -0.42083150      -0.08224764
P       -0.40869966       1.18654210      -0.09955112
O       -1.68232144       1.85490676       0.27422874
O        0.83922958       1.49663348       0.82834049
O        0.17676084       1.51598554      -1.56665594
C       -0.47228980      -2.66047213      -0.75257498
O       -1.67558998      -2.74879631      -0.73674529
O        0.34172657      -3.70874135      -1.04125636
O       -0.56279618       2.84407143       2.61982051
H        2.08084618      -0.33089415      -0.37290247
H        2.20675025      -2.11970878      -0.82077972
H       -0.43763569       3.79793049       2.56797833
H       -0.52997891       1.72584643      -2.18941668
H       -0.25331669      -4.45653764      -1.20708408
H       -1.29828452       2.66003939       1.99858866
H        0.49428090       2.02383738       1.61364777
18
Properties=species:S:1:pos:R:3 relative_energy_eV=0.04445670821587555 branch=right pbc="F F F"
C        1.59357295      -1.27448728      -0.55741553
C        0.27495736      -1.40383142      -0.46554668
O       -0.61029107      -0.42147129      -0.07782458
P       -0.40719881       1.18502040      -0.09903317
O       -1.68005533       1.85534802       0.27126645
O        0.84118576       1.49589234       0.82871655
O        0.17392401       1.51263323      -1.56691638
C       -0.47283658      -2.66086135      -0.75224892
O       -1.67607566      -2.75252658      -0.73663407
O        0.34250655      -3.70783260      -1.04154280
O       -0.56406433       2.84410306       2.61803299
H        2.08130576      -0.33178404      -0.37669540
H        2.20312344      -2.12235407      -0.82215528
H       -0.44184148       3.79870193       2.57866075
H       -0.52983379       1.73400222      -2.18906450
H       -0.24965793      -4.45819800      -1.20652188
H       -1.29653037       2.66620555       1.99122668
H        0.49518347       2.02390605       1.61306827
18
Properties=species:S:1:pos:R:3 relative_energy_eV=0.04341296921484172 branch=right pbc="F F F"
C        1.59035156      -1.27712329      -0.55986924
C        0.27287446      -1.40501473      -0.46220037
O       -0.60871811      -0.42369706      -0.06659428
P       -0.40477358       1.18185198      -0.09998201
O       -1.67469794       1.85783750       0.27022911
O        0.84306501       1.49318350       0.82627661
O        0.17214460       1.50552615      -1.57018077
C       -0.47251151      -2.66171906      -0.74971937
O       -1.67527074      -2.75621350      -0.73517552
O        0.34601362      -3.70522359      -1.04227246
O       -0.57087611       2.84456315       2.61276973
H        2.08352656      -0.33734391      -0.38548206
H        2.19547746      -2.12636486      -0.82500646
H       -0.44971131       3.80021600       2.60220679
H       -0.53097060       1.75267365      -2.18332739
H       -0.24273343      -4.45857165      -1.20436068
H       -1.29371075       2.67794938       1.97115759
H        0.49789484       2.01993646       1.61090321
18
Properties=species:S:1:pos:R:3 relative_energy_eV=0.04311468171727029 branch=right pbc="F F F"
C        1.59016995      -1.27777776      -0.56106008
C        0.27257767      -1.40538430      -0.46136644
O       -0.60970068      -0.42363420      -0.06558210
P       -0.40442299       1.18250126      -0.09976708
O       -1.67409890       1.85898686       0.27250072
O        0.84409250       1.49297970       0.82628807
O        0.17314335       1.50385711      -1.57142705
C       -0.47211867      -2.66172377      -0.74906598
O       -1.67490547      -2.75490756      -0.73385523
O        0.34724457      -3.70490950      -1.04196850
O       -0.57321153       2.84330228       2.61039793
H        2.08444934      -0.33837151      -0.38650613
H        2.19534665      -2.12753500      -0.82599460
H       -0.45056826       3.79882039       2.60440346
H       -0.53259962       1.75594900      -2.17984665
H       -0.24259234      -4.45716090      -1.20378794
H       -1.29311418       2.67881379       1.96480229
H        0.49768266       2.01866021       1.61120775
18
Properties=species:S:1:pos:R:3 relative_energy_eV=0.04293030212647864 branch=right pbc="F F F"
C        1.59080545      -1.27845318      -0.56211752
C        0.27292977      -1.40522317      -0.46085778
O       -0.61055411      -0.42320153      -0.06687166
P       -0.40407105       1.18293292      -0.09888808
O       -1.67348898       1.85996069       0.27352078
O        0.84502229       1.49368156       0.82696725
O        0.17278147       1.50047077      -1.57158605
C       -0.47172560      -2.66162150      -0.74838797
O       -1.67458924      -2.75473436      -0.73243902
O        0.34733550      -3.70532188      -1.04107444
O       -0.57428535       2.84178486       2.60837345
H        2.08464731      -0.33861099      -0.38715808
H        2.19619469      -2.12883052      -0.82737381
H       -0.45161137       3.79718344       2.60617793
H       -0.53309195       1.75969730      -2.17704088
H       -0.24309837      -4.45690640      -1.20396951
H       -1.29306056       2.68028746       1.96069146
H        0.49723415       2.01937063       1.61140634
18
Properties=species:S:1:pos:R:3 relative_energy_eV=0.042698777600890025 branch=right pbc="F F F"
C        1.59159611      -1.27954925      -0.56333553
C        0.27400708      -1.40577916      -0.46095121
O       -0.60927761      -0.42424700      -0.06724190
P       -0.40384421       1.18103104      -0.09867367
O       -1.67168513       1.86139022       0.27230126
O        0.84503088       1.49379564       0.82610789
O        0.17061251       1.49312091      -1.57220196
C       -0.47122531      -2.66229821      -0.74625425
O       -1.67399337      -2.75607382      -0.72990393
O        0.34683277      -3.70622192      -1.03936036
O       -0.57658756       2.84115595       2.60657505
H        2.08532209      -0.33978985      -0.38986881
H        2.19599929      -2.12985652      -0.83002565
H       -0.45489546       3.79626651       2.61404284
H       -0.53120105       1.77049224      -2.17332966
H       -0.24343052      -4.45757720      -1.20448210
H       -1.29411415       2.68629132       1.95625385
H        0.49822773       2.02031517       1.60972054
18
Properties=species:S:1:pos:R:3 relative_energy_eV=0.04251136769744335 branch=right pbc="F F F"
C        1.59245542      -1.27975283      -0.56404932
C        0.27517799      -1.40725862      -0.46202057
O       -0.60722837      -0.42604757      -0.06632529
P       -0.40377514       1.17908234      -0.09951012
O       -1.67092242       1.86167851       0.27021373
O        0.84470443       1.49293800       0.82542293
O        0.16973133       1.48875388      -1.57390350
C       -0.47109166      -2.66360662      -0.74458464
O       -1.67390387      -2.75596215      -0.72687549
O        0.34628200      -3.70782281      -1.03772890
O       -0.57894361       2.84107803       2.60625503
H        2.08680024      -0.34017413      -0.39145313
H        2.19638429      -2.12926992      -0.83207389
H       -0.45644072       3.79606426       2.61878980
H       -0.52970050       1.78008926      -2.17085539
H       -0.24518431      -4.45764839      -1.20478637
H       -1.29582935       2.68952669       1.95467973
H        0.49885835       2.02079810       1.60817774
18
Properties=species:S:1:pos:R:3 relative_energy_eV=0.042195856953185285 branch=right pbc="F F F"
C        1.59528576      -1.27932041      -0.56588566
C        0.27809190      -1.40883557      -0.46348732
O       -0.60395059      -0.42814722      -0.06494627
P       -0.40267418       1.17689784      -0.10080750
O       -1.67026149       1.86054269       0.26611219
O        0.84494200       1.49111790       0.82636242
O        0.16857197       1.48395940      -1.57716712
C       -0.47060095      -2.66480899      -0.74182116
O       -1.67372244      -2.75355879      -0.71966640
O        0.34384324      -3.71142998      -1.03435266
O       -0.58378541       2.83907527       2.60518491
H        2.09024531      -0.33967552      -0.39220965
H        2.19976990      -2.12770156      -0.83605709
H       -0.45691216       3.79352060       2.62036588
H       -0.52931898       1.79666512      -2.16540559
H       -0.25146356      -4.45733929      -1.20503512
H       -1.29891449       2.69030176       1.95083640
H        0.49822835       2.02120272       1.60735203
18
Properties=species:S:1:pos:R:3 relative_energy_eV=0.04177401928245672 branch=right pbc="F F F"
C        1.59890618      -1.27917048      -0.56940989
C        0.28176066      -1.40871855      -0.46172244
O       -0.60078358      -0.42861037      -0.06219525
P       -0.40025486       1.17589854      -0.10265655
O       -1.66988602       1.85734542       0.26048772
O        0.84528253       1.48938893       0.82818390
O        0.16745925       1.48150897      -1.58076064
C       -0.46928215      -2.66436154      -0.73839570
O       -1.67256960      -2.75081060      -0.71164377
O        0.33937020      -3.71502847      -1.03236709
O       -0.58847343       2.83589965       2.60387625
H        2.09281499      -0.33940226      -0.39221006
H        2.20547849      -2.12682190      -0.84074245
H       -0.45706800       3.78987157       2.61783066
H       -0.52982111       1.81556828      -2.15922343
H       -0.25957729      -4.45847719      -1.20394420
H       -1.30158408       2.68811064       1.94654789
H        0.49560206       2.02027522       1.60771726
18
Properties=species:S:1:pos:R:3 relative_energy_eV=0.04156021418020828 branch=right pbc="F F F"
C        1.59967704      -1.28039544      -0.57115391
C        0.28310593      -1.40969634      -0.45898944
O       -0.59850690      -0.42889730      -0.06025413
P       -0.39957984       1.17539636      -0.10400823
O       -1.66970894       1.85649358       0.25786019
O        0.84484292       1.48991762       0.82728298
O        0.16680298       1.47989687      -1.58252472
C       -0.46862622      -2.66478862      -0.73610319
O       -1.67183365      -2.75089159      -0.70942373
O        0.33811451      -3.71569654      -1.03396274
O       -0.58905863       2.83536468       2.60352729
H        2.09216294      -0.34045650      -0.39366523
H        2.20686017      -2.12738791      -0.84301044
H       -0.45925386       3.78953900       2.61895684
H       -0.52782019       1.82574415      -2.15697338
H       -0.26138950      -4.45980193      -1.20188840
H       -1.30237620       2.68901421       1.94641551
H        0.49396171       2.01911155       1.60728689
18
Properties=species:S:1:pos:R:3 relative_energy_eV=0.04132564049359644 branch=right pbc="F F F"
C        1.60113832      -1.28228436      -0.57244740
C        0.28522294      -1.41279555      -0.45737850
O       -0.59437197      -0.43039969      -0.05867385
P       -0.39898055       1.17405263      -0.10550818
O       -1.66920370       1.85639271       0.25462397
O        0.84453938       1.49164876       0.82624065
O        0.16546726       1.47596768      -1.58533736
C       -0.46829712      -2.66666762      -0.73301540
O       -1.67164886      -2.75029554      -0.70458765
O        0.33712794      -3.71727542      -1.03532260
O       -0.59060895       2.83422580       2.60224792
H        2.09229418      -0.34144160      -0.39626613
H        2.20847110      -2.12779263      -0.84703762
H       -0.46239581       3.78845099       2.62087430
H       -0.52428316       1.84267952      -2.15225881
H       -0.26450208      -4.46039697      -1.19883925
H       -1.30406400       2.68990945       1.94523592
H        0.49146941       2.01848761       1.60682208
18
Properties=species:S:1:pos:R:3 relative_energy_eV=0.04109274323127465 branch=right pbc="F F F"
C        1.60335575      -1.28408116      -0.57177841
C        0.28703458      -1.41413152      -0.45821832
O       -0.59165611      -0.43104065      -0.05805431
P       -0.39812601       1.17368030      -0.10604951
O       -1.66879712       1.85576497       0.25318966
O        0.84460486       1.49501307       0.82626378
O        0.16437137       1.47410052      -1.58709327
C       -0.46856649      -2.66705321      -0.73246770
O       -1.67199237      -2.74955543      -0.69782208
O        0.33544578      -3.71832509      -1.03621035
O       -0.59255212       2.83227129       2.60052985
H        2.09378325      -0.34174777      -0.39818070
H        2.21043262      -2.12875583      -0.85097656
H       -0.46366189       3.78635517       2.61633563
H       -0.52101928       1.85815081      -2.14712784
H       -0.26801253      -4.46083173      -1.19484824
H       -1.30559307       2.68428056       1.94362386
H        0.48832317       2.01837137       1.60825655
18
Properties=species:S:1:pos:R:3 relative_energy_eV=0.04093699365694192 branch=right pbc="F F F"
C        1.60359328      -1.28514428      -0.57132169
C        0.28680503      -1.41294802      -0.45939850
O       -0.59168277      -0.43046297      -0.05732830
P       -0.39811687       1.17416986      -0.10613102
O       -1.66908910       1.85514026       0.25400708
O        0.84439318       1.49719962       0.82524660
O        0.16456080       1.47391916      -1.58697235
C       -0.46900148      -2.66616366      -0.73346678
O       -1.67209261      -2.75089552      -0.69506672
O        0.33471832      -3.71741968      -1.03778859
O       -0.59298922       2.83206616       2.60107513
H        2.09480778      -0.34300932      -0.39953420
H        2.20976291      -2.13041358      -0.85163394
H       -0.46488407       3.78646019       2.61214318
H       -0.51797671       1.86429924      -2.14604849
H       -0.26739213      -4.46218387      -1.19186954
H       -1.30582558       2.67964105       1.94477731
H        0.48778366       2.01821101       1.60868286
18
Properties=species:S:1:pos:R:3 relative_energy_eV=0.04062778383740806 branch=right pbc="F F F"
C        1.60261657      -1.28584098      -0.57560258
C        0.28607952      -1.41208530      -0.46168509
O       -0.59031605      -0.42969000      -0.05645733
P       -0.39786749       1.17447866      -0.10645752
O       -1.66970518       1.85409042       0.25431517
O        0.84489040       1.49866764       0.82416499
O        0.16429345       1.47037576      -1.58804026
C       -0.46966477      -2.66648703      -0.73177715
O       -1.67234284      -2.75302855      -0.68908038
O        0.33433012      -3.71657988      -1.04007300
O       -0.59538274       2.83094080       2.60339940
H        2.09833736      -0.34679563      -0.40226789
H        2.20676475      -2.13323323      -0.85187211
H       -0.46984134       3.78594857       2.60710678
H       -0.51128239       1.88103306      -2.14222306
H       -0.26586848      -4.46438198      -1.18713382
H       -1.30631526       2.67493170       1.94565640
H        0.48864890       2.02012151       1.60739938
18
Properties=species:S:1:pos:R:3 relative_energy_eV=0.04053259497595718 branch=right pbc="F F F"
C        1.60282446      -1.28625227      -0.57802598
C        0.28645264      -1.41290761      -0.46232534
O       -0.58908044      -0.42979240      -0.05697860
P       -0.39712648       1.17433430      -0.10660682
O       -1.66917069       1.85379496       0.25368217
O        0.84536940       1.49943718       0.82511603
O        0.16323065       1.46868345      -1.58936239
C       -0.46988226      -2.66725113      -0.73030583
O       -1.67260920      -2.75305974      -0.68471534
O        0.33407960      -3.71698186      -1.04037940
O       -0.59692850       2.82964744       2.60306895
H        2.09987157      -0.34777966      -0.40351493
H        2.20614354      -2.13461148      -0.85308921
H       -0.47200478       3.78458687       2.60426806
H       -0.50825222       1.89151269      -2.13879423
H       -0.26664411      -4.46460436      -1.18503776
H       -1.30713347       2.67170002       1.94485381
H        0.48823485       2.02200904       1.60751870
18
Properties=species:S:1:pos:R:3 relative_energy_eV=0.04047325776627986 branch=right pbc="F F F"
C        1.60327338      -1.28724963      -0.57965275
C        0.28700218      -1.41369486      -0.46207894
O       -0.58846218      -0.43030877      -0.05717786
P       -0.39642646       1.17373264      -0.10715662
O       -1.66798686       1.85405769       0.25261237
O        0.84537607       1.49936001       0.82567709
O        0.16217916       1.46691706      -1.59087575
C       -0.46979007      -2.66780662      -0.72893973
O       -1.67244388      -2.75373319      -0.68079654
O        0.33391010      -3.71737699      -1.04001451
O       -0.59822504       2.82918308       2.60212003
H        2.10028943      -0.34847025      -0.40556636
H        2.20554757      -2.13653589      -0.85499632
H       -0.47449371       3.78413713       2.60420208
H       -0.50519535       1.90170885      -2.13564210
H       -0.26701434      -4.46490090      -1.18378929
H       -1.30848462       2.66992642       1.94440198
H        0.48831919       2.02351961       1.60704504
18
Properties=species:S:1:pos:R:3 relative_energy_eV=0.040378081484959694 branch=right pbc="F F F"
C        1.60296338      -1.28877520      -0.58093157
C        0.28685113      -1.41377067      -0.46169198
O       -0.58873598      -0.43040327      -0.05767629
P       -0.39607697       1.17326878      -0.10804755
O       -1.66683580       1.85538944       0.25124528
O        0.84540940       1.49644679       0.82550673
O        0.16214918       1.46594362      -1.59184249
C       -0.46943445      -2.66826070      -0.72667677
O       -1.67177618      -2.75571460      -0.67701319
O        0.33452944      -3.71725236      -1.03866590
O       -0.59893768       2.82977571       2.60171652
H        2.09988953      -0.34981365      -0.40938864
H        2.20334832      -2.13927873      -0.85684630
H       -0.47894584       3.78528417       2.60525324
H       -0.50117688       1.91156501      -2.13229824
H       -0.26558095      -4.46519887      -1.18375181
H       -1.31039342       2.66881382       1.94589372
H        0.49012842       2.02444604       1.60458699
18
Properties=species:S:1:pos:R:3 relative_energy_eV=0.0403266840003198 branch=right pbc="F F F"
C        1.60256227      -1.28895717      -0.58065063
C        0.28643588      -1.41354375      -0.46189331
O       -0.58879076      -0.42961682      -0.05868178
P       -0.39583859       1.17391090      -0.10798184
O       -1.66701897       1.85591718       0.25070513
O        0.84606079       1.49477965       0.82603363
O        0.16319003       1.46759611      -1.59123228
C       -0.46946628      -2.66846324      -0.72557523
O       -1.67179576      -2.75600753      -0.67557493
O        0.33481685      -3.71727626      -1.03790902
O       -0.59843282       2.82952911       2.60155819
H        2.09997066      -0.35008914      -0.41068264
H        2.20277731      -2.13922511      -0.85712372
H       -0.48036291       3.78535838       2.60254420
H       -0.50091313       1.91301603      -2.13107568
H       -0.26539644      -4.46489921      -1.18411381
H       -1.31067747       2.66659416       1.94678204
H        0.49025403       2.02384204       1.60424341
