18
Properties=species:S:1:pos:R:3 relative_energy_eV=2.498854504319752 branch=ts pbc="F F F"
C        0.34594181       1.34589956       1.49051810
C        0.09564865       1.27894793       0.13366365
O        0.85056021       0.71597304      -0.73547534
P        0.83476483      -1.56207974      -0.87683754
O        2.08497002      -1.37297059      -1.62951194
O        0.65348928      -3.14588396      -0.48214776
O       -0.67232396      -1.35302912      -1.29053075
C       -1.26448984       1.69008595      -0.40946581
O       -1.79891166       1.10488717      -1.33590610
O       -1.83275105       2.73960635       0.20280174
O        0.92632239      -1.23053232       0.89492645
H        1.37246935       1.34319583       1.83798287
H       -0.37316246       1.81416285       2.14240850
H        1.46069960      -3.59450973      -0.76580416
H       -0.96710099      -0.42265266      -1.46979265
H       -2.67746014       2.90568848      -0.24892370
H        0.51343676      -0.28307630       1.24921728
H        0.44789772      -1.97370947       1.29287578
