18
Properties=species:S:1:pos:R:3 relative_energy_eV=0.0 branch=left pbc="F F F"
O        0.29002364       2.18877129       0.27822185
C       -0.47838559       1.34895673       0.67730383
O       -1.34106846       1.64160513       1.66684457
C       -0.57997371      -0.06068193       0.10512126
O        0.59118858      -0.41059893      -0.61758754
P        2.00694456      -0.37806476       0.20459135
O        1.81670004      -0.51513882       1.66611463
O        2.85149696      -1.52414500      -0.53845434
O        2.77929449       0.90292513      -0.35005757
C       -1.76873579      -0.18076830      -0.83734539
O       -2.08213758      -1.55386548      -0.97799332
H       -1.83632746       0.85228574       1.92888548
H       -0.72658899      -0.77099629       0.92337117
H        2.87895450      -2.33062618      -0.00975954
H        2.22754663       1.69114129      -0.20186995
H       -2.62104235       0.36724307      -0.42081865
H       -1.49595869       0.28755241      -1.78616200
H       -2.68801599      -1.65772082      -1.71859715
18
Properties=species:S:1:pos:R:3 relative_energy_eV=2.4786029825918376e-05 branch=left pbc="F F F"
O        0.29027630       2.18882199       0.27816510
C       -0.47840751       1.34921169       0.67733953
O       -1.34162075       1.64202097       1.66647288
C       -0.58024315      -0.06056249       0.10551004
O        0.59083166      -0.41027265      -0.61737867
P        2.00676174      -0.37815951       0.20449376
O        1.81750894      -0.51579535       1.66607339
O        2.85089850      -1.52428052      -0.53887466
O        2.77921867       0.90281049      -0.35008280
C       -1.76874835      -0.18090066      -0.83700519
O       -2.08183905      -1.55385680      -0.97783968
H       -1.83701611       0.85292626       1.92914415
H       -0.72674891      -0.77104557       0.92366062
H        2.87867172      -2.33070484      -0.01008427
H        2.22724623       1.69096554      -0.20238987
H       -2.62106031       0.36684619      -0.42054485
H       -1.49540047       0.28770054      -1.78542177
H       -2.68641437      -1.65785100      -1.71942904
18
Properties=species:S:1:pos:R:3 relative_energy_eV=9.212755685439333e-05 branch=left pbc="F F F"
O        0.29093329       2.18889784       0.27892844
C       -0.47884545       1.34990830       0.67757560
O       -1.34315520       1.64369666       1.66549512
C       -0.58066826      -0.06031806       0.10696637
O        0.59021476      -0.40935797      -0.61610682
P        2.00664679      -0.37841858       0.20434298
O        1.81965635      -0.51842694       1.66590503
O        2.84820196      -1.52494390      -0.54079680
O        2.77886175       0.90258564      -0.35050184
C       -1.76868032      -0.18101961      -0.83603479
O       -2.08045177      -1.55431496      -0.97713523
H       -1.83902471       0.85535753       1.92991985
H       -0.72733262      -0.77131098       0.92480186
H        2.87743593      -2.33064255      -0.01101478
H        2.22568575       1.69026480      -0.20476530
H       -2.62149953       0.36647841      -0.41988861
H       -1.49348122       0.28877014      -1.78355853
H       -2.68058266      -1.65933148      -1.72232384
18
Properties=species:S:1:pos:R:3 relative_energy_eV=0.00012290209269849584 branch=left pbc="F F F"
O        0.29102542       2.18876240       0.27951336
C       -0.47923022       1.35007899       0.67779595
O       -1.34382200       1.64468883       1.66508947
C       -0.58066323      -0.06030719       0.10771843
O        0.59012810      -0.40900450      -0.61543007
P        2.00679801      -0.37854215       0.20429792
O        1.82054670      -0.51970442       1.66582550
O        2.84684955      -1.52536753      -0.54191110
O        2.77870463       0.90257655      -0.35071034
C       -1.76857386      -0.18098944      -0.83558287
O       -2.07992990      -1.55458701      -0.97690583
H       -1.83971096       0.85661143       1.93015087
H       -0.72740484      -0.77141674       0.92547442
H        2.87670702      -2.33046148      -0.01130170
H        2.22491403       1.69000170      -0.20589992
H       -2.62177682       0.36648544      -0.41965434
H       -1.49271133       0.28927148      -1.78287557
H       -2.67793547      -1.66022206      -1.72378550
18
Properties=species:S:1:pos:R:3 relative_energy_eV=0.00019057582539971918 branch=left pbc="F F F"
O        0.29084638       2.18821677       0.28033466
C       -0.47986805       1.35006256       0.67847990
O       -1.34485093       1.64642308       1.66462221
C       -0.58049514      -0.06043171       0.10884691
O        0.59016835      -0.40859566      -0.61453665
P        2.00726320      -0.37873535       0.20420414
O        1.82182524      -0.52138991       1.66573283
O        2.84508824      -1.52613040      -0.54377832
O        2.77860121       0.90276871      -0.35083614
C       -1.76831641      -0.18094187      -0.83499941
O       -2.07978804      -1.55471242      -0.97696078
H       -1.84019282       0.85843027       1.93025690
H       -0.72681280      -0.77142251       0.92671836
H        2.87541254      -2.32999387      -0.01130509
H        2.22393745       1.68987071      -0.20724335
H       -2.62202518       0.36634283      -0.41952258
H       -1.49206457       0.28960368      -1.78214982
H       -2.67481388      -1.66149061      -1.72605505
18
Properties=species:S:1:pos:R:3 relative_energy_eV=0.0002185856064897962 branch=left pbc="F F F"
O        0.29081607       2.18796320       0.28059201
C       -0.47998418       1.35006788       0.67900565
O       -1.34529916       1.64714261       1.66460801
C       -0.58051198      -0.06042446       0.10927509
O        0.59010617      -0.40848405      -0.61424709
P        2.00742771      -0.37885349       0.20411536
O        1.82237041      -0.52190686       1.66568732
O        2.84455104      -1.52647644      -0.54453890
O        2.77858760       0.90287327      -0.35078022
C       -1.76822775      -0.18094995      -0.83486512
O       -2.07993472      -1.55454276      -0.97706119
H       -1.84029926       0.85902794       1.93024014
H       -0.72632544      -0.77125640       0.92732440
H        2.87490790      -2.32982915      -0.01119831
H        2.22355707       1.68986169      -0.20769052
H       -2.62198929       0.36615245      -0.41964788
H       -1.49210371       0.28946745      -1.78200548
H       -2.67373367      -1.66195861      -1.72700455
18
Properties=species:S:1:pos:R:3 relative_energy_eV=0.0002516104723326862 branch=left pbc="F F F"
O        0.29100728       2.18785318       0.28097787
C       -0.47993444       1.35025735       0.67975684
O       -1.34576198       1.64785344       1.66482591
C       -0.58069933      -0.06022792       0.10974000
O        0.58984338      -0.40840019      -0.61391737
P        2.00744689      -0.37905505       0.20395607
O        1.82302299      -0.52239430       1.66560572
O        2.84400631      -1.52692081      -0.54528719
O        2.77849197       0.90289243      -0.35067747
C       -1.76818749      -0.18095251      -0.83480573
O       -2.07988039      -1.55428783      -0.97703600
H       -1.84060564       0.85956738       1.93024671
H       -0.72589234      -0.77086152       0.92806420
H        2.87450138      -2.32977156      -0.01124258
H        2.22295712       1.68970105      -0.20838161
H       -2.62192484       0.36596078      -0.41996977
H       -1.49231940       0.28919878      -1.78197612
H       -2.67215666      -1.66253839      -1.72807076
18
Properties=species:S:1:pos:R:3 relative_energy_eV=0.00037975728628225625 branch=left pbc="F F F"
O        0.29260530       2.18857995       0.28352458
C       -0.47951437       1.35176570       0.68204768
O       -1.34665210       1.64938860       1.66639061
C       -0.58175876      -0.05871733       0.11127937
O        0.58823937      -0.40827222      -0.61271799
P        2.00671590      -0.38007905       0.20328536
O        1.82515991      -0.52386985       1.66512499
O        2.84194279      -1.52819121      -0.54724464
O        2.77762765       0.90218990      -0.35053106
C       -1.76831066      -0.18070359      -0.83466680
O       -2.07793148      -1.55411340      -0.97584112
H       -1.84274168       0.86118701       1.93041561
H       -0.72602756      -0.76879855       0.93055264
H        2.87414345      -2.33053355      -0.01249133
H        2.21994286       1.68817933      -0.21198128
H       -2.62229174       0.36631936      -0.42146360
H       -1.49319409       0.28846569      -1.78240580
H       -2.66403991      -1.66492253      -1.73146847
18
Properties=species:S:1:pos:R:3 relative_energy_eV=0.0004636824924091343 branch=left pbc="F F F"
O        0.29348510       2.18921967       0.28532044
C       -0.47948687       1.35264651       0.68280411
O       -1.34672573       1.64985019       1.66725518
C       -0.58221797      -0.05782647       0.11200956
O        0.58739743      -0.40822408      -0.61214018
P        2.00623013      -0.38063744       0.20299686
O        1.82616415      -0.52459533       1.66488624
O        2.84082759      -1.52869250      -0.54800721
O        2.77707332       0.90166129      -0.35054920
C       -1.76836882      -0.18049044      -0.83453350
O       -2.07639624      -1.55448896      -0.97508888
H       -1.84398504       0.86203113       1.93054974
H       -0.72661014      -0.76761522       0.93175238
H        2.87421206      -2.33115297      -0.01339760
H        2.21819922       1.68715853      -0.21409702
H       -2.62281207       0.36685856      -0.42223739
H       -1.49350780       0.28826894      -1.78277022
H       -2.65956342      -1.66609717      -1.73294455
18
Properties=species:S:1:pos:R:3 relative_energy_eV=0.0006509264712803997 branch=left pbc="F F F"
O        0.29471806       2.19039342       0.28941361
C       -0.48008182       1.35387886       0.68314639
O       -1.34601522       1.65018343       1.66858602
C       -0.58255251      -0.05623688       0.11275687
O        0.58644717      -0.40785830      -0.61142788
P        2.00577881      -0.38147550       0.20289700
O        1.82773236      -0.52593679       1.66487610
O        2.83890493      -1.52955735      -0.54912879
O        2.77608900       0.90076188      -0.35117293
C       -1.76854494      -0.18012390      -0.83393268
O       -2.07448867      -1.55568436      -0.97367120
H       -1.84591411       0.86373592       1.93071331
H       -0.72788805      -0.76481558       0.93355030
H        2.87452065      -2.33226803      -0.01504898
H        2.21519747       1.68527014      -0.21748806
H       -2.62458182       0.36769581      -0.42341349
H       -1.49366284       0.28758923      -1.78325712
H       -2.65174352      -1.66767776      -1.73558966
18
Properties=species:S:1:pos:R:3 relative_energy_eV=0.0007438670145347714 branch=left pbc="F F F"
O        0.29538250       2.19068775       0.29126340
C       -0.48022737       1.35424701       0.68343932
O       -1.34577083       1.65040895       1.66911298
C       -0.58277386      -0.05547314       0.11287998
O        0.58599042      -0.40761867      -0.61129312
P        2.00565119      -0.38185961       0.20276301
O        1.82814460      -0.52658153       1.66482234
O        2.83786168      -1.53019100      -0.55001617
O        2.77557214       0.90028912      -0.35212153
C       -1.76912134      -0.17984877      -0.83318649
O       -2.07565086      -1.55555784      -0.97173264
H       -1.84695910       0.86463642       1.93040428
H       -0.72842811      -0.76333466       0.93408210
H        2.87487951      -2.33258409      -0.01575172
H        2.21436310       1.68456142      -0.21829641
H       -2.62544266       0.36839540      -0.42347846
H       -1.49401025       0.28664872      -1.78298771
H       -2.64554574      -1.66895127      -1.73809433
18
Properties=species:S:1:pos:R:3 relative_energy_eV=0.0008234650049416814 branch=left pbc="F F F"
O        0.29590535       2.19148943       0.29292775
C       -0.48016754       1.35503427       0.68412307
O       -1.34544892       1.65066729       1.67018775
C       -0.58282575      -0.05420642       0.11263635
O        0.58629920      -0.40677353      -0.61056764
P        2.00608840      -0.38218927       0.20351325
O        1.82883013      -0.52737489       1.66564248
O        2.83756178      -1.53062456      -0.55025229
O        2.77501140       0.90006870      -0.35274196
C       -1.76885331      -0.18002951      -0.83350891
O       -2.07436447      -1.55586018      -0.97214811
H       -1.84725208       0.86499296       1.93052246
H       -0.72898872      -0.76111220       0.93415023
H        2.87490212      -2.33336412      -0.01647095
H        2.21240169       1.68363655      -0.22013403
H       -2.62651438       0.36627627      -0.42446758
H       -1.49302882       0.28615948      -1.78303367
H       -2.64564109      -1.66891605      -1.73856937
18
Properties=species:S:1:pos:R:3 relative_energy_eV=0.0009487796232861001 branch=left pbc="F F F"
O        0.29703225       2.19195870       0.29448021
C       -0.47954910       1.35580238       0.68560786
O       -1.34571822       1.65137506       1.67123831
C       -0.58344069      -0.05282321       0.11267295
O        0.58570689      -0.40624036      -0.61005537
P        2.00595077      -0.38281025       0.20345997
O        1.82884255      -0.52821011       1.66568749
O        2.83643719      -1.53151567      -0.55157733
O        2.77408999       0.89932118      -0.35448119
C       -1.76975608      -0.17960408      -0.83271923
O       -2.07643463      -1.55464269      -0.96886149
H       -1.84858050       0.86569089       1.92967621
H       -0.73006841      -0.75934469       0.93395294
H        2.87562423      -2.33390435      -0.01746636
H        2.21146000       1.68281968      -0.22100109
H       -2.62720518       0.36637165      -0.42433106
H       -1.49320041       0.28485772      -1.78222535
H       -2.63727560      -1.67122765      -1.74224862
18
Properties=species:S:1:pos:R:3 relative_energy_eV=0.0010330381410312839 branch=left pbc="F F F"
O        0.29767875       2.19228191       0.29499097
C       -0.47902444       1.35638460       0.68668262
O       -1.34607950       1.65197015       1.67177696
C       -0.58393254      -0.05212455       0.11305807
O        0.58499689      -0.40611312      -0.60975688
P        2.00549699      -0.38325293       0.20313514
O        1.82843243      -0.52851777       1.66537564
O        2.83579862      -1.53188706      -0.55233684
O        2.77345402       0.89868983      -0.35551787
C       -1.77032405      -0.17906704      -0.83215253
O       -2.07766852      -1.55373968      -0.96626752
H       -1.84934364       0.86591586       1.92878403
H       -0.73118949      -0.75932059       0.93354484
H        2.87630527      -2.33422864      -0.01814363
H        2.21131796       1.68243697      -0.22130907
H       -2.62718792       0.36722959      -0.42379180
H       -1.49344075       0.28448856      -1.78176256
H       -2.63137495      -1.67327192      -1.74450068
18
Properties=species:S:1:pos:R:3 relative_energy_eV=0.0012647921030293219 branch=left pbc="F F F"
O        0.29872702       2.19323239       0.29647197
C       -0.47843893       1.35784494       0.68844950
O       -1.34657344       1.65337211       1.67265319
C       -0.58491285      -0.05097334       0.11475987
O        0.58280421      -0.40600051      -0.60936627
P        2.00385754      -0.38424928       0.20194770
O        1.82723568      -0.52894986       1.66419799
O        2.83442995      -1.53248392      -0.55366357
O        2.77200354       0.89704589      -0.35760939
C       -1.77129601      -0.17735680      -0.83062028
O       -2.08016035      -1.55243263      -0.96013921
H       -1.85055844       0.86652089       1.92612988
H       -0.73438574      -0.76100142       0.93273222
H        2.87810937      -2.33490459      -0.01983436
H        2.21149433       1.68160587      -0.22182608
H       -2.62688611       0.37064071      -0.42184339
H       -1.49406823       0.28442352      -1.78132669
H       -2.61746633      -1.67845980      -1.74930421
18
Properties=species:S:1:pos:R:3 relative_energy_eV=0.0013904473635193426 branch=left pbc="F F F"
O        0.29890517       2.19364099       0.29732703
C       -0.47861797       1.35839631       0.68865003
O       -1.34648455       1.65385218       1.67283408
C       -0.58513193      -0.05072507       0.11558965
O        0.58193474      -0.40585192      -0.60938904
P        2.00319073      -0.38453480       0.20145507
O        1.82696937      -0.52906354       1.66372792
O        2.83403136      -1.53263137      -0.55392356
O        2.77155879       0.89649431      -0.35822238
C       -1.77144766      -0.17670777      -0.83005421
O       -2.08124293      -1.55240187      -0.95826361
H       -1.85063759       0.86684228       1.92503742
H       -0.73543176      -0.76193550       0.93269247
H        2.87871140      -2.33511107      -0.02036994
H        2.21164812       1.68132165      -0.22189378
H       -2.62685486       0.37191148      -0.42098131
H       -1.49421728       0.28449432      -1.78155185
H       -2.61296792      -1.68011646      -1.75085511
18
Properties=species:S:1:pos:R:3 relative_energy_eV=0.0015271990196197294 branch=left pbc="F F F"
O        0.29901088       2.19393684       0.29819401
C       -0.47899165       1.35888430       0.68855336
O       -1.34622120       1.65427835       1.67288581
C       -0.58518773      -0.05059112       0.11630929
O        0.58129317      -0.40549499      -0.60953280
P        2.00273608      -0.38467936       0.20103655
O        1.82710582      -0.52917086       1.66333721
O        2.83378319      -1.53267939      -0.55401396
O        2.77130636       0.89618581      -0.35863534
C       -1.77149606      -0.17636797      -0.82963803
O       -2.08298401      -1.55264865      -0.95718136
H       -1.85045365       0.86711853       1.92416673
H       -0.73576101      -0.76258065       0.93297931
H        2.87904435      -2.33525302      -0.02054483
H        2.21186361       1.68114995      -0.22166313
H       -2.62697720       0.37249473      -0.42021560
H       -1.49428079       0.28430059      -1.78205376
H       -2.60987489      -1.68100896      -1.75217456
18
Properties=species:S:1:pos:R:3 relative_energy_eV=0.0019048426438530441 branch=left pbc="F F F"
O        0.29840081       2.19417822       0.29956938
C       -0.47967689       1.35830089       0.68801418
O       -1.34580744       1.65435921       1.67254798
C       -0.58599215      -0.05136032       0.11661569
O        0.58007368      -0.40648910      -0.61006710
P        2.00180751      -0.38511614       0.20064674
O        1.82567488      -0.52904496       1.66297404
O        2.83307017      -1.53287976      -0.55491878
O        2.77101850       0.89541980      -0.35936223
C       -1.77203055      -0.17493389      -0.82863569
O       -2.08115515      -1.55160476      -0.95389508
H       -1.85097858       0.86801206       1.92298708
H       -0.73828511      -0.76438437       0.93279566
H        2.88005117      -2.33535867      -0.02158953
H        2.21221646       1.68087538      -0.22220814
H       -2.62639429       0.37643624      -0.41940425
H       -1.49513070       0.28522727      -1.78123631
H       -2.60294700      -1.68376298      -1.75302472
18
Properties=species:S:1:pos:R:3 relative_energy_eV=0.0021141973811609205 branch=left pbc="F F F"
O        0.29920204       2.19303091       0.30020227
C       -0.47950310       1.35730761       0.68804173
O       -1.34625641       1.65465088       1.67165771
C       -0.58689447      -0.05211033       0.11671212
O        0.57850187      -0.40755708      -0.61128921
P        2.00094201      -0.38545100       0.19889576
O        1.82488831      -0.52906152       1.66128403
O        2.83101073      -1.53375440      -0.55733634
O        2.77086974       0.89478994      -0.36119398
C       -1.77486815      -0.17410163      -0.82584937
O       -2.08864665      -1.54914269      -0.94727837
H       -1.85329712       0.86940417       1.92176465
H       -0.73820899      -0.76473547       0.93348087
H        2.88101743      -2.33444308      -0.02159004
H        2.21468961       1.68126790      -0.21965394
H       -2.62601683       0.38240738      -0.41736118
H       -1.49840398       0.28288518      -1.77928813
H       -2.58511056      -1.68751271      -1.75938970
18
Properties=species:S:1:pos:R:3 relative_energy_eV=0.002588808158179745 branch=left pbc="F F F"
O        0.30100376       2.19040624       0.29909716
C       -0.47807422       1.35575988       0.68910135
O       -1.34793015       1.65455974       1.67050646
C       -0.58742316      -0.05224409       0.11675916
O        0.57678635      -0.40967565      -0.61251091
P        1.99996519      -0.38587404       0.19632331
O        1.82355975      -0.52900845       1.65876700
O        2.82791762      -1.53499369      -0.56086314
O        2.77063950       0.89400751      -0.36354858
C       -1.77878469      -0.17296261      -0.82175328
O       -2.09917342      -1.54576629      -0.93767269
H       -1.85774995       0.87077648       1.92117688
H       -0.73754349      -0.76404130       0.93356905
H        2.88216555      -2.33286802      -0.02143011
H        2.21828470       1.68207061      -0.21589891
H       -2.62572168       0.39061007      -0.41497640
H       -1.50329108       0.27963516      -1.77622341
H       -2.56071484      -1.69251762      -1.76861409
18
Properties=species:S:1:pos:R:3 relative_energy_eV=0.002800403093715431 branch=left pbc="F F F"
O        0.30208873       2.18904898       0.29845787
C       -0.47745111       1.35531141       0.68964833
O       -1.34874549       1.65454430       1.67003484
C       -0.58727875      -0.05192480       0.11710558
O        0.57604020      -0.41030019      -0.61303492
P        1.99956632      -0.38596887       0.19499277
O        1.82343900      -0.52905263       1.65751949
O        2.82654496      -1.53556843      -0.56227274
O        2.77054113       0.89375408      -0.36457349
C       -1.78032076      -0.17258242      -0.81985675
O       -2.10556857      -1.54479248      -0.93357510
H       -1.85965823       0.87132019       1.92096065
H       -0.73651976      -0.76336284       0.93378944
H        2.88251881      -2.33207531      -0.02110312
H        2.22001907       1.68249105      -0.21380410
H       -2.62593796       0.39355416      -0.41374382
H       -1.50538860       0.27782676      -1.77542464
H       -2.54997317      -1.69434906      -1.77331145
18
Properties=species:S:1:pos:R:3 relative_energy_eV=0.002961171332572121 branch=left pbc="F F F"
O        0.30266939       2.18773242       0.29820065
C       -0.47705278       1.35521704       0.68980415
O       -1.34920165       1.65453281       1.66966487
C       -0.58705966      -0.05164473       0.11751133
O        0.57541550      -0.41063931      -0.61348411
P        1.99922571      -0.38601527       0.19405350
O        1.82354238      -0.52908918       1.65656710
O        2.82558015      -1.53592063      -0.56321676
O        2.77049515       0.89360164      -0.36526490
C       -1.78115962      -0.17218385      -0.81858919
O       -2.11060172      -1.54427791      -0.93050690
H       -1.86093638       0.87171497       1.92080144
H       -0.73556543      -0.76281881       0.93414809
H        2.88273079      -2.33153479      -0.02078493
H        2.22127715       1.68278987      -0.21222345
H       -2.62625752       0.39518280      -0.41276094
H       -1.50674363       0.27665004      -1.77537236
H       -2.54244192      -1.69542324      -1.77673875
18
Properties=species:S:1:pos:R:3 relative_energy_eV=0.003234680447349092 branch=left pbc="F F F"
O        0.30390075       2.18598146       0.29873660
C       -0.47772722       1.35458418       0.68949933
O       -1.34940946       1.65483890       1.66897527
C       -0.58714859      -0.05170151       0.11819547
O        0.57404946      -0.41053803      -0.61475307
P        1.99853077      -0.38598093       0.19218627
O        1.82446911      -0.52925082       1.65489836
O        2.82395418      -1.53664209      -0.56473274
O        2.77053359       0.89340964      -0.36659328
C       -1.78266907      -0.17162173      -0.81673135
O       -2.12174322      -1.54305331      -0.92485653
H       -1.86237461       0.87286106       1.91989133
H       -0.73308148      -0.76204704       0.93602670
H        2.88301763      -2.33053196      -0.01997113
H        2.22371007       1.68331010      -0.20889196
H       -2.62690405       0.39680526      -0.41051678
H       -1.50890348       0.27419465      -1.77631780
H       -2.52828833      -1.69674402      -1.78323589
18
Properties=species:S:1:pos:R:3 relative_energy_eV=0.0033657902386039495 branch=left pbc="F F F"
O        0.30434132       2.18566303       0.29952715
C       -0.47821800       1.35444299       0.68914147
O       -1.34923849       1.65524594       1.66870477
C       -0.58758792      -0.05213493       0.11827441
O        0.57347978      -0.41009893      -0.61542362
P        1.99829920      -0.38593522       0.19147940
O        1.82514322      -0.52937504       1.65418388
O        2.82336407      -1.53698498      -0.56532979
O        2.77059422       0.89338770      -0.36724805
C       -1.78365223      -0.17176530      -0.81613659
O       -2.12707946      -1.54224839      -0.92282241
H       -1.86255111       0.87347425       1.91917822
H       -0.73180439      -0.76190995       0.93726436
H        2.88310059      -2.33015088      -0.01950620
H        2.22476177       1.68350488      -0.20730506
H       -2.62702347       0.39721428      -0.40944715
H       -1.50977755       0.27270684      -1.77663041
H       -2.52223544      -1.69716249      -1.78609561
18
Properties=species:S:1:pos:R:3 relative_energy_eV=0.003550737466866849 branch=left pbc="F F F"
O        0.30488320       2.18597804       0.30085718
C       -0.47842524       1.35474341       0.68877393
O       -1.34901355       1.65606767       1.66849343
C       -0.58848458      -0.05296554       0.11809332
O        0.57299270      -0.40913049      -0.61616187
P        1.99823077      -0.38582999       0.19067159
O        1.82613710      -0.52962097       1.65332570
O        2.82276309      -1.53751337      -0.56600301
O        2.77065734       0.89338567      -0.36820100
C       -1.78560310      -0.17270981      -0.81537542
O       -2.13389965      -1.54109809      -0.92117924
H       -1.86238646       0.87425185       1.91798596
H       -0.73016585      -0.76194663       0.93883053
H        2.88316057      -2.32970922      -0.01884311
H        2.22601243       1.68373800      -0.20519477
H       -2.62688426       0.39809357      -0.40815033
H       -1.51099310       0.26997624      -1.77612019
H       -2.51506521      -1.69783662      -1.78999394
18
Properties=species:S:1:pos:R:3 relative_energy_eV=0.0036075989009987097 branch=left pbc="F F F"
O        0.30511899       2.18634995       0.30122486
C       -0.47826845       1.35502255       0.68881644
O       -1.34899592       1.65640657       1.66846791
C       -0.58870883      -0.05314642       0.11803804
O        0.57295778      -0.40874049      -0.61626708
P        1.99834103      -0.38577291       0.19024267
O        1.82642024      -0.52974263       1.65322771
O        2.82260589      -1.53765759      -0.56616240
O        2.77063858       0.89336495      -0.36851197
C       -1.78640491      -0.17325573      -0.81500286
O       -2.13587239      -1.54090528      -0.92106931
H       -1.86228406       0.87441641       1.91758295
H       -0.72972420      -0.76199718       0.93912563
H        2.88316759      -2.32961309      -0.01861651
H        2.22634730       1.68380879      -0.20454570
H       -2.62678779       0.39867910      -0.40781178
H       -1.51143038       0.26883580      -1.77555967
H       -2.51320429      -1.69817908      -1.79137019
18
Properties=species:S:1:pos:R:3 relative_energy_eV=0.003679998884763336 branch=left pbc="F F F"
O        0.30548191       2.18693871       0.30153877
C       -0.47790868       1.35550959       0.68902583
O       -1.34903919       1.65680039       1.66844141
C       -0.58873272      -0.05311176       0.11817224
O        0.57294588      -0.40825882      -0.61632542
P        1.99844023      -0.38575665       0.19007913
O        1.82675833      -0.52988480       1.65287110
O        2.82247511      -1.53787450      -0.56635079
O        2.77061386       0.89341006      -0.36893324
C       -1.78732774      -0.17396647      -0.81429770
O       -2.13809864      -1.54110568      -0.92119501
H       -1.86216956       0.87454017       1.91711835
H       -0.72928402      -0.76204350       0.93918281
H        2.88316238      -2.32949990      -0.01834763
H        2.22670951       1.68387783      -0.20378860
H       -2.62674155       0.39975400      -0.40745214
H       -1.51201012       0.26729908      -1.77464821
H       -2.51135879      -1.69875406      -1.79328218
18
Properties=species:S:1:pos:R:3 relative_energy_eV=0.0037941077862342354 branch=left pbc="F F F"
O        0.30587540       2.18749702       0.30169029
C       -0.47749987       1.35611476       0.68934643
O       -1.34908953       1.65707808       1.66834532
C       -0.58829025      -0.05259533       0.11871735
O        0.57285706      -0.40785090      -0.61631976
P        1.99855574      -0.38574240       0.18979919
O        1.82702405      -0.53005187       1.65268257
O        2.82237348      -1.53805181      -0.56650237
O        2.77058759       0.89346652      -0.36934215
C       -1.78779127      -0.17436563      -0.81308837
O       -2.14010819      -1.54219464      -0.92140851
H       -1.86210851       0.87457986       1.91673421
H       -0.72898905      -0.76204250       0.93882914
H        2.88315336      -2.32942966      -0.01808611
H        2.22699965       1.68394653      -0.20310207
H       -2.62693306       0.40123231      -0.40713384
H       -1.51259728       0.26580309      -1.77379018
H       -2.51010310      -1.69951975      -1.79556245
18
Properties=species:S:1:pos:R:3 relative_energy_eV=0.0038294038276944775 branch=left pbc="F F F"
O        0.30592599       2.18755499       0.30169920
C       -0.47745717       1.35620602       0.68939322
O       -1.34908270       1.65709688       1.66831104
C       -0.58818301      -0.05246168       0.11885970
O        0.57281907      -0.40780833      -0.61632616
P        1.99857328      -0.38574477       0.18975683
O        1.82705368      -0.53007686       1.65267612
O        2.82236268      -1.53806902      -0.56652347
O        2.77058593       0.89348428      -0.36939788
C       -1.78773587      -0.17430707      -0.81284766
O       -2.14037502      -1.54251192      -0.92141871
H       -1.86210828       0.87457634       1.91669238
H       -0.72896232      -0.76203245       0.93873002
H        2.88315215      -2.32942723      -0.01804887
H        2.22703464       1.68395229      -0.20301639
H       -2.62700422       0.40147902      -0.40708905
H       -1.51268046       0.26561248      -1.77370053
H       -2.51000213      -1.69964927      -1.79594111
18
Properties=species:S:1:pos:R:3 relative_energy_eV=0.007834854313841788 branch=left pbc="F F F"
O        0.30602975       2.18765632       0.30169257
C       -0.47743449       1.35620353       0.68937143
O       -1.34912497       1.65707948       1.66829037
C       -0.58814068      -0.05217177       0.11893822
O        0.57269345      -0.40776793      -0.61634494
P        1.99863430      -0.38571880       0.18974864
O        1.82709480      -0.53012554       1.65265846
O        2.82236992      -1.53813776      -0.56657080
O        2.77062871       0.89348322      -0.36951393
C       -1.78767393      -0.17389377      -0.81218651
O       -2.13847386      -1.54235108      -0.91574024
H       -1.86208376       0.87460926       1.91660805
H       -0.72891992      -0.76210952       0.93860470
H        2.88315011      -2.32941377      -0.01799162
H        2.22706162       1.68400332      -0.20286178
H       -2.62702935       0.40178161      -0.40711168
H       -1.51278397       0.26542489      -1.77373989
H       -2.51208150      -1.70067801      -1.80204236
18
Properties=species:S:1:pos:R:3 relative_energy_eV=0.005584469145105686 branch=ts pbc="F F F"
O        0.30677520       2.18850851       0.30188832
C       -0.47663867       1.35694416       0.68961769
O       -1.34919462       1.65753721       1.66783201
C       -0.58681073      -0.05108083       0.12074170
O        0.57215669      -0.40831659      -0.61666685
P        1.99875954      -0.38581474       0.18937041
O        1.82739609      -0.53035175       1.65229108
O        2.82244059      -1.53831279      -0.56691888
O        2.77041348       0.89350753      -0.36983194
C       -1.78843941      -0.17499468      -0.80846253
O       -2.14862100      -1.54101352      -0.91665849
H       -1.86394224       0.87536795       1.91351562
H       -0.72678971      -0.76049226       0.94092774
H        2.88482540      -2.32880338      -0.01737683
H        2.22694590       1.68405468      -0.20269934
H       -2.62781274       0.39630026      -0.39858815
H       -1.51941881       0.26846470      -1.76928614
H       -2.37019078      -1.73436239      -1.83194780
18
Properties=species:S:1:pos:R:3 relative_energy_eV=0.0023088449524948373 branch=right pbc="F F F"
O        0.30752002       2.18937729       0.30213071
C       -0.47576011       1.35779161       0.68991191
O       -1.34924513       1.65808195       1.66733047
C       -0.58540430      -0.05021344       0.12263572
O        0.57169434      -0.40897815      -0.61700678
P        1.99877706      -0.38598061       0.18888517
O        1.82770271      -0.53056619       1.65185691
O        2.82250831      -1.53845081      -0.56728149
O        2.77012314       0.89353037      -0.37009189
C       -1.78927893      -0.17672247      -0.80512949
O       -2.16016918      -1.53997316      -0.92371550
H       -1.86583145       0.87611852       1.91047578
H       -0.72467126      -0.75877702       0.94342480
H        2.88652050      -2.32819812      -0.01681405
H        2.22679601       1.68405236      -0.20268921
H       -2.62866061       0.39038640      -0.38995747
H       -1.52602216       0.27174579      -1.76468915
H       -2.22680686      -1.76681388      -1.85558990
18
Properties=species:S:1:pos:R:3 relative_energy_eV=0.000603241835051449 branch=right pbc="F F F"
O        0.30745517       2.18796821       0.30228270
C       -0.47584076       1.35648889       0.68893652
O       -1.34936420       1.65814150       1.66615242
C       -0.58626057      -0.05293874       0.12247674
O        0.57041305      -0.41299775      -0.61771488
P        1.99803193      -0.38689998       0.18782505
O        1.82720537      -0.53083259       1.65090225
O        2.82297243      -1.53850054      -0.56835864
O        2.76925046       0.89285750      -0.36999137
C       -1.79013684      -0.17473764      -0.80646038
O       -2.18642373      -1.52800332      -0.92244686
H       -1.86605320       0.87711194       1.91121313
H       -0.72451252      -0.75805478       0.94754958
H        2.88717228      -2.32835081      -0.01821585
H        2.22494618       1.68352905      -0.20630398
H       -2.62901532       0.38310712      -0.38759223
H       -1.52535101       0.27924559      -1.76462518
H       -2.19469667      -1.77072326      -1.85194254
18
Properties=species:S:1:pos:R:3 relative_energy_eV=-0.008050901880778838 branch=right pbc="F F F"
O        0.30892212       2.18184113       0.29886481
C       -0.47592830       1.35173037       0.68803206
O       -1.34969564       1.65740709       1.66200479
C       -0.58658678      -0.05678839       0.12637711
O        0.56416179      -0.42606783      -0.61872683
P        1.99541364      -0.39017124       0.18507267
O        1.82493243      -0.53271088       1.64819804
O        2.82442172      -1.53892921      -0.57197189
O        2.76586042       0.89106436      -0.37237825
C       -1.79790347      -0.16498532      -0.80015713
O       -2.26394911      -1.50425733      -0.93527922
H       -1.86780301       0.87939222       1.91316196
H       -0.72460495      -0.75568676       0.95439132
H        2.88957514      -2.32929976      -0.02279778
H        2.21829815       1.68123811      -0.21754448
H       -2.63376834       0.38942396      -0.37310461
H       -1.52860687       0.29568267      -1.75945409
H       -2.08294731      -1.79247319      -1.84100227
18
Properties=species:S:1:pos:R:3 relative_energy_eV=-0.028268320395000046 branch=right pbc="F F F"
O        0.31063461       2.17617206       0.29322963
C       -0.47382603       1.34831596       0.68863440
O       -1.34982900       1.65777663       1.66078748
C       -0.59206769      -0.06145966       0.12779767
O        0.55889418      -0.43329571      -0.61753548
P        1.99309618      -0.39267513       0.18246004
O        1.82283446      -0.53520934       1.64633438
O        2.82443392      -1.53931512      -0.57426119
O        2.76099602       0.88849437      -0.37760298
C       -1.81708425      -0.16088022      -0.79328971
O       -2.29790590      -1.48696692      -0.96865939
H       -1.86954947       0.88000602       1.91284775
H       -0.72582257      -0.75727964       0.95654780
H        2.89163698      -2.33051605      -0.02618411
H        2.21267534       1.67841641      -0.22475748
H       -2.63521442       0.42223853      -0.35756639
H       -1.54034265       0.29890828      -1.74431065
H       -1.99376839      -1.81632069      -1.82078579
18
Properties=species:S:1:pos:R:3 relative_energy_eV=-0.046754992927162675 branch=right pbc="F F F"
O        0.30864523       2.16720017       0.29026606
C       -0.47668359       1.34252000       0.68557412
O       -1.34598691       1.65820393       1.66201380
C       -0.60437813      -0.07237166       0.12699462
O        0.54992010      -0.43864818      -0.61932807
P        1.98576720      -0.39622317       0.17948025
O        1.82130770      -0.53765795       1.64241725
O        2.82103618      -1.54107137      -0.57721323
O        2.75217846       0.88323302      -0.38609053
C       -1.82651949      -0.15259147      -0.79693800
O       -2.31661002      -1.45742106      -0.99198387
H       -1.86944459       0.88268120       1.90967746
H       -0.73272061      -0.76643322       0.96318150
H        2.89335071      -2.33150426      -0.02942586
H        2.20585177       1.67394388      -0.23089871
H       -2.63224015       0.43122567      -0.35034503
H       -1.55469138       0.32300700      -1.73741277
H       -1.89899122      -1.83168294      -1.77628303
18
Properties=species:S:1:pos:R:3 relative_energy_eV=-0.07530142136965878 branch=right pbc="F F F"
O        0.30559805       2.14505293       0.27454771
C       -0.48246039       1.32794982       0.68940104
O       -1.33651520       1.65453865       1.67028450
C       -0.61602315      -0.07644398       0.13169718
O        0.52854727      -0.45517848      -0.62149321
P        1.96915236      -0.40581532       0.16559677
O        1.81273907      -0.54321928       1.63486738
O        2.80165176      -1.55009767      -0.58738809
O        2.72644068       0.87003217      -0.41152743
C       -1.82381428      -0.11655339      -0.80605288
O       -2.30789283      -1.42725647      -1.02959009
H       -1.87628113       0.88639842       1.90521962
H       -0.76402974      -0.78763899       0.95272837
H        2.89493863      -2.33393513      -0.03277003
H        2.18915842       1.66280314      -0.23817357
H       -2.64470556       0.43200252      -0.34122484
H       -1.57706007       0.40814543      -1.74035634
H       -1.71965288      -1.85437513      -1.65208044
18
Properties=species:S:1:pos:R:3 relative_energy_eV=-0.09176749337711954 branch=right pbc="F F F"
O        0.30702170       2.14498069       0.27116522
C       -0.47274995       1.32716924       0.69557935
O       -1.33113097       1.65021098       1.67906433
C       -0.62701589      -0.07077313       0.12208065
O        0.51790041      -0.47252110      -0.62224631
P        1.96317182      -0.41346403       0.16002175
O        1.80569256      -0.54476019       1.62619916
O        2.78536381      -1.56421258      -0.59947733
O        2.71288837       0.86411685      -0.42784506
C       -1.83538500      -0.10055859      -0.81119004
O       -2.28557462      -1.40893345      -1.05893302
H       -1.88460942       0.88840463       1.90828231
H       -0.79033251      -0.78606828       0.93105670
H        2.89537640      -2.33650709      -0.03205301
H        2.17641407       1.65576658      -0.24272935
H       -2.66470603       0.42685841      -0.33539542
H       -1.57942344       0.44675443      -1.72254613
H       -1.61311033      -1.87005430      -1.57734828
18
Properties=species:S:1:pos:R:3 relative_energy_eV=-0.09695019916762249 branch=right pbc="F F F"
O        0.31084928       2.15706690       0.28743010
C       -0.47438583       1.33492833       0.69301236
O       -1.32423377       1.64960424       1.68431725
C       -0.62748363      -0.06376356       0.12016800
O        0.51265767      -0.47368400      -0.62673674
P        1.95936410      -0.41717913       0.15526185
O        1.80725023      -0.54340038       1.62151497
O        2.77653721      -1.57225449      -0.60308873
O        2.71072996       0.86078519      -0.42916008
C       -1.83477804      -0.10103406      -0.81046542
O       -2.28065490      -1.41330140      -1.06768629
H       -1.88166755       0.89109416       1.91047381
H       -0.80095216      -0.77397713       0.93008576
H        2.89624121      -2.33864497      -0.02975643
H        2.17222116       1.65171534      -0.24585697
H       -2.67678715       0.40703511      -0.33758036
H       -1.57254700       0.44950827      -1.71923367
H       -1.59256983      -1.86808936      -1.56901395
18
Properties=species:S:1:pos:R:3 relative_energy_eV=-0.10244837765276316 branch=right pbc="F F F"
O        0.31919274       2.16598323       0.30561878
C       -0.47435250       1.34708768       0.69929281
O       -1.31714696       1.65587113       1.69828027
C       -0.63932256      -0.05426199       0.12327958
O        0.49946486      -0.46253628      -0.62819594
P        1.94897310      -0.42323611       0.14788779
O        1.80879918      -0.54613833       1.61467662
O        2.75704023      -1.58581286      -0.60915270
O        2.70234406       0.85100749      -0.43981683
C       -1.83996937      -0.10153526      -0.81688894
O       -2.25638359      -1.41951959      -1.09362240
H       -1.87382447       0.89328826       1.91137001
H       -0.81051045      -0.75986827       0.94283824
H        2.89858824      -2.34165022      -0.02601981
H        2.16467225       1.64154772      -0.25219421
H       -2.68921714       0.39215182      -0.34014914
H       -1.58105833       0.45742606      -1.72154442
H       -1.53749842      -1.87339548      -1.55197433
18
Properties=species:S:1:pos:R:3 relative_energy_eV=-0.10703714319606661 branch=right pbc="F F F"
O        0.32726251       2.16561236       0.31414770
C       -0.47212238       1.35380694       0.71275232
O       -1.31686131       1.66355399       1.71124815
C       -0.64529442      -0.03894711       0.12642107
O        0.49093574      -0.45472908      -0.62161529
P        1.94203860      -0.42847301       0.14399655
O        1.80421909      -0.55439806       1.61206221
O        2.72769216      -1.60249622      -0.61938042
O        2.69428645       0.84146287      -0.45612290
C       -1.83985077      -0.10021011      -0.82355445
O       -2.22449671      -1.42574175      -1.11045072
H       -1.87196503       0.89838154       1.92208459
H       -0.81281686      -0.74092718       0.94661821
H        2.89913096      -2.34008366      -0.02162377
H        2.15911109       1.63238690      -0.26047485
H       -2.70585661       0.36491150      -0.35227278
H       -1.59379333       0.47175691      -1.72468213
H       -1.48182831      -1.86945793      -1.53546817
18
Properties=species:S:1:pos:R:3 relative_energy_eV=-0.11011808187322458 branch=right pbc="F F F"
O        0.33001746       2.16666497       0.32368137
C       -0.47761821       1.35809798       0.71021994
O       -1.31981522       1.67091860       1.70945824
C       -0.64598601      -0.03604458       0.12781566
O        0.49014697      -0.44807643      -0.62128243
P        1.93932422      -0.42947880       0.14636683
O        1.80617619      -0.56120568       1.61360099
O        2.70880054      -1.60906313      -0.62279645
O        2.69755128       0.83626126      -0.45585207
C       -1.84162675      -0.10640648      -0.81977003
O       -2.21249551      -1.43427383      -1.11186632
H       -1.87167529       0.90906133       1.93879901
H       -0.80187068      -0.73190459       0.95560893
H        2.89931968      -2.33662176      -0.01874699
H        2.16396819       1.63016431      -0.26995497
H       -2.71568592       0.35380896      -0.35878128
H       -1.60036736       0.46214902      -1.72254673
H       -1.46837273      -1.85764229      -1.56026837
18
Properties=species:S:1:pos:R:3 relative_energy_eV=-0.11301911720147473 branch=right pbc="F F F"
O        0.32985397       2.16764762       0.32527250
C       -0.48066895       1.36203968       0.71320417
O       -1.32594428       1.68292061       1.70774251
C       -0.65280694      -0.03221224       0.13153349
O        0.48214136      -0.44141500      -0.62332313
P        1.93172971      -0.43374057       0.14339598
O        1.80920538      -0.56726020       1.61199093
O        2.68772618      -1.62109925      -0.62785877
O        2.70041093       0.82870419      -0.45332605
C       -1.84624387      -0.10900081      -0.81950317
O       -2.18345341      -1.44614877      -1.11209331
H       -1.87246356       0.92279523       1.95534695
H       -0.80032034      -0.73238736       0.95844219
H        2.90029806      -2.33473789      -0.01503597
H        2.16934112       1.62709624      -0.28093190
H       -2.72773408       0.33962755      -0.35735720
H       -1.60499217       0.46870713      -1.71911366
H       -1.43628821      -1.84512727      -1.57470028
18
Properties=species:S:1:pos:R:3 relative_energy_eV=-0.1156531693522993 branch=right pbc="F F F"
O        0.32440575       2.17039074       0.31944922
C       -0.48529653       1.36909183       0.71715107
O       -1.33341359       1.69904365       1.70611722
C       -0.65524616      -0.02727999       0.13942634
O        0.47785943      -0.43201988      -0.62109236
P        1.92825151      -0.43807435       0.13928631
O        1.80741036      -0.57160968       1.60705260
O        2.67546313      -1.63216541      -0.63211561
O        2.70643860       0.82236214      -0.45026217
C       -1.84461903      -0.11399999      -0.81244708
O       -2.16436011      -1.45267747      -1.11536413
H       -1.86948594       0.93404752       1.96037897
H       -0.80976646      -0.73423342       0.95728239
H        2.90213571      -2.33589317      -0.01232946
H        2.17507784       1.62255171      -0.28778714
H       -2.73162088       0.31612577      -0.34866208
H       -1.60895038       0.47045121      -1.70726604
H       -1.41449226      -1.82970232      -1.59513277
18
Properties=species:S:1:pos:R:3 relative_energy_eV=-0.11712440654810052 branch=right pbc="F F F"
O        0.32065125       2.17462494       0.31332359
C       -0.48863413       1.37397049       0.71301956
O       -1.33489715       1.70586324       1.70299697
C       -0.65608279      -0.02700124       0.14396283
O        0.47819880      -0.42563782      -0.61737071
P        1.92837307      -0.43999504       0.14166154
O        1.80352931      -0.57797437       1.60913692
O        2.66611063      -1.63677688      -0.63391226
O        2.70917363       0.81626534      -0.45578405
C       -1.84497016      -0.11659779      -0.80736529
O       -2.14857330      -1.45529830      -1.12471476
H       -1.86988893       0.94180832       1.96210009
H       -0.81343919      -0.73299346       0.96455972
H        2.90274249      -2.33630694      -0.01299046
H        2.17869509       1.61639715      -0.29007397
H       -2.73635358       0.30060265      -0.33698079
H       -1.61823157       0.47618130      -1.69850678
H       -1.39661244      -1.82072273      -1.60937684
18
Properties=species:S:1:pos:R:3 relative_energy_eV=-0.11960258421095205 branch=right pbc="F F F"
O        0.31046088       2.18232747       0.29421107
C       -0.48989003       1.37731180       0.70517769
O       -1.33581032       1.71329631       1.69340372
C       -0.65764778      -0.02683548       0.14783447
O        0.47500861      -0.42798590      -0.61222887
P        1.92523194      -0.44591805       0.14573274
O        1.80199421      -0.58427431       1.61385054
O        2.65862313      -1.64151627      -0.63361763
O        2.70995576       0.80527771      -0.45776162
C       -1.84923417      -0.11959778      -0.80186411
O       -2.12729974      -1.45896204      -1.14068374
H       -1.87507004       0.95461992       1.95991942
H       -0.81343737      -0.72761451       0.97312240
H        2.90333951      -2.34093996      -0.01696801
H        2.18614436       1.60904277      -0.29145302
H       -2.74271199       0.26806691      -0.31011371
H       -1.63393274       0.50211666      -1.67910352
H       -1.36593306      -1.80200641      -1.62577238
18
Properties=species:S:1:pos:R:3 relative_energy_eV=-0.12370404084504116 branch=right pbc="F F F"
O        0.29884653       2.18842446       0.26578578
C       -0.49659841       1.38851129       0.69290990
O       -1.33779718       1.73147292       1.68417134
C       -0.65895055      -0.02431318       0.15449389
O        0.46894791      -0.43803473      -0.60649897
P        1.92002373      -0.45821758       0.15024407
O        1.80518177      -0.58922699       1.61900149
O        2.65326090      -1.65283918      -0.63240288
O        2.70856318       0.79089376      -0.45022174
C       -1.85464831      -0.12891908      -0.78656358
O       -2.09954439      -1.45926536      -1.17665926
H       -1.87782610       0.97260775       1.94876062
H       -0.79812920      -0.70699353       0.99469207
H        2.90387202      -2.35540965      -0.02135929
H        2.19638325       1.60311906      -0.29267086
H       -2.75335324       0.21337245      -0.27350917
H       -1.67426818       0.52998129      -1.64236396
H       -1.32417243      -1.76875495      -1.66412383
18
Properties=species:S:1:pos:R:3 relative_energy_eV=-0.12484583893092349 branch=right pbc="F F F"
O        0.29893442       2.18833578       0.25743968
C       -0.49727592       1.39102868       0.68861125
O       -1.33693909       1.73890396       1.67944557
C       -0.66030078      -0.02462493       0.15834214
O        0.46669458      -0.44026468      -0.60643861
P        1.92028212      -0.46182795       0.14810578
O        1.80408712      -0.59280643       1.61699616
O        2.64630904      -1.66249027      -0.63365935
O        2.70900845       0.78934736      -0.45001112
C       -1.85894737      -0.12852450      -0.78169087
O       -2.07962643      -1.45722219      -1.18965212
H       -1.87847185       0.98199743       1.94709021
H       -0.79767640      -0.70736220       1.00093035
H        2.90159376      -2.36154565      -0.01970524
H        2.19332062       1.60033746      -0.29247168
H       -2.76516277       0.19224169      -0.26462678
H       -1.69382923       0.54467390      -1.62999745
H       -1.29220892      -1.75378873      -1.66502224
18
Properties=species:S:1:pos:R:3 relative_energy_eV=-0.12594308337429538 branch=right pbc="F F F"
O        0.30310066       2.18790797       0.25098427
C       -0.49239310       1.39151340       0.68565701
O       -1.33466346       1.74617183       1.67058681
C       -0.66053815      -0.02514652       0.15971472
O        0.46512023      -0.43849624      -0.60695643
P        1.91957737      -0.46356113       0.14743407
O        1.80490808      -0.59589986       1.61584686
O        2.64587494      -1.66488848      -0.63200605
O        2.70863546       0.78814630      -0.44782022
C       -1.86445386      -0.13395207      -0.77626504
O       -2.07076748      -1.46005654      -1.20130773
H       -1.87699766       0.99152134       1.94191984
H       -0.79338062      -0.70540962       1.00429255
H        2.89414576      -2.36605738      -0.01738041
H        2.18711935       1.59535582      -0.28897008
H       -2.77180059       0.17010143      -0.25323517
H       -1.71157395       0.55209419      -1.61651202
H       -1.27212160      -1.73293568      -1.67229726
18
Properties=species:S:1:pos:R:3 relative_energy_eV=-0.126600722578587 branch=right pbc="F F F"
O        0.31072033       2.18281590       0.24808282
C       -0.49219193       1.39377584       0.68229127
O       -1.33269400       1.75507258       1.66625007
C       -0.66213079      -0.02375654       0.15960917
O        0.46219055      -0.43691642      -0.60976534
P        1.91600678      -0.46622478       0.14704878
O        1.80311336      -0.60050888       1.61579533
O        2.64149010      -1.66713829      -0.63295931
O        2.70425842       0.78430021      -0.44897233
C       -1.86782693      -0.13640655      -0.77217096
O       -2.05261062      -1.45990341      -1.21287458
H       -1.87594470       1.00174142       1.93955187
H       -0.79126917      -0.70438241       1.00436856
H        2.88416482      -2.36696385      -0.01491977
H        2.18098374       1.58991418      -0.28802385
H       -2.77744146       0.14843268      -0.24117544
H       -1.72770480       0.56028250      -1.60531424
H       -1.24332238      -1.71772546      -1.67313623
18
Properties=species:S:1:pos:R:3 relative_energy_eV=-0.12695131276268512 branch=right pbc="F F F"
O        0.31662280       2.18163289       0.25013406
C       -0.49004016       1.39461829       0.68171257
O       -1.33052098       1.75828678       1.66451758
C       -0.66301666      -0.02216914       0.15954581
O        0.45879465      -0.43941847      -0.61091646
P        1.91317569      -0.46715153       0.14491891
O        1.79755666      -0.60309871       1.61326644
O        2.63851624      -1.66899545      -0.63364312
O        2.70080971       0.78414052      -0.45034335
C       -1.86857355      -0.13606933      -0.77212925
O       -2.04108156      -1.45860240      -1.21931163
H       -1.87691319       1.00758683       1.93862287
H       -0.79188223      -0.70316821       1.00417964
H        2.87681516      -2.36912464      -0.01434519
H        2.17689204       1.58962355      -0.28888523
H       -2.77828215       0.13465264      -0.23456695
H       -1.73555716       0.56723552      -1.60151075
H       -1.22352397      -1.71357041      -1.66756005
18
Properties=species:S:1:pos:R:3 relative_energy_eV=-0.12725983914060635 branch=right pbc="F F F"
O        0.32064293       2.18124840       0.25190436
C       -0.48711088       1.39459507       0.68193133
O       -1.33103129       1.76158609       1.66063130
C       -0.66049811      -0.02330971       0.15969178
O        0.45982862      -0.43956585      -0.61304177
P        1.91279423      -0.46600971       0.14502739
O        1.79157489      -0.60392216       1.61265058
O        2.64175181      -1.66614139      -0.63254643
O        2.70101775       0.78587180      -0.44778414
C       -1.86755271      -0.14007766      -0.76920045
O       -2.03960991      -1.46166496      -1.22051408
H       -1.87801213       1.01201650       1.93643424
H       -0.78813777      -0.70160582       1.00678353
H        2.86869624      -2.37218735      -0.01549663
H        2.17670011       1.59178363      -0.28959368
H       -2.77561167       0.12922134      -0.22853126
H       -1.74097751       0.56452670      -1.59800435
H       -1.22467331      -1.70995619      -1.67665579
18
Properties=species:S:1:pos:R:3 relative_energy_eV=-0.12746746426273603 branch=right pbc="F F F"
O        0.32413812       2.17894127       0.25652578
C       -0.48570415       1.39261653       0.68325754
O       -1.33118603       1.75949039       1.66069146
C       -0.65880244      -0.02415676       0.15819441
O        0.46191835      -0.43792294      -0.61647857
P        1.91394406      -0.46377530       0.14484355
O        1.78618205      -0.60081334       1.61226499
O        2.64930862      -1.66100174      -0.63194830
O        2.70197177       0.78847864      -0.44668368
C       -1.86673488      -0.13971854      -0.76932766
O       -2.04284895      -1.46318873      -1.21451736
H       -1.88060975       1.01054602       1.93311241
H       -0.78629940      -0.70344017       1.00486006
H        2.86068737      -2.37527621      -0.01883521
H        2.17640445       1.59388099      -0.28988076
H       -2.77456981       0.13509431      -0.23020995
H       -1.73763816       0.56297027      -1.59977813
H       -1.23037002      -1.71631592      -1.67240474
18
Properties=species:S:1:pos:R:3 relative_energy_eV=-0.12765415154353832 branch=right pbc="F F F"
O        0.32678963       2.17904977       0.25866213
C       -0.48519395       1.39364494       0.68305718
O       -1.33183466       1.76000753       1.65941362
C       -0.65822235      -0.02281513       0.15860413
O        0.46236240      -0.43476890      -0.61684176
P        1.91434282      -0.46216924       0.14483589
O        1.78196120      -0.59945722       1.61164141
O        2.65436732      -1.65761220      -0.63032189
O        2.70495094       0.78908741      -0.44550087
C       -1.86692648      -0.14124405      -0.76748828
O       -2.04140739      -1.46471880      -1.21253606
H       -1.88370882       1.01158627       1.92865226
H       -0.78109732      -0.70220718       1.00540908
H        2.85139790      -2.38079274      -0.02298422
H        2.17758219       1.59359403      -0.29029506
H       -2.77530670       0.12968930      -0.22783227
H       -1.73924314       0.56227508      -1.59740130
H       -1.23102250      -1.71674012      -1.67538819
18
Properties=species:S:1:pos:R:3 relative_energy_eV=-0.12788821536742034 branch=right pbc="F F F"
O        0.32606896       2.18349867       0.26007884
C       -0.48545210       1.39745416       0.68400705
O       -1.33520931       1.76310566       1.65831817
C       -0.65625718      -0.02054777       0.15963164
O        0.46397341      -0.42968928      -0.61798420
P        1.91516051      -0.46137251       0.14558253
O        1.78341337      -0.60054980       1.61228611
O        2.65312831      -1.65714650      -0.63018472
O        2.70870915       0.78802869      -0.44469985
C       -1.86692938      -0.14404280      -0.76420800
O       -2.03479500      -1.46711880      -1.21268602
H       -1.88866918       1.01409240       1.92290930
H       -0.77443590      -0.70096496       1.00646092
H        2.83655406      -2.38790646      -0.02756892
H        2.18238563       1.59325208      -0.29064321
H       -2.77694907       0.11954357      -0.22288681
H       -1.74588662       0.55923711      -1.59497176
H       -1.22501864      -1.71246486      -1.67975539
18
Properties=species:S:1:pos:R:3 relative_energy_eV=-0.1281834391411394 branch=right pbc="F F F"
O        0.32605294       2.18766842       0.26733716
C       -0.48597545       1.39933073       0.68597033
O       -1.33858938       1.76182872       1.65884687
C       -0.65412764      -0.01761443       0.15832104
O        0.46614676      -0.42357923      -0.62038960
P        1.91662563      -0.46002914       0.14458538
O        1.78360506      -0.59989605       1.61115781
O        2.65308330      -1.65649880      -0.63233961
O        2.71125831       0.78868084      -0.44501970
C       -1.86558401      -0.14476172      -0.76391932
O       -2.02782102      -1.47019263      -1.20850924
H       -1.89769859       1.01421035       1.91497268
H       -0.77037677      -0.70082188       1.00324763
H        2.81289766      -2.39699433      -0.03496591
H        2.18814211       1.59612666      -0.29101211
H       -2.77532467       0.11583780      -0.22051632
H       -1.74923147       0.55850371      -1.59596673
H       -1.21329192      -1.71539064      -1.66811491
18
Properties=species:S:1:pos:R:3 relative_energy_eV=-0.12836884456919506 branch=right pbc="F F F"
O        0.32533068       2.18880894       0.26671025
C       -0.48859383       1.40189069       0.68390177
O       -1.34245285       1.76424965       1.65584155
C       -0.65422319      -0.01541266       0.15908044
O        0.46628735      -0.41912921      -0.61976934
P        1.91722741      -0.46018045       0.14352931
O        1.78539422      -0.60210813       1.60978723
O        2.64966991      -1.65864443      -0.63430963
O        2.71491338       0.78749522      -0.44465295
C       -1.86557773      -0.14833167      -0.76124005
O       -2.01876242      -1.47288853      -1.21094776
H       -1.90242089       1.01687699       1.91126071
H       -0.76791216      -0.69545998       1.00655443
H        2.80046648      -2.40272499      -0.03866628
H        2.19294090       1.59556376      -0.28973752
H       -2.77489773       0.10582704      -0.21489206
H       -1.75651174       0.55978529      -1.58963873
H       -1.20108699      -1.70920932      -1.66912600
18
Properties=species:S:1:pos:R:3 relative_energy_eV=-0.1284408567553328 branch=right pbc="F F F"
O        0.32553289       2.18887857       0.26773598
C       -0.48881252       1.40220476       0.68454199
O       -1.34530597       1.76488548       1.65432512
C       -0.65408447      -0.01473896       0.15957511
O        0.46573304      -0.41846381      -0.62080633
P        1.91702782      -0.46001330       0.14250325
O        1.78615887      -0.60282417       1.60877705
O        2.64806437      -1.65859194      -0.63597715
O        2.71617580       0.78707557      -0.44501389
C       -1.86545899      -0.14815328      -0.76086388
O       -2.01614939      -1.47278289      -1.21082821
H       -1.90400589       1.01667738       1.91040568
H       -0.76813601      -0.69366686       1.00818403
H        2.79589257      -2.40360837      -0.04099037
H        2.19516089       1.59537926      -0.28841945
H       -2.77558547       0.10386224      -0.21465671
H       -1.75621246       0.55953230      -1.58972590
H       -1.19620429      -1.70924383      -1.66508104
18
Properties=species:S:1:pos:R:3 relative_energy_eV=-0.128526095446432 branch=right pbc="F F F"
O        0.32666743       2.18873262       0.27030669
C       -0.48899250       1.40211481       0.68452077
O       -1.34895592       1.76550649       1.65069058
C       -0.65375845      -0.01467837       0.16034721
O        0.46550872      -0.41806840      -0.62044695
P        1.91717863      -0.45975783       0.14161418
O        1.78504092      -0.60279979       1.60769868
O        2.64967834      -1.65665286      -0.63846153
O        2.71688574       0.78716514      -0.44479373
C       -1.86510273      -0.14829946      -0.76014461
O       -2.01570923      -1.47346963      -1.20899890
H       -1.90601483       1.01652810       1.90786054
H       -0.76650418      -0.69358866       1.00913069
H        2.78922809      -2.40492594      -0.04577855
H        2.19864058       1.59667833      -0.28575580
H       -2.77558342       0.10454056      -0.21463857
H       -1.75444096       0.55854303      -1.58978678
H       -1.19397540      -1.71116013      -1.65967875
18
Properties=species:S:1:pos:R:3 relative_energy_eV=-0.12859786112676375 branch=right pbc="F F F"
O        0.32741654       2.18964975       0.27039387
C       -0.49027381       1.40473394       0.68367724
O       -1.35299439       1.77045248       1.64672493
C       -0.65445995      -0.01394906       0.16211019
O        0.46427862      -0.41776911      -0.61927356
P        1.91666495      -0.46068484       0.14133390
O        1.78623233      -0.60593962       1.60738126
O        2.64635801      -1.65751157      -0.64126074
O        2.71688448       0.78582486      -0.44575150
C       -1.86568720      -0.15041136      -0.75843682
O       -2.01041955      -1.47477136      -1.21129319
H       -1.90709424       1.02000526       1.90610062
H       -0.76497444      -0.69238823       1.01166011
H        2.78636982      -2.40719488      -0.05022453
H        2.20196651       1.59648653      -0.28194351
H       -2.77743500       0.09820102      -0.21338972
H       -1.75742913       0.55925830      -1.58575865
H       -1.18561271      -1.70758418      -1.65836478
18
Properties=species:S:1:pos:R:3 relative_energy_eV=-0.12864869003897184 branch=right pbc="F F F"
O        0.32838721       2.18934942       0.27189001
C       -0.49023207       1.40482400       0.68405728
O       -1.35417526       1.77182558       1.64542472
C       -0.65464127      -0.01349469       0.16229315
O        0.46367832      -0.41740538      -0.61964191
P        1.91620742      -0.46105917       0.14095973
O        1.78633538      -0.60713038       1.60695979
O        2.64600136      -1.65709203      -0.64264671
O        2.71580796       0.78576064      -0.44627452
C       -1.86545786      -0.15038046      -0.75854444
O       -2.00890088      -1.47507785      -1.21065040
H       -1.90947652       1.02241195       1.90499087
H       -0.76585456      -0.69179447       1.01183945
H        2.78611727      -2.40900887      -0.05459558
H        2.20277952       1.59697649      -0.27907187
H       -2.77772152       0.09741596      -0.21433714
H       -1.75700640       0.55973482      -1.58547482
H       -1.18205728      -1.70944763      -1.65349254
