18
Properties=species:S:1:pos:R:3 relative_energy_eV=2.149090363564028 branch=ts pbc="F F F"
O       -2.52891453       1.55422960      -0.31830122
C       -1.76543635       1.44703985       0.61614468
O       -1.76193680       2.28790552       1.66559677
C       -0.67978828       0.38826352       0.73638557
O        0.52237088       0.96053403       0.29742152
P        1.74376889      -0.89763437      -0.35058994
O        1.61303754      -1.49891527       0.99607764
O        2.30911797      -1.96857411      -1.42555061
O        2.64191798       0.31633221      -0.85605067
C       -0.99166889      -0.82097081      -0.18385945
O        0.05440873      -0.75747415      -1.23331130
H       -2.42492313       2.96935343       1.47023702
H       -0.60862290       0.04346688       1.77110075
H        2.20574941      -2.85095608      -1.04949181
H        2.26347575       1.11941358      -0.44171312
H       -0.86550155      -1.77174670       0.32043383
H       -1.94548629      -0.75429675      -0.69380667
H        0.10212290       0.25338923      -1.26919243
