18
Properties=species:S:1:pos:R:3 relative_energy_eV=0.5670703010655416 branch=ts pbc="F F F"
C        1.59047889      -1.25521498      -0.54754244
C        0.26949105      -1.37068358      -0.47421749
O       -0.61917872      -0.38068298      -0.12337791
P       -0.29866148       1.21056361      -0.04088075
O       -1.60055779       1.87738119       0.39230306
O        0.89443672       1.49308739       0.86886634
O        0.12351714       1.61864736      -1.54451960
C       -0.47767091      -2.62580313      -0.74932729
O       -1.68138183      -2.71300828      -0.72619353
O        0.32912462      -3.67994679      -1.03827168
O       -0.55054089       2.70874518       2.47682412
H        2.08385506      -0.32242055      -0.33863678
H        2.19383122      -2.10773167      -0.80967739
H       -0.38774980       3.66357413       2.39471681
H       -0.64669311       1.63529754      -2.12751919
H       -0.27224611      -4.42463190      -1.19393650
H       -1.26204941       2.45833767       1.64236398
H        0.31198078       2.21438295       1.93901690
