18
Properties=species:S:1:pos:R:3 relative_energy_eV=2.395248799417459 branch=ts pbc="F F F"
C        1.13450467       0.89602293      -0.73920340
C       -0.15501137       0.98874094      -0.34002632
O       -1.01946839      -0.01445025      -0.17515073
P       -0.33591331      -2.14791518       0.15577318
O       -1.58299242      -2.86703582       0.44177507
O        0.07516615      -1.98186014      -1.40723982
O        1.10829622      -2.66819319       0.68339782
C       -0.73689302       2.31601465       0.05988952
O       -1.63585097       2.42713025       0.85973254
O       -0.15924689       3.38606435      -0.54117302
O       -0.34153654      -1.04967930       1.77320166
H        1.60021901      -0.05744679      -0.93357009
H        1.72283836       1.78397611      -0.88916773
H       -0.38899696      -1.20913475      -1.77057773
H        1.65642860      -2.93473934      -0.06564767
H       -0.63633409       4.16147339      -0.20392086
H        0.56669038      -0.71749379       1.84726187
H       -0.87196373      -0.31147106       1.24455601
