18
Properties=species:S:1:pos:R:3 relative_energy_eV=3.1907554658973822 branch=ts pbc="F F F"
O       -2.64688402       1.32885585       1.03573173
C       -1.91706952       0.59116209       0.56110782
O        0.80944106       1.64523479       1.03090656
C       -1.12475393      -0.36091147      -0.07127780
O       -0.02105938       0.22772513      -0.62960051
P        1.38863514       0.15492094       0.60145386
O        0.83226372      -1.08240450       1.31006174
O        2.24603922       0.09872620      -0.78825356
O        2.77649467       0.29527841       1.57877938
C       -1.97715485      -1.09469193      -1.14712704
O       -2.08960568      -0.27464427      -2.27722466
H        1.29073516       1.93898606       1.81499314
H       -0.58469100      -1.05798870       0.77778893
H        3.14796997      -0.17912759      -0.58176971
H        3.35814288       1.01155709       1.29098501
H       -1.42626352      -2.01757908      -1.35221697
H       -2.96516812      -1.35236081      -0.76698982
H       -1.21367764       0.14629485      -2.33537538
