29
Properties=species:S:1:pos:R:3 relative_energy_eV=1.0595163337056874 branch=ts pbc="F F F"
O       -3.41095147       0.35407726       0.48856182
C       -2.45931449       0.80338472       1.23179825
C       -1.34887446       1.44447157       0.66116278
O       -1.52939063       2.43241972      -0.24458036
C       -0.79478319       0.09632178      -0.49884955
O       -1.81534050      -0.28235132      -1.19018367
C       -0.05620208      -0.94314654       0.46557193
O       -1.54908118      -2.95507677      -1.34136003
C        1.02214309      -1.58103905      -0.21157734
O        0.93129970      -2.75104342      -0.74629060
C        2.32491973      -0.86169418      -0.37426839
O        2.13015033       0.47841870      -0.75588583
P        1.99519216       1.69061031       0.41576945
O        1.07569525       2.72570284      -0.19578768
O        1.66317625       1.01609674       1.72410688
O        3.53326806       2.22027004       0.45307671
H       -2.51544056       0.54442581       2.28446105
H       -0.51961443       1.54796037       1.34954841
H       -0.04221694      -3.02122506      -0.83756151
H       -0.07745763       0.73496379      -1.00575860
H       -2.96545292       0.22174551      -0.45899383
H        0.41231262      -0.29755891       1.22447909
H       -1.81906898      -2.00169746      -1.41337202
H       -0.80751551      -1.62069065       0.85773278
H       -2.28325319      -3.40281403      -0.90983365
H        2.85670747      -0.94752346       0.58743463
H        2.91100243      -1.36942551      -1.13978007
H       -0.60282986       2.76591870      -0.39334437
H        3.61396636       3.03509801      -0.05586979
