32
Properties=species:S:1:pos:R:3 relative_energy_eV=2.303755739267217 branch=ts pbc="F F F"
O       -0.95869601       0.47731464      -4.98221700
C       -1.28509855       0.35181133      -3.81943450
C       -0.73337931      -0.77261909      -2.98121631
O        0.03397218      -1.64004419      -3.78611544
C        0.13896484      -0.26626518      -1.81608936
O        0.59186331      -1.36845888      -1.03622472
C       -0.61939169       0.72819546      -0.92389069
O       -1.97556363       0.33783989      -0.77692579
C        0.00615617       0.94526322       0.45562771
O       -0.37518993      -0.19158359       1.23054512
C        1.51595993       1.18196297       0.43225963
O        2.09508467       1.28071669       1.74108252
O        1.26791050      -1.08319745       2.44131620
P       -0.20332434      -0.23206588       3.12736219
O       -0.15637349       1.25673299       3.32588866
O       -1.45481259      -1.23381060       2.93402455
O        0.18905152      -0.82583656       4.63201467
H       -1.99416851       1.04078284      -3.33794012
H       -1.58336360      -1.30412387      -2.54329931
H        0.02276573      -1.24300859      -4.67619578
H        1.00211135       0.23765052      -2.27213195
H        0.95607774      -2.01608144      -1.65179729
H       -0.63297782       1.69321201      -1.44123106
H       -1.98271784      -0.27724801      -0.02693145
H       -0.46254452       1.82330630       0.90173959
H        0.65892711      -0.99503405       1.47513263
H        1.73131452       2.09918537      -0.12523361
H        2.03993668       0.36059110      -0.04830850
H        1.44648212       1.72337833       2.32942494
H        1.89792535      -0.31330748       2.28707474
H       -1.60009650      -1.71356035       3.76116144
H        0.42322213      -0.06188872       5.17047285
