32
Properties=species:S:1:pos:R:3 relative_energy_eV=1.912657219931134 branch=ts pbc="F F F"
O       -2.63883428       3.11218583       2.23239380
C       -1.84732841       2.99366234       1.31851051
C       -2.14170397       2.08333803       0.15685894
O       -3.42568212       1.51978798       0.30099525
C       -1.08248908       0.98595873       0.04644195
O        0.14282319       1.61428029      -0.32406842
C       -1.51689585      -0.07713849      -0.97193377
O       -2.01141149       0.50644137      -2.16788721
C       -0.37074924      -1.01743102      -1.36478604
O        0.70150614      -0.34118026      -2.02039385
C        0.08771444      -1.83356199      -0.14813727
O        1.42092562      -2.32633434      -0.30912977
P        2.70229227      -1.44039943       0.05913901
O        2.36395122       0.02503381       0.64979445
O        3.30385274      -1.04962186      -1.37230847
O        3.92616742      -2.35760321       0.48923574
O        2.10224687      -1.74982430       2.16048614
H       -0.88019383       3.52143309       1.30290329
H       -2.06826232       2.67415484      -0.76602470
H       -3.77387375       1.89879114       1.12978878
H       -0.97611769       0.50905905       1.02468159
H        0.88220630       1.16726995       0.13118584
H       -2.29817167      -0.67229179      -0.48801808
H       -2.92463383       0.76397880      -2.00153278
H       -0.76482820      -1.70985921      -2.10927705
H        0.64946280       0.60190073      -1.76665857
H       -0.53040754      -2.72271085      -0.05535080
H        0.00921431      -1.28465707       0.78591006
H        2.55224665      -0.75356976      -1.93065612
H        3.70246630      -2.67944166       1.38655451
H        2.15685752      -0.30593503       1.60832414
H        2.54765905      -1.65572515       3.01298045
