18
Properties=species:S:1:pos:R:3 relative_energy_eV=0.6152637269915431 branch=ts pbc="F F F"
O        0.33944744       2.28486747       0.50486117
C       -0.55533121       1.49542881       0.65344577
O       -1.68625264       1.81125707       1.36660322
C       -0.50510916       0.04784842       0.20157533
O        0.65291753      -0.20449627      -0.57654645
P        2.05599899      -0.55225750       0.18569512
O        1.89169194      -1.25318562       1.47615228
O        2.83571601      -1.35540307      -0.96590957
O        2.87764133       0.82005156       0.16987294
C       -1.71861020      -0.34043124      -0.63095704
O       -1.71816062      -1.74968070      -0.75686777
H       -2.38944003       2.14012550       0.79435058
H       -0.50324147      -0.57357144       1.10159053
H        2.82219414      -2.30158470      -0.77903298
H        2.28723406       1.57346695       0.34518651
H       -2.61861906       0.00790443      -0.11439447
H       -1.65422582       0.15528774      -1.60425963
H       -2.41382394      -2.00561115      -1.37141143
