18
Properties=species:S:1:pos:R:3 relative_energy_eV=0.005584469145105686 branch=ts pbc="F F F"
O        0.30677520       2.18850851       0.30188832
C       -0.47663867       1.35694416       0.68961769
O       -1.34919462       1.65753721       1.66783201
C       -0.58681073      -0.05108083       0.12074170
O        0.57215669      -0.40831659      -0.61666685
P        1.99875954      -0.38581474       0.18937041
O        1.82739609      -0.53035175       1.65229108
O        2.82244059      -1.53831279      -0.56691888
O        2.77041348       0.89350753      -0.36983194
C       -1.78843941      -0.17499468      -0.80846253
O       -2.14862100      -1.54101352      -0.91665849
H       -1.86394224       0.87536795       1.91351562
H       -0.72678971      -0.76049226       0.94092774
H        2.88482540      -2.32880338      -0.01737683
H        2.22694590       1.68405468      -0.20269934
H       -2.62781274       0.39630026      -0.39858815
H       -1.51941881       0.26846470      -1.76928614
H       -2.37019078      -1.73436239      -1.83194780
