18
Properties=species:S:1:pos:R:3 relative_energy_eV=0.0 branch=left pbc="F F F"
O       -2.86041107       1.49669174       0.32818293
C       -2.22018632       0.56390892       0.74262489
O       -2.48679724      -0.07590342       1.90868116
C       -0.98058680       0.00154834       0.07983515
O       -0.80811001      -1.39459038       0.28397615
C        0.22858132       0.82034633       0.56983068
O        1.47603636       0.18473705       0.30660600
P        1.81144028      -0.27153505      -1.22006236
O        1.14842781       0.55797780      -2.25108144
O        3.41713920      -0.25470624      -1.21286936
O        1.52598691      -1.84417460      -1.22931734
H       -3.27905184       0.34506106       2.27752035
H       -1.08560761       0.14631082      -0.99212287
H       -0.74135605      -1.55602682       1.23438988
H        0.20191501       0.93638928       1.65217139
H        0.18903692       1.80790328       0.10871239
H        3.74439829       0.44538966      -1.79103968
H        0.67821489      -2.00882486      -0.77010735
18
Properties=species:S:1:pos:R:3 relative_energy_eV=0.001215635144035332 branch=left pbc="F F F"
O       -2.87152612       1.48109323       0.31563675
C       -2.22125483       0.56087449       0.74291958
O       -2.47755682      -0.06909255       1.91648467
C       -0.98054784      -0.00086397       0.08227662
O       -0.80823284      -1.39708683       0.29135694
C        0.22960369       0.82228638       0.56547142
O        1.47572051       0.17985146       0.31247469
P        1.81190729      -0.26662332      -1.21696539
O        1.16573979       0.58184114      -2.24389244
O        3.41837581      -0.26338376      -1.19852511
O        1.49708498      -1.83400131      -1.24334200
H       -3.28422675       0.33353105       2.27390763
H       -1.08752732       0.13846534      -0.99016540
H       -0.70764801      -1.55179279       1.24043310
H        0.19980670       0.94959707       1.64545528
H        0.19407864       1.80270500       0.08957040
H        3.74996738       0.42427412      -1.78806758
H        0.65530587      -1.99117218      -0.76909840
18
Properties=species:S:1:pos:R:3 relative_energy_eV=0.006369081896991702 branch=left pbc="F F F"
O       -2.90349705       1.45577556       0.35389049
C       -2.23068018       0.54379752       0.76347244
O       -2.44281573      -0.07591614       1.95081886
C       -1.00213609      -0.00942405       0.07189405
O       -0.81312181      -1.40294970       0.28601914
C        0.21290591       0.83538132       0.51459817
O        1.45082337       0.16564236       0.30325569
P        1.81988267      -0.26571086      -1.22498254
O        1.23555423       0.62802289      -2.24969705
O        3.42477149      -0.31709732      -1.15843891
O        1.45983563      -1.82093195      -1.28394292
H       -3.23491214       0.33117764       2.33728899
H       -1.14094751       0.11652354      -0.99829222
H       -0.67893012      -1.54731097       1.23196718
H        0.18587887       1.03337681       1.58369500
H        0.18436211       1.78352510      -0.02312184
H        3.79636434       0.41820472      -1.65864945
H        0.63573194      -1.97158540      -0.77384381
18
Properties=species:S:1:pos:R:3 relative_energy_eV=0.009269230606150813 branch=left pbc="F F F"
O       -2.93541988       1.41514036       0.35225959
C       -2.23929005       0.52783617       0.77714080
O       -2.43065382      -0.07095341       1.97884358
C       -1.01090427      -0.01796096       0.07999816
O       -0.80272159      -1.40577016       0.30979344
C        0.20041756       0.84517509       0.49229823
O        1.44060484       0.17573717       0.29200426
P        1.83333447      -0.25268088      -1.23321139
O        1.30139560       0.66739650      -2.26282471
O        3.43320717      -0.36096182      -1.13715613
O        1.43724910      -1.79763362      -1.31842423
H       -3.22531030       0.33315957       2.36052898
H       -1.17638390       0.09324973      -0.98872308
H       -0.65585191      -1.53731796       1.25518790
H        0.17610760       1.07233647       1.55646379
H        0.16182236       1.78077998      -0.06604871
H        3.84253363       0.37760256      -1.60539648
H        0.60893327      -1.94463480      -0.81680219
18
Properties=species:S:1:pos:R:3 relative_energy_eV=0.010051260516775073 branch=left pbc="F F F"
O       -2.96789721       1.37698015       0.33483088
C       -2.25160817       0.51402898       0.77594269
O       -2.42111900      -0.05681217       1.99430048
C       -1.01736359      -0.02924095       0.08440420
O       -0.79484344      -1.41159516       0.33068618
C        0.18944292       0.84541128       0.48529139
O        1.43423709       0.18650846       0.27746500
P        1.84296446      -0.23116326      -1.24648676
O        1.36649733       0.71260228      -2.28130686
O        3.43708123      -0.38401469      -1.10553219
O        1.39343983      -1.75997777      -1.36732505
H       -3.21626313       0.34435147       2.37901169
H       -1.18284072       0.06705120      -0.98612960
H       -0.64773436      -1.53028992       1.27817018
H        0.17048944       1.06887616       1.55006301
H        0.13933122       1.77939684      -0.07507625
H        3.88316551       0.31962780      -1.59382398
H        0.60209043      -1.91124139      -0.80855286
18
Properties=species:S:1:pos:R:3 relative_energy_eV=0.011796076239988906 branch=left pbc="F F F"
O       -2.99773021       1.33045164       0.30608643
C       -2.26065467       0.49847279       0.77205984
O       -2.41335898      -0.03592445       2.00821880
C       -1.01812967      -0.03822885       0.09025899
O       -0.78470690      -1.41795602       0.34602527
C        0.17895044       0.84939291       0.48820926
O        1.43051689       0.20909192       0.26704261
P        1.84592613      -0.21083363      -1.25293493
O        1.42263270       0.75223572      -2.29248207
O        3.43188775      -0.40587785      -1.07716385
O        1.35230158      -1.72466215      -1.39602300
H       -3.21982186       0.35909489       2.37594121
H       -1.18235031       0.04870648      -0.98196550
H       -0.59470833      -1.52773007       1.28777340
H        0.16512285       1.06132874       1.55547573
H        0.11121165       1.79061047      -0.05903957
H        3.90574079       0.24642447      -1.60686034
H        0.58624015      -1.88409810      -0.80468972
18
Properties=species:S:1:pos:R:3 relative_energy_eV=0.012837942005717196 branch=left pbc="F F F"
O       -3.00016130       1.31831664       0.28796972
C       -2.26447999       0.49249757       0.76695763
O       -2.42121248      -0.03129230       2.00638670
C       -1.01757871      -0.04606709       0.09466083
O       -0.77934034      -1.42348234       0.35831014
C        0.17731309       0.84415953       0.49291349
O        1.42976309       0.20611585       0.26827243
P        1.84855465      -0.20019514      -1.25434006
O        1.44523751       0.77495583      -2.29071903
O        3.43271477      -0.40643880      -1.06693189
O        1.33459900      -1.70535775      -1.41687200
H       -3.21936114       0.37628536       2.37908286
H       -1.18451127       0.03159113      -0.97781066
H       -0.58529604      -1.52300787       1.29887895
H        0.16418841       1.05251631       1.56154302
H        0.10762089       1.78776227      -0.04875885
H        3.90947291       0.22435081      -1.62116657
H        0.58154699      -1.87221116      -0.81244398
18
Properties=species:S:1:pos:R:3 relative_energy_eV=0.015342867383878911 branch=left pbc="F F F"
O       -3.00567177       1.29541371       0.27028703
C       -2.26238983       0.48196584       0.75729769
O       -2.40609865      -0.01834032       2.00879975
C       -1.01302279      -0.05987117       0.09221303
O       -0.76911140      -1.43376572       0.37150354
C        0.17310108       0.83966176       0.49220346
O        1.43052259       0.20631393       0.27724052
P        1.84673992      -0.17794250      -1.25104181
O        1.46799936       0.82510532      -2.26931167
O        3.42437937      -0.42060322      -1.05898968
O        1.29373169      -1.66406201      -1.45160900
H       -3.20283461       0.38935676       2.38286682
H       -1.17203464       0.01006802      -0.98287176
H       -0.60471926      -1.52766536       1.31941742
H        0.14906692       1.05857586       1.55820538
H        0.10119003       1.77608346      -0.06114142
H        3.91947413       0.17778246      -1.63195756
H        0.58874776      -1.85757813      -0.79717884
18
Properties=species:S:1:pos:R:3 relative_energy_eV=0.01657662712750607 branch=left pbc="F F F"
O       -3.01846837       1.27849969       0.26325502
C       -2.26348806       0.47641648       0.75339023
O       -2.40299513      -0.01923931       2.00783815
C       -1.00968168      -0.05962323       0.09617543
O       -0.76571731      -1.43080177       0.38439027
C        0.17397935       0.84367132       0.49473056
O        1.42907341       0.20633487       0.27860003
P        1.84691279      -0.17281993      -1.25042373
O        1.47714311       0.83729476      -2.26546490
O        3.42284522      -0.42445424      -1.05295529
O        1.27680601      -1.65208050      -1.46458361
H       -3.20700667       0.38473526       2.37094529
H       -1.15992778       0.00375730      -0.98008305
H       -0.60292423      -1.51664812       1.33237614
H        0.15615470       1.05872972       1.56109190
H        0.10417939       1.77910019      -0.06215163
H        3.91849816       0.15807453      -1.64174798
H        0.58368702      -1.85044842      -0.79944992
18
Properties=species:S:1:pos:R:3 relative_energy_eV=0.02178466087570996 branch=left pbc="F F F"
O       -3.02446171       1.25240256       0.23423337
C       -2.26761936       0.47563129       0.75854753
O       -2.42862054       0.00323355       2.01784273
C       -1.00201332      -0.06118353       0.12023434
O       -0.76189342      -1.43404905       0.40589447
C        0.18737186       0.83927044       0.51040671
O        1.43861269       0.19546996       0.28558933
P        1.84574374      -0.15992771      -1.24995344
O        1.46786632       0.86455057      -2.24732078
O        3.42210138      -0.41074571      -1.05685804
O        1.28081585      -1.63843515      -1.49042110
H       -3.25513697       0.39033472       2.34563180
H       -1.15090536       0.00058613      -0.95702835
H       -0.59996522      -1.52454783       1.35447697
H        0.17974906       1.06982174       1.57381953
H        0.11964620       1.76911558      -0.05527223
H        3.92505426       0.12555284      -1.68202302
H        0.58272444      -1.85658177      -0.84186683
18
Properties=species:S:1:pos:R:3 relative_energy_eV=0.030726829638297204 branch=left pbc="F F F"
O       -3.07112690       1.20752531       0.21073945
C       -2.28226632       0.47366648       0.75145011
O       -2.42686696      -0.00488331       2.01288632
C       -0.99962088      -0.03832370       0.12026827
O       -0.75818270      -1.41023284       0.41545825
C        0.19147307       0.85650140       0.50639442
O        1.44106388       0.19613504       0.29451717
P        1.84644685      -0.16144810      -1.24093773
O        1.47907230       0.87439810      -2.23016506
O        3.41933984      -0.44104097      -1.06582537
O        1.26114120      -1.62853424      -1.48872460
H       -3.26452028       0.35233215       2.35818364
H       -1.13831728       0.01907236      -0.95618884
H       -0.55296399      -1.49048644       1.35768548
H        0.17110830       1.08821285       1.56777774
H        0.13697861       1.78812062      -0.05445747
H        3.92021494       0.07109397      -1.71023558
H        0.58609627      -1.85161008      -0.82289327
18
Properties=species:S:1:pos:R:3 relative_energy_eV=0.07328215142115369 branch=left pbc="F F F"
O       -3.15898569       1.13707704       0.25571925
C       -2.30412703       0.46305732       0.77909915
O       -2.39313802       0.01207322       2.05500291
C       -1.01925422      -0.00094521       0.10646532
O       -0.74973746      -1.37094147       0.38773399
C        0.19605562       0.88479295       0.47622358
O        1.43247368       0.20189828       0.25728589
P        1.85800598      -0.17382086      -1.27208078
O        1.53674047       0.85494277      -2.28057932
O        3.42050460      -0.48027970      -1.03878122
O        1.22713399      -1.62711583      -1.49990869
H       -3.28175016       0.27520439       2.36364038
H       -1.21309938       0.07242688      -0.96386486
H       -0.59561718      -1.44065832       1.34037734
H        0.20346369       1.11436560       1.53879632
H        0.16779544       1.81234199      -0.09702016
H        3.94681696       0.02693261      -1.66890678
H        0.68578877      -1.86085332      -0.71326940
18
Properties=species:S:1:pos:R:3 relative_energy_eV=0.17072468372498406 branch=left pbc="F F F"
O       -3.13217492       1.33371983       0.43024014
C       -2.32489115       0.54500372       0.85718607
O       -2.39284718       0.03384451       2.11123167
C       -1.11319617       0.00312264       0.09926183
O       -0.89983462      -1.38508683       0.30978235
C        0.14402438       0.83774545       0.41779004
O        1.33722509       0.07015454       0.24780396
P        1.88184244      -0.22643346      -1.25884193
O        1.56442916       0.78401325      -2.28999996
O        3.45362275      -0.41117921      -0.96095719
O        1.37426354      -1.70394731      -1.61569748
H       -3.20841651       0.40196121       2.50576169
H       -1.32536783       0.13541185      -0.96132247
H       -0.64288661      -1.52072958       1.23549509
H        0.16316717       1.16640745       1.46255427
H        0.14328235       1.71058631      -0.23962631
H        3.92953440       0.26069245      -1.49876337
H        1.00729293      -2.13478893      -0.82596555
18
Properties=species:S:1:pos:R:3 relative_energy_eV=0.23870488796092104 branch=left pbc="F F F"
O       -3.03698296       1.53723897       0.60931014
C       -2.31739785       0.62660528       0.93178475
O       -2.33903755       0.06002354       2.16671176
C       -1.22647900      -0.00475018       0.07443411
O       -1.09709461      -1.39207633       0.26144037
C        0.07699454       0.78727571       0.32270748
O        1.24108046      -0.03521716       0.18299640
P        1.91062021      -0.25117566      -1.28141175
O        1.55404209       0.74359085      -2.31080533
O        3.47752845      -0.35143352      -0.90285486
O        1.55237287      -1.76337695      -1.70038930
H       -3.06599891       0.48150686       2.64853200
H       -1.49459289       0.14023971      -0.96835011
H       -0.81423726      -1.56024844       1.16934407
H        0.12195014       1.14451096       1.35027194
H        0.11078687       1.62343511      -0.37613858
H        3.93207923       0.45630098      -1.19795927
H        1.37343452      -2.34195252      -0.95369164
18
Properties=species:S:1:pos:R:3 relative_energy_eV=0.3084657595572935 branch=left pbc="F F F"
O       -2.99900298       1.60141728       0.73600091
C       -2.28987692       0.65805767       0.98323619
O       -2.25213201       0.04093524       2.19794065
C       -1.28525776       0.00629432       0.04471589
O       -1.18970363      -1.38620904       0.22139127
C        0.04493053       0.78909725       0.23197570
O        1.19628460      -0.03824754       0.11060141
P        1.90953096      -0.27856142      -1.32382151
O        1.54926643       0.68558158      -2.37925356
O        3.46181986      -0.35572991      -0.86483517
O        1.61352954      -1.79965527      -1.73500756
H       -2.91586291       0.47045689       2.76015785
H       -1.62648273       0.15533621      -0.97990735
H       -0.98806745      -1.55607330       1.14826210
H        0.12978416       1.22094572       1.22263742
H        0.06706614       1.61521688      -0.47333868
H        3.87844674       0.52686263      -0.86065044
H        1.65479502      -2.45522884      -1.01417374
18
Properties=species:S:1:pos:R:3 relative_energy_eV=0.3481366275191249 branch=left pbc="F F F"
O       -2.98246881       1.60077348       0.84181261
C       -2.27502991       0.64448397       1.02772263
O       -2.15786053       0.02767994       2.23555337
C       -1.32548266       0.02661821       0.01811479
O       -1.19481059      -1.36519900       0.14756927
C        0.00979729       0.81854401       0.15182096
O        1.15495550      -0.03189393       0.09874613
P        1.87664629      -0.29546907      -1.33152630
O        1.50635934       0.63322683      -2.41258487
O        3.43461660      -0.37764805      -0.89898167
O        1.58984080      -1.82364135      -1.70499202
H       -2.75065504       0.50121244       2.83758794
H       -1.73125136       0.21952009      -0.97353820
H       -1.04865522      -1.55852746       1.08052289
H        0.08315550       1.31425532       1.11762733
H        0.04426267       1.57335472      -0.63378734
H        3.76437214       0.44602187      -0.50637334
H        1.96127466      -2.45281667      -1.06936374
18
Properties=species:S:1:pos:R:3 relative_energy_eV=0.37110448565726983 branch=left pbc="F F F"
O       -3.04237613       1.56592138       0.89040539
C       -2.28098768       0.64393202       1.03986620
O       -2.10078290       0.01347577       2.23691972
C       -1.33302089       0.05455604       0.00114948
O       -1.19661059      -1.33603239       0.12600356
C        0.00026757       0.85424544       0.11102523
O        1.15903754       0.02138204       0.08163565
P        1.86414624      -0.30707083      -1.34281954
O        1.50494049       0.61126498      -2.43631968
O        3.42111020      -0.40615253      -0.90808896
O        1.54930994      -1.84631626      -1.64751090
H       -2.67526051       0.46123801       2.87534059
H       -1.75322704       0.23970051      -0.98556221
H       -1.01676270      -1.53139212       1.05818080
H        0.06419063       1.37160221       1.06366228
H        0.04220361       1.59140305      -0.68807405
H        3.67415479       0.34316472      -0.34734306
H        2.07873390      -2.44442720      -1.10254063
18
Properties=species:S:1:pos:R:3 relative_energy_eV=0.39614983596038655 branch=left pbc="F F F"
O       -3.03770630       1.58864782       0.94507669
C       -2.28063756       0.66163203       1.07365122
O       -2.06405439       0.03355799       2.26256885
C       -1.37667635       0.07626023       0.00238352
O       -1.26115369      -1.31921229       0.10156590
C       -0.02569562       0.85097707       0.07777820
O        1.10199252      -0.02680530       0.06442354
P        1.84426248      -0.32583033      -1.35063493
O        1.46451750       0.54945988      -2.47139302
O        3.40211374      -0.33147542      -0.88512265
O        1.60039666      -1.88551983      -1.63000260
H       -2.61670998       0.48547657       2.91870120
H       -1.81386042       0.28287566      -0.97241905
H       -0.94208743      -1.52253152       0.98934150
H        0.07501506       1.41250937       1.00300394
H        0.04660520       1.55214594      -0.74970360
H        3.54426492       0.24006958      -0.12026682
H        2.29847955      -2.42174329      -1.23302274
18
Properties=species:S:1:pos:R:3 relative_energy_eV=0.4061456051240384 branch=left pbc="F F F"
O       -3.05430903       1.59016641       0.97258107
C       -2.27398363       0.67903337       1.09375655
O       -2.02492991       0.05549534       2.27804656
C       -1.38961979       0.09387467       0.00715211
O       -1.28376067      -1.30383740       0.09483612
C       -0.03155173       0.85640029       0.05478988
O        1.08396245      -0.03549099       0.03725845
P        1.84674030      -0.33647887      -1.36165253
O        1.47936747       0.51218119      -2.50643252
O        3.39255903      -0.27548394      -0.87541237
O        1.64302757      -1.90983252      -1.60929569
H       -2.60988873       0.46981241       2.93109488
H       -1.86001514       0.30775444      -0.94887622
H       -0.94134484      -1.51336639       0.97148753
H        0.08007170       1.41180979       0.98348145
H        0.02273697       1.55387389      -0.78022991
H        3.48504738       0.16891530      -0.02505621
H        2.39495624      -2.42433317      -1.29160028
18
Properties=species:S:1:pos:R:3 relative_energy_eV=0.4115139953828475 branch=left pbc="F F F"
O       -3.07096900       1.57206257       0.98576036
C       -2.28059634       0.66879204       1.10004442
O       -2.02027116       0.05656471       2.28738000
C       -1.39449966       0.09960812      -0.00008711
O       -1.27279504      -1.29822495       0.07877672
C       -0.03607027       0.86559068       0.04772467
O        1.08276361      -0.02630974       0.04437848
P        1.84587242      -0.33604109      -1.35371529
O        1.46075273       0.49622702      -2.50528628
O        3.39490379      -0.25949741      -0.87281809
O        1.64275200      -1.91089185      -1.59095244
H       -2.60123665       0.48265846       2.93608482
H       -1.87619424       0.32091753      -0.95114603
H       -0.89466143      -1.50429548       0.94204835
H        0.06673826       1.42828835       0.97332471
H        0.03349648       1.55889487      -0.78945972
H        3.48143443       0.13041869       0.00736471
H        2.39764566      -2.44426875      -1.31349345
18
Properties=species:S:1:pos:R:3 relative_energy_eV=0.4273679214893491 branch=left pbc="F F F"
O       -3.13382174       1.50450415       0.98025684
C       -2.29215671       0.64782993       1.10448399
O       -2.01315170       0.05593071       2.29392637
C       -1.37878116       0.11206034       0.00646840
O       -1.23591841      -1.28719819       0.03904982
C       -0.03326390       0.90263361       0.04819496
O        1.09811077       0.02460925       0.06382403
P        1.83706366      -0.33647593      -1.33536600
O        1.45265593       0.47234784      -2.50067338
O        3.39440729      -0.24107714      -0.89172049
O        1.58659069      -1.91274366      -1.53227563
H       -2.58826835       0.49155562       2.94360852
H       -1.86980652       0.33626656      -0.93657906
H       -0.82307566      -1.52630106       0.87671539
H        0.06172665       1.49369433       0.95724515
H        0.03552848       1.57200656      -0.80738926
H        3.49940828       0.03088516       0.02887467
H        2.36181793      -2.44003444      -1.31271552
18
Properties=species:S:1:pos:R:3 relative_energy_eV=0.44021356814118917 branch=left pbc="F F F"
O       -3.18364188       1.42327931       0.95776588
C       -2.29587269       0.61914190       1.09948553
O       -1.96792385       0.07334285       2.30009102
C       -1.37369915       0.12405110      -0.00293357
O       -1.22153691      -1.27166300       0.01312700
C       -0.04298486       0.93067592       0.05008929
O        1.11344931       0.08172615       0.09605376
P        1.82313358      -0.31999228      -1.30913036
O        1.43915846       0.48591527      -2.47812499
O        3.39485819      -0.26606512      -0.91810671
O        1.53713113      -1.89748422      -1.44315420
H       -2.57687132       0.46616653       2.94669174
H       -1.85481712       0.36801352      -0.94883813
H       -0.73754320      -1.51272853       0.81107663
H        0.03546319       1.54009723       0.94605897
H        0.01007954       1.57738650      -0.82274379
H        3.54083371      -0.08387605       0.01776906
H        2.31984947      -2.43749351      -1.28924856
18
Properties=species:S:1:pos:R:3 relative_energy_eV=0.4529378853949311 branch=left pbc="F F F"
O       -3.23690187       1.35517972       0.96644668
C       -2.29724993       0.60984763       1.08970261
O       -1.91280624       0.09104735       2.28471415
C       -1.36773393       0.13789942      -0.01727026
O       -1.20271838      -1.25649536       0.01146098
C       -0.04767639       0.96401312       0.04365612
O        1.12916213       0.13999166       0.10345184
P        1.81734266      -0.31414549      -1.29705368
O        1.45204858       0.47784540      -2.48199142
O        3.39619206      -0.30615662      -0.92441796
O        1.48935748      -1.88828069      -1.39232606
H       -2.57020289       0.40231340       2.92502616
H       -1.86224113       0.36272944      -0.95817168
H       -0.69373016      -1.47825408       0.79818346
H       -0.00411367       1.56767131       0.94516905
H        0.01537000       1.62684139      -0.81692774
H        3.58163313      -0.15767407       0.01117973
H        2.27333437      -2.43387995      -1.26490344
18
Properties=species:S:1:pos:R:3 relative_energy_eV=0.4744672216766048 branch=left pbc="F F F"
O       -3.29274897       1.28746772       0.96774781
C       -2.31310415       0.59572009       1.08366566
O       -1.90336048       0.07076713       2.27263852
C       -1.36428915       0.16064090      -0.03338627
O       -1.16729814      -1.23161187       0.01644371
C       -0.05201654       1.00550464       0.03214713
O        1.12313387       0.17824580       0.08163275
P        1.82152160      -0.31870300      -1.29506626
O        1.50850771       0.45926213      -2.50247223
O        3.40022987      -0.31433922      -0.92559500
O        1.45077560      -1.88541008      -1.35678224
H       -2.54486615       0.34183430       2.94865205
H       -1.85029955       0.36627454      -0.98681229
H       -0.67682725      -1.41643288       0.82507756
H       -0.00461364       1.57917453       0.95489549
H        0.01042444       1.68693218      -0.81782492
H        3.60412362      -0.19690820       0.00863179
H        2.20977327      -2.46792504      -1.24766463
18
Properties=species:S:1:pos:R:3 relative_energy_eV=0.5053651246307709 branch=left pbc="F F F"
O       -3.34329499       1.21667981       0.97911188
C       -2.32689866       0.57417391       1.07827129
O       -1.89222999       0.04199162       2.24948639
C       -1.35108873       0.18414178      -0.02380424
O       -1.12419870      -1.20266468       0.02185319
C       -0.04039694       1.02687007       0.03581073
O        1.15259664       0.22847394       0.05182723
P        1.84165964      -0.31489742      -1.31715885
O        1.54642402       0.42218931      -2.55346947
O        3.41555820      -0.32839341      -0.92338479
O        1.43060033      -1.86537752      -1.32978153
H       -2.54166567       0.30397245       2.92151220
H       -1.84729098       0.39799571      -0.96983246
H       -0.70132698      -1.39071941       0.87264211
H        0.02605753       1.60833293       0.94851527
H       -0.01846165       1.71362584      -0.80425758
H        3.57712472      -0.22840351       0.02029486
H        2.15589818      -2.48749784      -1.23170749
18
Properties=species:S:1:pos:R:3 relative_energy_eV=0.6053466169141757 branch=left pbc="F F F"
O       -3.32763573       1.08183578       0.94190876
C       -2.27161765       0.52811514       1.11422023
O       -1.87522397       0.06253575       2.33086441
C       -1.28072963       0.20892878       0.00945937
O       -1.07296778      -1.18487026       0.01363115
C        0.00144703       1.09550083       0.01775118
O        1.21578598       0.34425472      -0.02928724
P        1.84136374      -0.31872196      -1.37353236
O        1.57836816       0.35346978      -2.65331101
O        3.40134204      -0.37211129      -0.90754082
O        1.38999315      -1.85842756      -1.30435851
H       -2.63941197       0.22366324       2.91257284
H       -1.78909964       0.42682187      -0.92462642
H       -0.82928354      -1.43932159       0.91439527
H        0.05938730       1.68059895       0.93328882
H       -0.01904067       1.79082933      -0.81990387
H        3.43498920      -0.27627778       0.05144200
H        2.14139984      -2.44633028      -1.20104511
18
Properties=species:S:1:pos:R:3 relative_energy_eV=0.8930722311451973 branch=left pbc="F F F"
O       -3.33944468       1.02986923       0.90528061
C       -2.25670626       0.54489946       1.10646260
O       -1.84585862       0.11886622       2.33720238
C       -1.22527057       0.23569617       0.01826389
O       -0.83438044      -1.11419186       0.03517367
C        0.01945373       1.18244261       0.01774014
O        1.20852273       0.37260676      -0.04590724
P        1.77937205      -0.34169112      -1.39066835
O        1.54729518       0.36569953      -2.67364657
O        3.30381293      -0.47788156      -0.84537382
O        1.32031167      -1.94096140      -1.29718291
H       -2.63197902       0.07279355       2.90914251
H       -1.72815412       0.40497300      -0.94211241
H       -0.80926343      -1.49752970       0.90656898
H        0.08673149       1.81523900       0.90818911
H       -0.06361045       1.88343853      -0.81588992
H        3.28829207      -0.30168435       0.10167004
H        2.13994135      -2.45209081      -1.20898369
18
Properties=species:S:1:pos:R:3 relative_energy_eV=1.4867021237005247 branch=left pbc="F F F"
O       -3.32625153       0.91668541       0.88412677
C       -2.21340609       0.47956010       1.01783215
O       -1.73091012       0.00310980       2.20595843
C       -1.14460686       0.29696622      -0.04618090
O       -0.58459391      -0.99739176       0.01119665
C        0.01797486       1.33770196      -0.00764049
O        1.24939187       0.63559590      -0.00587602
P        1.58907592      -0.42431696      -1.21978758
O        1.34287206       0.27499352      -2.49497560
O        3.07855200      -0.72707716      -0.62515221
O        1.18026175      -1.96972097      -1.42165141
H       -2.48187108      -0.11441484       2.80983786
H       -1.63061294       0.32747357      -1.01277381
H       -0.44372743      -1.26441343       0.96500005
H        0.11732163       1.93091825       0.91492250
H       -0.09476624       1.99561559      -0.88395102
H        3.05528381      -0.30300544       0.26114444
H        1.97907770      -2.49778649      -1.32609991
18
Properties=species:S:1:pos:R:3 relative_energy_eV=1.9184624939225614 branch=left pbc="F F F"
O       -3.25866018       0.81605734       0.85969316
C       -2.14272783       0.38983464       0.96541211
O       -1.65425370      -0.16427650       2.11125903
C       -1.07839309       0.31841154      -0.10779457
O       -0.42444034      -0.93965172       0.01696953
C        0.02893877       1.43209424      -0.01405678
O        1.26771653       0.78003537       0.10811145
P        1.43107468      -0.49160220      -1.11670432
O        1.12032583       0.25269024      -2.36758691
O        2.80893665      -0.90425598      -0.35996931
O        1.07429385      -2.08275980      -1.52437338
H       -2.37947650      -0.17812476       2.75226989
H       -1.55017497       0.34815017      -1.08168384
H        0.00934138      -0.87933608       0.88741362
H       -0.06316905       2.00948713       0.89485761
H       -0.00935488       2.07481934      -0.89906423
H        2.92255756      -0.24089442       0.33157868
H        1.85653095      -2.64018410      -1.43040273
18
Properties=species:S:1:pos:R:3 relative_energy_eV=2.2905540410793037 branch=left pbc="F F F"
O       -3.20362079       0.78163457       0.82521911
C       -2.09322981       0.32906920       0.94889264
O       -1.62131880      -0.22751499       2.09049262
C       -1.03507088       0.34678773      -0.11752947
O       -0.27782454      -0.89559672      -0.00776365
C        0.01840737       1.49455224       0.05823984
O        1.24771783       0.83158878       0.24312090
P        1.32927555      -0.61369583      -1.10431283
O        1.06913663       0.23449386      -2.28594380
O        2.68787579      -0.97372117      -0.30823920
O        1.07075758      -2.18902427      -1.59447292
H       -2.35132925      -0.18442892       2.72690623
H       -1.49614333       0.37247432      -1.09442846
H        0.22433881      -0.67082286       0.81240413
H       -0.28117376       2.14979599       0.88749111
H        0.06892475       2.08858214      -0.84754542
H        2.76985909      -0.20242075       0.26963357
H        1.83248337      -2.77125776      -1.47623624
18
Properties=species:S:1:pos:R:3 relative_energy_eV=2.37704139887137 branch=ts pbc="F F F"
O       -3.18508239       0.77009377       0.80229699
C       -2.07561295       0.31693662       0.94176816
O       -1.62280394      -0.23430202       2.09182525
C       -1.01071252       0.36430022      -0.11975633
O       -0.20264685      -0.86790677      -0.01571289
C        0.03419254       1.53715846       0.09617177
O        1.23337554       0.95312415       0.44427572
P        1.29819765      -0.74084698      -1.19207180
O        1.07185058       0.21986391      -2.28689143
O        2.63330189      -0.95728311      -0.33920412
O        1.06492027      -2.27471329      -1.64784763
H       -2.36252732      -0.18081490       2.71860410
H       -1.48951458       0.37489860      -1.09304856
H        0.31941953      -0.56890076       0.80090477
H       -0.34871381       2.20515030       0.87698007
H        0.08716951       2.09150331      -0.84332888
H        2.70798786      -0.15683405       0.22997957
H        1.84085800      -2.81741093      -1.46318489
18
Properties=species:S:1:pos:R:3 relative_energy_eV=2.361251913567685 branch=right pbc="F F F"
O       -3.17839833       0.76738014       0.79138972
C       -2.06910503       0.31457901       0.94123698
O       -1.62617046      -0.23648126       2.09096502
C       -1.00252572       0.36602975      -0.11972588
O       -0.16534276      -0.84820042      -0.01702167
C        0.02367657       1.55371888       0.10431103
O        1.21298809       0.96280081       0.50725626
P        1.28535054      -0.76966738      -1.21097908
O        1.06898535       0.21547014      -2.28502896
O        2.61712366      -0.94364955      -0.34637669
O        1.06505219      -2.29626670      -1.65702734
H       -2.37024563      -0.18295861       2.71195388
H       -1.48387499       0.37307311      -1.09176679
H        0.39655699      -0.46028928       0.77298385
H       -0.37510213       2.22604114       0.86514950
H        0.10743743       2.09498494      -0.83667463
H        2.68954750      -0.13091679       0.20275381
H        1.83229937      -2.83811097      -1.44580697
18
Properties=species:S:1:pos:R:3 relative_energy_eV=1.953604919181089 branch=right pbc="F F F"
O       -3.15757202       0.76208711       0.76455441
C       -2.05996265       0.31109793       0.93934862
O       -1.62860571      -0.24692646       2.08475357
C       -0.98170733       0.34353076      -0.12316780
O       -0.11591947      -0.83988534      -0.08859821
C       -0.02440331       1.55863863       0.11292526
O        1.11009570       0.88868996       0.68838042
P        1.22367793      -0.83931786      -1.23426392
O        1.05620676       0.19503180      -2.26936563
O        2.58704175      -0.91884907      -0.37609024
O        1.05480147      -2.35163744      -1.67236386
H       -2.36946978      -0.18911926       2.70663589
H       -1.46989886       0.36787343      -1.08350014
H        0.53644643      -0.19953622       0.73123918
H       -0.36501294       2.22292136       0.86401070
H        0.13907951       2.09079783      -0.80938067
H        2.66455276      -0.13325237       0.17801415
H        1.82890157      -2.85460802      -1.43554021
18
Properties=species:S:1:pos:R:3 relative_energy_eV=1.188978599573602 branch=right pbc="F F F"
O       -3.16163156       0.76582074       0.75444203
C       -2.02929804       0.28274682       0.92969591
O       -1.62838405      -0.25401128       2.08671671
C       -0.96646521       0.32737902      -0.14406806
O       -0.12916047      -0.87401840      -0.18884216
C       -0.04660108       1.54046065       0.13066328
O        1.06302025       0.89066544       0.79428368
P        1.16482603      -0.87556922      -1.25231849
O        1.05009165       0.18890928      -2.26532924
O        2.55533094      -0.91442232      -0.39465994
O        1.04911245      -2.39739920      -1.68848227
H       -2.37362247      -0.19217923       2.70565118
H       -1.47221484       0.37438655      -1.09417530
H        0.68434788      -0.00014309       0.78788546
H       -0.38390227       2.23751109       0.86776306
H        0.18264240       2.07224366      -0.78432775
H        2.63582522      -0.13129846       0.16192292
H        1.83433428      -2.87354520      -1.42923006
18
Properties=species:S:1:pos:R:3 relative_energy_eV=0.5256762921926565 branch=right pbc="F F F"
O       -3.11084595       0.74140313       0.74796748
C       -2.02685700       0.22405324       0.89692768
O       -1.61177134      -0.27922608       2.08162099
C       -0.96938456       0.30381076      -0.18935498
O       -0.20508344      -0.91783673      -0.29259420
C       -0.03276457       1.52664283       0.18292997
O        1.12113352       1.07065211       0.87843425
P        1.10521133      -0.90590114      -1.30162319
O        1.04430907       0.17304905      -2.30234673
O        2.44821578      -0.94478710      -0.41063746
O        1.06040560      -2.44996322      -1.72571442
H       -2.37033029      -0.19404652       2.68883709
H       -1.50542702       0.44550757      -1.13481976
H        0.90851152       0.14693185       1.07459828
H       -0.51808166       2.26470402       0.83732662
H        0.28642031       2.00749987      -0.73500660
H        2.55278592      -0.12540522       0.11110815
H        1.85180282      -2.91955117      -1.43006303
18
Properties=species:S:1:pos:R:3 relative_energy_eV=0.3602354091126472 branch=right pbc="F F F"
O       -3.11410006       0.71208881       0.73759106
C       -2.01115613       0.22271089       0.88450924
O       -1.59917801      -0.31443224       2.04928207
C       -0.95125698       0.32755810      -0.18359910
O       -0.20698082      -0.90011473      -0.28590055
C       -0.02702632       1.51253894       0.18712458
O        1.14922581       1.09128312       0.89245840
P        1.08589889      -0.92250970      -1.31679006
O        1.03060471       0.13688803      -2.35090500
O        2.39547127      -0.97695072      -0.37899255
O        1.06537244      -2.45819866      -1.76114640
H       -2.34648810      -0.19933754       2.66182787
H       -1.49840657       0.52350697      -1.10949717
H        1.01079500       0.21801871       1.29084552
H       -0.61546734       2.24518428       0.77387601
H        0.32561490       1.98938085      -0.72402856
H        2.48776177      -0.10494752       0.05304215
H        1.84756532      -2.93513023      -1.44210761
18
Properties=species:S:1:pos:R:3 relative_energy_eV=0.29408533529931447 branch=right pbc="F F F"
O       -3.11863231       0.69391854       0.73621036
C       -2.01686445       0.23280611       0.88067945
O       -1.59378515      -0.32524507       2.03381578
C       -0.93212674       0.32796038      -0.17460345
O       -0.18559620      -0.89230002      -0.27633383
C       -0.01114045       1.50122493       0.17932257
O        1.14720730       1.08905536       0.88851683
P        1.08306020      -0.93144174      -1.30437209
O        1.02363834       0.10157979      -2.35640206
O        2.39533579      -0.97122253      -0.36556473
O        1.04911228      -2.45563039      -1.77766292
H       -2.33176182      -0.21580920       2.65645717
H       -1.46913998       0.55024761      -1.08960195
H        0.96175779       0.25224112       1.33867533
H       -0.58978504       2.22318590       0.75394146
H        0.31800194       1.99521870      -0.72846414
H        2.47148461      -0.08222829       0.03509873
H        1.82748380      -2.92602389      -1.45212250
18
Properties=species:S:1:pos:R:3 relative_energy_eV=0.22114903684268938 branch=right pbc="F F F"
O       -3.10765626       0.66391197       0.72375095
C       -2.00067200       0.19843275       0.86381139
O       -1.57105118      -0.34528511       2.02273365
C       -0.90997114       0.31889175      -0.18047418
O       -0.20992770      -0.92306765      -0.29359253
C        0.01236654       1.50690851       0.18119060
O        1.17318232       1.14305003       0.93696666
P        1.06209432      -0.96066887      -1.32223485
O        1.01293990       0.06092822      -2.38218119
O        2.36162795      -0.95131781      -0.36850626
O        1.02114572      -2.48214562      -1.80077596
H       -2.30946560      -0.26068393       2.65073956
H       -1.42526217       0.59242337      -1.10516131
H        0.91292073       0.39140377       1.50236146
H       -0.56762699       2.22829982       0.74880404
H        0.35468492       1.97695132      -0.73096514
H        2.42267366      -0.04666214       0.00002080
H        1.79624681      -2.94383304      -1.46889790
18
Properties=species:S:1:pos:R:3 relative_energy_eV=0.16195445348421345 branch=right pbc="F F F"
O       -3.08911810       0.61597055       0.70253949
C       -1.96950103       0.18888369       0.85693556
O       -1.53571704      -0.37339590       2.00880852
C       -0.88686544       0.33446216      -0.18240843
O       -0.23887011      -0.94045192      -0.33325748
C        0.03645842       1.51884286       0.20255689
O        1.16264069       1.16677489       0.99812205
P        1.03666815      -0.98019367      -1.35882338
O        0.98949610       0.03629495      -2.42722424
O        2.32123391      -0.93430075      -0.39233080
O        1.00060623      -2.51616329      -1.80550960
H       -2.28060446      -0.31883057       2.63126468
H       -1.37535341       0.60941712      -1.11487013
H        0.88259141       0.57407578       1.69290381
H       -0.56925559       2.25852994       0.73461859
H        0.41746144       1.95223207      -0.72332497
H        2.35570751      -0.02610755      -0.02833273
H        1.77067084      -2.99850297      -1.48407832
18
Properties=species:S:1:pos:R:3 relative_energy_eV=0.12503253096656408 branch=right pbc="F F F"
O       -3.09134896       0.60133388       0.70699324
C       -1.96503751       0.20036226       0.85864836
O       -1.52284690      -0.36843597       2.00350997
C       -0.87909359       0.34264983      -0.17927660
O       -0.22474031      -0.91905419      -0.33640173
C        0.03965343       1.51375414       0.20002896
O        1.15410235       1.13633741       0.98308676
P        1.04101802      -0.97352762      -1.36239263
O        0.97628306       0.03148964      -2.44102789
O        2.33457425      -0.92929583      -0.41391886
O        0.99617587      -2.51291723      -1.79272317
H       -2.27153671      -0.34325162       2.62206567
H       -1.37102783       0.60219267      -1.10683033
H        0.83476627       0.60437094       1.72039655
H       -0.55552320       2.27172063       0.71897562
H        0.42548683       1.95763286      -0.70991537
H        2.34560213      -0.03433229      -0.00800370
H        1.76174236      -3.01349216      -1.48562533
18
Properties=species:S:1:pos:R:3 relative_energy_eV=0.08487193454493536 branch=right pbc="F F F"
O       -3.09198110       0.58398440       0.72455194
C       -1.95984029       0.18761379       0.85364965
O       -1.49267548      -0.34395903       2.00810620
C       -0.88692832       0.34601699      -0.19872159
O       -0.20499596      -0.89844335      -0.34622356
C        0.03972020       1.51629939       0.19543935
O        1.14525015       1.10680696       0.99336818
P        1.04941804      -0.96680021      -1.38484895
O        0.95377423       0.02433412      -2.47300946
O        2.36844411      -0.90978218      -0.47025437
O        0.98554842      -2.51831349      -1.77187793
H       -2.25835140      -0.39215995       2.60536355
H       -1.40435948       0.60580313      -1.11906929
H        0.79012981       0.67207625       1.78416085
H       -0.54079995       2.30066756       0.69468285
H        0.46518082       1.96405941      -0.69138593
H        2.32238733      -0.07977911       0.05306742
H        1.74832842      -3.03088739      -1.47940940
18
Properties=species:S:1:pos:R:3 relative_energy_eV=0.06840244297927711 branch=right pbc="F F F"
O       -3.09331926       0.56146618       0.72697101
C       -1.95255836       0.19128030       0.85486947
O       -1.47370046      -0.34312400       2.00307950
C       -0.88408367       0.35711827      -0.20380169
O       -0.19936922      -0.89295926      -0.34577373
C        0.04997127       1.51940098       0.19080032
O        1.12443903       1.10820663       1.02330118
P        1.04820561      -0.96866246      -1.39785173
O        0.94581103       0.00186115      -2.50352941
O        2.37793678      -0.89729413      -0.49357095
O        0.97270952      -2.52301538      -1.77810191
H       -2.23969336      -0.42026113       2.59558165
H       -1.41103556       0.62364355      -1.12025664
H        0.77403164       0.72624739       1.83883098
H       -0.53685977       2.29797119       0.68119547
H        0.49352122       1.95565764      -0.70047354
H        2.29500356      -0.10505251       0.08049322
H        1.73723947      -3.02494716      -1.47417373
18
Properties=species:S:1:pos:R:3 relative_energy_eV=0.05541050527244806 branch=right pbc="F F F"
O       -3.09344701       0.53728137       0.72987406
C       -1.94498153       0.19344273       0.85731055
O       -1.45306429      -0.33850430       2.00132134
C       -0.87983054       0.36957632      -0.20064625
O       -0.20244810      -0.87761500      -0.35430766
C        0.06010240       1.51945050       0.18940129
O        1.12499328       1.11411071       1.03896166
P        1.03785935      -0.95930639      -1.41136958
O        0.94534063      -0.01505600      -2.53880133
O        2.36913555      -0.88598029      -0.51306035
O        0.96864334      -2.51459409      -1.78301161
H       -2.21390459      -0.44015783       2.59710566
H       -1.40725718       0.63158505      -1.11489961
H        0.73248741       0.75453931       1.84689563
H       -0.53436223       2.30461415       0.66847864
H        0.51471015       1.92381672      -0.70922813
H        2.27045553      -0.14842341       0.12973210
H        1.73381736      -3.00124236      -1.45616676
18
Properties=species:S:1:pos:R:3 relative_energy_eV=0.04787674013641663 branch=right pbc="F F F"
O       -3.09269986       0.52421207       0.73339257
C       -1.94204044       0.18475497       0.85767137
O       -1.43974398      -0.33550788       2.00293887
C       -0.87909240       0.37070178      -0.20074218
O       -0.20360167      -0.87590665      -0.36943552
C        0.05998444       1.52203213       0.18993223
O        1.12026377       1.12051093       1.04845611
P        1.03448891      -0.95649735      -1.42795578
O        0.93831158      -0.01305568      -2.55725389
O        2.35476602      -0.88640743      -0.50989812
O        0.97298446      -2.51512656      -1.78715510
H       -2.19727444      -0.44447995       2.60086812
H       -1.40770881       0.64913508      -1.11087515
H        0.73358562       0.76011882       1.86133235
H       -0.53465831       2.31670647       0.64412542
H        0.52891146       1.90858663      -0.70720655
H        2.24572650      -0.17100680       0.15147508
H        1.73604673      -2.99123342      -1.44208011
18
Properties=species:S:1:pos:R:3 relative_energy_eV=0.040915905079600634 branch=right pbc="F F F"
O       -3.09049638       0.49985153       0.73921930
C       -1.93508391       0.18224499       0.86280675
O       -1.42291756      -0.33384368       2.00661644
C       -0.87620754       0.37475512      -0.20085913
O       -0.21118022      -0.87427775      -0.38916311
C        0.06361867       1.52086893       0.18340765
O        1.10664723       1.12070562       1.06325790
P        1.03259154      -0.95366636      -1.44078041
O        0.93293239      -0.01134837      -2.57046319
O        2.34331512      -0.88143021      -0.50599817
O        0.98106682      -2.51341805      -1.79943008
H       -2.17216944      -0.44810771       2.61349633
H       -1.40177878       0.66733340      -1.10492585
H        0.70743204       0.75299697       1.86055900
H       -0.51620467       2.33860593       0.61491469
H        0.54321959       1.89520031      -0.71391776
H        2.20648324      -0.19219527       0.17921851
H        1.73698153      -2.97673829      -1.42036901
18
Properties=species:S:1:pos:R:3 relative_energy_eV=0.03155256362151704 branch=right pbc="F F F"
O       -3.08965748       0.47247957       0.75325387
C       -1.92743543       0.17770152       0.87024576
O       -1.40173238      -0.32784442       2.01569472
C       -0.88126063       0.38736085      -0.20617209
O       -0.23048648      -0.87209056      -0.40409190
C        0.07714523       1.52197630       0.17288511
O        1.10022703       1.10419490       1.07092302
P        1.03085884      -0.94763828      -1.44040225
O        0.93985245      -0.00316554      -2.56675258
O        2.33160854      -0.86947766      -0.49740837
O        1.00864425      -2.50256904      -1.82037400
H       -2.14368665      -0.43738340       2.63379521
H       -1.41539116       0.68309148      -1.10587569
H        0.66644471       0.70477477       1.83644653
H       -0.49556868       2.36257939       0.58188669
H        0.56300577       1.88276124      -0.72845006
H        2.15648697      -0.20431278       0.20333799
H        1.73919495      -2.96490127      -1.39135182
18
Properties=species:S:1:pos:R:3 relative_energy_eV=0.022969058587477775 branch=right pbc="F F F"
O       -3.09268434       0.45360361       0.76801595
C       -1.92459009       0.17761029       0.87259951
O       -1.37933629      -0.31517767       2.01595742
C       -0.88781589       0.39516332      -0.21408957
O       -0.24084980      -0.87044394      -0.41483777
C        0.08389306       1.52247041       0.16161031
O        1.08959719       1.08737577       1.07364076
P        1.02910449      -0.94386507      -1.44272236
O        0.94763387       0.01037922      -2.56254634
O        2.31430644      -0.85762324      -0.48119348
O        1.03162538      -2.49616476      -1.83448261
H       -2.11807729      -0.42357902       2.63901915
H       -1.44183799       0.69207713      -1.10517967
H        0.64841492       0.66541469       1.82914267
H       -0.48501592       2.36212825       0.56525489
H        0.59630181       1.86494717      -0.73409040
H        2.12217654      -0.18676592       0.21483446
H        1.73540391      -2.97001321      -1.37334265
18
Properties=species:S:1:pos:R:3 relative_energy_eV=0.014239249867387116 branch=right pbc="F F F"
O       -3.09242863       0.42863350       0.78036499
C       -1.91830784       0.18052872       0.87320276
O       -1.35037316      -0.29414299       2.01256220
C       -0.89090203       0.39346051      -0.22222760
O       -0.25619047      -0.87139562      -0.44162061
C        0.08992446       1.50896437       0.15108031
O        1.07503574       1.07810526       1.08919163
P        1.03030458      -0.93605115      -1.45024823
O        0.95360355       0.01973645      -2.56946414
O        2.28875611      -0.83550333      -0.45666716
O        1.04360201      -2.48876551      -1.84693071
H       -2.07726862      -0.41614931       2.64516454
H       -1.45320049       0.69699792      -1.10164850
H        0.60781980       0.64071610       1.81602782
H       -0.45958037       2.36235889       0.55311181
H        0.63113199       1.82865714      -0.73527226
H        2.08617665      -0.16072251       0.23391036
H        1.72014690      -2.96789142      -1.35294677
18
Properties=species:S:1:pos:R:3 relative_energy_eV=0.009301983987825224 branch=right pbc="F F F"
O       -3.08923628       0.41518123       0.78317247
C       -1.91267283       0.17646775       0.87125887
O       -1.33116647      -0.27977128       2.01252745
C       -0.89298204       0.39336880      -0.22823572
O       -0.26971151      -0.87494821      -0.46169637
C        0.09766312       1.49755058       0.15503991
O        1.06974094       1.06634117       1.10599490
P        1.03224020      -0.92819567      -1.45275905
O        0.95850766       0.01632832      -2.58069517
O        2.27856636      -0.82066290      -0.44525118
O        1.04628362      -2.47723028      -1.85068972
H       -2.04999459      -0.41625533       2.65085166
H       -1.45590096       0.70673969      -1.10566963
H        0.58972719       0.63349024       1.82388493
H       -0.45191180       2.36379210       0.53145499
H        0.64276644       1.80606737      -0.73174901
H        2.06055559      -0.14589194       0.24194917
H        1.70577560      -2.96483464      -1.34179799
18
Properties=species:S:1:pos:R:3 relative_energy_eV=0.007600188753713155 branch=right pbc="F F F"
O       -3.09017982       0.41915146       0.78062043
C       -1.91478048       0.17689978       0.87071561
O       -1.33215229      -0.27604739       2.01392337
C       -0.89561459       0.39000227      -0.22956583
O       -0.27272426      -0.87764621      -0.46538921
C        0.09379492       1.49198498       0.15535765
O        1.06895648       1.06124415       1.10251950
P        1.03229194      -0.92665307      -1.45266577
O        0.96863991       0.01966016      -2.58010960
O        2.27806588      -0.81401780      -0.44589219
O        1.04422928      -2.47664237      -1.84839393
H       -2.04856465      -0.41035155       2.65590974
H       -1.45364681       0.71047187      -1.10784496
H        0.60033365       0.62079170       1.82668287
H       -0.45753580       2.35549793       0.53204981
H        0.63952253       1.80165826      -0.73075708
H        2.06640355      -0.13223132       0.23940733
H        1.70121076      -2.96623593      -1.33897726
18
Properties=species:S:1:pos:R:3 relative_energy_eV=0.007239119935547933 branch=right pbc="F F F"
O       -3.09183305       0.41909518       0.78136317
C       -1.91631448       0.17701492       0.87124004
O       -1.33387634      -0.27484448       2.01506874
C       -0.89592389       0.38955931      -0.22952138
O       -0.27265097      -0.87737387      -0.46844310
C        0.09391145       1.49099935       0.15529211
O        1.06922185       1.05830389       1.10228106
P        1.03434837      -0.92511366      -1.45370829
O        0.97172838       0.02113331      -2.58110155
O        2.28174712      -0.80975523      -0.44895083
O        1.04370650      -2.47615458      -1.84626798
H       -2.04843548      -0.40765165       2.65917414
H       -1.45293252       0.71058112      -1.10801914
H        0.59861673       0.61477603       1.82158295
H       -0.45725338       2.35455775       0.53445293
H        0.63688343       1.80095998      -0.73285510
H        2.06795383      -0.13365665       0.24028394
H        1.69935264      -2.96489383      -1.33428122
18
Properties=species:S:1:pos:R:3 relative_energy_eV=0.006913059100043029 branch=right pbc="F F F"
O       -3.09317924       0.41609657       0.78211766
C       -1.91732328       0.17531946       0.87041006
O       -1.33384926      -0.27500154       2.01422857
C       -0.89557257       0.38984942      -0.22982906
O       -0.27117342      -0.87521864      -0.47277456
C        0.09474796       1.49049737       0.15695778
O        1.06959805       1.05597859       1.10418595
P        1.03604565      -0.92393255      -1.45742511
O        0.97284195       0.02090128      -2.58616755
O        2.28411781      -0.80626521      -0.45363191
O        1.04482369      -2.47619357      -1.84397690
H       -2.04799221      -0.40412389       2.65972468
H       -1.45409466       0.71294690      -1.10677175
H        0.59828998       0.61568992       1.82589809
H       -0.45753538       2.35208514       0.53648295
H        0.63803211       1.79964487      -0.73154051
H        2.06529749      -0.13370427       0.23701912
H        1.69517552      -2.96703302      -1.32731698
18
Properties=species:S:1:pos:R:3 relative_energy_eV=0.006459433821873972 branch=right pbc="F F F"
O       -3.09253903       0.41004419       0.78002207
C       -1.91615343       0.17169490       0.86934315
O       -1.33288437      -0.27697705       2.01387453
C       -0.89579804       0.38964656      -0.23030776
O       -0.27102650      -0.87386567      -0.47771231
C        0.09447288       1.48782495       0.16022764
O        1.06899256       1.05546887       1.10717105
P        1.03662188      -0.92310427      -1.46314113
O        0.97447275       0.01782105      -2.59506178
O        2.28374998      -0.80182573      -0.45939883
O        1.04898814      -2.47643292      -1.84550500
H       -2.04737513      -0.39571164       2.66110154
H       -1.45490751       0.71795506      -1.10505300
H        0.59844749       0.61472491       1.82946769
H       -0.45518357       2.35021137       0.54012166
H        0.63962825       1.79750337      -0.72615293
H        2.06109983      -0.13064949       0.23209369
H        1.68764400      -2.96679180      -1.31349966
18
Properties=species:S:1:pos:R:3 relative_energy_eV=0.005990224213746842 branch=right pbc="F F F"
O       -3.09155443       0.40455888       0.77603786
C       -1.91495930       0.16859573       0.86839815
O       -1.33367486      -0.27819626       2.01479047
C       -0.89474072       0.38961178      -0.23036022
O       -0.26938987      -0.87363660      -0.47986266
C        0.09489938       1.48758014       0.16361846
O        1.06890316       1.04970351       1.10841698
P        1.03706051      -0.92243467      -1.46774212
O        0.97331253       0.01205434      -2.60457987
O        2.28485857      -0.79510550      -0.46534337
O        1.05324630      -2.47639090      -1.84856805
H       -2.04881234      -0.38808140       2.66275279
H       -1.45461178       0.71957373      -1.10425423
H        0.59624102       0.60989202       1.82809166
H       -0.45323862       2.35102160       0.54696803
H        0.63982592       1.80015837      -0.72200302
H        2.06297825      -0.12706334       0.22925109
H        1.67790651      -2.96430498      -1.29802119
18
Properties=species:S:1:pos:R:3 relative_energy_eV=0.005612248281977372 branch=right pbc="F F F"
O       -3.09192847       0.40006360       0.77274958
C       -1.91509758       0.16688746       0.86639109
O       -1.33470857      -0.27631683       2.01466027
C       -0.89253763       0.38958830      -0.23094384
O       -0.26681309      -0.87246872      -0.48215437
C        0.09627653       1.48840671       0.16628531
O        1.06972374       1.04479473       1.11009047
P        1.03740313      -0.92151236      -1.47178484
O        0.96753585       0.00704059      -2.61316606
O        2.28626429      -0.78888828      -0.47100406
O        1.05682737      -2.47589793      -1.84944322
H       -2.05043069      -0.38545761       2.66245737
H       -1.45340065       0.71881433      -1.10432136
H        0.59709358       0.60789176       1.83279865
H       -0.45401938       2.34893851       0.55264780
H        0.64267201       1.80453493      -0.71807228
H        2.06557700      -0.12308489       0.22605475
H        1.66781284      -2.96579801      -1.28565435
18
Properties=species:S:1:pos:R:3 relative_energy_eV=0.004977615291863913 branch=right pbc="F F F"
O       -3.09352873       0.39366921       0.76462681
C       -1.91589493       0.16613596       0.86368878
O       -1.33766987      -0.27008660       2.01588569
C       -0.88979162       0.38886570      -0.23138479
O       -0.26443593      -0.87295324      -0.48303854
C        0.09817755       1.48651131       0.17074072
O        1.07264250       1.04483213       1.11390640
P        1.03742627      -0.91956686      -1.47707281
O        0.95461251       0.00072304      -2.62411549
O        2.28964644      -0.77920788      -0.48147355
O        1.06560909      -2.47415999      -1.85140627
H       -2.05439754      -0.38236975       2.66228747
H       -1.44716827       0.71711077      -1.10703159
H        0.60297454       0.59782935       1.83345362
H       -0.45437496       2.34212024       0.56216322
H        0.64470100       1.81269296      -0.71008273
H        2.06938923      -0.11710493       0.21953516
H        1.65033313      -2.96750539      -1.26309102
18
Properties=species:S:1:pos:R:3 relative_energy_eV=0.004371793424070347 branch=right pbc="F F F"
O       -3.09462756       0.38570635       0.75437260
C       -1.91604750       0.16632627       0.86087664
O       -1.33907931      -0.26237935       2.01687476
C       -0.88618291       0.38814647      -0.23017272
O       -0.25971397      -0.87575725      -0.47757465
C        0.10062447       1.48458380       0.17684661
O        1.07596637       1.04287051       1.11856576
P        1.03668734      -0.91890428      -1.48202573
O        0.94208808      -0.00441332      -2.63263076
O        2.29368838      -0.76532358      -0.49480884
O        1.07418320      -2.47421962      -1.85431165
H       -2.05699188      -0.38142147       2.66007104
H       -1.43701862       0.71911350      -1.10932035
H        0.60444209       0.58706107       1.82909395
H       -0.45432939       2.33819492       0.57156425
H        0.64485618       1.81755097      -0.70250764
H        2.06894353      -0.11020065       0.21153778
H        1.63076207      -2.96939857      -1.23885981
18
Properties=species:S:1:pos:R:3 relative_energy_eV=0.003949360874685226 branch=right pbc="F F F"
O       -3.09429543       0.38203322       0.74944078
C       -1.91563519       0.16543938       0.85772823
O       -1.33969195      -0.25862494       2.01553895
C       -0.88279942       0.38824560      -0.22937289
O       -0.25398281      -0.87454097      -0.47299673
C        0.10147355       1.48596099       0.18041478
O        1.07698452       1.04080095       1.12016526
P        1.03600578      -0.91966875      -1.48397690
O        0.93401461      -0.00838652      -2.63633659
O        2.29625442      -0.75767439      -0.50313065
O        1.07412610      -2.47577778      -1.85294654
H       -2.05936718      -0.38601364       2.65525181
H       -1.43112255       0.71948779      -1.10946816
H        0.60593625       0.59107329       1.83601449
H       -0.45598517       2.33740272       0.57600225
H        0.64696298       1.81828944      -0.69860831
H        2.06834418      -0.10688099       0.20616066
H        1.62102791      -2.97362972      -1.23228917
18
Properties=species:S:1:pos:R:3 relative_energy_eV=0.0038207163415791 branch=right pbc="F F F"
O       -3.09396167       0.37741427       0.74592391
C       -1.91488611       0.16447453       0.85718322
O       -1.34025579      -0.25714546       2.01658536
C       -0.88198665       0.38920088      -0.22886224
O       -0.25136969      -0.87282788      -0.47132940
C        0.10182456       1.48629659       0.18181439
O        1.07687052       1.03988028       1.12149948
P        1.03637465      -0.91833196      -1.48518297
O        0.92979961      -0.01122721      -2.64017318
O        2.29885306      -0.75101507      -0.50790482
O        1.07444451      -2.47487425      -1.85163485
H       -2.06133951      -0.38609227       2.65434977
H       -1.42926914       0.71870069      -1.11037932
H        0.60650272       0.58620258       1.83505338
H       -0.45310831       2.33915858       0.57810380
H        0.64848280       1.81648318      -0.69714578
H        2.06697077      -0.10591454       0.20509574
H        1.61430435      -2.97284737      -1.22540520
18
Properties=species:S:1:pos:R:3 relative_energy_eV=0.003719732259924058 branch=right pbc="F F F"
O       -3.09468209       0.37430208       0.74423957
C       -1.91539466       0.16440043       0.85734046
O       -1.34170270      -0.25831726       2.01686974
C       -0.88141689       0.38955968      -0.22782284
O       -0.24997078      -0.87243121      -0.46939261
C        0.10314246       1.48653257       0.18235136
O        1.07802452       1.03986646       1.12307485
P        1.03607927      -0.91747769      -1.48567787
O        0.92877901      -0.01192713      -2.64202668
O        2.29876352      -0.74791611      -0.50906609
O        1.07327303      -2.47439138      -1.85022303
H       -2.06350583      -0.38577918       2.65414858
H       -1.42894137       0.71807383      -1.10985832
H        0.60734554       0.58271715       1.83414494
H       -0.45022493       2.34115748       0.57688117
H        0.64969753       1.81495990      -0.69748128
H        2.06669758      -0.10273617       0.20404414
H        1.61228741      -2.97305785      -1.22395482
18
Properties=species:S:1:pos:R:3 relative_energy_eV=0.0036703072946693283 branch=right pbc="F F F"
O       -3.09543449       0.37242049       0.74304902
C       -1.91592588       0.16319034       0.85681248
O       -1.34297585      -0.25847351       2.01682318
C       -0.88053510       0.38983276      -0.22686381
O       -0.24934891      -0.87202291      -0.46851246
C        0.10461543       1.48647394       0.18296310
O        1.07859888       1.04077471       1.12454660
P        1.03544155      -0.91757991      -1.48609679
O        0.92691572      -0.01325110      -2.64324437
O        2.29847870      -0.74565730      -0.51077469
O        1.07215510      -2.47491463      -1.84968745
H       -2.06518154      -0.38734822       2.65340515
H       -1.42772372       0.71840380      -1.10868641
H        0.60792018       0.58378615       1.83602215
H       -0.44873142       2.34197935       0.57548712
H        0.65200262       1.81430239      -0.69686014
H        2.06691845      -0.10019182       0.20269133
H        1.61106088      -2.97418893      -1.22348273
