18
Properties=species:S:1:pos:R:3 relative_energy_eV=2.0342448549272376 branch=ts pbc="F F F"
O       -0.73248562       2.49465820       0.02236318
C       -1.29260725       1.57903401       0.56668421
O       -2.62139870       1.56159084       0.82618359
C       -0.65018688       0.28978081       1.06579971
O        0.73075221       0.40847979       1.02593514
P        1.55506151      -0.51646076      -0.20064438
O        2.11829537      -1.64272407       0.58978420
O        1.76377821      -1.28000009      -1.83956937
O        2.33620895       0.77542725      -0.75838210
C       -1.03113026      -0.89802778       0.16683827
O       -0.12065505      -0.69195410      -0.92125203
H       -2.97441816       2.40695053       0.50493084
H       -0.98853907       0.11220522       2.09041734
H        2.28269992      -2.08270127      -1.66837383
H        2.06649438       1.54057938      -0.23093640
H       -0.81047331      -1.83630865       0.67493960
H       -2.04816326      -0.88908406      -0.21206938
H        0.41733901      -1.33215847      -1.70221594
