32
Properties=species:S:1:pos:R:3 relative_energy_eV=0.0 branch=left pbc="F F F"
O       -4.35604683       0.95950231      -2.73715311
C       -3.62245404       0.02975299      -2.47283777
C       -3.18009770      -0.21958065      -1.05302225
O       -3.78663748       0.70598617      -0.18374355
C       -1.65165258      -0.14987071      -0.94749554
O       -1.16211359      -1.24905694      -1.69141694
C       -1.23734211      -0.15452177       0.52827115
O       -1.72094726      -1.32604007       1.18439414
C        0.26265635      -0.12003468       0.79064399
O        0.89659558      -1.29057041       0.24872957
C        0.96231485       1.10396107       0.22576228
O        2.31078023       1.18950333       0.71580552
P        3.48281852       0.46284139      -0.15906549
O        3.32636782       0.61757018      -1.62108122
O        3.54972286      -1.01404583       0.43901980
O        4.77917779       1.13686259       0.50701590
O        2.36998410      -0.13378616       3.36528244
H       -3.23811954      -0.65707101      -3.24300433
H       -3.46527168      -1.24791733      -0.79383729
H       -4.35071056       1.25612919      -0.75710895
H       -1.33359716       0.80160616      -1.39176003
H       -0.19804429      -1.24310945      -1.64270624
H       -1.67381231       0.73872046       0.97888321
H       -2.62237590      -1.15480315       1.47933772
H        0.41178756      -0.11834043       1.87440865
H        0.35796395      -2.04674311       0.52843573
H        0.46835705       2.01312831       0.56633483
H        0.97051751       1.10294298      -0.86296449
H        2.63512003      -1.38445388       0.42061801
H        5.26465137       1.64769145      -0.15159012
H        2.51682050       0.50395423       2.65300427
H        3.12069043      -0.73156593       3.27619560
32
Properties=species:S:1:pos:R:3 relative_energy_eV=0.00036201916373101994 branch=left pbc="F F F"
O       -4.34939571       0.95938258      -2.74038381
C       -3.61552082       0.03091092      -2.47238612
C       -3.17918258      -0.21769267      -1.05070828
O       -3.78603168       0.71095521      -0.18499193
C       -1.65112722      -0.15097930      -0.94238855
O       -1.16238729      -1.24948650      -1.68782532
C       -1.23718308      -0.15832081       0.53297477
O       -1.72119821      -1.33031248       1.18792789
C        0.26297233      -0.12314512       0.79196107
O        0.89697251      -1.29435561       0.25169973
C        0.95938699       1.09909918       0.22029083
O        2.30724489       1.19163658       0.71104536
P        3.48150532       0.46848305      -0.16419801
O        3.32536093       0.62579300      -1.62599533
O        3.54907976      -1.00911180       0.43181089
O        4.77786972       1.14150894       0.50326003
O        2.35997541      -0.13625766       3.35842428
H       -3.22439515      -0.65466113      -3.24015811
H       -3.46706045      -1.24522452      -0.79091252
H       -4.34386326       1.26352600      -0.76220758
H       -1.33098641       0.80116206      -1.38398621
H       -0.19859332      -1.24913390      -1.63327705
H       -1.67201111       0.73496095       0.98513315
H       -2.62103303      -1.15764640       1.48691048
H        0.41503956      -0.11808301       1.87497016
H        0.36311084      -2.05090104       0.53906566
H        0.46233152       2.00901393       0.55435946
H        0.96769964       1.09025674      -0.86852649
H        2.63437574      -1.37920332       0.41507570
H        5.25722216       1.66268644      -0.15161849
H        2.52298606       0.50632653       2.65453437
H        3.10393926      -0.74254561       3.27347546
32
Properties=species:S:1:pos:R:3 relative_energy_eV=0.0008116567914839834 branch=left pbc="F F F"
O       -4.34614667       0.96076328      -2.74163340
C       -3.61390766       0.03114308      -2.47251197
C       -3.17821392      -0.21500857      -1.04999819
O       -3.78603446       0.71500230      -0.18684959
C       -1.65022269      -0.14864240      -0.94027107
O       -1.16337133      -1.24567907      -1.68930467
C       -1.23552793      -0.15817902       0.53533531
O       -1.71901574      -1.33057706       1.18927340
C        0.26526180      -0.12452350       0.79145010
O        0.89794133      -1.29597691       0.24896297
C        0.95982797       1.09804324       0.21825416
O        2.30707306       1.19424350       0.71002930
P        3.48194376       0.47320053      -0.16545864
O        3.32870129       0.63481412      -1.62686739
O        3.54953633      -1.00770302       0.42313378
O        4.77552989       1.14655591       0.50629194
O        2.34843878      -0.13569350       3.35740946
H       -3.22642469      -0.65717028      -3.23965185
H       -3.46611280      -1.24206200      -0.78908487
H       -4.35273018       1.25817000      -0.76420115
H       -1.32984966       0.80477484      -1.37923206
H       -0.20032831      -1.25844478      -1.62393704
H       -1.66994615       0.73526776       0.98837087
H       -2.61690792      -1.15730314       1.49360305
H        0.42257426      -0.12100421       1.87360998
H        0.37343889      -2.05483077       0.54694126
H        0.46086340       2.00765950       0.54985003
H        0.96832192       1.08700019      -0.87045879
H        2.63444961      -1.37662665       0.40753483
H        5.26392608       1.65468905      -0.15237115
H        2.51639719       0.50484549       2.65275619
H        3.08761791      -0.74810655       3.27238071
32
Properties=species:S:1:pos:R:3 relative_energy_eV=0.0020921830073348247 branch=left pbc="F F F"
O       -4.33748675       0.97443662      -2.74219344
C       -3.61330859       0.03838368      -2.47353784
C       -3.18067418      -0.21348896      -1.05109624
O       -3.78682364       0.71527069      -0.18518537
C       -1.65196702      -0.14943277      -0.94151708
O       -1.16350900      -1.24181828      -1.69508887
C       -1.23533007      -0.16284659       0.53281277
O       -1.71842558      -1.33574180       1.18540984
C        0.26513697      -0.12580784       0.78917988
O        0.90217995      -1.29805054       0.25219935
C        0.95817072       1.09694318       0.21482579
O        2.30660742       1.19238698       0.70286990
P        3.48376634       0.47595947      -0.17236828
O        3.32601475       0.62557416      -1.63493905
O        3.56248440      -1.00058735       0.42779011
O        4.77440047       1.16022083       0.49499549
O        2.34053737      -0.13460510       3.35384646
H       -3.22927722      -0.65132271      -3.24118027
H       -3.47096255      -1.24055896      -0.79331315
H       -4.35059237       1.26378056      -0.76066172
H       -1.33277658       0.80594391      -1.37681996
H       -0.20419920      -1.28002454      -1.59129102
H       -1.66872350       0.72951485       0.98823547
H       -2.61698817      -1.16129140       1.48745385
H        0.41947901      -0.11783526       1.87154816
H        0.39773710      -2.05906180       0.57806025
H        0.45985909       2.00476125       0.55223247
H        0.96359505       1.08948617      -0.87371861
H        2.64927649      -1.37330710       0.41877351
H        5.25398512       1.68218444      -0.15989425
H        2.52053424       0.48559448       2.63363084
H        3.06438385      -0.76601865       3.28229659
32
Properties=species:S:1:pos:R:3 relative_energy_eV=0.005212298936385196 branch=left pbc="F F F"
O       -4.33048386       0.98217526      -2.73987391
C       -3.61184815       0.04060807      -2.47553513
C       -3.17613342      -0.21699677      -1.05562992
O       -3.78438792       0.70582226      -0.18482606
C       -1.64709444      -0.15060310      -0.94532986
O       -1.15100606      -1.24373199      -1.69062737
C       -1.23700985      -0.15860194       0.53073582
O       -1.70919558      -1.33561403       1.18291163
C        0.26185794      -0.11974521       0.79317750
O        0.89473610      -1.29825030       0.25906422
C        0.96033519       1.10191573       0.22371843
O        2.31053113       1.19222813       0.70944792
P        3.48054748       0.48709608      -0.18323337
O        3.31973729       0.66742922      -1.64167035
O        3.55032335      -0.99976823       0.38818549
O        4.78007785       1.14875657       0.48708640
O        2.33027073      -0.13074153       3.36423609
H       -3.23494725      -0.64959115      -3.24611367
H       -3.46210437      -1.24608890      -0.80120196
H       -4.32354145       1.27691883      -0.76221733
H       -1.32736588       0.80355329      -1.38308284
H       -0.20207371      -1.31604930      -1.52524107
H       -1.67701662       0.73221844       0.98255031
H       -2.61577642      -1.17971034       1.46921988
H        0.41161569      -0.11646910       1.87600791
H        0.41041060      -2.05450947       0.62516472
H        0.46404907       2.00805283       0.56692211
H        0.96394371       1.09873488      -0.86447688
H        2.63637601      -1.36992225       0.37555420
H        5.26593599       1.66584206      -0.16671053
H        2.50198623       0.48502216       2.63838158
H        3.03435486      -0.78133913       3.26676158
32
Properties=species:S:1:pos:R:3 relative_energy_eV=0.010322285357688088 branch=left pbc="F F F"
O       -4.31816053       0.99317044      -2.74458407
C       -3.60556954       0.04606495      -2.48302899
C       -3.17675298      -0.21985471      -1.06107802
O       -3.79017055       0.70023757      -0.19060613
C       -1.64733385      -0.15411200      -0.94396810
O       -1.15562158      -1.25177012      -1.68451873
C       -1.24395434      -0.16119500       0.53459179
O       -1.72433677      -1.33856702       1.18151772
C        0.25466916      -0.11973855       0.80270335
O        0.88777768      -1.29787845       0.26080293
C        0.95737184       1.10269360       0.23637085
O        2.30815567       1.18076606       0.72600339
P        3.47521508       0.49466450      -0.18470725
O        3.29444303       0.68138288      -1.63855929
O        3.56860575      -0.99685403       0.37394939
O        4.77361817       1.17547114       0.47135984
O        2.34936150      -0.12245007       3.37526900
H       -3.22631887      -0.63668545      -3.25907714
H       -3.46738072      -1.24902084      -0.80812346
H       -4.30691915       1.28622491      -0.77235577
H       -1.32108986       0.79757185      -1.38346304
H       -0.21526906      -1.35623072      -1.48738982
H       -1.68587009       0.72618465       0.98965366
H       -2.63525014      -1.17547782       1.45180249
H        0.40562014      -0.11857169       1.88722463
H        0.40382246      -2.05514502       0.62584970
H        0.46470770       2.01174516       0.57727126
H        0.96479384       1.10410974      -0.85197847
H        2.67061447      -1.38844720       0.34493932
H        5.26098839       1.67518881      -0.19720955
H        2.53270225       0.48656813       2.64721830
H        3.03463503      -0.79140478       3.27747559
32
Properties=species:S:1:pos:R:3 relative_energy_eV=0.02994878733443329 branch=left pbc="F F F"
O       -4.36017395       0.95369007      -2.72910076
C       -3.61690488       0.03388640      -2.46385928
C       -3.19727118      -0.22347375      -1.03951972
O       -3.81078624       0.70344045      -0.17530704
C       -1.66868565      -0.14771802      -0.93225155
O       -1.16870890      -1.23917030      -1.67727987
C       -1.24226933      -0.14463035       0.53710868
O       -1.73111676      -1.30111452       1.21237523
C        0.26587270      -0.13356859       0.76463841
O        0.88193767      -1.30539272       0.18759069
C        0.96410737       1.09238141       0.20322820
O        2.30741612       1.19334274       0.71149217
P        3.49841789       0.50940154      -0.15896152
O        3.34625108       0.64181446      -1.62323976
O        3.61584496      -0.97095245       0.43416482
O        4.75799261       1.23231603       0.52500331
O        2.32089357      -0.09506486       3.39369900
H       -3.19324534      -0.62732691      -3.23578288
H       -3.49273709      -1.25096634      -0.78323664
H       -4.34974531       1.26789904      -0.76006122
H       -1.36658766       0.81222091      -1.37198006
H       -0.22637365      -1.33836488      -1.47917877
H       -1.65470109       0.76257788       0.98452562
H       -2.64502996      -1.13010521       1.46944732
H        0.44466311      -0.15459720       1.84379911
H        0.40359824      -2.06338697       0.55833463
H        0.45956719       1.99700129       0.53719432
H        0.98670813       1.08894033      -0.88482743
H        2.77361680      -1.44952525       0.27838035
H        5.34434554       1.59545312      -0.14631808
H        2.47305628       0.51161097       2.65573633
H        2.96715173      -0.79197676       3.23754171
32
Properties=species:S:1:pos:R:3 relative_energy_eV=0.058001339275506325 branch=left pbc="F F F"
O       -4.33664736       1.01161964      -2.74809386
C       -3.61366026       0.07676948      -2.47626621
C       -3.20588388      -0.20076118      -1.05190431
O       -3.80977735       0.72280546      -0.18254002
C       -1.67484997      -0.15713382      -0.93818509
O       -1.20613635      -1.28052598      -1.65761653
C       -1.24387815      -0.14183439       0.53395593
O       -1.70272804      -1.31328237       1.20693258
C        0.26028197      -0.11215615       0.76978998
O        0.87695429      -1.28311948       0.20697612
C        0.96319445       1.10519513       0.20289477
O        2.30809157       1.19739241       0.71677409
P        3.49409202       0.49307498      -0.14204072
O        3.31685397       0.55197956      -1.61051981
O        3.65674724      -0.95363556       0.52162624
O        4.77717752       1.23538297       0.47123701
O        2.32739484      -0.11633788       3.40042827
H       -3.20740259      -0.60111521      -3.24178844
H       -3.50313749      -1.22992134      -0.80815343
H       -4.42650969       1.21894556      -0.74762821
H       -1.33872657       0.77579288      -1.40726775
H       -0.26517257      -1.38274125      -1.46774761
H       -1.67748859       0.75148904       0.98696115
H       -2.61358165      -1.16480741       1.48421767
H        0.42254461      -0.11507220       1.85019664
H        0.41371370      -2.03936387       0.59921495
H        0.46717639       2.01853061       0.52867492
H        0.98897043       1.08622914      -0.88520639
H        2.90790564      -1.51550202       0.24087920
H        5.24828529       1.71581048      -0.22609544
H        2.52684089       0.50860045       2.69190906
H        2.95645868      -0.83366591       3.25174080
32
Properties=species:S:1:pos:R:3 relative_energy_eV=0.1050856770016253 branch=left pbc="F F F"
O       -4.29747747       1.09688335      -2.73251408
C       -3.59342531       0.13718040      -2.49602211
C       -3.19565055      -0.18206309      -1.07490245
O       -3.80118694       0.72598609      -0.18498039
C       -1.66200953      -0.17611594      -0.93935028
O       -1.20184727      -1.30629363      -1.65212074
C       -1.24931783      -0.17326986       0.53643572
O       -1.71874578      -1.35363718       1.18996101
C        0.25178181      -0.11788634       0.79289826
O        0.89379134      -1.29371448       0.27624880
C        0.95220638       1.08325172       0.19508005
O        2.29276395       1.18155553       0.71878728
P        3.48031548       0.47237782      -0.13991429
O        3.25051698       0.42924590      -1.59652937
O        3.73339621      -0.92433129       0.60010356
O        4.75436600       1.28673649       0.38400989
O        2.33200540      -0.17831597       3.37777435
H       -3.22453784      -0.52215988      -3.30129036
H       -3.50371209      -1.21349639      -0.86324763
H       -4.40346295       1.26675493      -0.72422525
H       -1.29759665       0.75108483      -1.39476296
H       -0.27488430      -1.43571881      -1.43904780
H       -1.70313438       0.71570377       0.97836573
H       -2.62463217      -1.19062136       1.48095829
H        0.40135607      -0.07553021       1.87419693
H        0.44336744      -2.03864139       0.69891487
H        0.45383147       2.00175325       0.49590356
H        0.98383357       1.03413696      -0.89329495
H        3.06362400      -1.56458555       0.29490807
H        5.04041769       1.91536727      -0.27718551
H        2.50695276       0.51431239       2.71944679
H        3.00419725      -0.83730757       3.16875228
32
Properties=species:S:1:pos:R:3 relative_energy_eV=0.18756071283860365 branch=left pbc="F F F"
O       -4.32309634       1.25131009      -2.68753662
C       -3.64152098       0.26314185      -2.49858384
C       -3.23120528      -0.13364451      -1.10457860
O       -3.78930670       0.75713955      -0.16824009
C       -1.69903908      -0.16104697      -0.98192633
O       -1.24217626      -1.24793960      -1.75965966
C       -1.29889584      -0.22340439       0.50104009
O       -1.83689634      -1.39394800       1.12206085
C        0.20045419      -0.25488801       0.76899287
O        0.78834928      -1.44731306       0.23200127
C        0.94445355       0.92908818       0.18464255
O        2.27070307       1.02392573       0.74196450
P        3.52644415       0.46095535      -0.10568357
O        3.24676438       0.16240988      -1.52695783
O        4.10941867      -0.72612293       0.80792318
O        4.64634353       1.57677804       0.19686927
O        2.40044525      -0.14887210       3.46733335
H       -3.28135471      -0.37359726      -3.32213015
H       -3.58553092      -1.16216505      -0.94854003
H       -4.31016981       1.38125300      -0.71152463
H       -1.32908188       0.78792471      -1.39266463
H       -0.36458649      -1.49068698      -1.43121770
H       -1.70021842       0.67535454       0.97418060
H       -2.71149896      -1.17954211       1.47215631
H        0.33071998      -0.24110261       1.85568099
H        0.34832569      -2.18586553       0.67520545
H        0.45179981       1.86637447       0.43857875
H        1.01533339       0.85519615      -0.89737730
H        3.70832382      -1.57006923       0.55389750
H        4.72312365       2.17632839      -0.55421444
H        2.53697888       0.51300565       2.77946990
H        3.18370017      -0.71133355       3.39220018
32
Properties=species:S:1:pos:R:3 relative_energy_eV=0.2223735789375496 branch=left pbc="F F F"
O       -4.36218985       1.33133834      -2.66612484
C       -3.69275396       0.33320262      -2.49194867
C       -3.27325161      -0.06983791      -1.10493200
O       -3.81041973       0.82439843      -0.15850094
C       -1.74349363      -0.12027165      -0.99624062
O       -1.30076046      -1.16889698      -1.83061988
C       -1.33579720      -0.26525743       0.47290334
O       -1.93592648      -1.41666997       1.06822849
C        0.16359337      -0.39935094       0.70521075
O        0.67676796      -1.58457736       0.09422493
C        0.96264573       0.77271888       0.17302442
O        2.26497336       0.79191342       0.78825466
P        3.59098330       0.44182509      -0.05891987
O        3.37559125      -0.02154951      -1.44467377
O        4.37448518      -0.53654923       0.94939959
O        4.47003988       1.78142501       0.10887569
O        2.45480144      -0.03130788       3.61500778
H       -3.35916128      -0.29992695      -3.32826768
H       -3.63521219      -1.09152184      -0.93265701
H       -4.30579798       1.48002779      -0.68328965
H       -1.36606260       0.84680848      -1.35406170
H       -0.44605023      -1.48095285      -1.48856923
H       -1.67446049       0.63707022       0.98339906
H       -2.79878096      -1.15297946       1.40754600
H        0.31041913      -0.45109778       1.78676332
H        0.22191811      -2.32662626       0.51658444
H        0.48942322       1.71592916       0.44241071
H        1.06755143       0.71681558      -0.90771179
H        4.26971801      -1.46242388       0.69095312
H        4.59798448       2.19201059      -0.75607058
H        2.50225157       0.46748041       2.78988813
H        3.33407548      -0.42452085       3.68328103
32
Properties=species:S:1:pos:R:3 relative_energy_eV=0.23082840539427707 branch=left pbc="F F F"
O       -4.22266236       1.45927985      -2.68392800
C       -3.63579340       0.41128553      -2.50626870
C       -3.28217478      -0.04052134      -1.11614159
O       -3.81885452       0.84840964      -0.16610430
C       -1.75358767      -0.13174324      -0.98698796
O       -1.33297112      -1.18961192      -1.82039343
C       -1.36091591      -0.29815673       0.48354360
O       -1.97269476      -1.45659169       1.04830385
C        0.13519975      -0.45504070       0.72587761
O        0.63629914      -1.64600260       0.11649515
C        0.94942174       0.70880807       0.19554355
O        2.25157223       0.70236698       0.81119339
P        3.57642630       0.45297185      -0.07201058
O        3.36911538      -0.07787358      -1.43423446
O        4.45992052      -0.41932307       0.94880842
O        4.33322588       1.87029173       0.01017667
O        2.55435343      -0.02698424       3.68694265
H       -3.30618147      -0.22643839      -3.34023468
H       -3.67412257      -1.05470787      -0.96713036
H       -4.26185112       1.53792900      -0.69378401
H       -1.34756441       0.82563147      -1.33952112
H       -0.49350279      -1.52780565      -1.46655485
H       -1.69352269       0.60196651       1.00366383
H       -2.87240851      -1.22418331       1.30456469
H        0.27878590      -0.50540085       1.80905404
H        0.16449098      -2.38624582       0.52465711
H        0.48926484       1.65816464       0.46581239
H        1.05171819       0.65636523      -0.88596063
H        4.41075205      -1.35586727       0.72482085
H        4.46933236       2.21362680      -0.88183855
H        2.50497712       0.38552679       2.81542429
H        3.48105756      -0.28148136       3.75958084
32
Properties=species:S:1:pos:R:3 relative_energy_eV=0.23548345055314712 branch=left pbc="F F F"
O       -4.21674212       1.48666436      -2.68738178
C       -3.63791180       0.43436941      -2.50932253
C       -3.28005177      -0.02052505      -1.11915983
O       -3.81300645       0.86532647      -0.16399257
C       -1.75186368      -0.12706278      -0.98281759
O       -1.33977113      -1.18352578      -1.82203007
C       -1.36273258      -0.30964144       0.48709581
O       -1.97810156      -1.47168741       1.04023899
C        0.13229162      -0.47498750       0.72690772
O        0.62988643      -1.65788286       0.10082934
C        0.95292579       0.68449591       0.20208046
O        2.25420372       0.66643884       0.81778560
P        3.58225320       0.44021702      -0.06811033
O        3.37921981      -0.11000200      -1.42350858
O        4.48992437      -0.39291875       0.96514737
O        4.30137401       1.87814512      -0.00291023
O        2.55684008      -0.01430127       3.70439640
H       -3.33087912      -0.21661874      -3.34231198
H       -3.68406415      -1.03220690      -0.98143812
H       -4.25195926       1.56093377      -0.68687090
H       -1.33521195       0.82976177      -1.32487941
H       -0.49841723      -1.52729334      -1.47722979
H       -1.69383141       0.58417844       1.01893566
H       -2.88218922      -1.23976183       1.27990717
H        0.27093693      -0.54644716       1.80980973
H        0.15195521      -2.39810215       0.50012370
H        0.49949977       1.63699607       0.46958926
H        1.04859279       0.62528067      -0.87996784
H        4.50256667      -1.33026635       0.73819637
H        4.42792294       2.21612761      -0.89931459
H        2.45722181       0.34155398       2.81183085
H        3.50622354      -0.16861341       3.77174277
32
Properties=species:S:1:pos:R:3 relative_energy_eV=0.2415734868554864 branch=left pbc="F F F"
O       -4.25811375       1.48223466      -2.69085595
C       -3.66727008       0.43683683      -2.51084607
C       -3.28436826       0.00449209      -1.11935678
O       -3.80314460       0.90655139      -0.17119662
C       -1.75742672      -0.10450416      -0.99153387
O       -1.34362246      -1.14199318      -1.85288659
C       -1.36931725      -0.32011488       0.47674045
O       -2.00892346      -1.47770609       1.01354544
C        0.12294332      -0.52202118       0.70931046
O        0.59782265      -1.69740312       0.05160149
C        0.96822763       0.63645044       0.21838709
O        2.26428807       0.56755860       0.83959908
P        3.59806132       0.41059454      -0.04909548
O        3.42347659      -0.14832741      -1.40511086
O        4.52977597      -0.38132471       0.99390682
O        4.24997030       1.88216035       0.00801858
O        2.57764390       0.06149774       3.75024710
H       -3.37689513      -0.22485150      -3.34184031
H       -3.68591587      -1.00564655      -0.96312218
H       -4.26983392       1.58013119      -0.69898541
H       -1.34063278       0.85734937      -1.31835534
H       -0.50480440      -1.49429287      -1.51011038
H       -1.67837818       0.57538924       1.01931199
H       -2.89537443      -1.22640966       1.29811637
H        0.26655770      -0.61810940       1.79031102
H        0.10998166      -2.44553225       0.42346267
H        0.53491009       1.59105459       0.51347588
H        1.07109720       0.60852553      -0.86379765
H        4.66361493      -1.29394782       0.71521546
H        4.39363797       2.20492380      -0.89030144
H        2.42080862       0.32837632       2.83485374
H        3.53830844      -0.00329635       3.79466380
32
Properties=species:S:1:pos:R:3 relative_energy_eV=0.24416461641521892 branch=left pbc="F F F"
O       -4.28201195       1.46987819      -2.69382343
C       -3.68248005       0.43061989      -2.50802459
C       -3.29184501       0.01196140      -1.11480022
O       -3.80215211       0.92440383      -0.17181514
C       -1.76439559      -0.09375631      -1.00118608
O       -1.35484422      -1.12122532      -1.87746670
C       -1.36802101      -0.32115161       0.46250660
O       -2.01448946      -1.47936907       0.98814044
C        0.12087586      -0.53873695       0.69385059
O        0.58303607      -1.71398505       0.02761657
C        0.97802136       0.62053694       0.22728864
O        2.27123546       0.51775114       0.84948930
P        3.60737962       0.38757739      -0.03722308
O        3.45498231      -0.17676151      -1.39330150
O        4.54459751      -0.39006897       1.01034629
O        4.22100918       1.87641845       0.01587764
O        2.59225757       0.11921478       3.77887030
H       -3.38574044      -0.23328608      -3.33471593
H       -3.69515745      -0.99456914      -0.94182188
H       -4.27266707       1.59186618      -0.70383308
H       -1.35475106       0.87492447      -1.31637969
H       -0.51531458      -1.47903345      -1.54325762
H       -1.67098127       0.57040767       1.01608369
H       -2.88858021      -1.21561487       1.29631722
H        0.26020587      -0.65218907       1.77344782
H        0.07851420      -2.45478991       0.39292692
H        0.55532967       1.57367164       0.54586988
H        1.07982173       0.61780069      -0.85562437
H        4.74528197      -1.28066802       0.70058087
H        4.35369355       2.20130179      -0.88339591
H        2.43008880       0.30791989       2.84590564
H        3.55420533       0.07759721       3.82492400
32
Properties=species:S:1:pos:R:3 relative_energy_eV=0.245921340334462 branch=left pbc="F F F"
O       -4.28279775       1.46474016      -2.70594710
C       -3.67970946       0.42960411      -2.51078493
C       -3.29338421       0.01712998      -1.11572613
O       -3.80385419       0.92838034      -0.17163787
C       -1.76769857      -0.09085307      -1.00353499
O       -1.36253205      -1.11570995      -1.88609377
C       -1.37567806      -0.32192349       0.46187530
O       -2.02717560      -1.47928626       0.98462162
C        0.11289911      -0.54400442       0.69278099
O        0.57419962      -1.71383699       0.01744584
C        0.97754466       0.61219012       0.23435698
O        2.27061116       0.48858789       0.85394051
P        3.60666869       0.37846299      -0.03393774
O        3.46064082      -0.18718422      -1.38985785
O        4.55335310      -0.38915809       1.01243357
O        4.19802552       1.87671797       0.02010778
O        2.61336957       0.15438994       3.78772516
H       -3.37142629      -0.23983743      -3.32912570
H       -3.69538173      -0.98872334      -0.94014900
H       -4.26817744       1.60197566      -0.70030293
H       -1.35527801       0.87681904      -1.31749134
H       -0.52215517      -1.47633090      -1.55833697
H       -1.67709602       0.57001237       1.01698852
H       -2.90130198      -1.21581525       1.29375669
H        0.25414606      -0.66134658       1.77187533
H        0.06857735      -2.45768650       0.37352348
H        0.56314573       1.56480834       0.56469545
H        1.07672110       0.61822033      -0.84897071
H        4.77800973      -1.27132672       0.69474964
H        4.33337806       2.20311816      -0.87804431
H        2.45462369       0.29657517       2.84626744
H        3.57483707       0.09993703       3.83617013
32
Properties=species:S:1:pos:R:3 relative_energy_eV=0.25113465644972166 branch=left pbc="F F F"
O       -4.25995465       1.47971747      -2.72921575
C       -3.66601174       0.43984848      -2.53037597
C       -3.29823246       0.02781434      -1.12964644
O       -3.81243065       0.94966881      -0.19918122
C       -1.77597341      -0.09535243      -0.99922927
O       -1.37486335      -1.12971486      -1.87153214
C       -1.39351444      -0.33128824       0.46744813
O       -2.05925436      -1.48347698       0.98187082
C        0.09296043      -0.56982495       0.70376162
O        0.55107313      -1.73016027       0.00948200
C        0.97213007       0.58634383       0.26890954
O        2.26870793       0.42438207       0.87381175
P        3.59367214       0.36950910      -0.03456387
O        3.44598019      -0.19819469      -1.38953338
O        4.58217013      -0.36687970       0.99572448
O        4.12773097       1.88977709       0.01429861
O        2.69446992       0.22798533       3.80608004
H       -3.35603792      -0.23274665      -3.34571757
H       -3.71285473      -0.97253693      -0.95308411
H       -4.26432964       1.62124240      -0.74197006
H       -1.35073457       0.86891090      -1.30675424
H       -0.51635716      -1.45953376      -1.55770631
H       -1.68867648       0.56199208       1.02399090
H       -2.93589283      -1.20887166       1.27320392
H        0.22697244      -0.71131610       1.78153532
H        0.03700972      -2.47768299       0.34500293
H        0.57464932       1.53849496       0.62048071
H        1.06526648       0.62065872      -0.81457297
H        4.83831221      -1.23730807       0.67097653
H        4.28439635       2.20770208      -0.88303873
H        2.54473551       0.27974554       2.85284717
H        3.65198642       0.13974125       3.87007041
32
Properties=species:S:1:pos:R:3 relative_energy_eV=0.25513268569193315 branch=left pbc="F F F"
O       -4.21388866       1.51011453      -2.76359120
C       -3.64044056       0.45974436      -2.55904846
C       -3.29163618       0.04387558      -1.15423507
O       -3.80151784       0.97465073      -0.23003963
C       -1.77112481      -0.09938817      -1.00227957
O       -1.36751541      -1.13467014      -1.87293314
C       -1.40712410      -0.34469801       0.47076496
O       -2.09222948      -1.48673503       0.98176290
C        0.07339972      -0.60516838       0.72603541
O        0.53093681      -1.76286983       0.02657467
C        0.95561388       0.55491640       0.31660625
O        2.26157665       0.36866202       0.89342614
P        3.57012535       0.36206236      -0.04198069
O        3.42478351      -0.20494653      -1.39752396
O        4.59885325      -0.34888110       0.96660015
O        4.05508469       1.90000206      -0.00243651
O        2.79406339       0.26099991       3.83134976
H       -3.34060920      -0.21949005      -3.37254039
H       -3.72481420      -0.95029610      -0.98438873
H       -4.24895464       1.64904984      -0.77312619
H       -1.33312555       0.86267459      -1.30138678
H       -0.52343362      -1.48725294      -1.54336175
H       -1.69197304       0.55256218       1.02621741
H       -2.97280587      -1.20633982       1.25598623
H        0.19322828      -0.75801051       1.80390308
H       -0.00243418      -2.50622904       0.34105607
H        0.56326039       1.49300221       0.71098863
H        1.02905993       0.62234999      -0.76645978
H        4.89052604      -1.19878414       0.61819705
H        4.18372265       2.22124457      -0.90357241
H        2.63202955       0.29583044       2.88034830
H        3.75446872       0.21066352       3.89246043
32
Properties=species:S:1:pos:R:3 relative_energy_eV=0.2590751689422177 branch=left pbc="F F F"
O       -4.12962116       1.55538195      -2.79924316
C       -3.59148093       0.48856599      -2.58427892
C       -3.27683101       0.05986155      -1.17635953
O       -3.78828322       0.99129460      -0.25376473
C       -1.76130476      -0.10624381      -1.00407010
O       -1.36511047      -1.14430165      -1.87381726
C       -1.42679014      -0.36337136       0.47333003
O       -2.13232412      -1.50288440       0.96493204
C        0.04812679      -0.63439059       0.75319841
O        0.50339336      -1.79401450       0.05559390
C        0.94297689       0.52611150       0.36711149
O        2.25541157       0.31633719       0.92356182
P        3.53689091       0.36043440      -0.04982731
O        3.36696459      -0.20217532      -1.40464257
O        4.62065620      -0.32030792       0.91937613
O        3.96668233       1.91571986      -0.01798595
O        2.89510248       0.26089326       3.84938683
H       -3.29386862      -0.19703016      -3.39234808
H       -3.72257711      -0.93095398      -1.02029497
H       -4.21281917       1.67768100      -0.79950981
H       -1.29799616       0.84697613      -1.29348336
H       -0.53832354      -1.51917647      -1.52649635
H       -1.72060781       0.52992552       1.02879649
H       -3.00819604      -1.21253469       1.24462853
H        0.14323677      -0.80034094       1.83043317
H       -0.02726893      -2.53335304       0.38464807
H        0.56705207       1.46017670       0.78628948
H        1.00764440       0.62159064      -0.71457898
H        4.91755421      -1.16437025       0.56060088
H        4.07024554       2.23740178      -0.92208146
H        2.67980950       0.31249372       2.90945689
H        3.85876147       0.29324832       3.85481225
32
Properties=species:S:1:pos:R:3 relative_energy_eV=0.26424513262463734 branch=left pbc="F F F"
O       -4.08932295       1.58067422      -2.80944432
C       -3.56695299       0.50530690      -2.59759128
C       -3.26804851       0.06482837      -1.19076637
O       -3.77397444       1.00079058      -0.27009821
C       -1.75428437      -0.11173728      -1.00771480
O       -1.35723018      -1.15290370      -1.87158149
C       -1.43683617      -0.36989719       0.47352194
O       -2.15154021      -1.51064658       0.94736343
C        0.03141221      -0.64469682       0.77904495
O        0.50023103      -1.79848054       0.08192329
C        0.93148079       0.51061319       0.40089809
O        2.24551530       0.27497516       0.94294732
P        3.51200794       0.34623793      -0.04849173
O        3.32830697      -0.20706136      -1.40538058
O        4.62550222      -0.32027454       0.89638974
O        3.91447913       1.90996218      -0.01513530
O        2.95763436       0.25575710       3.84363225
H       -3.27059968      -0.17484216      -3.40932080
H       -3.72775982      -0.92059806      -1.03907817
H       -4.16854767       1.70260835      -0.81924099
H       -1.28603421       0.83967437      -1.29548288
H       -0.53640507      -1.53042502      -1.51391006
H       -1.73983117       0.52511371       1.02272022
H       -3.03008225      -1.21829748       1.21668913
H        0.10966314      -0.80831832       1.85920086
H       -0.00455488      -2.55160802       0.41825543
H        0.56536150       1.44323089       0.83131517
H        0.99188111       0.61220314      -0.68001882
H        4.95263090      -1.14546797       0.51796730
H        3.94959641       2.24464393      -0.91986864
H        2.71639684       0.33170777       2.91226052
H        3.91701079       0.34557199       3.82236895
32
Properties=species:S:1:pos:R:3 relative_energy_eV=0.2715234862625948 branch=left pbc="F F F"
O       -3.98413901       1.64144503      -2.83464653
C       -3.49982584       0.54838118      -2.62284097
C       -3.24764073       0.07984704      -1.21355306
O       -3.76197506       1.01273227      -0.29354389
C       -1.74238573      -0.13802142      -0.99418814
O       -1.34596005      -1.18580495      -1.85069439
C       -1.45669155      -0.39627834       0.49169715
O       -2.17153021      -1.53737689       0.96244935
C        0.00739315      -0.66034250       0.81590080
O        0.49132779      -1.81521499       0.13231553
C        0.90515841       0.49972997       0.44143171
O        2.22454918       0.24834256       0.95761124
P        3.47020967       0.34685828      -0.05674755
O        3.28659792      -0.21486099      -1.40982389
O        4.60939139      -0.29756287       0.87146452
O        3.82578065       1.92136455      -0.02663289
O        3.05918119       0.26574351       3.81925493
H       -3.20798155      -0.13239558      -3.43637329
H       -3.73604389      -0.89483510      -1.08846292
H       -4.09852407       1.74544651      -0.84081983
H       -1.24883470       0.80232090      -1.27104759
H       -0.52374804      -1.56077970      -1.49273130
H       -1.76930658       0.50014782       1.03197062
H       -3.07058627      -1.26166142       1.17618642
H        0.07219554      -0.81871092       1.89675764
H       -0.00754160      -2.57015611       0.47362694
H        0.55301029       1.43256673       0.88433464
H        0.95117788       0.61855825      -0.63785572
H        4.94104826      -1.11593993       0.48246840
H        3.80966066       2.26752732      -0.92719397
H        2.75095104       0.26496906       2.90446001
H        4.00218855       0.43260504       3.72860081
32
Properties=species:S:1:pos:R:3 relative_energy_eV=0.27927494409959763 branch=left pbc="F F F"
O       -3.85232853       1.69971880      -2.85885058
C       -3.41640604       0.58650172      -2.64737045
C       -3.22277608       0.09413889      -1.23595517
O       -3.74188248       1.02693513      -0.31908926
C       -1.73125940      -0.15441009      -0.97799503
O       -1.34747962      -1.21645068      -1.82070321
C       -1.48064843      -0.41818841       0.51234930
O       -2.20604033      -1.56388743       0.95351954
C       -0.02063599      -0.68608042       0.85345537
O        0.46213388      -1.84725334       0.18207756
C        0.87255353       0.47557663       0.47945566
O        2.20055162       0.22283188       0.96637892
P        3.42866280       0.35936123      -0.06617160
O        3.23281419      -0.20239263      -1.41716863
O        4.59874059      -0.25368972       0.84560372
O        3.75077035       1.94080953      -0.03149331
O        3.17406502       0.30473407       3.78165124
H       -3.12400531      -0.09390921      -3.46247464
H       -3.73314386      -0.87349137      -1.14056736
H       -4.04742074       1.77231470      -0.86677307
H       -1.20229644       0.76831289      -1.24805911
H       -0.53233996      -1.59288293      -1.45013832
H       -1.80733957       0.47110931       1.05643003
H       -3.10977095      -1.28918427       1.14790426
H        0.04596479      -0.83544905       1.93479407
H       -0.06140633      -2.59015879       0.51323744
H        0.51989915       1.39394971       0.95051154
H        0.89501860       0.61578420      -0.59749102
H        4.94720543      -1.06957450       0.46768362
H        3.71148696       2.29531688      -0.92789089
H        2.78676285       0.18962444       2.90420292
H        4.09765782       0.49862674       3.59231185
32
Properties=species:S:1:pos:R:3 relative_energy_eV=0.284678187163081 branch=left pbc="F F F"
O       -3.77361202       1.73437385      -2.87034014
C       -3.37268452       0.60823576      -2.65804360
C       -3.21927259       0.10132261      -1.24705866
O       -3.74263169       1.03774260      -0.33536009
C       -1.73067349      -0.16655591      -0.97097232
O       -1.34347602      -1.23090732      -1.81063114
C       -1.49561702      -0.43104295       0.52090263
O       -2.22028516      -1.57960254       0.95505818
C       -0.03776342      -0.69864618       0.87924570
O        0.45222409      -1.85983848       0.21268995
C        0.86164691       0.46133848       0.50552824
O        2.19604748       0.20410428       0.97673043
P        3.40961572       0.37266560      -0.06970178
O        3.20465292      -0.18896953      -1.41936836
O        4.60684339      -0.21658673       0.82140722
O        3.70782181       1.95824708      -0.03871162
O        3.23208944       0.33246037       3.76763321
H       -3.07360595      -0.07394499      -3.46942762
H       -3.74179973      -0.86204564      -1.16595458
H       -4.03409067       1.78839914      -0.88443416
H       -1.18643264       0.74927213      -1.23206068
H       -0.53552354      -1.61662505      -1.43256877
H       -1.82735613       0.45946230       1.05976621
H       -3.12765878      -1.31366205       1.14250904
H        0.01118666      -0.85197540       1.96202414
H       -0.08919985      -2.60055955       0.51855238
H        0.51743870       1.38444393       0.97382205
H        0.87597947       0.60138295      -0.57173148
H        4.93551814      -1.04719855       0.46032012
H        3.68720771       2.30701670      -0.93873191
H        2.80233558       0.13920279       2.92549210
H        4.13818327       0.52713436       3.50679083
32
Properties=species:S:1:pos:R:3 relative_energy_eV=0.2919455636802013 branch=left pbc="F F F"
O       -3.72551351       1.74825425      -2.88806322
C       -3.33675447       0.61879143      -2.67129793
C       -3.20992344       0.10569842      -1.25974807
O       -3.73137972       1.04606850      -0.35083795
C       -1.72953491      -0.17247662      -0.96308590
O       -1.33548360      -1.23718278      -1.79847418
C       -1.51215932      -0.44064193       0.53106848
O       -2.25403634      -1.57924105       0.96143538
C       -0.05697004      -0.72012166       0.89308950
O        0.42589474      -1.88086849       0.22015155
C        0.85120457       0.43437431       0.52319770
O        2.18724330       0.16399858       0.98411775
P        3.38788780       0.37830568      -0.06789688
O        3.20420897      -0.17542517      -1.42401757
O        4.60802872      -0.19590980       0.80261144
O        3.61579972       1.97426217      -0.01693581
O        3.31200255       0.36132185       3.75821536
H       -3.01974514      -0.06150044      -3.47769899
H       -3.73834709      -0.85486522      -1.19059749
H       -4.01920428       1.79732947      -0.90044892
H       -1.18671462       0.74730989      -1.21387413
H       -0.52527341      -1.61701067      -1.41750073
H       -1.84431125       0.44966439       1.06916800
H       -3.15556172      -1.29086985       1.14602195
H       -0.00629043      -0.87510866       1.97483372
H       -0.10777813      -2.62613821       0.52862776
H        0.52008485       1.36091061       0.99467631
H        0.85711467       0.57344729      -0.55367728
H        4.93280845      -1.01881916       0.41968513
H        3.68183169       2.31736759      -0.91672649
H        2.80270267       0.16887106       2.96183919
H        4.19527749       0.52884829       3.41551781
32
Properties=species:S:1:pos:R:3 relative_energy_eV=0.3064485560389585 branch=left pbc="F F F"
O       -3.69562062       1.75096144      -2.90826555
C       -3.29772651       0.62496243      -2.68790936
C       -3.19916601       0.11293285      -1.27530853
O       -3.74972654       1.04685424      -0.37803913
C       -1.72107167      -0.16507047      -0.95712921
O       -1.32348194      -1.22537726      -1.79646768
C       -1.52171321      -0.44503316       0.53755828
O       -2.29271483      -1.56419073       0.96650194
C       -0.07442107      -0.75451283       0.90734740
O        0.39298359      -1.92391556       0.23886100
C        0.83967354       0.39668824       0.55024339
O        2.17481099       0.10763109       1.00211535
P        3.35723576       0.37029500      -0.05540221
O        3.16682889      -0.16977150      -1.41637485
O        4.60740236      -0.17969826       0.78903721
O        3.51147152       1.97466337       0.03250065
O        3.40814270       0.40615046       3.71088293
H       -2.96052114      -0.04874088      -3.49093458
H       -3.73140376      -0.84502585      -1.21128910
H       -3.99566998       1.80791706      -0.93452523
H       -1.15598116       0.74906274      -1.18836506
H       -0.52371364      -1.61940149      -1.40791361
H       -1.81826922       0.45659098       1.07757489
H       -3.19202189      -1.26457514       1.14677454
H       -0.03476571      -0.90835572       1.98944709
H       -0.15694414      -2.65774603       0.54847756
H        0.50266625       1.31809637       1.03006197
H        0.84474580       0.54778790      -0.52390731
H        4.98831266      -0.96601220       0.37658870
H        3.65359876       2.34347730      -0.84736497
H        2.81791801       0.24630987       2.96579414
H        4.26625156       0.50568956       3.28280457
32
Properties=species:S:1:pos:R:3 relative_energy_eV=0.3346213873519446 branch=left pbc="F F F"
O       -3.67247022       1.74644733      -2.93729990
C       -3.25748672       0.62913181      -2.70812743
C       -3.17236760       0.12160627      -1.29334345
O       -3.72285232       1.06030088      -0.40101306
C       -1.70534082      -0.15627066      -0.95342594
O       -1.28542113      -1.20445011      -1.79851235
C       -1.53822500      -0.44797646       0.54758293
O       -2.35425442      -1.54281906       0.96220526
C       -0.10574477      -0.79871908       0.94255401
O        0.34853901      -1.97159634       0.26783765
C        0.82366457       0.34237235       0.59446334
O        2.15581051       0.03728493       1.02588637
P        3.32781899       0.35829459      -0.02554769
O        3.15913323      -0.14568670      -1.40238058
O        4.57261408      -0.20240197       0.81878949
O        3.45233349       1.96184102       0.10151623
O        3.52449144       0.48663818       3.61754013
H       -2.90197722      -0.04130676      -3.50573392
H       -3.70085803      -0.83698943      -1.23629329
H       -3.97885223       1.81168837      -0.96552713
H       -1.15679166       0.76844383      -1.17866520
H       -0.53499828      -1.65090364      -1.36997247
H       -1.83568036       0.45856968       1.08070095
H       -3.23892555      -1.19462728       1.12846737
H       -0.08443275      -0.98475575       2.02227305
H       -0.23292551      -2.69305830       0.54748346
H        0.49902236       1.25805946       1.09123665
H        0.83478588       0.51184326      -0.47729619
H        5.07251646      -0.83940671       0.29994139
H        3.56812332       2.37124274      -0.76553077
H        2.87535785       0.36401144       2.91538700
H        4.35250310       0.45183563       3.12817889
32
Properties=species:S:1:pos:R:3 relative_energy_eV=0.377177990070777 branch=left pbc="F F F"
O       -3.64741937       1.74618043      -2.98014861
C       -3.22587526       0.63474748      -2.73677247
C       -3.15349696       0.13523692      -1.31983582
O       -3.70859659       1.08189917      -0.43495844
C       -1.69547458      -0.15210094      -0.95455322
O       -1.24162929      -1.19515120      -1.78789638
C       -1.57755771      -0.44727189       0.54528545
O       -2.43071238      -1.52491871       0.92249585
C       -0.16123787      -0.83494477       0.96523694
O        0.26707101      -2.01805421       0.29311882
C        0.80909300       0.28034136       0.63103141
O        2.14645585      -0.07611361       1.02556814
P        3.31370944       0.31903423      -0.00965101
O        3.18318358      -0.10932460      -1.41576880
O        4.57722729      -0.25732615       0.80511701
O        3.38364746       1.91776949       0.19054601
O        3.72318675       0.64951355       3.55831067
H       -2.85572837      -0.03961342      -3.52402370
H       -3.69098114      -0.81902555      -1.25825521
H       -3.99461254       1.81831326      -1.00506459
H       -1.12452520       0.76217113      -1.14880246
H       -0.52517530      -1.65589476      -1.31333272
H       -1.85304264       0.46521677       1.08124866
H       -3.30697265      -1.15597343       1.08412821
H       -0.15838876      -1.00849280       2.04625764
H       -0.33096275      -2.73029437       0.55947258
H        0.53988879       1.18672992       1.17553339
H        0.78378171       0.48515113      -0.43522379
H        5.20980676      -0.64695382       0.19234085
H        3.39835691       2.36577785      -0.66494749
H        2.97204966       0.50882907       2.96430313
H        4.46204163       0.34318530       3.02261374
32
Properties=species:S:1:pos:R:3 relative_energy_eV=0.4143757217316306 branch=left pbc="F F F"
O       -3.63322727       1.75134222      -3.01670693
C       -3.21092749       0.64146067      -2.76576616
C       -3.15275740       0.14994117      -1.34225819
O       -3.72902914       1.09704827      -0.47459013
C       -1.69683293      -0.13664296      -0.95411368
O       -1.25742779      -1.18683802      -1.78695955
C       -1.58245059      -0.43892678       0.54970590
O       -2.43179042      -1.51918835       0.92589019
C       -0.17588749      -0.85291377       0.99117013
O        0.22813414      -2.05497707       0.34508011
C        0.83320481       0.22532747       0.67255098
O        2.16102473      -0.20365713       1.02930119
P        3.29073207       0.28364440      -0.00463587
O        3.13973303      -0.07522114      -1.42857776
O        4.57971708      -0.28314286       0.76660469
O        3.30520148       1.87643930       0.25380729
O        3.88186101       0.79279702       3.48087390
H       -2.83567395      -0.03645287      -3.54809659
H       -3.69196852      -0.80550915      -1.29490009
H       -4.01257518       1.82458516      -1.05801113
H       -1.12620822       0.78034413      -1.15232293
H       -0.52738099      -1.64395568      -1.33476925
H       -1.86172688       0.47089786       1.08795296
H       -3.32405569      -1.17102267       1.03255731
H       -0.19074605      -1.00828550       2.07494879
H       -0.42109609      -2.72606300       0.59746146
H        0.61164118       1.13457715       1.23012303
H        0.80857153       0.46841305      -0.38393408
H        5.28545498      -0.48979764       0.14274325
H        3.27002987       2.33292577      -0.59490320
H        3.04907505       0.58708395       3.03842171
H        4.50449225       0.24440932       2.99472527
32
Properties=species:S:1:pos:R:3 relative_energy_eV=0.45910180811188184 branch=left pbc="F F F"
O       -3.63115557       1.75520588      -3.02812449
C       -3.21119730       0.64258261      -2.77296173
C       -3.16225739       0.15246246      -1.34792590
O       -3.74698597       1.09950198      -0.48594303
C       -1.70432275      -0.13695022      -0.95555829
O       -1.26688615      -1.18794838      -1.78808957
C       -1.58977335      -0.44342679       0.54784550
O       -2.44045319      -1.52347283       0.91492323
C       -0.18540334      -0.85837784       1.00197641
O        0.21603165      -2.06024400       0.35985160
C        0.83688909       0.21378304       0.68483051
O        2.17314512      -0.20432140       1.02929552
P        3.29984183       0.27391231      -0.01900268
O        3.12718820      -0.17769844      -1.41592119
O        4.60650050      -0.26454298       0.74268921
O        3.30924537       1.87142169       0.25501040
O        3.91708756       0.81720747       3.44626731
H       -2.83069126      -0.03435316      -3.55259405
H       -3.70186421      -0.80304820      -1.30441772
H       -4.01628606       1.83201159      -1.07038425
H       -1.13694867       0.78187812      -1.15334477
H       -0.52720309      -1.63289485      -1.34072449
H       -1.87093834       0.46393926       1.08645715
H       -3.33072138      -1.17095728       1.01948567
H       -0.20531576      -1.00537990       2.08747343
H       -0.43906410      -2.72752305       0.60606435
H        0.64562096       1.12277426       1.25004610
H        0.82371655       0.45158452      -0.37150515
H        5.31919141      -0.45852689       0.12387908
H        3.24089137       2.42251035      -0.53347799
H        3.06441978       0.60333207       3.06628391
H        4.50480971       0.21420088       2.99096846
32
Properties=species:S:1:pos:R:3 relative_energy_eV=1.3907571103191003 branch=left pbc="F F F"
O       -3.62857901       1.75620293      -3.03478612
C       -3.21160285       0.64432603      -2.77752664
C       -3.17080974       0.15292723      -1.35380840
O       -3.75763515       1.09945423      -0.49156230
C       -1.71770913      -0.13981231      -0.95263759
O       -1.27526687      -1.19207319      -1.77839795
C       -1.62709453      -0.43973257       0.55208918
O       -2.48584493      -1.52762992       0.90277178
C       -0.21937295      -0.85302536       1.03289430
O        0.19974873      -2.03100906       0.37434711
C        0.80687609       0.24062455       0.74681592
O        2.17702715      -0.08268963       1.18375036
P        3.38167711       0.29092209       0.18155309
O        3.23830096      -0.29600340      -1.21668830
O        4.93872068       0.01277001       0.71606829
O        3.44100312       1.89973425       0.44369235
O        3.83847626       0.88863536       2.98221435
H       -2.82636485      -0.03550410      -3.55214983
H       -3.71205609      -0.80158603      -1.31596759
H       -4.01566380       1.83586747      -1.07647737
H       -1.14300705       0.77639308      -1.13449560
H       -0.51993739      -1.61124113      -1.33316176
H       -1.93408632       0.46461626       1.07983208
H       -3.37956197      -1.18053707       1.02211119
H       -0.32214344      -1.02320423       2.11006138
H       -0.42884905      -2.73001331       0.60340438
H        0.47525897       1.13258954       1.26698766
H        0.92585428       0.44292742      -0.30380717
H        5.40018311      -0.44511727      -0.01397701
H        3.23621324       2.24545226      -0.42210452
H        2.98454613       0.47085182       2.80252447
H        4.41881137       0.06352523       2.82980200
32
Properties=species:S:1:pos:R:3 relative_energy_eV=2.4821064424104406 branch=ts pbc="F F F"
O       -3.62716750       1.75653757      -3.03767482
C       -3.21151031       0.64669277      -2.77972055
C       -3.17084994       0.15384313      -1.35675619
O       -3.75683460       1.09909626      -0.49429585
C       -1.72107000      -0.14185076      -0.94910247
O       -1.27282232      -1.19233433      -1.77625829
C       -1.63791346      -0.44646692       0.55076215
O       -2.49275338      -1.53241881       0.90675960
C       -0.24567428      -0.83493321       1.03671423
O        0.21293989      -2.01385297       0.37784921
C        0.79751729       0.24864069       0.82519556
O        2.02117845      -0.18368288       1.40279739
P        3.62728564       0.41722940       0.54034197
O        3.26486839      -0.18255734      -0.78751825
O        5.21275015      -0.01551642       0.73297596
O        3.43483324       2.03377304       0.44834464
O        3.75102127       0.72508786       2.36117134
H       -2.82729660      -0.03482433      -3.55467919
H       -3.71419206      -0.79940566      -1.31787068
H       -4.01806722       1.83733439      -1.07318014
H       -1.14527546       0.77452803      -1.13185182
H       -0.51345757      -1.60662769      -1.33026573
H       -1.93890076       0.46217484       1.07571152
H       -3.38385475      -1.18505146       1.02654662
H       -0.32621363      -1.02332173       2.11344335
H       -0.41261145      -2.71377571       0.60731197
H        0.45872993       1.18186442       1.29447205
H        0.97700795       0.42267059      -0.23562167
H        5.43707010      -0.47466998      -0.08682933
H        3.22046415       2.21641942      -0.47488884
H        2.61628395       0.30358448       2.34479260
H        4.38461542       0.10167081       2.74134905
32
Properties=species:S:1:pos:R:3 relative_energy_eV=1.4138088791514747 branch=right pbc="F F F"
O       -3.62969702       1.75914322      -3.04111247
C       -3.21974848       0.64955546      -2.78590612
C       -3.18202724       0.15157275      -1.36937086
O       -3.76187148       1.09682887      -0.49891955
C       -1.74481614      -0.14934870      -0.95399982
O       -1.27473766      -1.19373394      -1.77738697
C       -1.70710327      -0.45818105       0.54382553
O       -2.56694174      -1.54201671       0.89434518
C       -0.32738742      -0.83872926       1.01826302
O        0.14206984      -2.00604081       0.35669498
C        0.71842156       0.21161435       0.83180834
O        1.80524857      -0.24712780       1.59388340
P        4.05169986       0.61622314       0.63022370
O        3.37784046      -0.19648728      -0.43013043
O        5.59804230       0.11610110       0.50724336
O        3.66751581       2.16849270       0.37877235
O        3.93685875       0.69866040       2.24592566
H       -2.83200823      -0.03202163      -3.56078251
H       -3.72268897      -0.80074168      -1.32206228
H       -4.02078991       1.83697737      -1.07607771
H       -1.15949549       0.76638342      -1.11745449
H       -0.51132687      -1.59375022      -1.32162368
H       -2.00338767       0.45716061       1.06210887
H       -3.45559301      -1.19335840       1.02320715
H       -0.37754014      -1.00894164       2.09906346
H       -0.44220262      -2.73306197       0.60409803
H        0.37479297       1.15032477       1.24677430
H        0.98970928       0.38524084      -0.22184098
H        5.57806238      -0.54509885      -0.22267175
H        3.19402507       2.18308785      -0.47930379
H        1.78189453       0.11795958       2.48882991
H        4.63627088       0.14438758       2.58025558
32
Properties=species:S:1:pos:R:3 relative_energy_eV=0.6913858861953486 branch=right pbc="F F F"
O       -3.63810583       1.78143499      -3.07470920
C       -3.24670283       0.66039185      -2.81912185
C       -3.24125500       0.15171529      -1.40659264
O       -3.83737921       1.09188752      -0.54054601
C       -1.80423429      -0.15525458      -0.96996094
O       -1.31923961      -1.17817314      -1.81074313
C       -1.81648118      -0.49929650       0.52345686
O       -2.73227629      -1.56197935       0.79869477
C       -0.46371579      -0.91380926       1.07738412
O        0.03842306      -2.06447688       0.39077306
C        0.59059509       0.17960526       0.98749887
O        1.64341982      -0.05178659       1.90449363
P        4.34387504       0.63105112       0.51286641
O        3.46462869      -0.30703539      -0.21387967
O        5.91539249       0.47564107       0.15965442
O        4.15471827       2.18848410       0.14355595
O        4.30202882       0.61152909       2.12241832
H       -2.85106563      -0.01864615      -3.59068717
H       -3.79142763      -0.79615709      -1.37856783
H       -4.04111794       1.85769566      -1.10617699
H       -1.22266322       0.76711604      -1.09937710
H       -0.59168936      -1.61435554      -1.33306680
H       -2.13209458       0.40900856       1.04011716
H       -3.59305210      -1.16685567       0.97823538
H       -0.61791882      -1.16698681       2.13724261
H       -0.57774713      -2.78537114       0.57544232
H        0.12200820       1.16373934       1.14741058
H        1.07183449       0.17112497       0.00729697
H        6.08644700      -0.39049773      -0.22853684
H        3.31892395       2.29799209      -0.31983439
H        1.32414515       0.05177611       2.80915954
H        5.05481573       0.15156293       2.50277904
32
Properties=species:S:1:pos:R:3 relative_energy_eV=0.5788406035208027 branch=right pbc="F F F"
O       -3.63359241       1.80616401      -3.10208470
C       -3.25069768       0.68195969      -2.84760287
C       -3.26872022       0.16812862      -1.43476846
O       -3.88840064       1.10461010      -0.58390547
C       -1.84458496      -0.16036191      -0.96059198
O       -1.36596127      -1.18910039      -1.79849231
C       -1.88254548      -0.52406918       0.53003331
O       -2.79958626      -1.59051762       0.77637138
C       -0.54319241      -0.95685750       1.10804281
O       -0.03554210      -2.10746131       0.42188612
C        0.50432994       0.15110995       1.07708116
O        1.45301256       0.03663759       2.12396556
P        4.58770332       0.65547481       0.45893796
O        3.70248362      -0.33281360      -0.19115325
O        6.15693502       0.53525218       0.06065835
O        4.29156817       2.19495549       0.11060047
O        4.61160901       0.71354124       2.06961089
H       -2.86750189       0.00071940      -3.62287315
H       -3.82015508      -0.78009670      -1.43166739
H       -4.08478848       1.86716092      -1.15777767
H       -1.24061888       0.74928645      -1.07244547
H       -0.64115906      -1.62872184      -1.31963041
H       -2.19754635       0.37560530       1.06155802
H       -3.67617676      -1.20444957       0.88625544
H       -0.71409926      -1.21971423       2.16116931
H       -0.67328778      -2.82070067       0.56190709
H        0.00131370       1.12517938       1.13489796
H        1.06288144       0.09512635       0.14511250
H        6.29697283      -0.29760706      -0.40681834
H        3.39901587       2.28912587      -0.23847182
H        0.97528473       0.08036231       2.96132177
H        5.29813632       0.15314625       2.44555297
32
Properties=species:S:1:pos:R:3 relative_energy_eV=0.5546965175017249 branch=right pbc="F F F"
O       -3.61027521       1.81258597      -3.10922853
C       -3.22255775       0.69145689      -2.84886568
C       -3.26382328       0.17346540      -1.43693925
O       -3.87896802       1.11602180      -0.58937501
C       -1.85059382      -0.16841887      -0.94545871
O       -1.35980664      -1.20027301      -1.77217484
C       -1.90219511      -0.53167926       0.54224469
O       -2.79670716      -1.62166366       0.77358588
C       -0.55455165      -0.94376955       1.12056378
O       -0.04288099      -2.09760696       0.44470775
C        0.50866691       0.15380328       1.07630875
O        1.47441346       0.02558444       2.10784693
P        4.59773704       0.65128134       0.47544718
O        3.71400684      -0.32587348      -0.19526874
O        6.16924716       0.50745884       0.08454289
O        4.26845188       2.18982605       0.15340539
O        4.62328874       0.72845121       2.08007343
H       -2.81928696       0.01418316      -3.61753004
H       -3.83214505      -0.76623263      -1.44905537
H       -4.11124431       1.86052866      -1.17314580
H       -1.24424805       0.73996500      -1.04797045
H       -0.63837775      -1.62969050      -1.27719672
H       -2.24690163       0.35663695       1.07579004
H       -3.68732547      -1.25753603       0.83085706
H       -0.72027354      -1.19782725       2.17455856
H       -0.68704469      -2.80551509       0.57666131
H        0.02952051       1.14017992       1.13885346
H        1.07236795       0.08967515       0.14661482
H        6.26554415      -0.21035709      -0.55369387
H        3.41213567       2.24637689      -0.29079915
H        1.03365412       0.14974324       2.95580639
H        5.21326216       0.08029368       2.47551386
32
Properties=species:S:1:pos:R:3 relative_energy_eV=0.518306308920728 branch=right pbc="F F F"
O       -3.56021119       1.81698215      -3.12164826
C       -3.14700201       0.70930694      -2.84584108
C       -3.23974992       0.18428273      -1.43997347
O       -3.90308502       1.10977347      -0.61221501
C       -1.83557101      -0.15040518      -0.91444692
O       -1.33180620      -1.17781847      -1.74203893
C       -1.90450301      -0.53092805       0.57111805
O       -2.75323261      -1.66402435       0.76961660
C       -0.55609714      -0.92817711       1.16945124
O       -0.05156664      -2.11422259       0.53974320
C        0.51151921       0.15577065       1.06790261
O        1.52085149       0.01190846       2.05545912
P        4.56408743       0.64180233       0.49716928
O        3.68668512      -0.36904733      -0.14165088
O        6.12114167       0.55464656       0.04312583
O        4.17698255       2.18293892       0.23330182
O        4.71037810       0.70503025       2.09345269
H       -2.67927792       0.05346218      -3.59491080
H       -3.78722760      -0.76599734      -1.48014720
H       -4.11441759       1.85813042      -1.19982296
H       -1.23125644       0.76198866      -1.00932250
H       -0.64195121      -1.64968732      -1.24209923
H       -2.28517758       0.34679613       1.10727433
H       -3.66808366      -1.36312153       0.77698127
H       -0.73083039      -1.14425283       2.23273923
H       -0.72108724      -2.79893868       0.67495656
H        0.04148526       1.14386591       1.12766094
H        1.01780016       0.09343596       0.10575621
H        6.19394377      -0.01241334      -0.73307150
H        3.48009065       2.22985242      -0.43447816
H        1.15906830       0.26635942       2.91535364
H        4.87118963      -0.18622458       2.45728481
32
Properties=species:S:1:pos:R:3 relative_energy_eV=0.43528853794850875 branch=right pbc="F F F"
O       -3.53263998       1.81968201      -3.10115587
C       -3.11422242       0.70733153      -2.84939938
C       -3.20134536       0.15777223      -1.45098810
O       -3.86066708       1.07246536      -0.60635762
C       -1.79306246      -0.15275543      -0.90913451
O       -1.24104000      -1.14421796      -1.74552960
C       -1.87049930      -0.53810057       0.57585639
O       -2.77337721      -1.63472452       0.75957415
C       -0.52089658      -0.92868014       1.18880264
O       -0.03958514      -2.12406994       0.57111706
C        0.53186727       0.16533625       1.04892578
O        1.59219293       0.04241892       1.97932554
P        4.52674801       0.64691665       0.46257677
O        3.69201289      -0.37904793      -0.20272877
O        6.05494587       0.67235831      -0.08852763
O        4.06500819       2.18128192       0.30982580
O        4.68137143       0.59656002       2.05849815
H       -2.63568258       0.07184890      -3.61056798
H       -3.75456245      -0.79005596      -1.49919299
H       -4.06778203       1.83440906      -1.17646092
H       -1.21056517       0.77536952      -0.96934709
H       -0.59214262      -1.64227523      -1.21817717
H       -2.24788080       0.33671066       1.10651476
H       -3.66325897      -1.26587340       0.84117939
H       -0.67648782      -1.11641773       2.26208484
H       -0.67498443      -2.81973336       0.78871591
H        0.02751476       1.12835869       1.16877775
H        0.97830044       0.12611412       0.06129054
H        6.16312070      -0.08639942      -0.68017386
H        3.42795392       2.26318080      -0.40867313
H        1.23635438       0.26271167       2.84607654
H        4.40638090      -0.26739922       2.41395233
32
Properties=species:S:1:pos:R:3 relative_energy_eV=0.2738972131992341 branch=right pbc="F F F"
O       -3.44009246       1.84447680      -3.06779344
C       -3.05536081       0.71589434      -2.83607688
C       -3.14222833       0.14421102      -1.44636906
O       -3.81012215       1.05047168      -0.59778494
C       -1.74883735      -0.17242541      -0.88922024
O       -1.17861713      -1.18920429      -1.67731454
C       -1.86440108      -0.51409993       0.59529695
O       -2.74955067      -1.60262550       0.84011112
C       -0.53287203      -0.89413901       1.22095945
O        0.00162746      -2.06619094       0.60812693
C        0.54729562       0.16197058       1.07863921
O        1.62591519      -0.05667738       1.99806401
P        4.48610403       0.60009516       0.35959371
O        3.65693652      -0.31998568      -0.46005334
O        6.04698599       0.66510507      -0.03288805
O        4.05395640       2.15922801       0.27945675
O        4.57820250       0.32706197       1.93985633
H       -2.59444173       0.07339334      -3.60400487
H       -3.67164104      -0.81675823      -1.51078919
H       -4.08389937       1.78137062      -1.18108085
H       -1.15696112       0.74569538      -0.96206467
H       -0.52009758      -1.63703062      -1.11439792
H       -2.22466581       0.38820279       1.08591679
H       -3.65621840      -1.27814508       0.83479798
H       -0.73262428      -1.05861459       2.28871943
H       -0.60834884      -2.79280987       0.77545859
H        0.11931707       1.15680688       1.21202303
H        0.97837304       0.12077920       0.07938166
H        6.22973518       0.00976666      -0.72078344
H        3.23102883       2.24346098      -0.22696028
H        1.36525046       0.32234904       2.85199968
H        3.76334204      -0.14055514       2.20585866
32
Properties=species:S:1:pos:R:3 relative_energy_eV=0.16557333727541845 branch=right pbc="F F F"
O       -3.41582974       1.83502668      -3.07172266
C       -3.02797257       0.70866168      -2.83519949
C       -3.13558302       0.13594866      -1.44683654
O       -3.84265698       1.02055605      -0.60984448
C       -1.73401801      -0.16826499      -0.88516795
O       -1.20176185      -1.20681262      -1.67744517
C       -1.82525380      -0.50291098       0.61454748
O       -2.72011598      -1.59132377       0.84488566
C       -0.49552756      -0.90132554       1.24750126
O        0.00139309      -2.09847203       0.64829076
C        0.57788177       0.17039286       1.12259967
O        1.63447559      -0.02733599       2.07073237
P        4.46292817       0.58856424       0.27911576
O        3.65972322      -0.24474207      -0.64758147
O        6.04949249       0.64147985       0.02559760
O        4.08064961       2.16241068       0.24953143
O        4.40877790       0.19162177       1.82286179
H       -2.56736186       0.06941785      -3.60432563
H       -3.64035086      -0.83575775      -1.52205879
H       -4.05497479       1.78279747      -1.17930469
H       -1.13683815       0.74494556      -0.99339750
H       -0.52489295      -1.65931600      -1.14413215
H       -2.18332478       0.39787477       1.11924677
H       -3.61308373      -1.22910864       0.82930388
H       -0.67255289      -1.07163332       2.31968211
H       -0.66863868      -2.77923067       0.79815451
H        0.13821352       1.16410502       1.26251452
H        1.05017559       0.13096231       0.14434664
H        6.29801383       0.04715810      -0.69261669
H        3.19655917       2.23810280      -0.12485764
H        1.33375647       0.29974901       2.92745351
H        3.48178856      -0.04246205       2.03480282
32
Properties=species:S:1:pos:R:3 relative_energy_eV=0.12981640345969936 branch=right pbc="F F F"
O       -3.42049579       1.81020675      -3.08517894
C       -2.99740845       0.70136472      -2.82764916
C       -3.12435019       0.13644452      -1.43741538
O       -3.81823434       1.03753032      -0.60570617
C       -1.72446174      -0.17601458      -0.87921495
O       -1.19720715      -1.21631316      -1.67273791
C       -1.82397594      -0.50329401       0.61750202
O       -2.70229084      -1.60595178       0.85309669
C       -0.49403037      -0.89016082       1.25136021
O       -0.00326226      -2.09952581       0.66858146
C        0.59962435       0.16483017       1.13841404
O        1.60020068      -0.01967810       2.14843757
P        4.41926048       0.59013729       0.26730049
O        3.59482689      -0.15139672      -0.71881574
O        6.01576514       0.54514199       0.06390742
O        4.08966279       2.18058806       0.29684626
O        4.34422932       0.14755532       1.79357307
H       -2.47713619       0.07688122      -3.57213955
H       -3.66486805      -0.81810498      -1.51018693
H       -4.03442803       1.79256643      -1.18288570
H       -1.13255526       0.74612660      -0.98504192
H       -0.52966742      -1.67938243      -1.13784270
H       -2.20045819       0.40430643       1.09817109
H       -3.60666236      -1.27596841       0.81046328
H       -0.67607499      -1.04241935       2.32340484
H       -0.66883267      -2.78344914       0.82952988
H        0.17308254       1.16799510       1.23239467
H        1.13435329       0.08664540       0.19293488
H        6.24900105       0.14303889      -0.78091628
H        3.34569734       2.35050022      -0.29599176
H        1.22692329       0.22190113       3.00659675
H        3.41686413      -0.07102200       2.02588632
32
Properties=species:S:1:pos:R:3 relative_energy_eV=0.11235757335816743 branch=right pbc="F F F"
O       -3.42525596       1.80532923      -3.08920356
C       -2.98804398       0.70176782      -2.83296344
C       -3.09842962       0.14212351      -1.44110368
O       -3.79528176       1.03955371      -0.60971630
C       -1.70375873      -0.17498295      -0.87796772
O       -1.18961841      -1.22843562      -1.66160626
C       -1.81291724      -0.50496047       0.61582214
O       -2.71443418      -1.58834263       0.83858670
C       -0.49710323      -0.90868193       1.26448827
O        0.01319289      -2.10776055       0.68072568
C        0.58553169       0.15128385       1.15433523
O        1.58904857      -0.02333515       2.15954585
P        4.39462561       0.60976038       0.26113287
O        3.55744419      -0.08505833      -0.74848757
O        5.98907177       0.52223102       0.05111269
O        4.10578395       2.20560728       0.32598283
O        4.29761396       0.13954479       1.77358628
H       -2.48794315       0.07676989      -3.58870780
H       -3.63002387      -0.81605520      -1.51008785
H       -4.01620259       1.79187211      -1.18853535
H       -1.09289476       0.73209678      -0.98659975
H       -0.51172676      -1.68473609      -1.13426765
H       -2.17153364       0.39818953       1.11359305
H       -3.60905990      -1.22988025       0.84518499
H       -0.70118815      -1.07691047       2.33240083
H       -0.63997044      -2.79960993       0.84845048
H        0.15648239       1.15460585       1.23482739
H        1.10857922       0.06193549       0.20460649
H        6.19434455       0.11810331      -0.80022725
H        3.43671870       2.41076193      -0.33713594
H        1.21050571       0.17628170       3.02480933
H        3.35953465      -0.03798937       2.00409655
32
Properties=species:S:1:pos:R:3 relative_energy_eV=0.09510710578615544 branch=right pbc="F F F"
O       -3.38540368       1.80184556      -3.11029501
C       -2.95051385       0.69973512      -2.84384208
C       -3.06398746       0.15092730      -1.44780239
O       -3.73393359       1.06943734      -0.61603283
C       -1.68233221      -0.20255435      -0.87842699
O       -1.17943199      -1.26660388      -1.65554610
C       -1.81299622      -0.52949737       0.61749083
O       -2.74112638      -1.58843796       0.85360539
C       -0.50701825      -0.94682631       1.28323041
O       -0.00277744      -2.15133109       0.70471750
C        0.57039116       0.11772782       1.18957404
O        1.59324479      -0.09881142       2.17229442
P        4.35067525       0.65958771       0.25734532
O        3.40345825       0.05737004      -0.71634563
O        5.92079697       0.39756051      -0.00298742
O        4.22639595       2.28148488       0.32176678
O        4.26221428       0.19580945       1.77046624
H       -2.46471132       0.06090560      -3.59671934
H       -3.61228854      -0.79860874      -1.51473140
H       -3.99774801       1.79174373      -1.21448232
H       -1.04506228       0.68730359      -0.97542420
H       -0.50320516      -1.71705389      -1.12064441
H       -2.16365940       0.38627971       1.09302223
H       -3.62773364      -1.21013108       0.83648490
H       -0.71706818      -1.11558020       2.35130674
H       -0.69314506      -2.81477454       0.83653072
H        0.13070612       1.10899363       1.33709238
H        1.08014852       0.08899182       0.22925576
H        6.07491718       0.09648184      -0.90685459
H        3.60905368       2.55759491      -0.36755131
H        1.25692212       0.16494781       3.03776282
H        3.31831095       0.03656193       2.00241767
32
Properties=species:S:1:pos:R:3 relative_energy_eV=0.05698540257435525 branch=right pbc="F F F"
O       -3.30372581       1.77037699      -3.15443548
C       -2.87771967       0.67167318      -2.86049283
C       -3.01940112       0.14583327      -1.45632915
O       -3.65258475       1.10440563      -0.63929081
C       -1.65212868      -0.24419839      -0.87616400
O       -1.19677615      -1.34336569      -1.63527753
C       -1.81048292      -0.54408994       0.62290723
O       -2.76955887      -1.58081796       0.83566773
C       -0.53464982      -0.99850982       1.31762378
O       -0.03489541      -2.20333911       0.73675328
C        0.55597595       0.05457887       1.28099325
O        1.58748079      -0.22493873       2.23988013
P        4.25685149       0.78539014       0.22133844
O        3.15812951       0.40222864      -0.70327039
O        5.70789047       0.16642376      -0.12873008
O        4.50737227       2.39055623       0.29293460
O        4.14553014       0.37369620       1.74359753
H       -2.35310204       0.02587912      -3.58335384
H       -3.61111403      -0.78081345      -1.51219843
H       -3.88865588       1.82858844      -1.24693770
H       -0.98304122       0.62196990      -0.98581298
H       -0.49203632      -1.77021534      -1.12050496
H       -2.14369961       0.38002546       1.10096629
H       -3.64700648      -1.18142219       0.82706084
H       -0.79485220      -1.18148178       2.36894695
H       -0.73205927      -2.86578226       0.83818962
H        0.13238057       1.04074471       1.49217102
H        1.04817071       0.08575893       0.31424308
H        5.79181828       0.02318481      -1.07677264
H        4.02314882       2.83840063      -0.41168484
H        1.28296348       0.04408245       3.11574880
H        3.21287215       0.13625692       1.96891218
32
Properties=species:S:1:pos:R:3 relative_energy_eV=0.03086812347464729 branch=right pbc="F F F"
O       -3.22178358       1.75912906      -3.17943435
C       -2.83644477       0.64966286      -2.87092721
C       -3.00227492       0.14002932      -1.46415880
O       -3.64400440       1.11156879      -0.67043860
C       -1.64668049      -0.26928159      -0.86490219
O       -1.20342932      -1.37747768      -1.61925937
C       -1.81926321      -0.55818559       0.63365527
O       -2.80299329      -1.56578571       0.85695939
C       -0.54832504      -1.02366260       1.33406470
O       -0.02762606      -2.21470897       0.74222528
C        0.54097749       0.02863932       1.31718019
O        1.60559890      -0.31570674       2.21513020
P        4.22674664       0.90660440       0.20558899
O        3.06143726       0.69687816      -0.69203833
O        5.55440227       0.07727126      -0.18572612
O        4.73619595       2.44273580       0.25652729
O        4.06688894       0.53802038       1.73321321
H       -2.33065995      -0.01612102      -3.58591354
H       -3.60139577      -0.77996259      -1.52390534
H       -3.79163247       1.86331885      -1.27309802
H       -0.95803847       0.58148273      -0.96349995
H       -0.48010491      -1.78861869      -1.11776943
H       -2.13687524       0.38009569       1.09372875
H       -3.66785194      -1.13922910       0.83593409
H       -0.80864571      -1.22231361       2.38344586
H       -0.70840754      -2.89383730       0.83739141
H        0.12756904       1.00252689       1.59483599
H        1.00246828       0.11226979       0.34039204
H        5.52448674      -0.17925063      -1.11575532
H        4.20725999       2.96362998      -0.35938282
H        1.33339003      -0.11152799       3.11780049
H        3.16211061       0.17288639       1.91481573
32
Properties=species:S:1:pos:R:3 relative_energy_eV=0.015416468602779787 branch=right pbc="F F F"
O       -3.13154181       1.76941456      -3.18258499
C       -2.80442836       0.64119291      -2.87617127
C       -2.99850360       0.13897031      -1.46989564
O       -3.63179986       1.12247427      -0.68467187
C       -1.64812279      -0.27115311      -0.86187145
O       -1.19359547      -1.38102610      -1.60552093
C       -1.81986297      -0.56062195       0.63635201
O       -2.79366456      -1.58008360       0.85919779
C       -0.55198258      -1.02828280       1.34138741
O       -0.04574538      -2.22742231       0.75509786
C        0.54011632       0.02124354       1.32823874
O        1.63346763      -0.33384395       2.18691737
P        4.22398170       0.96771415       0.19236371
O        3.03953326       0.80560819      -0.69025975
O        5.52164438       0.11196818      -0.25273664
O        4.79586030       2.47692079       0.27205448
O        4.06794979       0.58701665       1.71932601
H       -2.33534767      -0.04760633      -3.59444547
H       -3.60359668      -0.77633714      -1.52003639
H       -3.79260472       1.86402959      -1.29643483
H       -0.97139260       0.58745126      -0.96788500
H       -0.49893870      -1.81296472      -1.07951348
H       -2.13890784       0.37531179       1.09887319
H       -3.66405650      -1.16712789       0.82672866
H       -0.82207270      -1.22531188       2.38722590
H       -0.74287436      -2.89185625       0.84326232
H        0.12567500       0.98737147       1.63494523
H        0.97162849       0.13083453       0.33981840
H        5.35286131      -0.33639930      -1.09208618
H        4.29763759       3.04407822      -0.32652688
H        1.36346901      -0.22519285       3.10836651
H        3.16830947       0.20470988       1.89716463
32
Properties=species:S:1:pos:R:3 relative_energy_eV=0.011188988879439421 branch=right pbc="F F F"
O       -3.10303547       1.76840539      -3.18724084
C       -2.78481295       0.63817301      -2.87839543
C       -2.99029195       0.14019373      -1.47267627
O       -3.63482998       1.12240444      -0.69627275
C       -1.64694698      -0.27189192      -0.85231323
O       -1.19302982      -1.38177498      -1.59719252
C       -1.82874398      -0.56205951       0.64410596
O       -2.79565395      -1.59140728       0.85371647
C       -0.55785231      -1.02384143       1.34959665
O       -0.05511824      -2.22618438       0.76382964
C        0.54421378       0.01644731       1.32984703
O        1.64094099      -0.36200746       2.17387245
P        4.21391312       0.99569638       0.18886015
O        3.01446129       0.86769937      -0.67800749
O        5.48317252       0.11627854      -0.28939705
O        4.82204120       2.48989586       0.28056872
O        4.06684267       0.60445816       1.71487167
H       -2.32367853      -0.06203793      -3.59197972
H       -3.59637030      -0.77434287      -1.53322457
H       -3.77263829       1.86956479      -1.30677084
H       -0.96007413       0.57886815      -0.94974888
H       -0.51233936      -1.82266205      -1.06090944
H       -2.16006747       0.36843244       1.10989680
H       -3.67092263      -1.18920937       0.80894173
H       -0.82399269      -1.21880446       2.39744158
H       -0.75362072      -2.88810675       0.85730685
H        0.15260048       0.98684247       1.65017471
H        0.97000725       0.12678374       0.33915713
H        5.26135275      -0.36445799      -1.09514418
H        4.36149495       3.07160614      -0.33514346
H        1.37656225      -0.27058686       3.09810590
H        3.16951164       0.21870559       1.89080274
32
Properties=species:S:1:pos:R:3 relative_energy_eV=0.009560207952745259 branch=right pbc="F F F"
O       -3.08264575       1.76607597      -3.19240461
C       -2.76418511       0.63610891      -2.88288817
C       -2.97989910       0.13864804      -1.47774233
O       -3.62461612       1.12515533      -0.70703009
C       -1.64167317      -0.27643841      -0.84646719
O       -1.17852068      -1.38379756      -1.58888097
C       -1.83150591      -0.56794767       0.64977369
O       -2.79894616      -1.59636520       0.85955263
C       -0.56517745      -1.03278022       1.36198644
O       -0.06860537      -2.24304615       0.78769459
C        0.54148497       0.00173524       1.33395740
O        1.64398435      -0.37886214       2.16919301
P        4.19701384       1.02333060       0.18443811
O        2.98465302       0.94883423      -0.67071304
O        5.42636123       0.10222923      -0.32260123
O        4.85964882       2.49249097       0.29108458
O        4.05357521       0.62616326       1.70865857
H       -2.29561664      -0.06073891      -3.59507122
H       -3.59267301      -0.77159570      -1.54118692
H       -3.74256627       1.87806081      -1.31497319
H       -0.95564226       0.57590303      -0.93763645
H       -0.51439617      -1.83402577      -1.03955125
H       -2.16168156       0.36465034       1.11292549
H       -3.67492303      -1.19965265       0.78926223
H       -0.83575277      -1.21538758       2.41118913
H       -0.76732659      -2.90303225       0.89312451
H        0.15430196       0.97454794       1.65385766
H        0.96062587       0.11088469       0.34020364
H        5.17971905      -0.34814074      -1.13853883
H        4.44519249       3.08489705      -0.34705092
H        1.38407960      -0.30322112       3.09617607
H        3.15880783       0.23639608       1.88633819
32
Properties=species:S:1:pos:R:3 relative_energy_eV=0.008407446148339659 branch=right pbc="F F F"
O       -3.04393174       1.76630100      -3.19270139
C       -2.73859474       0.63307480      -2.88203259
C       -2.96426766       0.13728714      -1.47857600
O       -3.61014953       1.12436024      -0.70944093
C       -1.63025121      -0.28037159      -0.84236546
O       -1.16643201      -1.38897089      -1.58308766
C       -1.83151764      -0.57142830       0.65131090
O       -2.80361441      -1.59692441       0.85178578
C       -0.57071876      -1.03727422       1.37060701
O       -0.08258450      -2.25732549       0.81003478
C        0.54240719      -0.01043108       1.33062400
O        1.64803275      -0.39370040       2.15864333
P        4.17660022       1.05035302       0.17895764
O        2.95048748       1.03127785      -0.65966720
O        5.35849052       0.08200594      -0.35298113
O        4.90090559       2.48907496       0.29028825
O        4.03993891       0.65095925       1.70328669
H       -2.27256600      -0.06908796      -3.59090343
H       -3.57792233      -0.77182610      -1.54172532
H       -3.72881378       1.87596659      -1.31824427
H       -0.94062769       0.56942318      -0.92889605
H       -0.52241085      -1.85504725      -1.02333484
H       -2.16489406       0.36078439       1.11239737
H       -3.67631845      -1.19300532       0.78404782
H       -0.84266724      -1.20606662       2.42193879
H       -0.78479625      -2.91224285       0.92386556
H        0.16492947       0.96598107       1.64936098
H        0.95483653       0.09464113       0.33396485
H        5.08923328      -0.33601900      -1.17881155
H        4.50429625       3.10900490      -0.33163029
H        1.38689675      -0.34219769       3.08673442
H        3.14911896       0.25250271       1.88323005
32
Properties=species:S:1:pos:R:3 relative_energy_eV=0.007538933758041821 branch=right pbc="F F F"
O       -3.02334144       1.77271027      -3.19112346
C       -2.72400750       0.63678817      -2.88423656
C       -2.95593264       0.13512820      -1.48393161
O       -3.60777595       1.11833465      -0.71510412
C       -1.62516626      -0.28518280      -0.84140526
O       -1.16628190      -1.40004470      -1.57588576
C       -1.82790999      -0.56802615       0.65419003
O       -2.80358811      -1.58870542       0.86173945
C       -0.56991269      -1.03756487       1.37621252
O       -0.09163597      -2.26615547       0.82586773
C        0.55022466      -0.01894449       1.32437383
O        1.65203595      -0.39616351       2.15998812
P        4.16595671       1.05790451       0.17927311
O        2.93004067       1.06324736      -0.64568877
O        5.32625366       0.07803259      -0.37830104
O        4.90970595       2.48680597       0.29324086
O        4.04302747       0.64564406       1.70133593
H       -2.26351110      -0.06625290      -3.59577296
H       -3.56796430      -0.77441174      -1.55882261
H       -3.72451232       1.87066196      -1.32349297
H       -0.92973177       0.55960182      -0.93071173
H       -0.52273848      -1.86415587      -1.01420059
H       -2.15556678       0.36860705       1.11048594
H       -3.67564775      -1.18331311       0.79645934
H       -0.84126448      -1.19668943       2.42924887
H       -0.80180781      -2.91336128       0.93600215
H        0.18086649       0.96563512       1.62684674
H        0.96404335       0.06873749       0.32674255
H        5.03987661      -0.31743031      -1.20957840
H        4.49341861       3.12108513      -0.30135402
H        1.38274737      -0.34836822       3.08598747
H        3.15319489       0.24692397       1.88829515
32
Properties=species:S:1:pos:R:3 relative_energy_eV=0.006224779448530171 branch=right pbc="F F F"
O       -2.99377220       1.77327385      -3.18905653
C       -2.69687135       0.63531048      -2.88667123
C       -2.94136376       0.12631972      -1.49069836
O       -3.59818488       1.10818434      -0.72359927
C       -1.61325036      -0.29771220      -0.84343934
O       -1.16447012      -1.42495570      -1.56614491
C       -1.82226057      -0.56228366       0.65490640
O       -2.81603328      -1.56414323       0.87173444
C       -0.57147762      -1.04121240       1.38399635
O       -0.11072945      -2.28247069       0.84802055
C        0.56402851      -0.04047134       1.32215419
O        1.65697703      -0.42307692       2.16852067
P        4.13757431       1.07870038       0.17322887
O        2.88304697       1.12860677      -0.62206191
O        5.26509493       0.09424943      -0.44056411
O        4.91461811       2.48736790       0.30688114
O        4.04115291       0.63097310       1.68764171
H       -2.22201089      -0.05882517      -3.59808353
H       -3.55211669      -0.78369537      -1.56561240
H       -3.69406345       1.86804455      -1.32648543
H       -0.90957388       0.53958252      -0.94247980
H       -0.52168019      -1.88679961      -1.00167443
H       -2.13398301       0.38488078       1.10009727
H       -3.68186567      -1.14572362       0.80158358
H       -0.84359375      -1.18335093       2.43916365
H       -0.83049592      -2.91727026       0.96777222
H        0.20976594       0.95508364       1.60704109
H        0.98240117       0.02790044       0.32495147
H        4.93974646      -0.29384981      -1.26110473
H        4.49334253       3.15223254      -0.24987012
H        1.38881659      -0.34599229       3.09309502
H        3.15432700       0.23219908       1.88343692
32
Properties=species:S:1:pos:R:3 relative_energy_eV=0.0048894315914367326 branch=right pbc="F F F"
O       -2.96793192       1.76991616      -3.19653396
C       -2.66429418       0.63523801      -2.88918627
C       -2.91749047       0.12448126      -1.49666342
O       -3.57369925       1.10632409      -0.72861991
C       -1.59713005      -0.31037571      -0.84094108
O       -1.15950444      -1.45026829      -1.55090919
C       -1.81519643      -0.55636732       0.65821765
O       -2.82513494      -1.53958432       0.88213025
C       -0.57648396      -1.04637304       1.39805507
O       -0.13296760      -2.30029636       0.87681001
C        0.57292480      -0.06425570       1.32549588
O        1.65870790      -0.44795714       2.18117291
P        4.10931446       1.09683345       0.16623152
O        2.84064113       1.18937354      -0.60270182
O        5.21188846       0.12274913      -0.50796237
O        4.90047274       2.49322549       0.33857200
O        4.04183605       0.59415659       1.66472112
H       -2.17887520      -0.05779974      -3.59408075
H       -3.53375796      -0.78096316      -1.58312523
H       -3.67956115       1.86356534      -1.33298206
H       -0.88285676       0.51734226      -0.94307571
H       -0.53267815      -1.92129638      -0.97596828
H       -2.11552248       0.40020729       1.09087100
H       -3.68107490      -1.10646906       0.78792693
H       -0.85695963      -1.17123585       2.45301184
H       -0.86622138      -2.91932984       0.99551592
H        0.23065872       0.94003778       1.59285116
H        0.99326625      -0.01855429       0.32805743
H        4.85784006      -0.23821907      -1.32842256
H        4.49511685       3.17160213      -0.21411893
H        1.40036236      -0.31849656       3.10286189
H        3.15740698       0.19386379       1.86946791
32
Properties=species:S:1:pos:R:3 relative_energy_eV=0.0038746325953979976 branch=right pbc="F F F"
O       -2.92192091       1.76589845      -3.20870572
C       -2.61675913       0.63281835      -2.89619147
C       -2.88354139       0.12502932      -1.50470365
O       -3.54262674       1.11260439      -0.74656738
C       -1.57576657      -0.32100644      -0.83226945
O       -1.15130056      -1.47824857      -1.52233487
C       -1.80963954      -0.54685869       0.66745528
O       -2.83652944      -1.51119553       0.89516855
C       -0.58268495      -1.05228103       1.41582632
O       -0.16541514      -2.32392109       0.91485291
C        0.58645617      -0.09589944       1.32503884
O        1.66179312      -0.48358656       2.19249170
P        4.06452102       1.12047788       0.15261502
O        2.77607978       1.26911681      -0.57337698
O        5.12920766       0.15900586      -0.59607160
O        4.89073271       2.49066723       0.36569109
O        4.03212180       0.55673055       1.62995772
H       -2.12334700      -0.05894550      -3.59702658
H       -3.50287054      -0.77802471      -1.59581648
H       -3.65111963       1.86182362      -1.36088220
H       -0.84497598       0.49133772      -0.93915131
H       -0.54755722      -1.95839352      -0.92957373
H       -2.09588285       0.41875017       1.08989412
H       -3.68573250      -1.06908127       0.78301302
H       -0.86351147      -1.15520358       2.47247462
H       -0.90980082      -2.92746076       1.04477244
H        0.26657279       0.92101926       1.56995558
H        1.00864069      -0.07747569       0.32750924
H        4.75113514      -0.15678410      -1.42470287
H        4.49573856       3.20232500      -0.15050392
H        1.40832638      -0.31334561       3.10839197
H        3.15275332       0.15117977       1.84944810
32
Properties=species:S:1:pos:R:3 relative_energy_eV=0.001687305499217473 branch=right pbc="F F F"
O       -2.81683089       1.73133034      -3.26380174
C       -2.52711944       0.60473278      -2.91486599
C       -2.82990894       0.13359459      -1.51645593
O       -3.47819392       1.15303616      -0.78987778
C       -1.54209723      -0.32865043      -0.81546541
O       -1.12086166      -1.49835639      -1.48845393
C       -1.80112897      -0.52972923       0.68478370
O       -2.86124507      -1.45592227       0.91926443
C       -0.59586688      -1.06327140       1.45002768
O       -0.22423519      -2.35989639       0.97517474
C        0.60691178      -0.15316070       1.33350519
O        1.67947462      -0.56061633       2.19618507
P        3.99341659       1.15114727       0.12353028
O        2.67076305       1.35691270      -0.52604471
O        5.01233254       0.23851636      -0.74339290
O        4.83476048       2.50466203       0.38635992
O        4.03341094       0.48157805       1.55837815
H       -2.02217150      -0.10654556      -3.58783439
H       -3.47222710      -0.75496914      -1.59805611
H       -3.56748888       1.88878140      -1.42339689
H       -0.79584970       0.47103658      -0.91711557
H       -0.58057943      -2.01464814      -0.86288950
H       -2.05942191       0.45008338       1.09221453
H       -3.69532924      -0.98724232       0.79831963
H       -0.88172971      -1.13428634       2.50770650
H       -0.98369478      -2.93787351       1.13285281
H        0.32971009       0.88143828       1.55656381
H        1.01547179      -0.17349320       0.33040943
H        4.59578454       0.00099868      -1.58160597
H        4.38574289       3.26399027      -0.00240497
H        1.44836143      -0.35394565       3.11065826
H        3.16293973       0.07183590       1.80240336
32
Properties=species:S:1:pos:R:3 relative_energy_eV=-0.0016520885183126666 branch=right pbc="F F F"
O       -2.73029424       1.69465895      -3.31001257
C       -2.45729413       0.57565396      -2.92577944
C       -2.78290073       0.14674857      -1.52036314
O       -3.41008016       1.19809433      -0.82338469
C       -1.51600477      -0.32761348      -0.79612818
O       -1.10460327      -1.50969935      -1.45297758
C       -1.79605710      -0.51493546       0.70204512
O       -2.87610959      -1.42016434       0.92360650
C       -0.60948380      -1.07014993       1.48257581
O       -0.27594634      -2.38586310       1.03681829
C        0.61623896      -0.19913532       1.33845144
O        1.69207229      -0.62401179       2.18661895
P        3.93566300       1.17661957       0.10237261
O        2.58980691       1.41098804      -0.48377202
O        4.93382028       0.34177241      -0.85860610
O        4.76865691       2.52105406       0.42725392
O        4.03951493       0.40701227       1.48148701
H       -1.95394178      -0.16313986      -3.56843214
H       -3.44584798      -0.72782059      -1.59135795
H       -3.48435570       1.91679145      -1.47766468
H       -0.75785023       0.46122569      -0.89535283
H       -0.60082984      -2.03846679      -0.81012352
H       -2.03687421       0.47193222       1.10443323
H       -3.69951128      -0.93818423       0.78627087
H       -0.89139605      -1.10602150       2.54346861
H       -1.05056185      -2.93962955       1.20413072
H        0.36570132       0.84378795       1.54780036
H        1.00717699      -0.24469002       0.32993532
H        4.49073364       0.14063065      -1.69140825
H        4.30247919       3.28872784       0.07615594
H        1.47674490      -0.41938610       3.10565261
H        3.17443636       0.00427786       1.75295899
32
Properties=species:S:1:pos:R:3 relative_energy_eV=-0.004465580161195248 branch=right pbc="F F F"
O       -2.64679371       1.66615949      -3.33680112
C       -2.41404298       0.54479459      -2.93361829
C       -2.74775576       0.15580825      -1.51773376
O       -3.33984899       1.24120176      -0.84188664
C       -1.49622875      -0.34239961      -0.78420099
O       -1.11017755      -1.54192679      -1.42556763
C       -1.78862419      -0.50509572       0.71325898
O       -2.89289378      -1.37849494       0.94318432
C       -0.61859134      -1.07787307       1.50535816
O       -0.31148701      -2.40599016       1.08094954
C        0.62396919      -0.23249171       1.34862545
O        1.70389034      -0.67923220       2.17843072
P        3.88931586       1.19899457       0.08236013
O        2.53046558       1.43119146      -0.47415376
O        4.88256797       0.41224183      -0.92231330
O        4.71030573       2.54358972       0.43510350
O        4.02808953       0.38623522       1.43326215
H       -1.94371332      -0.22399632      -3.56635047
H       -3.43977952      -0.69737172      -1.56567636
H       -3.39692993       1.94711627      -1.51192692
H       -0.71841877       0.42619825      -0.88516250
H       -0.57053293      -2.04849584      -0.79534634
H       -2.00740381       0.49296895       1.10013106
H       -3.70186226      -0.87648764       0.79274613
H       -0.90705443      -1.09246661       2.56486518
H       -1.11654078      -2.92696450       1.20455829
H        0.40084342       0.81596649       1.56139943
H        0.99848792      -0.28549441       0.33386968
H        4.42545771       0.23241337      -1.75199835
H        4.21761691       3.31840315       0.14243069
H        1.49590412      -0.49462253       3.10320952
H        3.17487081      -0.03281752       1.71566433
32
Properties=species:S:1:pos:R:3 relative_energy_eV=-0.005896912436583079 branch=right pbc="F F F"
O       -2.59607885       1.66094878      -3.34501692
C       -2.39207210       0.53465779      -2.93952437
C       -2.73214988       0.15559185      -1.52286930
O       -3.31448446       1.24839747      -0.85009093
C       -1.48622113      -0.35129068      -0.78546504
O       -1.11362390      -1.56185700      -1.41439599
C       -1.78058157      -0.49616893       0.71412395
O       -2.89759094      -1.35175464       0.95335042
C       -0.61956537      -1.08270259       1.50974012
O       -0.33501419      -2.41795022       1.09133279
C        0.63472485      -0.25599348       1.35062857
O        1.71060223      -0.71262884       2.18047526
P        3.86170578       1.21663742       0.07722488
O        2.49609826       1.45395282      -0.46068929
O        4.84431057       0.44801096      -0.95194129
O        4.68418448       2.55710727       0.44144695
O        4.02055197       0.38320798       1.41314332
H       -1.94421229      -0.24917769      -3.57104406
H       -3.43197192      -0.69092825      -1.57028388
H       -3.33835024       1.96362225      -1.51176706
H       -0.69990949       0.40777566      -0.89457638
H       -0.59601841      -2.07656981      -0.77102926
H       -1.98480581       0.50772156       1.09370037
H       -3.70059209      -0.83708184       0.81446256
H       -0.90832921      -1.08760499       2.56933562
H       -1.14899989      -2.92406512       1.22014612
H        0.42149492       0.79501287       1.56067986
H        1.01006230      -0.31543299       0.33673437
H        4.38264934       0.28730199      -1.78321628
H        4.19171299       3.33607558       0.16021065
H        1.50104542      -0.53073563       3.10579573
H        3.17453536      -0.04301827       1.70604834
32
Properties=species:S:1:pos:R:3 relative_energy_eV=-0.007527860667323694 branch=right pbc="F F F"
O       -2.51112603       1.65764474      -3.34128050
C       -2.37098539       0.51959575      -2.94160990
C       -2.72097687       0.15859635      -1.52275543
O       -3.27605731       1.27255552      -0.86245230
C       -1.48193349      -0.36564116      -0.78441189
O       -1.13268451      -1.58790109      -1.40368224
C       -1.77331965      -0.49050402       0.71710946
O       -2.90658230      -1.32098337       0.96689334
C       -0.62086671      -1.09042463       1.51512332
O       -0.35629669      -2.43310635       1.10589120
C        0.64484909      -0.28415584       1.34608167
O        1.72306349      -0.75632877       2.16328022
P        3.83394172       1.24330796       0.08128053
O        2.46163482       1.47790861      -0.43936638
O        4.80509293       0.48407429      -0.96607404
O        4.64932927       2.58785973       0.44723608
O        4.01670681       0.40390462       1.41033826
H       -1.97274984      -0.28392874      -3.58053165
H       -3.44019876      -0.67136064      -1.55727696
H       -3.25813159       1.98579794      -1.52677440
H       -0.68351407       0.37853897      -0.90285755
H       -0.62972547      -2.10954686      -0.75421675
H       -1.95575066       0.52081262       1.08761452
H       -3.69829478      -0.78951184       0.82614987
H       -0.90781772      -1.08373053       2.57539582
H       -1.17502293      -2.92916609       1.24391491
H        0.45047212       0.76987635       1.55656236
H        1.00849961      -0.35280633       0.32889738
H        4.33635835       0.35385588      -1.79824983
H        4.16036478       3.36095552       0.14386111
H        1.51028589      -0.60543718       3.09336993
H        3.18454443      -0.04969051       1.69920844
32
Properties=species:S:1:pos:R:3 relative_energy_eV=-0.008841348113492131 branch=right pbc="F F F"
O       -2.46224917       1.65282674      -3.34658971
C       -2.36974860       0.51238499      -2.94095092
C       -2.72608407       0.17194524      -1.51895059
O       -3.25276278       1.30109016      -0.86185318
C       -1.49360037      -0.37944582      -0.78791183
O       -1.18930384      -1.61429330      -1.40553855
C       -1.76736642      -0.48823004       0.71774893
O       -2.91070542      -1.29711432       0.98897628
C       -0.61527859      -1.10062492       1.50758380
O       -0.36321117      -2.44501638       1.09774362
C        0.65652475      -0.30398245       1.33589601
O        1.73230962      -0.77896864       2.15488971
P        3.82744479       1.26022166       0.08653909
O        2.45619514       1.46981082      -0.44689705
O        4.81968623       0.50695525      -0.94489836
O        4.62053675       2.61909949       0.44685220
O        4.01164257       0.43678686       1.42633109
H       -2.00834482      -0.31204910      -3.57517714
H       -3.46434169      -0.64119962      -1.54643252
H       -3.22336208       2.01199363      -1.52770003
H       -0.67540880       0.34084483      -0.91837316
H       -0.66787248      -2.13375700      -0.76988924
H       -1.92555125       0.52986067       1.08199357
H       -3.69557128      -0.75847674       0.83665564
H       -0.89774479      -1.09191417       2.56904472
H       -1.17847561      -2.93986549       1.25767422
H        0.46737873       0.75181968       1.54248525
H        1.02180807      -0.37785150       0.31952935
H        4.36499865       0.36347771      -1.78268087
H        4.12487966       3.38438335       0.13527994
H        1.50979960      -0.64711069       3.08572998
H        3.18688828      -0.03253936       1.70955727
32
Properties=species:S:1:pos:R:3 relative_energy_eV=-0.012077311585017014 branch=right pbc="F F F"
O       -2.44848139       1.62576419      -3.38258293
C       -2.38472066       0.49578572      -2.94381793
C       -2.71636017       0.21305866      -1.50224166
O       -3.13397918       1.39335291      -0.85730147
C       -1.50860533      -0.41225762      -0.79262089
O       -1.30253520      -1.67218490      -1.39867594
C       -1.75447256      -0.48515452       0.71990464
O       -2.91731898      -1.25190337       1.02790004
C       -0.60673150      -1.12035749       1.49695244
O       -0.39410884      -2.47342204       1.09369605
C        0.67914511      -0.35285400       1.30100369
O        1.74974081      -0.81811846       2.13223225
P        3.81778361       1.27725240       0.09622368
O        2.46327704       1.37809546      -0.50657279
O        4.91607732       0.61462735      -0.88826423
O        4.47616706       2.69372761       0.50359431
O        4.00414746       0.46129007       1.43978637
H       -2.07131342      -0.35987891      -3.56163867
H       -3.51391608      -0.54390582      -1.48955966
H       -3.08922045       2.08055710      -1.54681696
H       -0.64939468       0.25158876      -0.94919770
H       -0.77511574      -2.20436673      -0.77939816
H       -1.87200643       0.54387136       1.06746258
H       -3.68846772      -0.68877788       0.89358910
H       -0.87258831      -1.09852321       2.56250970
H       -1.21684741      -2.94700942       1.27628956
H        0.50813665       0.71244157       1.47260729
H        1.04164111      -0.46531303       0.28798657
H        4.51313798       0.43651772      -1.74606615
H        3.95709018       3.41664591       0.13320936
H        1.51290330      -0.69367253       3.06055931
H        3.19004872      -0.03581423       1.70591226
32
Properties=species:S:1:pos:R:3 relative_energy_eV=-0.013881911436328664 branch=right pbc="F F F"
O       -2.44076408       1.62600816      -3.38562703
C       -2.40422121       0.49648763      -2.94183343
C       -2.72358991       0.22896171      -1.49459515
O       -3.10326966       1.42277312      -0.85047760
C       -1.52091500      -0.42550507      -0.79867011
O       -1.34909520      -1.69418981      -1.39791403
C       -1.75217275      -0.48850691       0.71647979
O       -2.91824866      -1.24529379       1.03834468
C       -0.60274835      -1.12924845       1.48620495
O       -0.41170331      -2.48973178       1.09692298
C        0.68885599      -0.37764928       1.26753255
O        1.76061387      -0.83418985       2.10224742
P        3.82903328       1.29129670       0.10582512
O        2.48961035       1.35341707      -0.53468006
O        4.97506663       0.64490135      -0.83479587
O        4.43805650       2.73131514       0.50911778
O        3.99787398       0.49217988       1.46177204
H       -2.12288659      -0.37046831      -3.55929758
H       -3.54192515      -0.50407673      -1.46634475
H       -3.03672757       2.10813572      -1.54001560
H       -0.64738896       0.21567323      -0.97268245
H       -0.82466367      -2.23129271      -0.78005902
H       -1.85942958       0.54231016       1.06178099
H       -3.68627994      -0.67357526       0.92421822
H       -0.85810144      -1.09038188       2.55408990
H       -1.23623830      -2.95135408       1.30197786
H        0.52454676       0.69184086       1.42025245
H        1.04478416      -0.51369036       0.25492933
H        4.60470883       0.44109431      -1.70050838
H        3.88751408       3.43298043       0.14338373
H        1.52225376      -0.70289786       3.02907652
H        3.19056326      -0.02625985       1.71000813
32
Properties=species:S:1:pos:R:3 relative_energy_eV=-0.016340736401616596 branch=right pbc="F F F"
O       -2.43206717       1.63190343      -3.37767081
C       -2.40599779       0.49930398      -2.94109453
C       -2.72430442       0.22825557      -1.49460525
O       -3.10085050       1.42090890      -0.84698330
C       -1.52292040      -0.42789137      -0.79803260
O       -1.35912324      -1.70048256      -1.39140110
C       -1.74950917      -0.47641707       0.71844188
O       -2.92583503      -1.21103301       1.05260184
C       -0.60568412      -1.12685045       1.48825056
O       -0.45619776      -2.49982302       1.12725644
C        0.70284804      -0.41721719       1.23212968
O        1.75929068      -0.84269052       2.10447051
P        3.84019007       1.27632484       0.10014791
O        2.51554732       1.28766899      -0.57380861
O        5.04636232       0.72916910      -0.82500742
O        4.35867886       2.73368809       0.56663706
O        4.01559799       0.43179709       1.42748857
H       -2.13723329      -0.36694990      -3.56591997
H       -3.54282673      -0.50444602      -1.46813273
H       -3.03279737       2.10814618      -1.53447428
H       -0.64728332       0.20934972      -0.97791539
H       -0.86502534      -2.24995214      -0.75957343
H       -1.83747486       0.55992653       1.05304581
H       -3.68520816      -0.63255808       0.91865057
H       -0.84134836      -1.05651402       2.55892725
H       -1.28429466      -2.93864983       1.36500535
H        0.56076465       0.66281062       1.31328558
H        1.06200722      -0.62719341       0.23299418
H        4.71695036       0.54148182      -1.71129219
H        3.75446956       3.41351846       0.24736102
H        1.53494669      -0.60591574       3.01422738
H        3.20143868      -0.07860727       1.67165229
