17
Properties=species:S:1:pos:R:3 relative_energy_eV=0.0 branch=left pbc="F F F"
O       -1.42517018      -2.19303071       0.02156793
C       -2.05610230      -1.24455137      -0.37923301
C       -1.84258139       0.18951704       0.07455824
O       -2.12713632       1.09513146      -0.97581594
C       -0.47117037       0.41085739       0.66628691
O        0.44377596       0.37732432      -0.45189492
P        2.02119552       0.14533332      -0.24049138
O        2.76880103       0.16340123      -1.51175314
O        2.11229230      -1.19038140       0.65643371
O        2.43175867       1.25428935       0.85967230
H       -2.88161181      -1.35007360      -1.10900513
H       -2.59335027       0.37740460       0.85267117
H       -1.34178155       1.11181575      -1.54213266
H       -0.41270875       1.38851350       1.13760366
H       -0.21887741      -0.36493514       1.38184864
H        2.40746860      -1.94554986       0.13150733
H        3.08951909       1.85844758       0.49250924
17
Properties=species:S:1:pos:R:3 relative_energy_eV=0.00012412286378093995 branch=left pbc="F F F"
O       -1.42354839      -2.19210085       0.01980596
C       -2.05683768      -1.24458140      -0.37867149
C       -1.84240972       0.18945464       0.07525583
O       -2.12826198       1.09294369      -0.97600697
C       -0.47070850       0.41103282       0.66485784
O        0.44328132       0.37560823      -0.45403307
P        2.02057003       0.14432905      -0.24061099
O        2.77043858       0.16048159      -1.51045358
O        2.11126818      -1.19100908       0.65656134
O        2.42994244       1.25299660       0.86030085
H       -2.88407069      -1.35064476      -1.10652507
H       -2.59237874       0.37890228       0.85332625
H       -1.34230329       1.11577727      -1.54149356
H       -0.41134730       1.38894379       1.13536431
H       -0.21833851      -0.36419593       1.38051600
H        2.41183608      -1.94334259       0.13088009
H        3.08718898       1.85891809       0.49525917
17
Properties=species:S:1:pos:R:3 relative_energy_eV=0.00039731724609737284 branch=left pbc="F F F"
O       -1.42311686      -2.19111595       0.02061553
C       -2.05660801      -1.24401243      -0.37774159
C       -1.84219019       0.18982775       0.07608024
O       -2.13152057       1.09303322      -0.97441149
C       -0.46910198       0.41170925       0.66301524
O        0.44285865       0.37141007      -0.45796142
P        2.01986143       0.14297645      -0.24023249
O        2.77197519       0.15645386      -1.50886504
O        2.10847376      -1.19308095       0.65607688
O        2.42380176       1.25363868       0.86169425
H       -2.88196144      -1.34850000      -1.10875468
H       -2.59045451       0.37817926       0.85596742
H       -1.34652605       1.11811228      -1.54064493
H       -0.40586139       1.39126483       1.13066883
H       -0.21547353      -0.36304274       1.37928331
H        2.41735110      -1.94233641       0.13078601
H        3.08281346       1.85899628       0.49875684
17
Properties=species:S:1:pos:R:3 relative_energy_eV=0.0008450921704934444 branch=left pbc="F F F"
O       -1.43064851      -2.19323111       0.03034101
C       -2.05241650      -1.24272434      -0.37943682
C       -1.84160228       0.19054396       0.07644247
O       -2.13694310       1.09879447      -0.96895036
C       -0.46716630       0.41277885       0.66103514
O        0.44336812       0.36757506      -0.46016222
P        2.01970508       0.14008022      -0.24004073
O        2.77272038       0.15143411      -1.50788285
O        2.10802651      -1.19623380       0.65649457
O        2.41718689       1.25498657       0.85936185
H       -2.86837079      -1.34530225      -1.11944212
H       -2.58860241       0.37151800       0.85991770
H       -1.35490414       1.12187065      -1.53903268
H       -0.40177931       1.39382213       1.12453754
H       -0.21208625      -0.35956041       1.37984380
H        2.41940023      -1.94390932       0.12980842
H        3.07843314       1.86107065       0.50149813
17
Properties=species:S:1:pos:R:3 relative_energy_eV=0.001447996462957235 branch=left pbc="F F F"
O       -1.43738541      -2.19591158       0.04109220
C       -2.05034883      -1.24416507      -0.38059308
C       -1.84116200       0.18920125       0.07732232
O       -2.14055906       1.10141811      -0.96275720
C       -0.46684594       0.41274911       0.65797359
O        0.44332966       0.36491689      -0.46381233
P        2.02015017       0.13698221      -0.24334668
O        2.77992861       0.14832742      -1.50714967
O        2.10830876      -1.19822163       0.65533372
O        2.41175393       1.25368926       0.85580650
H       -2.85853770      -1.34694437      -1.12835229
H       -2.58546630       0.36937604       0.86263106
H       -1.35870577       1.13653585      -1.53277148
H       -0.40480204       1.39462107       1.11812112
H       -0.20936829      -0.35506477       1.37929428
H        2.42166863      -1.94736878       0.13215254
H        3.07236228       1.86337250       0.50338819
17
Properties=species:S:1:pos:R:3 relative_energy_eV=0.0019201787436031736 branch=left pbc="F F F"
O       -1.44279480      -2.19663848       0.05055612
C       -2.04944265      -1.24525108      -0.37998662
C       -1.84142225       0.18830583       0.07906703
O       -2.14215519       1.10253358      -0.95829191
C       -0.46620213       0.41271566       0.65715462
O        0.44265443       0.36397074      -0.46757215
P        2.02024589       0.13662797      -0.24631518
O        2.78378715       0.14900475      -1.50824329
O        2.10686771      -1.19764217       0.65392859
O        2.40834453       1.25326225       0.85471193
H       -2.84590624      -1.34651902      -1.14159434
H       -2.58367501       0.36752515       0.86651944
H       -1.36098643       1.14221172      -1.52886636
H       -0.40522163       1.39548484       1.11626209
H       -0.20764431      -0.35345780       1.38004866
H        2.41905907      -1.95086058       0.13604349
H        3.06881254       1.86224017       0.50091066
17
Properties=species:S:1:pos:R:3 relative_energy_eV=0.002381388629146386 branch=left pbc="F F F"
O       -1.45104209      -2.19703690       0.06179498
C       -2.04641763      -1.24438627      -0.38079923
C       -1.84146467       0.18870249       0.08100204
O       -2.14399153       1.10537307      -0.95423025
C       -0.46445847       0.41368962       0.65832194
O        0.44158857       0.36318431      -0.46883164
P        2.01926290       0.13726401      -0.24757807
O        2.78201872       0.15240206      -1.50974661
O        2.10529938      -1.19581576       0.65368122
O        2.40750009       1.25352703       0.85324959
H       -2.82704517      -1.34332652      -1.15992557
H       -2.58313950       0.36179266       0.87132409
H       -1.36477960       1.13837959      -1.52783336
H       -0.40238132       1.39744014       1.11749217
H       -0.20643274      -0.35349776       1.38173129
H        2.41150223      -1.95394841       0.13925589
H        3.06830157       1.85977030       0.49542431
17
Properties=species:S:1:pos:R:3 relative_energy_eV=0.0035877875307051 branch=left pbc="F F F"
O       -1.45822790      -2.19720402       0.06877946
C       -2.04453959      -1.24284351      -0.38527236
C       -1.84022455       0.18838898       0.08183046
O       -2.14872918       1.10645241      -0.94924884
C       -0.46430176       0.41569862       0.65811384
O        0.44000070       0.35520851      -0.46843057
P        2.01795818       0.13582404      -0.24699919
O        2.78200060       0.16237929      -1.50778488
O        2.10664743      -1.19624001       0.65488880
O        2.41032179       1.24894614       0.85450544
H       -2.82123589      -1.34158277      -1.16946772
H       -2.57941221       0.35542426       0.87357855
H       -1.37288711       1.13981156      -1.52626415
H       -0.39727966       1.40289894       1.10924184
H       -0.20548946      -0.35011100       1.38152421
H        2.41312443      -1.95666690       0.14383000
H        3.06659497       1.85712914       0.49150785
17
Properties=species:S:1:pos:R:3 relative_energy_eV=0.004334399483923335 branch=left pbc="F F F"
O       -1.46906380      -2.19973386       0.07672184
C       -2.04379256      -1.24401142      -0.38607215
C       -1.84117234       0.18673628       0.08143794
O       -2.15256344       1.10675242      -0.94621856
C       -0.46557470       0.41501987       0.65624304
O        0.44198848       0.35353883      -0.46853318
P        2.02056288       0.13567163      -0.24477361
O        2.77835900       0.16813115      -1.50971589
O        2.11095763      -1.19749274       0.65771905
O        2.41819692       1.24727077       0.85823365
H       -2.81049184      -1.34052327      -1.17850759
H       -2.57972622       0.34888187       0.87494818
H       -1.37763600       1.14756548      -1.52475965
H       -0.39660787       1.40319479       1.10226916
H       -0.20771290      -0.34555491       1.38508446
H        2.41077204      -1.95898514       0.14478713
H        3.06782552       1.85705197       0.48546889
17
Properties=species:S:1:pos:R:3 relative_energy_eV=0.0058733525656862184 branch=left pbc="F F F"
O       -1.47927252      -2.20369805       0.08358386
C       -2.04227346      -1.24389273      -0.38629043
C       -1.84255307       0.18701861       0.08383469
O       -2.15652845       1.11190435      -0.94172809
C       -0.46267218       0.41494915       0.65625896
O        0.44495425       0.35016607      -0.46647514
P        2.02346357       0.13602521      -0.24197395
O        2.77149986       0.16944501      -1.51219616
O        2.11678226      -1.19696822       0.65949078
O        2.42348039       1.24795023       0.85943491
H       -2.79043611      -1.33197593      -1.19710076
H       -2.58269077       0.34397780       0.88101934
H       -1.39030744       1.13887666      -1.53345767
H       -0.39661863       1.40396160       1.10165488
H       -0.20942112      -0.34028870       1.39412886
H        2.40517550      -1.96060146       0.14250069
H        3.07173875       1.85666416       0.48164794
17
Properties=species:S:1:pos:R:3 relative_energy_eV=0.00967170105650439 branch=left pbc="F F F"
O       -1.50866524      -2.21392953       0.10029690
C       -2.03521366      -1.24585898      -0.39169031
C       -1.84071034       0.18421368       0.09150532
O       -2.16100877       1.11330890      -0.92653940
C       -0.46546783       0.41593247       0.66949350
O        0.44433837       0.34680494      -0.44926153
P        2.02533976       0.13782366      -0.24205645
O        2.76215363       0.16161717      -1.51854385
O        2.13664641      -1.19111141       0.66159119
O        2.44210753       1.24665455       0.85437256
H       -2.74035661      -1.31832002      -1.24153215
H       -2.58260635       0.34639230       0.88128647
H       -1.42170333       1.12424846      -1.54877941
H       -0.40557182       1.40900303       1.10407949
H       -0.21301744      -0.33477149       1.41126150
H        2.38419833      -1.95979459       0.13305831
H        3.08385824       1.86130072       0.47579058
17
Properties=species:S:1:pos:R:3 relative_energy_eV=0.011015913823939627 branch=left pbc="F F F"
O       -1.51591403      -2.21630695       0.10375842
C       -2.03449687      -1.24490661      -0.39291929
C       -1.84099218       0.18441634       0.09201611
O       -2.16573946       1.11122090      -0.92468489
C       -0.46746591       0.41762372       0.67282352
O        0.44541548       0.34779002      -0.44666426
P        2.02824235       0.13704418      -0.24229994
O        2.76242864       0.15891611      -1.52158397
O        2.14474084      -1.19151359       0.66443838
O        2.44710060       1.24654137       0.85419010
H       -2.73287836      -1.31659729      -1.25029855
H       -2.58185775       0.34477615       0.88136862
H       -1.42725801       1.12331740      -1.54955190
H       -0.40883900       1.41318922       1.10436152
H       -0.21608593      -0.33428357       1.41505707
H        2.38149584      -1.96118881       0.12929982
H        3.08642462       1.86347531       0.47502194
17
Properties=species:S:1:pos:R:3 relative_energy_eV=0.013576991972513497 branch=left pbc="F F F"
O       -1.55127365      -2.21883949       0.14035115
C       -2.02335729      -1.24667888      -0.39714154
C       -1.84329078       0.18359603       0.09249438
O       -2.16461472       1.10971788      -0.92694480
C       -0.46861855       0.42069593       0.68240129
O        0.44656995       0.36850332      -0.43641586
P        2.02968385       0.14155082      -0.24546558
O        2.74593537       0.14863091      -1.53501231
O        2.14672576      -1.18413334       0.66712105
O        2.46154737       1.25505613       0.84043728
H       -2.66818363      -1.32204159      -1.29403828
H       -2.58841336       0.32955666       0.88298939
H       -1.41212641       1.12329888      -1.53655066
H       -0.41910259       1.40915984       1.13674979
H       -0.21988500      -0.34336467       1.41453649
H        2.33341040      -1.96124464       0.12343363
H        3.09931413       1.87005017       0.45538735
17
Properties=species:S:1:pos:R:3 relative_energy_eV=0.015729445232864236 branch=left pbc="F F F"
O       -1.56152477      -2.21583079       0.15606615
C       -2.01825308      -1.24654451      -0.40070917
C       -1.84292614       0.18262672       0.09431693
O       -2.15661105       1.11381977      -0.92344931
C       -0.46999955       0.42140055       0.68628071
O        0.44511674       0.37785633      -0.42943947
P        2.02653562       0.14506359      -0.24627892
O        2.73723987       0.14181963      -1.53789786
O        2.14572755      -1.17986526       0.66360320
O        2.46236571       1.26115548       0.83379532
H       -2.64262857      -1.32132706      -1.31351704
H       -2.59128693       0.32050844       0.88390708
H       -1.40957590       1.11361871      -1.53806869
H       -0.41763283       1.40298393       1.15112740
H       -0.22008815      -0.34305125       1.41361151
H        2.31345850      -1.96199346       0.12177805
H        3.10440379       1.87127315       0.44920699
17
Properties=species:S:1:pos:R:3 relative_energy_eV=0.017982997094804887 branch=left pbc="F F F"
O       -1.57080865      -2.21453557       0.16949870
C       -2.01208158      -1.24612933      -0.39956096
C       -1.84148097       0.18149244       0.09493364
O       -2.14771795       1.11431361      -0.91923555
C       -0.47381270       0.41840732       0.69087231
O        0.44000072       0.39253120      -0.42762411
P        2.02059995       0.14970638      -0.24836997
O        2.73017476       0.13771404      -1.54094697
O        2.14168504      -1.17564375       0.66218548
O        2.46399703       1.26635806       0.82988741
H       -2.61743399      -1.32124181      -1.32541835
H       -2.59275121       0.31487549       0.87944230
H       -1.40167008       1.11067522      -1.53478859
H       -0.41600366       1.39625335       1.15841438
H       -0.22069751      -0.34997780       1.41222285
H        2.29397833      -1.96275767       0.12202692
H        3.10834330       1.87147277       0.44079344
17
Properties=species:S:1:pos:R:3 relative_energy_eV=0.02312696509397938 branch=left pbc="F F F"
O       -1.60366517      -2.21906520       0.20979915
C       -1.99402343      -1.25145150      -0.39489392
C       -1.83982987       0.17864460       0.09573637
O       -2.13157745       1.11056180      -0.92167526
C       -0.47380634       0.40937771       0.70219745
O        0.42981348       0.42219035      -0.42635107
P        2.00872389       0.16021832      -0.25603940
O        2.70717240       0.13810315      -1.55440439
O        2.11314756      -1.16038271       0.66521613
O        2.47687710       1.27458675       0.81348006
H       -2.53262247      -1.33125084      -1.35751547
H       -2.60046284       0.31296159       0.86977464
H       -1.36157249       1.12337677      -1.51007584
H       -0.42762796       1.37912060       1.19043738
H       -0.21427299      -0.38085308       1.40288705
H        2.22847460      -1.95494891       0.12637874
H        3.11957277       1.87232451       0.40938154
17
Properties=species:S:1:pos:R:3 relative_energy_eV=0.025911572000040906 branch=left pbc="F F F"
O       -1.61395095      -2.22230427       0.22487324
C       -1.98748628      -1.25500559      -0.39514767
C       -1.83956303       0.17768722       0.09838445
O       -2.12504205       1.11015922      -0.92454214
C       -0.47236626       0.40733349       0.70631089
O        0.42890915       0.42580463      -0.42155646
P        2.00638956       0.16334961      -0.25896153
O        2.69808708       0.14048509      -1.56043760
O        2.09691442      -1.15292457       0.66566955
O        2.48059787       1.27636385       0.80541195
H       -2.50212281      -1.33637247      -1.37209883
H       -2.60452071       0.31634720       0.86868906
H       -1.34712862       1.12790740      -1.50195094
H       -0.43260661       1.37143966       1.20615143
H       -0.20829451      -0.38935901       1.39615913
H        2.20371850      -1.94872756       0.12910001
H        3.12278603       1.87133002       0.39827870
17
Properties=species:S:1:pos:R:3 relative_energy_eV=0.02709051522833761 branch=left pbc="F F F"
O       -1.61661135      -2.22420600       0.22601427
C       -1.98710246      -1.25652438      -0.39402242
C       -1.84175502       0.17739989       0.09983035
O       -2.12388493       1.10562638      -0.92633627
C       -0.47499900       0.40810872       0.70688739
O        0.42754415       0.42712165      -0.41921978
P        2.00521164       0.16483078      -0.26033396
O        2.69649713       0.14178322      -1.56266580
O        2.09125861      -1.15049265       0.66547991
O        2.48174447       1.27739610       0.80362786
H       -2.49010860      -1.33795287      -1.37713779
H       -2.60549929       0.32092759       0.87043624
H       -1.34117201       1.12785763      -1.49795947
H       -0.42968420       1.36793951       1.21390054
H       -0.20674095      -0.38919419       1.39080860
H        2.19554868      -1.94789014       0.13088715
H        3.12407390       1.87078267       0.39413644
17
Properties=species:S:1:pos:R:3 relative_energy_eV=0.029401663759927033 branch=left pbc="F F F"
O       -1.62649263      -2.22747092       0.23011202
C       -1.98836452      -1.26014237      -0.39217359
C       -1.84644799       0.17603344       0.09831181
O       -2.12701877       1.09421858      -0.93504683
C       -0.47810160       0.40882159       0.70576700
O        0.42311362       0.43570168      -0.42236493
P        2.00250545       0.16731500      -0.26120756
O        2.69421916       0.14282104      -1.56310694
O        2.09071942      -1.14925893       0.66548215
O        2.49157146       1.27820413       0.80153726
H       -2.47134012      -1.34555652      -1.38355764
H       -2.60584180       0.32611745       0.87191776
H       -1.32797861       1.13986537      -1.48132777
H       -0.42879504       1.36339321       1.22451013
H       -0.20772450      -0.39058182       1.38690128
H        2.18237111      -1.95042076       0.13310618
H        3.12792615       1.87445378       0.38547296
17
Properties=species:S:1:pos:R:3 relative_energy_eV=0.03289893905457575 branch=left pbc="F F F"
O       -1.63595419      -2.23260739       0.23978597
C       -1.98771489      -1.26472301      -0.39357998
C       -1.84794618       0.17413695       0.09864644
O       -2.13350355       1.08599693      -0.94493755
C       -0.47663703       0.40856736       0.70560172
O        0.42623313       0.44950847      -0.42196368
P        2.00439625       0.16871673      -0.26058450
O        2.69195828       0.14224530      -1.56311848
O        2.09514598      -1.14746908       0.66385386
O        2.49967930       1.27635176       0.79944088
H       -2.46330550      -1.35255771      -1.39032300
H       -2.60870536       0.32821558       0.87093640
H       -1.31775462       1.15668180      -1.46295626
H       -0.43048312       1.36246931       1.22357340
H       -0.21308024      -0.39646141       1.38709091
H        2.17336076      -1.95205797       0.13474457
H        3.12863180       1.87650035       0.37812259
17
Properties=species:S:1:pos:R:3 relative_energy_eV=0.0383605256138253 branch=left pbc="F F F"
O       -1.64794569      -2.23649059       0.25169374
C       -1.98936845      -1.27081337      -0.39067971
C       -1.84902535       0.16886049       0.09531622
O       -2.13485891       1.07593224      -0.95015322
C       -0.47971997       0.40906983       0.70408452
O        0.43603088       0.46227122      -0.41117592
P        2.01205914       0.16943532      -0.26156276
O        2.69201921       0.14017694      -1.56961174
O        2.10097620      -1.14498060       0.66347353
O        2.50815660       1.27375854       0.80034191
H       -2.45631154      -1.35793642      -1.39221536
H       -2.61194904       0.32283346       0.86617763
H       -1.30806627       1.18244169      -1.44316801
H       -0.43600391       1.36460466       1.21716956
H       -0.22308141      -0.40131913       1.37947578
H        2.16473926      -1.95098533       0.13550114
H        3.12667004       1.87665503       0.36966598
17
Properties=species:S:1:pos:R:3 relative_energy_eV=0.050288913127587875 branch=left pbc="F F F"
O       -1.67880144      -2.23603906       0.27873906
C       -1.99449071      -1.28184539      -0.38416635
C       -1.84656282       0.15837044       0.07629059
O       -2.12854673       1.06943652      -0.95772340
C       -0.48620293       0.40885353       0.69624390
O        0.44232765       0.46460396      -0.40363168
P        2.02120246       0.16937466      -0.26170894
O        2.68978678       0.13616449      -1.57693036
O        2.11491841      -1.14513523       0.66701564
O        2.53985638       1.26799412       0.80044033
H       -2.44577522      -1.38007002      -1.38665774
H       -2.61081841       0.29642908       0.85109889
H       -1.29099721       1.24941099      -1.40934443
H       -0.46860999       1.36520905       1.21699832
H       -0.23248243      -0.39999492       1.37020631
H        2.14919717      -1.94909275       0.13166396
H        3.13031977       1.88984459       0.35579918
17
Properties=species:S:1:pos:R:3 relative_energy_eV=0.060156148345413385 branch=left pbc="F F F"
O       -1.69798295      -2.23550726       0.30093159
C       -1.99362851      -1.28744793      -0.38794438
C       -1.84251798       0.15527592       0.06738081
O       -2.12681860       1.07479365      -0.96746098
C       -0.48730668       0.40618327       0.69396712
O        0.44242648       0.46037615      -0.40686135
P        2.02400195       0.16907431      -0.25867950
O        2.68477361       0.13439624      -1.57498055
O        2.12269727      -1.14600908       0.66744855
O        2.56303622       1.26345030       0.79580408
H       -2.44637223      -1.40210470      -1.38945067
H       -2.60753166       0.28152587       0.84107064
H       -1.28331185       1.29178625      -1.39051892
H       -0.49319547       1.35954844       1.21958914
H       -0.22946152      -0.39609999       1.37575500
H        2.14044088      -1.94816271       0.12851279
H        3.13507174       1.90243534       0.34976990
17
Properties=species:S:1:pos:R:3 relative_energy_eV=0.06864156689698575 branch=left pbc="F F F"
O       -1.70617849      -2.23160221       0.31084231
C       -1.99451081      -1.29114693      -0.39743817
C       -1.84169529       0.15511794       0.06330371
O       -2.12842368       1.07996148      -0.96982986
C       -0.48825539       0.39884495       0.69830938
O        0.44771359       0.46177859      -0.40049586
P        2.02676575       0.16952962      -0.25651455
O        2.68137490       0.13366443      -1.57779547
O        2.12106867      -1.14485006       0.66627882
O        2.57007028       1.26241509       0.79358146
H       -2.45228863      -1.42597103      -1.40041888
H       -2.60572951       0.28389822       0.83419760
H       -1.28442631       1.31101532      -1.38394480
H       -0.49518320       1.35244203       1.21709924
H       -0.21836049      -0.39162414       1.39155019
H        2.13676236      -1.94660754       0.12771295
H        3.13561696       1.90664829       0.34789519
17
Properties=species:S:1:pos:R:3 relative_energy_eV=0.09529265161472722 branch=left pbc="F F F"
O       -1.71705196      -2.21963168       0.30963386
C       -2.01058827      -1.29956535      -0.40586037
C       -1.84341387       0.14999650       0.04986143
O       -2.12560410       1.08602613      -0.96391648
C       -0.48197807       0.38841491       0.70332737
O        0.45401668       0.46730010      -0.38260875
P        2.03240973       0.17128961      -0.26322229
O        2.67634736       0.13248823      -1.58381994
O        2.11521995      -1.14450270       0.66828248
O        2.57539493       1.26440708       0.79670998
H       -2.45409858      -1.46682871      -1.40993539
H       -2.60562739       0.28923153       0.82121789
H       -1.28972848       1.33656627      -1.37936941
H       -0.48645974       1.34779531       1.21482211
H       -0.20188681      -0.38481993       1.41776041
H        2.13251529      -1.94448945       0.12657367
H        3.13485405       1.90983621       0.34487668
17
Properties=species:S:1:pos:R:3 relative_energy_eV=0.24889334875842906 branch=left pbc="F F F"
O       -1.74735736      -2.28214624       0.28998603
C       -2.03581889      -1.31135049      -0.40000606
C       -1.81608189       0.12863927       0.04402564
O       -2.10129149       1.12720038      -0.92659098
C       -0.47643961       0.41591267       0.71734976
O        0.46051983       0.48456349      -0.39131566
P        2.03286084       0.17408291      -0.26246203
O        2.66908430       0.13085093      -1.58585975
O        2.11295040      -1.14214173       0.66432580
O        2.57865964       1.26330284       0.79462578
H       -2.45872402      -1.54473356      -1.39927485
H       -2.63863232       0.27443233       0.77476164
H       -1.29209746       1.38500728      -1.39278741
H       -0.42359619       1.38345033       1.24233734
H       -0.22053898      -0.37102218       1.42387589
H        2.12831952      -1.94541526       0.12823662
H        3.13250442       1.91288109       0.34310550
17
Properties=species:S:1:pos:R:3 relative_energy_eV=0.5715707003946591 branch=left pbc="F F F"
O       -1.80263015      -2.32261575       0.29057602
C       -1.95007235      -1.40036807      -0.46240463
C       -1.82558999       0.11031956       0.05975040
O       -2.08540059       1.16036045      -0.89657524
C       -0.46131431       0.45113292       0.72715462
O        0.45590875       0.49686382      -0.39051588
P        2.02134498       0.17665590      -0.26192415
O        2.66766633       0.12984619      -1.58147199
O        2.11728081      -1.14114216       0.65966884
O        2.58333486       1.25942236       0.78946626
H       -2.48923191      -1.57176478      -1.36521710
H       -2.66880036       0.29849303       0.75268240
H       -1.29589322       1.41836265      -1.40416961
H       -0.37209044       1.40729532       1.26159705
H       -0.24931565      -0.35882911       1.41158444
H        2.12631259      -1.94799563       0.13064163
H        3.13281144       1.91747742       0.34349027
17
Properties=species:S:1:pos:R:3 relative_energy_eV=1.522773323184083 branch=left pbc="F F F"
O       -1.76798037      -2.49000160       0.30392838
C       -1.94636408      -1.52193827      -0.36271192
C       -1.80986751       0.37269330       0.07688056
O       -2.09504358       1.24840298      -0.89889118
C       -0.48106043       0.52420966       0.72244179
O        0.44394160       0.50612292      -0.39867892
P        2.02809177       0.17399727      -0.27875890
O        2.69751450       0.12407260      -1.59552173
O        2.12190759      -1.13558131       0.66231329
O        2.58820287       1.25151893       0.78858033
H       -2.59761092      -1.57681500      -1.36338043
H       -2.70642624       0.11809354       0.64934857
H       -1.26196311       1.41409761      -1.37172614
H       -0.24410533       1.43781998       1.30199493
H       -0.31362426      -0.33570696       1.35150964
H        2.12249933      -1.94655892       0.13178981
H        3.12620854       1.91908705       0.34521516
17
Properties=species:S:1:pos:R:3 relative_energy_eV=2.385561983122898 branch=left pbc="F F F"
O       -1.73699323      -2.49574408       0.28106918
C       -2.03197114      -1.57057799      -0.30808961
C       -1.79311635       0.46717476       0.11380346
O       -2.08378211       1.28556347      -0.93759624
C       -0.50960277       0.54796652       0.72472072
O        0.46472736       0.50280941      -0.41790419
P        2.03297385       0.17201749      -0.28248464
O        2.70539594       0.12258934      -1.59978400
O        2.12015235      -1.13084066       0.66064136
O        2.58649082       1.24889074       0.78691977
H       -2.59497628      -1.56710549      -1.33328725
H       -2.69880336       0.01399286       0.59788506
H       -1.26389592       1.40109362      -1.34642274
H       -0.20639587       1.44440819       1.31491727
H       -0.32996295      -0.33159264       1.33171066
H        2.12151547      -1.94429992       0.13225700
H        3.12256439       1.91716805       0.34597740
17
Properties=species:S:1:pos:R:3 relative_energy_eV=3.024545131556806 branch=left pbc="F F F"
O       -1.71119020      -2.51377877       0.28821478
C       -2.15418459      -1.56949586      -0.28394062
C       -1.85986953       0.60192605       0.21287435
O       -2.08860459       1.28024511      -0.93924813
C       -0.48078935       0.56837132       0.72285825
O        0.46901472       0.50225455      -0.43651419
P        2.04035294       0.17101024      -0.28456962
O        2.70710520       0.12205716      -1.59983395
O        2.11569228      -1.13161599       0.65859527
O        2.58230564       1.24842986       0.78664417
H       -2.56541993      -1.55642902      -1.30575048
H       -2.63945364      -0.13604497       0.49787366
H       -1.21641056       1.41223166      -1.36907705
H       -0.19416316       1.43948250       1.31674289
H       -0.34296214      -0.32994521       1.32002312
H        2.12191031      -1.94141275       0.13361118
H        3.12098677       1.91622775       0.34582956
17
Properties=species:S:1:pos:R:3 relative_energy_eV=3.223955248009588 branch=ts pbc="F F F"
O       -1.70000324      -2.51014794       0.28783869
C       -2.19876035      -1.58312683      -0.26347207
C       -1.85668408       0.66434829       0.23467808
O       -2.06968469       1.27676722      -0.93578669
C       -0.48160897       0.57045885       0.71799544
O        0.46926337       0.50347612      -0.44734797
P        2.03686496       0.17155717      -0.28597752
O        2.70759290       0.12190865      -1.59936285
O        2.11389611      -1.13179289       0.65902050
O        2.58085442       1.24890855       0.78685749
H       -2.50149595      -1.52956377      -1.32812670
H       -2.60504836      -0.29546368       0.42698190
H       -1.19823500       1.40956322      -1.36451532
H       -0.19625819       1.43807036       1.31838057
H       -0.34466915      -0.32992808       1.31325156
H        2.12435925      -1.94194881       0.13366345
H        3.11963123       1.91692267       0.34590657
17
Properties=species:S:1:pos:R:3 relative_energy_eV=3.1939159116554947 branch=right pbc="F F F"
O       -1.69188413      -2.50762802       0.29307806
C       -2.22353037      -1.59119539      -0.26720214
C       -1.86129731       0.67689686       0.23909416
O       -2.05733414       1.27576665      -0.93000335
C       -0.47896617       0.57180895       0.71423895
O        0.46550621       0.50512908      -0.45161570
P        2.03506495       0.17175566      -0.28610541
O        2.70762815       0.12189500      -1.59893105
O        2.11259224      -1.13206834       0.65867726
O        2.58015220       1.24926039       0.78683378
H       -2.44134444      -1.50264933      -1.34330040
H       -2.56877092      -0.41126035       0.37151167
H       -1.18272086       1.40542088      -1.35807278
H       -0.19946093       1.43780959       1.31986465
H       -0.34541188      -0.32996838       1.30748425
H        2.12685480      -1.94224871       0.13410617
H        3.11863097       1.91778005       0.34597896
17
Properties=species:S:1:pos:R:3 relative_energy_eV=3.1538851703735418 branch=right pbc="F F F"
O       -1.67846614      -2.46367276       0.30449370
C       -2.28278645      -1.59558313      -0.26363379
C       -1.85960548       0.66836870       0.23688044
O       -2.02776008       1.28101515      -0.90687882
C       -0.46316966       0.57212077       0.70434603
O        0.44301103       0.51397705      -0.46011088
P        2.02409816       0.17392944      -0.28781936
O        2.70544408       0.12223021      -1.59594606
O        2.10530024      -1.13092436       0.65608993
O        2.57621734       1.25054511       0.78583461
H       -2.42829450      -1.49836408      -1.33381323
H       -2.54967131      -0.46629607       0.34244995
H       -1.16440429       1.39988743      -1.35118454
H       -0.20322433       1.44141722       1.32054423
H       -0.34667074      -0.32692577       1.30419165
H        2.12739522      -1.94334863       0.13437706
H        3.11829528       1.91812830       0.34581617
17
Properties=species:S:1:pos:R:3 relative_energy_eV=3.1049584625106945 branch=right pbc="F F F"
O       -1.67484120      -2.44045472       0.31429430
C       -2.30284667      -1.59526162      -0.24832143
C       -1.84390326       0.68965525       0.24629252
O       -2.02271901       1.29076710      -0.90391049
C       -0.46271190       0.57100059       0.70924881
O        0.44680845       0.51881882      -0.46388967
P        2.01971707       0.17679673      -0.29082269
O        2.70026955       0.12353438      -1.59757515
O        2.09432219      -1.12779779       0.65322275
O        2.56776910       1.25192358       0.78292719
H       -2.43086228      -1.50198667      -1.34100287
H       -2.55074490      -0.52107436       0.31649166
H       -1.13847164       1.39277703      -1.34167994
H       -0.20467790       1.44289540       1.31841740
H       -0.34386065      -0.32906624       1.30218353
H        2.12696111      -1.94195036       0.13410661
H        3.11550031       1.91592745       0.34565458
17
Properties=species:S:1:pos:R:3 relative_energy_eV=3.089257192426885 branch=right pbc="F F F"
O       -1.67826381      -2.44954397       0.31907694
C       -2.28611553      -1.58756139      -0.25112675
C       -1.85014215       0.71387837       0.25351431
O       -2.01449759       1.29518895      -0.90721249
C       -0.45947759       0.57179006       0.71097112
O        0.45135906       0.52157574      -0.45934242
P        2.02310150       0.17697097      -0.29299070
O        2.69816269       0.12461754      -1.60344899
O        2.08676741      -1.12641153       0.65204359
O        2.56184482       1.25435501       0.78192921
H       -2.44405554      -1.51590765      -1.34162033
H       -2.56287952      -0.53793518       0.30788043
H       -1.12602636       1.38892668      -1.33580925
H       -0.20122528       1.44466069       1.32016810
H       -0.34226672      -0.33295844       1.30300223
H        2.12598773      -1.93984845       0.13319652
H        3.11343526       1.91470712       0.34540560
17
Properties=species:S:1:pos:R:3 relative_energy_eV=3.080749161705171 branch=right pbc="F F F"
O       -1.68329131      -2.45433825       0.31895838
C       -2.27326771      -1.58561544      -0.25552860
C       -1.85810055       0.72073291       0.25724786
O       -2.00143281       1.29880979      -0.90422562
C       -0.45573979       0.57411667       0.71002593
O        0.44345704       0.52570107      -0.45550992
P        2.02186494       0.17789377      -0.29498585
O        2.69683652       0.12528991      -1.60587126
O        2.08196086      -1.12622495       0.65054057
O        2.55893287       1.25672079       0.78079506
H       -2.45396178      -1.53089746      -1.33729619
H       -2.56682999      -0.54088217       0.30148299
H       -1.11229631       1.38538517      -1.33305219
H       -0.19685075       1.44540196       1.32384225
H       -0.34368102      -0.33197261       1.30216578
H        2.12506424      -1.93947844       0.13183147
H        3.11304396       1.91586179       0.34521644
17
Properties=species:S:1:pos:R:3 relative_energy_eV=3.070943692673609 branch=right pbc="F F F"
O       -1.68575015      -2.45523237       0.32013136
C       -2.27157091      -1.58855392      -0.25623977
C       -1.85397397       0.71991842       0.25773703
O       -1.97928661       1.30792730      -0.89658005
C       -0.45825597       0.57949769       0.71508046
O        0.42742976       0.53300481      -0.45550098
P        2.00929261       0.18225737      -0.29795081
O        2.69089629       0.12674537      -1.60398389
O        2.07407305      -1.12481193       0.64514726
O        2.55474249       1.26000470       0.77604390
H       -2.46628061      -1.55560555      -1.33624582
H       -2.56088862      -0.54154122       0.28771381
H       -1.08228870       1.37488010      -1.32372317
H       -0.19008181       1.44476838       1.33112199
H       -0.34852676      -0.32629582       1.29934356
H        2.12309071      -1.93995042       0.12868948
H        3.11308762       1.91949154       0.34485272
17
Properties=species:S:1:pos:R:3 relative_energy_eV=3.063265643086197 branch=right pbc="F F F"
O       -1.68620732      -2.46198040       0.32525386
C       -2.26948048      -1.59476927      -0.25882999
C       -1.84702460       0.72623435       0.25552891
O       -1.95614010       1.32022668      -0.89638885
C       -0.46237431       0.58461193       0.72539225
O        0.41862417       0.53995209      -0.45456786
P        1.99784178       0.18722908      -0.30177464
O        2.67979663       0.12968254      -1.60502361
O        2.06143177      -1.12157796       0.63837044
O        2.54639014       1.26480620       0.77027142
H       -2.48315675      -1.58529056      -1.33935502
H       -2.55302105      -0.53627160       0.27337480
H       -1.04544052       1.35932024      -1.30664681
H       -0.18226354       1.44536701       1.34220083
H       -0.35395581      -0.32544536       1.30053218
H        2.11952269      -1.93743451       0.12379933
H        3.11116570       1.92184391       0.34349985
17
Properties=species:S:1:pos:R:3 relative_energy_eV=3.0556438937455823 branch=right pbc="F F F"
O       -1.68378956      -2.46152921       0.33440642
C       -2.27889247      -1.60929205      -0.26188060
C       -1.84685669       0.73823277       0.25113960
O       -1.92818100       1.32829986      -0.90430255
C       -0.46117640       0.58453230       0.73534739
O        0.41691834       0.54585502      -0.44740908
P        1.99372043       0.19134828      -0.30554720
O        2.66380982       0.13505255      -1.61711139
O        2.04357231      -1.11675551       0.63358175
O        2.53236829       1.27190926       0.76667672
H       -2.49613585      -1.60836362      -1.34135685
H       -2.53782128      -0.53043387       0.25780644
H       -1.00202375       1.34270644      -1.28600851
H       -0.17953416       1.44546497       1.35616845
H       -0.35916292      -0.33211468       1.30854556
H        2.11352247      -1.92897259       0.11595449
H        3.10537079       1.92056433       0.33962643
17
Properties=species:S:1:pos:R:3 relative_energy_eV=3.0531362002002425 branch=right pbc="F F F"
O       -1.68407985      -2.45783713       0.33694644
C       -2.28336760      -1.61114964      -0.25987946
C       -1.84803141       0.74071847       0.25000219
O       -1.91396871       1.32326009      -0.90831185
C       -0.46243696       0.58173702       0.73780986
O        0.41326349       0.54716707      -0.44026835
P        1.99238866       0.19282483      -0.30742525
O        2.65659670       0.13816053      -1.62295918
O        2.03998585      -1.11522850       0.63248960
O        2.52857572       1.27432519       0.76558573
H       -2.49697794      -1.61126369      -1.33948103
H       -2.53162128      -0.52853612       0.25294213
H       -0.98268080       1.33970636      -1.28262294
H       -0.18390702       1.44045768       1.36056039
H       -0.36107437      -0.33343409       1.31159087
H        2.11026104      -1.92517610       0.11147177
H        3.10278286       1.92077227       0.33718612
17
Properties=species:S:1:pos:R:3 relative_energy_eV=3.049564378343348 branch=right pbc="F F F"
O       -1.68719477      -2.45566571       0.34043182
C       -2.28190635      -1.60532353      -0.25583147
C       -1.84642218       0.74366204       0.24535978
O       -1.89427504       1.31062838      -0.91965308
C       -0.46810317       0.57673491       0.74311381
O        0.40750245       0.54700643      -0.43011375
P        1.98721625       0.19556257      -0.30864996
O        2.64373854       0.14383545      -1.62811443
O        2.04140392      -1.11329132       0.62897036
O        2.52711808       1.27639278       0.76218237
H       -2.49689202      -1.61131344      -1.33521926
H       -2.52808635      -0.52436238       0.24989515
H       -0.95435446       1.33601717      -1.27871089
H       -0.19409457       1.43066295       1.36876885
H       -0.36426644      -0.33651342       1.31615309
H        2.10467493      -1.92128470       0.10399846
H        3.09964956       1.92375604       0.33305608
17
Properties=species:S:1:pos:R:3 relative_energy_eV=3.046333148959093 branch=right pbc="F F F"
O       -1.69147246      -2.45476546       0.34412599
C       -2.27535995      -1.59553613      -0.25288684
C       -1.84494068       0.74401478       0.23688239
O       -1.88490783       1.29826857      -0.93469740
C       -0.47293925       0.57234115       0.74737313
O        0.40648517       0.54382437      -0.42464644
P        1.98451263       0.19721219      -0.30736989
O        2.63227456       0.14927500      -1.62992469
O        2.05050999      -1.11316346       0.62557444
O        2.53105595       1.27662849       0.75994025
H       -2.49295728      -1.60177536      -1.33118733
H       -2.53241881      -0.52176749       0.25393298
H       -0.93909226       1.33263899      -1.27695046
H       -0.20525644       1.42485546       1.37821917
H       -0.36762920      -0.34299346       1.32000280
H        2.10012674      -1.92072037       0.09825507
H        3.09771748       1.92816693       0.32899372
17
Properties=species:S:1:pos:R:3 relative_energy_eV=3.0441987293925195 branch=right pbc="F F F"
O       -1.69384896      -2.45159731       0.34912350
C       -2.27363007      -1.59264335      -0.25224549
C       -1.84617321       0.74210691       0.22958662
O       -1.88004138       1.29500619      -0.94285929
C       -0.47430929       0.57191533       0.74995537
O        0.40724741       0.54212552      -0.42193946
P        1.98623656       0.19778009      -0.30603122
O        2.62461999       0.15366579      -1.63285370
O        2.05891758      -1.11462702       0.62357908
O        2.53565910       1.27717262       0.76029359
H       -2.48886633      -1.59277533      -1.33043174
H       -2.53861263      -0.52317253       0.25740698
H       -0.93073411       1.32515482      -1.27579508
H       -0.21133160       1.42502922       1.38727886
H       -0.37282349      -0.34833568       1.32004241
H        2.09733219      -1.92229807       0.09499103
H        3.09606658       1.93199700       0.32553540
17
Properties=species:S:1:pos:R:3 relative_energy_eV=3.041011519082531 branch=right pbc="F F F"
O       -1.69685116      -2.44387949       0.35818240
C       -2.27837734      -1.59224702      -0.25055337
C       -1.84892340       0.74004397       0.22383723
O       -1.86742674       1.29254861      -0.94771693
C       -0.47894389       0.57363848       0.75420828
O        0.40985060       0.54298107      -0.40822616
P        1.99236847       0.19838256      -0.30557216
O        2.61331478       0.16294281      -1.64210850
O        2.07552488      -1.11748800       0.62021182
O        2.54615985       1.27658067       0.76143674
H       -2.47923484      -1.58216671      -1.33278164
H       -2.55233694      -0.52475484       0.26047683
H       -0.91437484       1.30459525      -1.27848173
H       -0.22073335       1.42243240       1.40003897
H       -0.38788012      -0.35126727       1.31382784
H        2.09248469      -1.92548930       0.08993620
H        3.09108764       1.93965103       0.31892099
17
Properties=species:S:1:pos:R:3 relative_energy_eV=3.0394123830483295 branch=right pbc="F F F"
O       -1.69934930      -2.44169764       0.35972245
C       -2.28216532      -1.58965656      -0.24881536
C       -1.84809778       0.74358282       0.22419798
O       -1.86135243       1.28952186      -0.95005749
C       -0.48198016       0.57299954       0.75676297
O        0.41310536       0.54532155      -0.39787819
P        1.99468699       0.19905115      -0.30566214
O        2.60788234       0.16853843      -1.64569883
O        2.08650300      -1.11758156       0.61700908
O        2.55476814       1.27323111       0.76028653
H       -2.47206168      -1.58219442      -1.33375305
H       -2.56106304      -0.52018935       0.26087676
H       -0.90822086       1.29180068      -1.28169472
H       -0.22610916       1.41794115       1.40450262
H       -0.39800629      -0.35266187       1.31238598
H        2.08988626      -1.92621021       0.08771183
H        3.08728219       1.94470754       0.31574041
17
Properties=species:S:1:pos:R:3 relative_energy_eV=3.0383603778282122 branch=right pbc="F F F"
O       -1.70232145      -2.44013336       0.35968995
C       -2.28515096      -1.58656015      -0.24778583
C       -1.84740448       0.74836153       0.22386344
O       -1.85761639       1.28768696      -0.95362515
C       -0.48231152       0.57109255       0.75933967
O        0.41455059       0.54768342      -0.39320219
P        1.99570721       0.20023027      -0.30564298
O        2.60331237       0.17264107      -1.64764554
O        2.09384319      -1.11695795       0.61410715
O        2.56260288       1.27014042       0.75948933
H       -2.46720612      -1.58629465      -1.33313778
H       -2.56614346      -0.51508898       0.25873843
H       -0.90388172       1.28196675      -1.28296373
H       -0.22902806       1.41533844       1.40934594
H       -0.40528052      -0.35680426       1.31556013
H        2.08797378      -1.92595729       0.08592669
H        3.08406289       1.94915940       0.31357932
17
Properties=species:S:1:pos:R:3 relative_energy_eV=3.0378683375383844 branch=right pbc="F F F"
O       -1.70424812      -2.43787605       0.36085183
C       -2.28663274      -1.58576204      -0.24802695
C       -1.84828798       0.74894044       0.22314585
O       -1.85760901       1.28815013      -0.95431229
C       -0.48184227       0.57016345       0.76064757
O        0.41416655       0.54765028      -0.39404784
P        1.99716929       0.20085907      -0.30564899
O        2.60221740       0.17387261      -1.64906165
O        2.09585668      -1.11696389       0.61386374
O        2.56724435       1.26901205       0.76082854
H       -2.46606587      -1.58815124      -1.33294686
H       -2.56703277      -0.51408592       0.25605391
H       -0.90393920       1.27899173      -1.28441985
H       -0.22867632       1.41511866       1.41225047
H       -0.40696649      -0.35915356       1.31819902
H        2.08765233      -1.92587229       0.08530799
H        3.08270241       1.95161072       0.31295241
17
Properties=species:S:1:pos:R:3 relative_energy_eV=3.037409788248624 branch=right pbc="F F F"
O       -1.70767631      -2.43435504       0.36538876
C       -2.28797802      -1.58512346      -0.24889804
C       -1.84867076       0.74909252       0.22270240
O       -1.85569994       1.28866260      -0.95448235
C       -0.48305151       0.56894117       0.76306906
O        0.41406634       0.54622085      -0.39242521
P        1.99889920       0.20185926      -0.30607674
O        2.60017426       0.17612247      -1.65173053
O        2.09769999      -1.11653665       0.61336390
O        2.57408265       1.26709448       0.76209115
H       -2.46637725      -1.59152680      -1.33407271
H       -2.56767524      -0.51236811       0.25055138
H       -0.90244217       1.27529659      -1.28716303
H       -0.22792639       1.41232931       1.41614997
H       -0.40860274      -0.36025361       1.32091621
H        2.08699042      -1.92488842       0.08391932
H        3.07989568       1.95593692       0.31233338
17
Properties=species:S:1:pos:R:3 relative_energy_eV=3.0370250238593144 branch=right pbc="F F F"
O       -1.71216616      -2.43114217       0.37226667
C       -2.28805565      -1.58407039      -0.24996365
C       -1.84702245       0.74920114       0.22129910
O       -1.85234560       1.28839789      -0.95614131
C       -0.48377530       0.56708544       0.76467463
O        0.41533551       0.54398299      -0.38764145
P        1.99950345       0.20247143      -0.30610353
O        2.59651040       0.17916501      -1.65335491
O        2.09979108      -1.11571911       0.61200304
O        2.57992075       1.26465261       0.76096303
H       -2.46769098      -1.59499009      -1.33562616
H       -2.56841395      -0.50987112       0.24505095
H       -0.89939782       1.27284283      -1.28839326
H       -0.22854048       1.40782723       1.41972311
H       -0.40975254      -0.36106613       1.32286233
H        2.08595407      -1.92338988       0.08186935
H        3.07585384       1.96112635       0.31214899
17
Properties=species:S:1:pos:R:3 relative_energy_eV=3.036900516879541 branch=right pbc="F F F"
O       -1.71426982      -2.43010697       0.37486809
C       -2.28855279      -1.58383737      -0.24996075
C       -1.84592695       0.74868442       0.22030837
O       -1.85132241       1.28889176      -0.95661448
C       -0.48255021       0.56624887       0.76408279
O        0.41633587       0.54405760      -0.38653439
P        1.99996553       0.20203839      -0.30572831
O        2.59515131       0.18001484      -1.65350816
O        2.10121698      -1.11631820       0.61170321
O        2.58036148       1.26429919       0.76037492
H       -2.46769417      -1.59651246      -1.33565743
H       -2.56887452      -0.50917767       0.24396223
H       -0.89812856       1.27380017      -1.28745222
H       -0.22946317       1.40724580       1.41997164
H       -0.40993922      -0.36228666       1.32232238
H        2.08580373      -1.92367351       0.08116746
H        3.07359513       1.96313585       0.31233156
17
Properties=species:S:1:pos:R:3 relative_energy_eV=3.036667413318355 branch=right pbc="F F F"
O       -1.71963480      -2.42781196       0.38073810
C       -2.29067343      -1.58359678      -0.24956110
C       -1.84412453       0.74756793       0.21905006
O       -1.84911069       1.29089912      -0.95621177
C       -0.48098349       0.56438480       0.76342498
O        0.41827898       0.54468422      -0.38611324
P        2.00193130       0.20131554      -0.30535176
O        2.59339160       0.18114549      -1.65481967
O        2.10467978      -1.11801860       0.61134051
O        2.58185789       1.26376570       0.76099662
H       -2.46743595      -1.60174125      -1.33547036
H       -2.56979113      -0.50731738       0.24058242
H       -0.89549662       1.27722586      -1.28605443
H       -0.23063663       1.40616568       1.41989307
H       -0.40990443      -0.36527052       1.32062483
H        2.08586496      -1.92487709       0.07980109
H        3.06749542       1.96798323       0.31276747
17
Properties=species:S:1:pos:R:3 relative_energy_eV=3.036450313142268 branch=right pbc="F F F"
O       -1.72489944      -2.42647026       0.38645723
C       -2.29294081      -1.58379607      -0.24866573
C       -1.84307553       0.74727860       0.21847307
O       -1.84691539       1.29327441      -0.95541705
C       -0.48119054       0.56271663       0.76337136
O        0.41971608       0.54492343      -0.38674962
P        2.00380313       0.20118230      -0.30566324
O        2.59335017       0.18127385      -1.65628463
O        2.10812894      -1.11903505       0.61041424
O        2.58354754       1.26293297       0.76270332
H       -2.46693853      -1.60730943      -1.33500765
H       -2.57078144      -0.50521879       0.23700590
H       -0.89296245       1.28167736      -1.28510872
H       -0.23091856       1.40455121       1.41948433
H       -0.40912498      -0.36782459       1.31845783
H        2.08617979      -1.92599703       0.07885485
H        3.06073031       1.97234442       0.31331134
17
Properties=species:S:1:pos:R:3 relative_energy_eV=3.0362299722110038 branch=right pbc="F F F"
O       -1.72920665      -2.42650445       0.39180230
C       -2.29493357      -1.58472372      -0.24698824
C       -1.84302845       0.74814664       0.21742310
O       -1.84511891       1.29582826      -0.95576944
C       -0.48212620       0.56140857       0.76300594
O        0.42037507       0.54419104      -0.38741652
P        2.00478529       0.20140775      -0.30663524
O        2.59523349       0.18072217      -1.65692981
O        2.11178158      -1.11878040       0.60846149
O        2.58485934       1.26111807       0.76404602
H       -2.46539232      -1.61062587      -1.33397851
H       -2.57240862      -0.50336781       0.23461381
H       -0.89056676       1.28625792      -1.28388373
H       -0.23072916       1.40218061       1.41961728
H       -0.40805405      -0.36987321       1.31581927
H        2.08652756      -1.92652949       0.07840576
H        3.05371072       1.97564782       0.31404333
17
Properties=species:S:1:pos:R:3 relative_energy_eV=3.0360092010741937 branch=right pbc="F F F"
O       -1.73400099      -2.42647338       0.39848733
C       -2.29711325      -1.58604582      -0.24439195
C       -1.84290682       0.74915326       0.21487704
O       -1.84356658       1.29956434      -0.95716274
C       -0.48122642       0.55979800       0.76098990
O        0.42094193       0.54275478      -0.38823284
P        2.00574551       0.20065352      -0.30792805
O        2.59813464       0.18123797      -1.65710453
O        2.11563357      -1.11870868       0.60688284
O        2.58576002       1.25829525       0.76358590
H       -2.46214217      -1.61234559      -1.33203195
H       -2.57473736      -0.50152722       0.23261267
H       -0.88804599       1.29066790      -1.28194248
H       -0.23024860       1.39855451       1.42105823
H       -0.40809448      -0.37243843       1.31276664
H        2.08675220      -1.92652886       0.07758104
H        3.04482324       1.97989225       0.31558981
17
Properties=species:S:1:pos:R:3 relative_energy_eV=3.0358995299829985 branch=right pbc="F F F"
O       -1.73662317      -2.42610586       0.40199166
C       -2.29770885      -1.58594785      -0.24286012
C       -1.84206417       0.74950444       0.21403353
O       -1.84260891       1.30173795      -0.95706542
C       -0.48040435       0.55873154       0.75972540
O        0.42153851       0.54188537      -0.38981605
P        2.00673951       0.19974023      -0.30868130
O        2.59971112       0.18244543      -1.65771871
O        2.11582446      -1.11947988       0.60722429
O        2.58566211       1.25730259       0.76306447
H       -2.45988074      -1.61353994      -1.33064925
H       -2.57546677      -0.50025668       0.23139556
H       -0.88699425       1.29204053      -1.28184735
H       -0.22900816       1.39577046       1.42201437
H       -0.40959482      -0.37377796       1.31139941
H        2.08671590      -1.92653186       0.07668142
H        3.03987108       1.98298524       0.31674501
17
Properties=species:S:1:pos:R:3 relative_energy_eV=3.035775717245997 branch=right pbc="F F F"
O       -1.73940760      -2.42594901       0.40605479
C       -2.29767219      -1.58527470      -0.24082416
C       -1.84071497       0.75042878       0.21380787
O       -1.84118980       1.30401723      -0.95655633
C       -0.48021175       0.55731233       0.75860506
O        0.42219561       0.54032609      -0.39233807
P        2.00769247       0.19929777      -0.30966809
O        2.60207773       0.18325264      -1.65830072
O        2.11465508      -1.12012351       0.60677864
O        2.58458510       1.25689576       0.76349467
H       -2.45670489      -1.61480667      -1.32891710
H       -2.57577505      -0.49840042       0.23064643
H       -0.88586600       1.29367229      -1.28251077
H       -0.22644768       1.39199041       1.42242530
H       -0.41172662      -0.37564746       1.30911199
H        2.08660348      -1.92697107       0.07573538
H        3.03361565       1.98648320       0.31809210
17
Properties=species:S:1:pos:R:3 relative_energy_eV=3.0356019090104382 branch=right pbc="F F F"
O       -1.74219396      -2.42505544       0.41117059
C       -2.29706580      -1.58402166      -0.23853448
C       -1.83910490       0.75200430       0.21361159
O       -1.83952370       1.30607407      -0.95646932
C       -0.47965085       0.55532837       0.75742213
O        0.42249928       0.53790910      -0.39449085
P        2.00808256       0.19959569      -0.31045211
O        2.60468291       0.18350633      -1.65808392
O        2.11291113      -1.12039459       0.60458260
O        2.58240938       1.25709364       0.76480201
H       -2.45219114      -1.61506092      -1.32720375
H       -2.57560325      -0.49617521       0.23107547
H       -0.88474064       1.29485109      -1.28372131
H       -0.22266712       1.38776253       1.42224004
H       -0.41432334      -0.37907680       1.30549908
H        2.08624117      -1.92805033       0.07473440
H        3.02594690       1.99021337       0.31945490
17
Properties=species:S:1:pos:R:3 relative_energy_eV=3.0354834730242146 branch=right pbc="F F F"
O       -1.74420348      -2.42290323       0.41550349
C       -2.29669009      -1.58284900      -0.23733179
C       -1.83832093       0.75323931       0.21325216
O       -1.83873268       1.30735178      -0.95678183
C       -0.47837823       0.55364806       0.75648956
O        0.42221688       0.53623891      -0.39508291
P        2.00792664       0.19970177      -0.31053065
O        2.60607260       0.18381808      -1.65725619
O        2.11257072      -1.12079687       0.60283386
O        2.58062091       1.25717984       0.76553634
H       -2.44859743      -1.61474753      -1.32646421
H       -2.57515285      -0.49468027       0.23164471
H       -0.88432965       1.29470140      -1.28467863
H       -0.21956278       1.38524467       1.42187782
H       -0.41571650      -0.38265800       1.30241237
H        2.08584266      -1.92889623       0.07374926
H        3.02014288       1.99291077       0.32046379
17
Properties=species:S:1:pos:R:3 relative_energy_eV=3.035368580640352 branch=right pbc="F F F"
O       -1.74629413      -2.41943809       0.42008882
C       -2.29648192      -1.58115622      -0.23661486
C       -1.83847819       0.75477448       0.21353471
O       -1.83867983       1.30873016      -0.95656293
C       -0.47778349       0.55224792       0.75578394
O        0.42168126       0.53511609      -0.39634680
P        2.00773539       0.19866727      -0.31047479
O        2.60751356       0.18469609      -1.65645828
O        2.11432512      -1.12205327       0.60308791
O        2.57845765       1.25640856       0.76574585
H       -2.44531568      -1.61544569      -1.32612426
H       -2.57468619      -0.49282920       0.23104091
H       -0.88459543       1.29358144      -1.28559115
H       -0.21608685       1.38279912       1.42150831
H       -0.41518764      -0.38592121       1.29900287
H        2.08557151      -1.92893549       0.07210852
H        3.01401356       1.99526134       0.32190839
17
Properties=species:S:1:pos:R:3 relative_energy_eV=3.035335359592864 branch=right pbc="F F F"
O       -1.74655233      -2.41849083       0.42135860
C       -2.29604570      -1.58022674      -0.23613667
C       -1.83839624       0.75555575       0.21411075
O       -1.83869585       1.30915079      -0.95616449
C       -0.47798240       0.55199920       0.75535132
O        0.42159549       0.53428126      -0.39776006
P        2.00769201       0.19831280      -0.31062236
O        2.60828999       0.18472962      -1.65629846
O        2.11484811      -1.12236101       0.60317213
O        2.57669748       1.25624666       0.76634082
H       -2.44407496      -1.61568513      -1.32575448
H       -2.57470736      -0.49180527       0.23073948
H       -0.88479611       1.29298195      -1.28585304
H       -0.21481128       1.38146874       1.42143923
H       -0.41458941      -0.38629561       1.29760140
H        2.08555589      -1.92882148       0.07154215
H        3.01168137       1.99546259       0.32257081
17
Properties=species:S:1:pos:R:3 relative_energy_eV=3.035311930554599 branch=right pbc="F F F"
O       -1.74640440      -2.41764687       0.42209504
C       -2.29579004      -1.57956990      -0.23582108
C       -1.83804013       0.75584747       0.21434297
O       -1.83860029       1.30930301      -0.95597723
C       -0.47754683       0.55186254       0.75479668
O        0.42156385       0.53336768      -0.39854954
P        2.00771376       0.19830333      -0.31069027
O        2.60834070       0.18465878      -1.65631490
O        2.11537772      -1.12234864       0.60268297
O        2.57525404       1.25629872       0.76706071
H       -2.44339823      -1.61564324      -1.32545894
H       -2.57512901      -0.49104082       0.23037000
H       -0.88479372       1.29224851      -1.28586551
H       -0.21452756       1.38068175       1.42167880
H       -0.41416363      -0.38623516       1.29701498
H        2.08558264      -1.92889741       0.07126495
H        3.01026987       1.99531347       0.32300747
