18
Properties=species:S:1:pos:R:3 relative_energy_eV=2.293648515955283 branch=ts pbc="F F F"
C       -0.37212142      -1.70424398       0.48070790
C        0.66835464      -0.86199160       0.29341439
O        0.72197806       0.17233202      -0.54411229
P       -1.17078705       1.24792832      -1.33818810
O       -0.64984671       2.38233053      -2.12769433
O       -1.31423665      -0.16140799      -2.09392137
O       -2.64373024       1.23662942      -0.69228842
C        1.90672921      -0.98126131       1.13041073
O        2.62549350      -0.04089404       1.37651471
O        2.15647863      -2.22804295       1.60229132
O       -0.43261508       1.91300391       0.38428507
H       -1.32542131      -1.53147585       0.00746587
H       -0.27143347      -2.56360261       1.12077224
H        0.40109245       1.22699857       0.25620800
H       -2.72266903       1.88812223       0.01566473
H        2.98123153      -2.15161455       2.10829301
H       -0.09932982       2.77971403       0.10478856
H       -0.45919339      -0.62258118      -2.08470465
