32
Properties=species:S:1:pos:R:3 relative_energy_eV=0.8979279948907788 branch=ts pbc="F F F"
O       -2.96159214       3.52612501      -0.61698245
C       -1.94533304       3.00722030      -1.02089722
C       -0.92688199       2.41455635      -0.08446706
O       -1.25560689       2.71229352       1.24451409
C       -0.84633463       0.87175657      -0.34791764
O       -1.11297452       0.16317282       0.85055975
C        0.50409210       0.54259821      -1.02099677
O        1.59994191       1.15835200      -0.39446784
C        0.76780108      -0.92935241      -1.41894710
O        1.30259761      -1.80118324      -0.39586858
C       -0.45816091      -1.60795715      -2.01073571
O       -0.21071865      -2.91051391      -2.48905422
O        1.91801008      -2.21914781       3.46966029
P        1.31398354      -1.02340622       2.57379139
O        0.55150810       0.01182885       3.32308022
O        2.35720894      -0.66168220       1.51443190
O        0.13297074      -1.93831064       1.68546440
H       -1.74465067       2.89943209      -2.10566099
H        0.06135414       2.83035413      -0.29888412
H       -2.16726101       3.05010467       1.23883598
H       -1.63736000       0.58667830      -1.04913042
H       -0.93741134       0.77062831       1.59799198
H        0.42495204       1.06099527      -1.98510658
H        1.84460365       0.70173194       0.43936902
H        1.54950950      -0.88840704      -2.18440893
H        0.58608965      -2.01872615       0.55083396
H       -0.86615410      -0.96240672      -2.79973641
H       -1.22682645      -1.71466927      -1.24441088
H        0.50772841      -2.88267172      -3.13144285
H        1.50543433      -2.21366033       4.34250908
H        1.96852479      -1.26793546       0.20809451
H       -0.59905168      -1.26781583       1.55999899
