32
Properties=species:S:1:pos:R:3 relative_energy_eV=2.3223203288725927 branch=ts pbc="F F F"
O       -1.64620727      -5.08276491       0.26776135
C       -0.56717114      -4.52752751       0.23463136
C       -0.30550087      -3.30555363       1.07357471
O       -1.40428963      -3.04355599       1.91444197
C       -0.01369802      -2.10321182       0.16650782
O        1.17188910      -2.39836237      -0.54503004
C        0.05049817      -0.82211586       1.00146623
O        1.03210879      -0.93494360       2.03768540
C        0.40780067       0.42278615       0.20563564
O        1.71858432       0.28751355      -0.36937507
C       -0.55599264       0.74073650      -0.93034556
O       -0.17316045       1.92569762      -1.60727602
P       -0.41234794       3.64462036      -0.73559681
O       -1.26273466       3.14905177       0.38295702
O       -0.86306300       4.13486619      -2.21156913
O        0.05192325       5.17349210      -0.29310489
O        1.43247570       3.21847563      -0.77000169
H        0.25009014      -4.86784362      -0.42029997
H        0.60068722      -3.48777095       1.66494165
H       -2.06029797      -3.72688882       1.68804772
H       -0.86207040      -2.00731598      -0.52243360
H        1.58558514      -1.54867891      -0.77417690
H       -0.93969967      -0.67757465       1.43538460
H        0.60834880      -1.34102935       2.80176795
H        0.39239513       1.26638538       0.89991460
H        2.32700405       0.16926147       0.37259505
H       -1.56047302       0.86525621      -0.52670195
H       -0.55837989      -0.06238490      -1.66614233
H       -1.09741102       3.36569770      -2.74707887
H       -0.29448167       5.31445829       0.59584356
H        1.07416809       2.32006638      -1.38351408
H        1.87365587       3.93934009      -1.24045109
