32
Properties=species:S:1:pos:R:3 relative_energy_eV=0.0 branch=left pbc="F F F"
O       -3.12315731       3.39725683      -0.51192237
C       -2.08425094       2.94291379      -0.93882659
C       -1.01987184       2.39966621      -0.02786944
O       -1.31779163       2.70267850       1.30985839
C       -0.90714948       0.84924646      -0.27191877
O       -1.05883588       0.17195244       0.96031922
C        0.42962860       0.56773591      -0.98590353
O        1.51764275       1.06011759      -0.25585085
C        0.67763868      -0.86102347      -1.48836235
O        0.71426597      -1.80246652      -0.41437679
C       -0.31764622      -1.32479249      -2.54515884
O       -0.11379921      -2.70447714      -2.84640188
O        1.82295146      -1.70125193       4.17102321
P        1.39272694      -1.24524543       2.69044019
O        1.57625597       0.21322455       2.41400613
O        2.26753128      -2.23866990       1.79449368
O       -0.11164341      -1.75954672       2.57533050
H       -1.89619467       2.85866498      -2.02824446
H       -0.05494032       2.85146804      -0.26925753
H       -2.25964725       2.94035924       1.33558931
H       -1.73100090       0.51663220      -0.90843172
H       -0.87514026       0.84029628       1.64824743
H        0.40723340       1.18418338      -1.89331326
H        1.49248574       0.75158852       0.67745421
H        1.67233595      -0.84159579      -1.95416114
H        0.38313661      -2.63818702      -0.78350854
H       -0.23293608      -0.70680186      -3.44318375
H       -1.34186340      -1.25824101      -2.18160045
H        0.71066052      -2.78842593      -3.34171437
H        2.10652993      -0.94214163       4.69479212
H        1.91084644      -2.20563901       0.88094659
H       -0.58340637      -1.18628526       1.92228898
32
Properties=species:S:1:pos:R:3 relative_energy_eV=0.0006789213803131133 branch=left pbc="F F F"
O       -3.11806556       3.40507499      -0.51565881
C       -2.08311504       2.94155327      -0.94215015
C       -1.01819424       2.39921157      -0.03133884
O       -1.31034680       2.70929813       1.30592608
C       -0.91048486       0.84733872      -0.26984358
O       -1.06185442       0.17478846       0.96519153
C        0.42671382       0.56249098      -0.98206366
O        1.51305055       1.05716455      -0.25132727
C        0.67417208      -0.86755247      -1.47967759
O        0.69230030      -1.81000161      -0.40609226
C       -0.31240788      -1.32308910      -2.54721119
O       -0.10765916      -2.70052433      -2.85636800
O        1.85171297      -1.70829509       4.15577242
P        1.39792741      -1.23990932       2.68617673
O        1.56932375       0.22213482       2.42024121
O        2.26538803      -2.22157048       1.77161803
O       -0.10727333      -1.75743256       2.58437713
H       -1.90076876       2.84457371      -2.03163961
H       -0.05117986       2.84457912      -0.27658225
H       -2.25440251       2.93699528       1.33636015
H       -1.73437957       0.51264116      -0.90530419
H       -0.87212180       0.84401311       1.65078949
H        0.40754838       1.17467383      -1.89285260
H        1.48354951       0.75714033       0.68497848
H        1.67525836      -0.85454517      -1.93144299
H        0.36489197      -2.64583256      -0.77933432
H       -0.22151884      -0.69806955      -3.43998318
H       -1.33895170      -1.25751895      -2.18929133
H        0.72186334      -2.78173053      -3.34396123
H        2.10435958      -0.94997729       4.69675759
H        1.89202166      -2.18937565       0.86361541
H       -0.58476272      -1.18505377       1.93510192
32
Properties=species:S:1:pos:R:3 relative_energy_eV=0.00216100258694496 branch=left pbc="F F F"
O       -3.12648775       3.39387741      -0.53749737
C       -2.08938524       2.92946668      -0.95758033
C       -1.02064701       2.40163372      -0.04170932
O       -1.30185963       2.73683319       1.29161697
C       -0.91176688       0.84577549      -0.25482613
O       -1.07147387       0.18960544       0.98803273
C        0.42727914       0.55166413      -0.96116556
O        1.51607119       1.04020612      -0.23050418
C        0.66304777      -0.87923689      -1.46161261
O        0.64447297      -1.82775551      -0.39368259
C       -0.30548327      -1.31774719      -2.55259675
O       -0.09981646      -2.69288506      -2.87349628
O        1.88610099      -1.72552550       4.13613044
P        1.40576943      -1.23144593       2.68284402
O        1.55831070       0.23683071       2.43978788
O        2.26705913      -2.17946688       1.72898389
O       -0.09725431      -1.76059355       2.59936959
H       -1.90234556       2.82562098      -2.04585754
H       -0.05793463       2.84698703      -0.30275695
H       -2.24590272       2.96289798       1.32598805
H       -1.73208533       0.50158886      -0.88914510
H       -0.86530140       0.86121810       1.66600143
H        0.41604835       1.16426105      -1.87142910
H        1.48286024       0.74831715       0.70852414
H        1.67260637      -0.87906945      -1.89387260
H        0.34787727      -2.66521329      -0.78703859
H       -0.19503406      -0.68395225      -3.43639656
H       -1.33884490      -1.25157524      -2.21639629
H        0.73035851      -2.77053365      -3.36040752
H        2.13654856      -0.97560912       4.68985688
H        1.84838549      -2.16052304       0.83778751
H       -0.58857936      -1.19245693       1.95783094
32
Properties=species:S:1:pos:R:3 relative_energy_eV=0.004680187375925016 branch=left pbc="F F F"
O       -3.12116068       3.38042472      -0.54408730
C       -2.07746456       2.92977960      -0.96389976
C       -1.01525894       2.39715686      -0.04162139
O       -1.30417995       2.73737479       1.28790359
C       -0.91212663       0.83777532      -0.24803690
O       -1.07552641       0.18372326       0.99448763
C        0.42735263       0.53620637      -0.95074710
O        1.52017600       1.01665469      -0.21983468
C        0.65641119      -0.89514718      -1.45433927
O        0.62188317      -1.84914125      -0.39175056
C       -0.30908945      -1.31497673      -2.55445070
O       -0.11477536      -2.68665411      -2.89510420
O        1.89873594      -1.70804187       4.12722845
P        1.39760357      -1.21345526       2.68133539
O        1.50385297       0.26291147       2.46103463
O        2.28058002      -2.11849865       1.70549716
O       -0.08925081      -1.78825187       2.59999595
H       -1.88345494       2.84764364      -2.05314986
H       -0.04798309       2.83609845      -0.29795043
H       -2.24381030       2.98241165       1.31461872
H       -1.73263480       0.49425255      -0.88241680
H       -0.83350649       0.84214735       1.67271795
H        0.41948898       1.15164196      -1.85889013
H        1.47226185       0.74734401       0.72516549
H        1.67075177      -0.90002197      -1.87541618
H        0.34048717      -2.68936755      -0.79041919
H       -0.19086593      -0.66949559      -3.42889736
H       -1.34247821      -1.24175254      -2.21853497
H        0.71882209      -2.76468906      -3.37469469
H        2.17067671      -0.95666592       4.66880215
H        1.84561843      -2.11808375       0.82146191
H       -0.59854372      -1.22610938       1.96877649
32
Properties=species:S:1:pos:R:3 relative_energy_eV=0.011283190338872373 branch=left pbc="F F F"
O       -3.09432028       3.37171396      -0.54964184
C       -2.04500925       2.91859218      -0.95396039
C       -1.00112416       2.38219115      -0.01595735
O       -1.32539779       2.71521080       1.30694925
C       -0.90837872       0.82489082      -0.23896670
O       -1.08378395       0.16020802       0.99685765
C        0.42927090       0.51930579      -0.94801883
O        1.52563989       0.99075884      -0.21656674
C        0.64523691      -0.91226923      -1.45251988
O        0.58131184      -1.86168764      -0.38623022
C       -0.31245893      -1.31607177      -2.56633675
O       -0.11648605      -2.67861781      -2.93724040
O        1.92537411      -1.66118579       4.11504115
P        1.39678712      -1.17405968       2.67813364
O        1.46315763       0.30634278       2.46933478
O        2.29028963      -2.04175505       1.67750022
O       -0.07513243      -1.78954493       2.61958209
H       -1.83221270       2.82891034      -2.03871077
H       -0.02392805       2.81271421      -0.25127138
H       -2.25776681       2.99027964       1.29578692
H       -1.73026301       0.49951981      -0.88158269
H       -0.83854213       0.81033836       1.68422988
H        0.42889075       1.13288133      -1.85776455
H        1.46099516       0.74331407       0.73442598
H        1.66502751      -0.93146277      -1.86234252
H        0.29437504      -2.69605932      -0.78878075
H       -0.19167561      -0.64648214      -3.42312243
H       -1.34744971      -1.25921328      -2.23132005
H        0.70637146      -2.75312505      -3.43205548
H        2.20048945      -0.90483087       4.64906168
H        1.82647292      -2.08368956       0.80791347
H       -0.60316953      -1.25392461       1.98235899
32
Properties=species:S:1:pos:R:3 relative_energy_eV=0.03142560842388775 branch=left pbc="F F F"
O       -3.05935382       3.36377951      -0.59531139
C       -1.99762911       2.91072928      -0.96314538
C       -0.98443021       2.36409096       0.00232023
O       -1.33499301       2.68798979       1.32010142
C       -0.91096892       0.80549049      -0.22890439
O       -1.09022142       0.13824402       1.00257868
C        0.42216600       0.49250069      -0.94136812
O        1.52849007       0.93966609      -0.20711899
C        0.61979850      -0.93888940      -1.44790237
O        0.49436172      -1.88267354      -0.37854646
C       -0.30545024      -1.31227812      -2.59777759
O       -0.13435074      -2.67774878      -2.97583793
O        1.98306761      -1.61568899       4.11105688
P        1.38761948      -1.11153231       2.70544167
O        1.41939685       0.37404032       2.51817490
O        2.24084410      -1.94668753       1.64454154
O       -0.07474426      -1.75373367       2.70166209
H       -1.75666575       2.81449935      -2.04070747
H        0.00385348       2.78583994      -0.19945862
H       -2.28026879       2.91002222       1.30491899
H       -1.73556221       0.48637305      -0.87107269
H       -0.86110579       0.79137504       1.69092890
H        0.42824853       1.11128204      -1.84794944
H        1.43868022       0.73758557       0.75360241
H        1.65190655      -0.97675761      -1.82281618
H        0.33376340      -2.74299989      -0.79286170
H       -0.11828022      -0.64332882      -3.44096201
H       -1.34895022      -1.21409012      -2.30448348
H        0.62487110      -2.74110405      -3.56629098
H        2.36621401      -0.87605288       4.59894519
H        1.72405321      -1.97968582       0.80233611
H       -0.62177277      -1.25706332       2.05069397
32
Properties=species:S:1:pos:R:3 relative_energy_eV=0.04916145571769448 branch=left pbc="F F F"
O       -3.02272514       3.40113371      -0.59229771
C       -1.97218631       2.91835604      -0.95503064
C       -0.98586218       2.33355163       0.01590527
O       -1.34696716       2.63603483       1.33558835
C       -0.90822739       0.78315527      -0.23512094
O       -1.07910664       0.09386893       0.98491540
C        0.42445782       0.47770300      -0.95720993
O        1.54625747       0.90607439      -0.23052652
C        0.61003145      -0.94805300      -1.48376855
O        0.52106802      -1.89865063      -0.41780246
C       -0.33364967      -1.31065631      -2.62032184
O       -0.15325984      -2.66880356      -3.01565587
O        1.98086602      -1.57850853       4.15052483
P        1.38717558      -1.07062822       2.74317944
O        1.42386262       0.41268235       2.55865231
O        2.23452877      -1.89548203       1.67042827
O       -0.06732707      -1.72770984       2.75793861
H       -1.72140469       2.83099699      -2.03215201
H        0.00760993       2.74741313      -0.17343464
H       -2.28687674       2.88316263       1.32402510
H       -1.73667278       0.47562136      -0.88004882
H       -0.86948419       0.73761904       1.69007303
H        0.43284958       1.11141952      -1.85216792
H        1.45114697       0.74504461       0.73280313
H        1.63309331      -0.98364291      -1.87903308
H        0.32755806      -2.75707396      -0.82831922
H       -0.16861094      -0.62596351      -3.45172028
H       -1.37339010      -1.22119329      -2.31830704
H        0.62374286      -2.72699979      -3.58291712
H        2.35283896      -0.83469227       4.64411268
H        1.73959009      -1.90546759       0.81548811
H       -0.61833991      -1.29712000       2.06699025
32
Properties=species:S:1:pos:R:3 relative_energy_eV=0.11216706147388322 branch=left pbc="F F F"
O       -3.01640522       3.44659141      -0.61151735
C       -1.98480422       2.92511566      -0.97527689
C       -0.99163771       2.34358367      -0.00659236
O       -1.35612600       2.65053144       1.31080452
C       -0.89190560       0.79233943      -0.24694743
O       -1.00347935       0.10363787       0.98209396
C        0.41984522       0.50920870      -0.99917186
O        1.53389958       0.96127939      -0.26866767
C        0.61372671      -0.92303835      -1.50125541
O        0.52693202      -1.85442663      -0.41489695
C       -0.36264367      -1.33944614      -2.60423022
O       -0.15347054      -2.70380485      -2.97922088
O        1.94255271      -1.72071702       4.17359361
P        1.38763939      -1.08016186       2.79767445
O        1.39540365       0.42330679       2.74138923
O        2.28060672      -1.77310359       1.65825966
O       -0.04775003      -1.78910796       2.69989021
H       -1.75348674       2.81560852      -2.05125210
H       -0.00635243       2.78141047      -0.20340103
H       -2.27593705       2.96247323       1.28101427
H       -1.72831627       0.45871046      -0.86513575
H       -0.76768304       0.74919696       1.67759812
H        0.41288502       1.13346430      -1.90413944
H        1.46875405       0.71703935       0.67865594
H        1.63329159      -0.95276058      -1.91388619
H        0.38658847      -2.71989607      -0.82140685
H       -0.28481315      -0.67203306      -3.47354085
H       -1.38977444      -1.30027216      -2.23428903
H        0.62074735      -2.74924023      -3.55781659
H        2.28932561      -1.01507187       4.75068712
H        1.74686566      -1.83430738       0.82380933
H       -0.59189392      -1.30291675       2.04196665
32
Properties=species:S:1:pos:R:3 relative_energy_eV=0.1772062076124712 branch=left pbc="F F F"
O       -3.04823279       3.41609553      -0.56856788
C       -2.01537015       2.93971137      -0.98490170
C       -0.95980477       2.39433346      -0.06098527
O       -1.24669268       2.72237716       1.26814078
C       -0.86475075       0.83973992      -0.28044702
O       -0.94847644       0.16387337       0.95344635
C        0.42655916       0.52934602      -1.05763997
O        1.56345857       1.00372529      -0.37110810
C        0.63184979      -0.90888128      -1.53984169
O        0.73272813      -1.80342467      -0.43280296
C       -0.42900800      -1.40283254      -2.51439768
O       -0.19664113      -2.76764661      -2.85892010
O        1.89210441      -1.93589678       4.10275307
P        1.30068786      -1.06487490       2.88492323
O        1.11245855       0.38237586       3.17364931
O        2.32850120      -1.33665289       1.67855390
O       -0.02080201      -1.89751915       2.52539390
H       -1.82902820       2.83753414      -2.07323984
H        0.01013726       2.82720933      -0.31582778
H       -2.18723976       2.96131861       1.30144992
H       -1.72156620       0.50414662      -0.87154430
H       -0.70410112       0.80103450       1.65405830
H        0.39110585       1.13942172      -1.96554742
H        1.59883193       0.61389208       0.51496455
H        1.59643347      -0.90897449      -2.06418069
H        0.55136126      -2.69312398      -0.77456624
H       -0.45025445      -0.76898321      -3.40529136
H       -1.41733552      -1.38099819      -2.05895097
H        0.54050815      -2.80534657      -3.47998860
H        2.10636061      -1.35773818       4.84568210
H        1.84875324      -1.64025697       0.87398711
H       -0.53995675      -1.35978873       1.88654579
32
Properties=species:S:1:pos:R:3 relative_energy_eV=0.1785101637869957 branch=left pbc="F F F"
O       -3.04883578       3.40814845      -0.54870058
C       -2.01754437       2.93933517      -0.97718817
C       -0.95102972       2.39397547      -0.06508792
O       -1.22653659       2.72367206       1.26621052
C       -0.85561998       0.83827208      -0.28732692
O       -0.94345125       0.16322225       0.94676039
C        0.43567801       0.52862971      -1.06699911
O        1.57280304       1.00211288      -0.38100926
C        0.63993092      -0.90878310      -1.55400407
O        0.76880223      -1.80202717      -0.44964542
C       -0.43941093      -1.40666380      -2.50419476
O       -0.21077182      -2.77126239      -2.85134350
O        1.89122139      -1.94138707       4.09551135
P        1.28140125      -1.05552464       2.89662411
O        1.06096939       0.37860129       3.22011631
O        2.31774318      -1.27642876       1.68644624
O       -0.01770442      -1.91141202       2.50960268
H       -1.84103491       2.84395380      -2.06762312
H        0.01642769       2.82870785      -0.32652631
H       -2.17085186       2.94642949       1.31099798
H       -1.71136906       0.50273634      -0.87981803
H       -0.70039992       0.80308940       1.64609443
H        0.39857638       1.13999764      -1.97483246
H        1.62174869       0.59627679       0.49744869
H        1.58926631      -0.90581817      -2.10671501
H        0.56302181      -2.69074372      -0.78037698
H       -0.47775462      -0.77500142      -3.39642102
H       -1.41713046      -1.38393713      -2.02572474
H        0.53559767      -2.80791550      -3.46199077
H        2.07863166      -1.37370059       4.85320897
H        1.85531719      -1.60949816       0.88358779
H       -0.54511295      -1.37386123       1.87771876
32
Properties=species:S:1:pos:R:3 relative_energy_eV=0.17989782318181824 branch=left pbc="F F F"
O       -3.04962567       3.39099700      -0.53880923
C       -2.01371692       2.93788444      -0.97304315
C       -0.94166988       2.39538958      -0.06582791
O       -1.21686962       2.72147616       1.26619191
C       -0.84785516       0.84071942      -0.29189619
O       -0.93569662       0.15872101       0.93808914
C        0.44129468       0.53088081      -1.07436255
O        1.58162780       0.99860377      -0.38953468
C        0.64294085      -0.90635663      -1.56383451
O        0.78869267      -1.79751457      -0.45986305
C       -0.44823641      -1.41011667      -2.49789984
O       -0.21994580      -2.77574610      -2.84131324
O        1.90000548      -1.94541156       4.08667878
P        1.27217219      -1.05189436       2.90189626
O        1.03198484       0.37539911       3.23990675
O        2.30664877      -1.24620496       1.68702350
O       -0.01759319      -1.91972237       2.50760406
H       -1.83827149       2.85289564      -2.06431867
H        0.02373019       2.83187528      -0.33153998
H       -2.16138402       2.94408134       1.31019314
H       -1.70650629       0.51256493      -0.88372557
H       -0.70364501       0.79754519       1.64239294
H        0.40192351       1.14399201      -1.98137360
H        1.61960999       0.60479550       0.49520592
H        1.58597550      -0.89972371      -2.12873573
H        0.58639468      -2.68870684      -0.78417666
H       -0.50506181      -0.78057826      -3.39079440
H       -1.42031672      -1.38925250      -2.00762833
H        0.53506887      -2.81808403      -3.44165353
H        2.05769697      -1.39266079       4.86176315
H        1.84812990      -1.58707678       0.88491512
H       -0.54492451      -1.38557535       1.87327099
32
Properties=species:S:1:pos:R:3 relative_energy_eV=0.1839687326355488 branch=left pbc="F F F"
O       -3.03385351       3.38076346      -0.53984533
C       -1.98046547       2.95718917      -0.96143750
C       -0.92712039       2.38875083      -0.04970428
O       -1.21401898       2.68070555       1.28839910
C       -0.84327896       0.83932767      -0.31408122
O       -0.94113360       0.12594504       0.89736677
C        0.44738064       0.53697838      -1.09399462
O        1.58285259       1.00679060      -0.40317487
C        0.64966872      -0.90188694      -1.57748780
O        0.84552349      -1.77586540      -0.46973795
C       -0.47088234      -1.42945214      -2.46235285
O       -0.24243268      -2.79831817      -2.79191131
O        1.87508865      -1.93796763       4.08054597
P        1.25348799      -1.04324957       2.89422183
O        0.96561503       0.37036084       3.25185760
O        2.32083080      -1.18453939       1.70000900
O       -0.00233120      -1.94258396       2.46063030
H       -1.77152649       2.91864662      -2.05017160
H        0.04533277       2.82357182      -0.29014180
H       -2.15413373       2.91889710       1.33515453
H       -1.69704432       0.52879518      -0.92218842
H       -0.74564959       0.75354330       1.62389376
H        0.41133214       1.14832434      -2.00237771
H        1.59153804       0.64561863       0.49656200
H        1.57137313      -0.89557825      -2.17646886
H        0.62171455      -2.67024772      -0.77041449
H       -0.56529808      -0.81859643      -3.36519500
H       -1.42384773      -1.41041459      -1.93512609
H        0.49013721      -2.84053798      -3.41894013
H        2.03180722      -1.38280576       4.85353900
H        1.88895963      -1.52643349       0.88452164
H       -0.52704854      -1.42253772       1.81285337
32
Properties=species:S:1:pos:R:3 relative_energy_eV=0.1913064664186095 branch=left pbc="F F F"
O       -2.97250715       3.44140440      -0.53580156
C       -1.91281356       3.01683670      -0.94163470
C       -0.90723206       2.37829621      -0.02063858
O       -1.24664411       2.61869551       1.31469527
C       -0.84974742       0.84099787      -0.34864727
O       -0.98002440       0.07532795       0.82810125
C        0.44734131       0.54550181      -1.11978586
O        1.58416923       1.02649317      -0.43716075
C        0.66290852      -0.89457006      -1.59359581
O        0.98226271      -1.73105679      -0.48726490
C       -0.50546440      -1.47589966      -2.37450386
O       -0.27123961      -2.84537790      -2.69400067
O        1.82488039      -1.93577104       4.06162939
P        1.23084122      -1.03877704       2.86333019
O        0.84292953       0.34686188       3.23676054
O        2.36714718      -1.08843518       1.72674492
O        0.05824233      -1.99633947       2.33190034
H       -1.66545763       3.03371615      -2.02206460
H        0.08677743       2.79139680      -0.20437668
H       -2.18873742       2.85744745       1.32214687
H       -1.69987262       0.57922121      -0.98560372
H       -0.83538029       0.67951811       1.58496295
H        0.40512915       1.15414408      -2.02885421
H        1.58849540       0.69546261       0.47467089
H        1.53607367      -0.86579032      -2.25910359
H        0.69814621      -2.63071291      -0.70978213
H       -0.69175047      -0.88627171      -3.27775829
H       -1.40917214      -1.46929782      -1.76768825
H        0.40597727      -2.88972280      -3.37988053
H        1.96027377      -1.38713533       4.84327102
H        1.98585924      -1.43159521       0.88696282
H       -0.47883584      -1.47138012       1.69777811
32
Properties=species:S:1:pos:R:3 relative_energy_eV=0.1968400831829058 branch=left pbc="F F F"
O       -2.92263385       3.50264212      -0.53078151
C       -1.86603008       3.06064185      -0.92639288
C       -0.90014289       2.36867192       0.00214596
O       -1.27455010       2.57323654       1.33355236
C       -0.85349797       0.83998312      -0.36826000
O       -1.00521160       0.03355245       0.78032379
C        0.44828001       0.55295936      -1.13556204
O        1.57880293       1.04754971      -0.45180381
C        0.67040841      -0.89029053      -1.60549711
O        1.05315565      -1.71365092      -0.50817282
C       -0.52316354      -1.49751559      -2.32579966
O       -0.28199019      -2.86741288      -2.63882822
O        1.81371015      -1.90190350       4.06033896
P        1.21643306      -1.03449634       2.84330699
O        0.78401659       0.34189051       3.20053170
O        2.38203294      -1.07134584       1.73823885
O        0.07451197      -2.02178352       2.29800533
H       -1.59623710       3.10991536      -2.00107837
H        0.10199071       2.77927763      -0.14055173
H       -2.21774938       2.80661595       1.31877824
H       -1.69920703       0.60591494      -1.02081070
H       -0.88970296       0.61290282       1.56029368
H        0.40064657       1.15728148      -2.04784520
H        1.58165310       0.71721051       0.46028636
H        1.51279627      -0.85598682      -2.30999381
H        0.77183310      -2.61870368      -0.70856732
H       -0.76013544      -0.91727416      -3.22286692
H       -1.40174296      -1.49524801      -1.68349469
H        0.36095815      -2.91513187      -3.35658086
H        1.91993439      -1.33921311       4.83741597
H        2.03803713      -1.41356862       0.88152470
H       -0.46463108      -1.51353541       1.65295595
32
Properties=species:S:1:pos:R:3 relative_energy_eV=0.20258792386448476 branch=left pbc="F F F"
O       -2.89205180       3.56222047      -0.54462699
C       -1.84525799       3.08732037      -0.92759373
C       -0.90953123       2.36663434       0.00835937
O       -1.31393065       2.54016778       1.33659721
C       -0.85088800       0.84973507      -0.39363187
O       -1.00181434       0.01821194       0.73733477
C        0.45926975       0.56799354      -1.15211473
O        1.58602270       1.05649427      -0.45944382
C        0.67945252      -0.87888678      -1.61552956
O        1.14397873      -1.68479704      -0.53585922
C       -0.54533088      -1.51725605      -2.25092901
O       -0.29616246      -2.88415939      -2.56587776
O        1.80337568      -1.92587554       4.02907438
P        1.20128627      -1.04108404       2.82526521
O        0.71449398       0.31082989       3.20515853
O        2.38460307      -1.01028008       1.73879580
O        0.10202406      -2.04800055       2.22541971
H       -1.56042232       3.12247247      -1.99914705
H        0.09920268       2.77059098      -0.10753062
H       -2.24363290       2.82224713       1.31441635
H       -1.69282550       0.63060225      -1.05622763
H       -0.90035350       0.58530212       1.52804510
H        0.41928114       1.17151169      -2.06535668
H        1.59193097       0.70104881       0.44373842
H        1.47863638      -0.83815046      -2.36913469
H        0.83703914      -2.58866319      -0.69453031
H       -0.84788881      -0.95503757      -3.13914295
H       -1.38199605      -1.52714756      -1.55538818
H        0.34429997      -2.91861477      -3.28670637
H        1.87119737      -1.39043091       4.82922453
H        2.06962324      -1.38208847       0.88201319
H       -0.45105784      -1.52972780       1.60014323
32
Properties=species:S:1:pos:R:3 relative_energy_eV=0.20463606591511052 branch=left pbc="F F F"
O       -2.89050397       3.56933315      -0.55955904
C       -1.85077988       3.08080860      -0.94517317
C       -0.90891006       2.37542775      -0.00450577
O       -1.32110536       2.55417082       1.32076733
C       -0.84479374       0.85813217      -0.39713227
O       -0.98909353       0.02833079       0.73700320
C        0.46675483       0.57852670      -1.15165034
O        1.58896388       1.07031885      -0.45496553
C        0.68611028      -0.86951822      -1.61521016
O        1.19410070      -1.66623711      -0.54851998
C       -0.55158812      -1.52627582      -2.20272440
O       -0.29561551      -2.89055678      -2.52093016
O        1.80500161      -1.98678408       3.97638433
P        1.19106958      -1.05541334       2.81379581
O        0.67857256       0.26705394       3.25483219
O        2.37575557      -0.94312831       1.73184652
O        0.11468351      -2.05416784       2.15923257
H       -1.57980797       3.08839493      -2.01974804
H        0.09867782       2.78579290      -0.11810306
H       -2.24100504       2.86687366       1.28718247
H       -1.68795795       0.63210563      -1.05698943
H       -0.90134479       0.59680593       1.52836675
H        0.42670012       1.18298531      -2.06368953
H        1.62131806       0.67642221       0.43222952
H        1.46022647      -0.82907709      -2.39366373
H        0.83931928      -2.56134245      -0.65259254
H       -0.90332613      -0.96899183      -3.07689526
H       -1.35554963      -1.54888984      -1.46987541
H        0.35519400      -2.92636348      -3.23305651
H        1.82707849      -1.49816651       4.80820040
H        2.08453610      -1.32616668       0.87045269
H       -0.44010909      -1.51722159       1.54950720
32
Properties=species:S:1:pos:R:3 relative_energy_eV=0.20520239560573827 branch=left pbc="F F F"
O       -2.89524748       3.56481623      -0.56885193
C       -1.85588251       3.07511924      -0.95386449
C       -0.90851706       2.38032880      -0.01032544
O       -1.31658275       2.56765639       1.31510794
C       -0.84201047       0.86167211      -0.39267581
O       -0.98220032       0.03671319       0.74548233
C        0.46764059       0.58101168      -1.15002581
O        1.59187933       1.07606830      -0.45927242
C        0.68758727      -0.86703463      -1.61339924
O        1.20725542      -1.66484272      -0.55327168
C       -0.55238881      -1.52842551      -2.19026187
O       -0.29257660      -2.89192476      -2.50778088
O        1.80761565      -2.00697092       3.96069358
P        1.18682767      -1.06061758       2.81381589
O        0.66681524       0.25028637       3.27883164
O        2.36800373      -0.92201959       1.73047013
O        0.11880660      -2.05657826       2.14110196
H       -1.58952442       3.07289636      -2.02959704
H        0.09788169       2.79155013      -0.12910578
H       -2.23573336       2.88244578       1.28265930
H       -1.68630104       0.63242179      -1.04992134
H       -0.90347260       0.60752119       1.53620670
H        0.42251307       1.18313746      -2.06335112
H        1.63292119       0.67667991       0.42522061
H        1.45559615      -0.82407369      -2.39763184
H        0.83503902      -2.55437497      -0.64396985
H       -0.91101579      -0.97580380      -3.06435480
H       -1.35126252      -1.55197537      -1.45145357
H        0.35871970      -2.92296177      -3.21983863
H        1.81427707      -1.53592309       4.80260405
H        2.08624145      -1.31840335       0.87171643
H       -0.43033328      -1.51521243       1.52985988
32
Properties=species:S:1:pos:R:3 relative_energy_eV=0.20615930233179824 branch=left pbc="F F F"
O       -2.90989861       3.55587192      -0.57926736
C       -1.87054852       3.06799538      -0.96627096
C       -0.91085199       2.39043877      -0.02324205
O       -1.30548693       2.59041891       1.30494040
C       -0.83874264       0.86816586      -0.39095624
O       -0.96717296       0.05598308       0.75682221
C        0.46789106       0.58743231      -1.15347366
O        1.59294450       1.08903538      -0.46843649
C        0.69220573      -0.86229488      -1.61235778
O        1.22088298      -1.65412946      -0.55204112
C       -0.54866444      -1.52992845      -2.18024883
O       -0.29345798      -2.89496420      -2.49388100
O        1.80549258      -2.04693896       3.94462995
P        1.17846999      -1.07727868       2.82058484
O        0.65454473       0.22014589       3.31674915
O        2.35518470      -0.90768501       1.73691734
O        0.11335337      -2.06470639       2.12993078
H       -1.61004070       3.05324016      -2.04368521
H        0.09145796       2.80693677      -0.15648505
H       -2.22602650       2.90153226       1.28070448
H       -1.68551240       0.62782553      -1.04104395
H       -0.88520191       0.63664041       1.54026999
H        0.41555429       1.18648891      -2.06843966
H        1.64416762       0.68060116       0.41122826
H        1.45733953      -0.81793177      -2.39915578
H        0.84591839      -2.54404859      -0.63250547
H       -0.91242012      -0.97833517      -3.05294102
H       -1.34289790      -1.55285667      -1.43626307
H        0.35855901      -2.93359869      -3.20491433
H        1.81870489      -1.59147861       4.79479392
H        2.08121362      -1.30554798       0.87625883
H       -0.43439065      -1.51384568       1.52659568
32
Properties=species:S:1:pos:R:3 relative_energy_eV=0.20714137692266377 branch=left pbc="F F F"
O       -2.92665197       3.54342743      -0.58450061
C       -1.88716391       3.06184061      -0.97881981
C       -0.91120030       2.40083458      -0.03930165
O       -1.29385348       2.61420360       1.29051942
C       -0.83434026       0.87462710      -0.39037985
O       -0.95588961       0.07405193       0.76623187
C        0.47053783       0.59090705      -1.15476286
O        1.59578563       1.09201958      -0.47045934
C        0.69509048      -0.85815735      -1.61162574
O        1.22725345      -1.64468149      -0.54970040
C       -0.54699148      -1.52839748      -2.17265659
O       -0.28944327      -2.89596928      -2.47300822
O        1.80350780      -2.08742600       3.92725278
P        1.17116575      -1.08930928       2.83044214
O        0.64802577       0.19496059       3.35983926
O        2.34179650      -0.88842232       1.74396944
O        0.10566355      -2.06430980       2.12323842
H       -1.64066991       3.04235301      -2.05910640
H        0.08725854       2.82213267      -0.18725120
H       -2.21819255       2.91463790       1.27260802
H       -1.68373386       0.62327800      -1.03222722
H       -0.86632047       0.66052018       1.54412585
H        0.41685459       1.18722022      -2.07120571
H        1.65144985       0.67521918       0.40502938
H        1.45819660      -0.81666599      -2.40067768
H        0.86626872      -2.53919551      -0.63452953
H       -0.91128014      -0.98583703      -3.05122066
H       -1.33950593      -1.54351787      -1.42656358
H        0.35422877      -2.93765984      -3.19126091
H        1.83293512      -1.65204974       4.78748363
H        2.07693900      -1.29245149       0.88307478
H       -0.44515108      -1.50499848       1.53025947
32
Properties=species:S:1:pos:R:3 relative_energy_eV=0.20808041618874995 branch=left pbc="F F F"
O       -2.93902102       3.53790219      -0.58402976
C       -1.90100562       3.05899074      -0.98552599
C       -0.91391889       2.40634413      -0.05125424
O       -1.28850714       2.62464068       1.28051765
C       -0.83033761       0.87880675      -0.39276783
O       -0.94587471       0.08774461       0.77087035
C        0.47606622       0.59424474      -1.15219458
O        1.59723289       1.09391048      -0.46114436
C        0.69830434      -0.85649250      -1.60946403
O        1.23539778      -1.64499497      -0.55107295
C       -0.54439801      -1.53077766      -2.16600839
O       -0.28433126      -2.89897405      -2.46233865
O        1.80837907      -2.11302134       3.90960085
P        1.16928793      -1.09446721       2.83554631
O        0.65032838       0.18090378       3.38918559
O        2.33274698      -0.87668131       1.74451859
O        0.09829686      -2.05691296       2.11999526
H       -1.66165340       3.03732796      -2.06747917
H        0.08174520       2.83025111      -0.21124953
H       -2.21419954       2.92153814       1.26567855
H       -1.67709227       0.61839734      -1.03432361
H       -0.86531408       0.68379137       1.54276235
H        0.42611163       1.19438431      -2.06643121
H        1.65313781       0.66770225       0.41002261
H        1.45736800      -0.81473500      -2.40201404
H        0.86344761      -2.53605186      -0.62741902
H       -0.90913732      -0.99160812      -3.04614762
H       -1.33697250      -1.54538902      -1.41958263
H        0.35109494      -2.94235214      -3.18777331
H        1.84182395      -1.69583488       4.77852211
H        2.07185487      -1.28631184       0.88473495
H       -0.44829169      -1.48909013       1.53108218
32
Properties=species:S:1:pos:R:3 relative_energy_eV=0.20917949557042448 branch=left pbc="F F F"
O       -2.95183282       3.52760225      -0.58866316
C       -1.91192944       3.05351008      -0.99067521
C       -0.91576494       2.41266231      -0.05664823
O       -1.28457956       2.63477176       1.27668163
C       -0.82785713       0.88262621      -0.39398251
O       -0.95503085       0.09608489       0.77247233
C        0.48328482       0.59320256      -1.14699565
O        1.60306577       1.08946423      -0.45232837
C        0.70516582      -0.85791108      -1.60825826
O        1.24113662      -1.65080754      -0.55275077
C       -0.54043301      -1.52973862      -2.16244530
O       -0.28883620      -2.89962389      -2.45909349
O        1.80923895      -2.13133988       3.89338902
P        1.16681451      -1.09705837       2.83618758
O        0.65228880       0.17253825       3.40677874
O        2.32408507      -0.86571548       1.74095096
O        0.09165701      -2.04883609       2.11380920
H       -1.67519880       3.02587919      -2.07354818
H        0.07591404       2.84434448      -0.22106683
H       -2.21157922       2.92765718       1.26663567
H       -1.67112788       0.62005581      -1.03983630
H       -0.87335460       0.69418929       1.54258333
H        0.43937420       1.19429277      -2.06111195
H        1.65933889       0.66099517       0.41795565
H        1.46535268      -0.81555494      -2.39992289
H        0.85285465      -2.53542692      -0.62114625
H       -0.91023445      -0.99160651      -3.04075812
H       -1.32887138      -1.53834534      -1.41145060
H        0.35233717      -2.94768084      -3.17951490
H        1.86204125      -1.71938133       4.76432436
H        2.06649756      -1.28523025       0.88442100
H       -0.45124819      -1.47243311       1.52882398
32
Properties=species:S:1:pos:R:3 relative_energy_eV=0.21238005644408986 branch=left pbc="F F F"
O       -2.96591581       3.49761945      -0.59428884
C       -1.92203700       3.03327560      -0.99683541
C       -0.91320293       2.41493558      -0.06293834
O       -1.27875484       2.64025079       1.27120726
C       -0.81960463       0.88632129      -0.39727274
O       -0.95842781       0.09967390       0.76731365
C        0.49597538       0.59546475      -1.13975363
O        1.61433318       1.09048983      -0.44340962
C        0.71208752      -0.85569430      -1.60021889
O        1.25112883      -1.65770418      -0.55421099
C       -0.54079649      -1.51605284      -2.14970348
O       -0.30012191      -2.88673914      -2.44751258
O        1.78922845      -2.15567326       3.87831393
P        1.15607866      -1.10202306       2.83346741
O        0.65338898       0.16618727       3.41657053
O        2.31598367      -0.86355136       1.74047924
O        0.07621824      -2.04336760       2.10434917
H       -1.69084571       2.99178862      -2.08039346
H        0.07342265       2.85478927      -0.23381431
H       -2.20516117       2.93558085       1.26107214
H       -1.65629787       0.62623076      -1.05372817
H       -0.90518468       0.70190484       1.53649150
H        0.45273268       1.19445984      -2.05574906
H        1.67831723       0.65437672       0.42297429
H        1.46619373      -0.81387322      -2.39780894
H        0.83647437      -2.53114931      -0.60976848
H       -0.90296989      -0.97076655      -3.02688110
H       -1.33264580      -1.52022628      -1.40167627
H        0.36017181      -2.93907568      -3.15012640
H        1.92268293      -1.73444920       4.73582275
H        2.06589926      -1.28600923       0.88291632
H       -0.47578202      -1.46380798       1.52992904
32
Properties=species:S:1:pos:R:3 relative_energy_eV=0.21700966652861098 branch=left pbc="F F F"
O       -2.96758342       3.48328633      -0.59274401
C       -1.92553170       3.01963630      -1.00095164
C       -0.91316320       2.40531253      -0.06898846
O       -1.27438064       2.63667874       1.26436543
C       -0.81245202       0.87884431      -0.39397944
O       -0.95401557       0.09908801       0.77532392
C        0.50752586       0.59814057      -1.13311130
O        1.62016474       1.09178642      -0.42700656
C        0.71967118      -0.84994957      -1.60552981
O        1.25235934      -1.65662510      -0.55866139
C       -0.54063305      -1.50125913      -2.14974404
O       -0.31697826      -2.87453222      -2.44332402
O        1.76513016      -2.16223194       3.87730191
P        1.13865080      -1.10719886       2.83009683
O        0.63470483       0.16173159       3.41010950
O        2.30097481      -0.85938844       1.73992022
O        0.06252947      -2.04614591       2.09445254
H       -1.70076532       2.97947580      -2.08574828
H        0.07221950       2.84380412      -0.24593852
H       -2.20133994       2.93012047       1.25485216
H       -1.64277190       0.60911831      -1.05358924
H       -0.89961696       0.70329417       1.54408764
H        0.46521657       1.20503283      -2.04446429
H        1.68265957       0.65052495       0.43744242
H        1.47436285      -0.81369745      -2.40330831
H        0.81790381      -2.52167766      -0.59375327
H       -0.90903832      -0.95912261      -3.02694807
H       -1.32132331      -1.49621746      -1.39003896
H        0.35812262      -2.93982760      -3.13025066
H        1.97649421      -1.71664410       4.70565434
H        2.05895516      -1.29227264       0.88556179
H       -0.47548305      -1.45589865       1.51372800
32
Properties=species:S:1:pos:R:3 relative_energy_eV=0.23370899272413226 branch=left pbc="F F F"
O       -2.96796862       3.48570987      -0.59596581
C       -1.93056642       3.01372665      -1.00618905
C       -0.91597377       2.40193168      -0.07411811
O       -1.27011628       2.63948747       1.25935598
C       -0.81121952       0.87133834      -0.39009233
O       -0.94330362       0.09233218       0.78099879
C        0.51157006       0.59461009      -1.12987596
O        1.62538569       1.07500991      -0.41831223
C        0.73508115      -0.85019363      -1.60802459
O        1.27937750      -1.67741270      -0.57959891
C       -0.53057209      -1.49423074      -2.14330622
O       -0.33152869      -2.86728768      -2.44623162
O        1.72512464      -2.16607907       3.86909220
P        1.12415412      -1.09974165       2.82254667
O        0.60508913       0.16347981       3.40471144
O        2.30307879      -0.84705869       1.74767016
O        0.06638568      -2.04381818       2.07001239
H       -1.70904919       2.97467630      -2.09144656
H        0.06395230       2.85172008      -0.25936335
H       -2.19831256       2.92820809       1.25611225
H       -1.65131420       0.58475307      -1.02899458
H       -0.86364544       0.69034652       1.55149180
H        0.47573740       1.20762699      -2.03854946
H        1.66330436       0.63454458       0.44768692
H        1.48934495      -0.79727124      -2.40633058
H        0.75219759      -2.49460249      -0.55246611
H       -0.89863037      -0.93290936      -3.00877239
H       -1.30400276      -1.50272652      -1.37475184
H        0.35117294      -2.95175063      -3.12303660
H        2.01208678      -1.71915680       4.67247226
H        2.06972851      -1.26948422       0.88471487
H       -0.47399984      -1.45259180       1.49337712
32
Properties=species:S:1:pos:R:3 relative_energy_eV=0.2600344825987122 branch=left pbc="F F F"
O       -2.96940363       3.51763574      -0.60269610
C       -1.94948802       3.01277958      -1.01780003
C       -0.92698182       2.40629489      -0.09150936
O       -1.27606894       2.65038216       1.24470482
C       -0.82076089       0.87457537      -0.39788306
O       -0.95199401       0.11638005       0.78937462
C        0.49788023       0.58363626      -1.13390572
O        1.60482405       1.10574243      -0.43916243
C        0.73683811      -0.87188244      -1.58816468
O        1.34808571      -1.68357155      -0.57939480
C       -0.52429122      -1.53030985      -2.12173894
O       -0.32244455      -2.87690694      -2.50793627
O        1.75176781      -2.25495768       3.78866940
P        1.15829348      -1.13330698       2.79223874
O        0.64037972       0.10262755       3.43011070
O        2.33824198      -0.82490303       1.73917465
O        0.08652272      -2.02756319       1.98302848
H       -1.74864943       2.93447537      -2.10432233
H        0.05742611       2.84359762      -0.28781385
H       -2.18593173       2.99436600       1.23892809
H       -1.65306077       0.58868806      -1.04560786
H       -0.86791508       0.73844997       1.54169525
H        0.44310520       1.17116841      -2.05688541
H        1.68042229       0.66717694       0.42509079
H        1.47481953      -0.82596448      -2.39737418
H        0.69347564      -2.31213383      -0.24752481
H       -0.93658575      -0.93454683      -2.94501539
H       -1.28463254      -1.56466839      -1.34089198
H        0.41710452      -2.91639236      -3.12694959
H        1.89999346      -1.88042400       4.66935437
H        2.14833422      -1.23925150       0.86088739
H       -0.50673908      -1.38800809       1.51413566
32
Properties=species:S:1:pos:R:3 relative_energy_eV=0.2651844193242141 branch=left pbc="F F F"
O       -2.96053080       3.53353796      -0.60033157
C       -1.95348524       3.01118201      -1.02482534
C       -0.92985757       2.40118627      -0.10350058
O       -1.27452501       2.64809218       1.23413506
C       -0.82460388       0.86932483      -0.39766569
O       -0.95236457       0.12568645       0.80124080
C        0.49123750       0.58149303      -1.14180530
O        1.60421503       1.11611729      -0.46542031
C        0.73658496      -0.87590766      -1.58212089
O        1.35569203      -1.68623717      -0.58025608
C       -0.52147234      -1.54455532      -2.10974198
O       -0.30645753      -2.87751165      -2.52986599
O        1.79766199      -2.28384641       3.74602310
P        1.18720725      -1.14806413       2.77770600
O        0.66603079       0.06779671       3.44824276
O        2.36299652      -0.82979830       1.73036189
O        0.09373669      -2.00452195       1.95279443
H       -1.76673832       2.92401767      -2.11282757
H        0.05271599       2.83975183      -0.30560228
H       -2.17177245       3.02402368       1.22599164
H       -1.65771339       0.57341978      -1.04032636
H       -0.92309723       0.76564386       1.54245358
H        0.42627026       1.16132322      -2.07001860
H        1.68756359       0.68923754       0.40325140
H        1.47821316      -0.83343238      -2.38702978
H        0.68095352      -2.22407518      -0.14322081
H       -0.95816260      -0.93458338      -2.91068818
H       -1.26465039      -1.61055257      -1.31279374
H        0.45331958      -2.89900541      -3.12392059
H        1.79684459      -1.97400433       4.65982508
H        2.17105621      -1.22769889       0.84385783
H       -0.52430092      -1.33485484       1.56089370
32
Properties=species:S:1:pos:R:3 relative_energy_eV=0.27240160670044133 branch=left pbc="F F F"
O       -2.95740353       3.53768551      -0.60156309
C       -1.95363388       3.00990324      -1.02645870
C       -0.93116948       2.39803643      -0.10765572
O       -1.26832618       2.65212882       1.23163049
C       -0.83076968       0.86334981      -0.39487571
O       -0.94350507       0.13413959       0.81297356
C        0.48390149       0.57540322      -1.14305315
O        1.59406025       1.11642381      -0.46893082
C        0.73951873      -0.88178257      -1.58283719
O        1.36308727      -1.69744442      -0.58725920
C       -0.51993413      -1.54858919      -2.11056257
O       -0.30890486      -2.87670144      -2.54866572
O        1.81339919      -2.28405974       3.72571880
P        1.20065969      -1.13801492       2.77464161
O        0.69459859       0.07459890       3.45899386
O        2.36805548      -0.80924882       1.72153165
O        0.10419063      -1.99732491       1.95567359
H       -1.76741447       2.92190565      -2.11390937
H        0.05364568       2.82970383      -0.31109606
H       -2.16285607       3.03494692       1.23012787
H       -1.66739919       0.56268206      -1.03205971
H       -0.96673919       0.79351047       1.53814609
H        0.41140598       1.15409330      -2.07192062
H        1.68573111       0.68235603       0.39566396
H        1.48278410      -0.83850253      -2.38632667
H        0.68401532      -2.19742770      -0.10945928
H       -0.96685548      -0.92629812      -2.89893384
H       -1.25302004      -1.62637259      -1.30488491
H        0.47087924      -2.89327663      -3.11620864
H        1.72950766      -2.02940854       4.65423155
H        2.18617815      -1.22204529       0.83932546
H       -0.51511966      -1.33118533       1.56281802
32
Properties=species:S:1:pos:R:3 relative_energy_eV=0.2898516587665654 branch=left pbc="F F F"
O       -2.95627626       3.52865764      -0.60400694
C       -1.94908055       3.00565387      -1.02636710
C       -0.92694519       2.39683171      -0.10442486
O       -1.26095832       2.66388313       1.23316196
C       -0.84246407       0.86005476      -0.38394584
O       -1.00198763       0.13916624       0.82508054
C        0.47463211       0.55255065      -1.11991567
O        1.58728822       1.10326980      -0.45769113
C        0.72461430      -0.90410514      -1.55917746
O        1.36672787      -1.72346262      -0.58178982
C       -0.53078906      -1.55964231      -2.11236359
O       -0.31517679      -2.87372234      -2.58956318
O        1.87592862      -2.25575844       3.68086402
P        1.22169678      -1.11006121       2.75969340
O        0.68854921       0.07459171       3.47163363
O        2.39122090      -0.75783927       1.71210636
O        0.12671119      -1.95152592       1.91901605
H       -1.76012445       2.91397364      -2.11359613
H        0.06071370       2.81787251      -0.31334934
H       -2.15520732       3.04769801       1.22707446
H       -1.67346372       0.57181358      -1.03320808
H       -0.98736213       0.79664148       1.55192576
H        0.39568662       1.11485200      -2.05863799
H        1.71274911       0.66060762       0.39921038
H        1.46362474      -0.85217945      -2.36213750
H        0.69908740      -2.17924828      -0.04475331
H       -0.96035759      -0.91499349      -2.89279103
H       -1.28029667      -1.64747646      -1.32222328
H        0.49966627      -2.88580096      -3.10622344
H        1.62910069      -2.11883289       4.60351526
H        2.22880228      -1.20198201       0.84282785
H       -0.49374289      -1.26830274       1.54487175
32
Properties=species:S:1:pos:R:3 relative_energy_eV=0.3267386668812833 branch=left pbc="F F F"
O       -2.95918279       3.52662786      -0.60814398
C       -1.94736109       3.00604900      -1.02222803
C       -0.92754688       2.40239981      -0.09519348
O       -1.25842197       2.68955755       1.23851404
C       -0.84610631       0.86160800      -0.37023557
O       -1.06817076       0.14926921       0.83621447
C        0.48236511       0.54764999      -1.09336178
O        1.60076909       1.11146104      -0.45066085
C        0.72707006      -0.91794371      -1.52884774
O        1.34328989      -1.76580036      -0.56019440
C       -0.51944503      -1.57347605      -2.09624115
O       -0.29127390      -2.88316769      -2.57815579
O        1.90381394      -2.22321268       3.62111304
P        1.20751822      -1.08631568       2.71381331
O        0.66290557       0.11234253       3.39360029
O        2.37920341      -0.71808798       1.66660321
O        0.09934943      -1.94203481       1.89774865
H       -1.75054981       2.90697820      -2.10758292
H        0.06188389       2.81617228      -0.30617410
H       -2.16146562       3.05266903       1.22993539
H       -1.65821734       0.56785267      -1.03995100
H       -0.96958570       0.79071946       1.57151516
H        0.40050016       1.11513941      -2.03055718
H        1.74961369       0.67852204       0.40752252
H        1.48212378      -0.86920101      -2.31257859
H        0.66028463      -2.17155998       0.00373247
H       -0.94763190      -0.92986284      -2.87510311
H       -1.26618938      -1.66605670      -1.30370844
H        0.51152721      -2.88649653      -3.11342185
H        1.62804716      -2.20914116       4.54560499
H        2.26559295      -1.19113508       0.80133834
H       -0.54214250      -1.25834095       1.54989977
32
Properties=species:S:1:pos:R:3 relative_energy_eV=0.4903675331370323 branch=left pbc="F F F"
O       -2.96462423       3.52860942      -0.61656521
C       -1.94292176       3.00778392      -1.02339222
C       -0.92616689       2.41568895      -0.08566707
O       -1.25261991       2.71855478       1.24443997
C       -0.84276068       0.86902815      -0.34647477
O       -1.10272945       0.15697496       0.85126942
C        0.50253096       0.53797064      -1.02751455
O        1.59824436       1.15517664      -0.39773058
C        0.75900008      -0.93261365      -1.44975358
O        1.33095844      -1.82720728      -0.48796745
C       -0.47068862      -1.60064328      -2.03001039
O       -0.21582033      -2.90529734      -2.49324846
O        1.96823980      -2.19147325       3.47042539
P        1.20655957      -1.07404363       2.59294296
O        0.66699671       0.10593779       3.30224961
O        2.29982005      -0.71247269       1.49965329
O        0.04154485      -1.96759205       1.84790007
H       -1.74396390       2.90325616      -2.10715115
H        0.06049848       2.83413145      -0.30124872
H       -2.16725542       3.04897191       1.24093329
H       -1.63510037       0.58393197      -1.04359043
H       -0.93030431       0.77133719       1.59452373
H        0.42567605       1.06618804      -1.98440702
H        1.81959514       0.70627476       0.44160754
H        1.53722317      -0.87367329      -2.20777008
H        0.64468599      -2.05811987       0.18316341
H       -0.88630466      -0.95716512      -2.81275865
H       -1.21987898      -1.70738638      -1.24244200
H        0.50687903      -2.87918436      -3.13125399
H        1.56205484      -2.19550954       4.34383084
H        2.06980530      -1.18382854       0.59077600
H       -0.64660604      -1.30042145       1.57004617
32
Properties=species:S:1:pos:R:3 relative_energy_eV=0.8979279948907788 branch=ts pbc="F F F"
O       -2.96159214       3.52612501      -0.61698245
C       -1.94533304       3.00722030      -1.02089722
C       -0.92688199       2.41455635      -0.08446706
O       -1.25560689       2.71229352       1.24451409
C       -0.84633463       0.87175657      -0.34791764
O       -1.11297452       0.16317282       0.85055975
C        0.50409210       0.54259821      -1.02099677
O        1.59994191       1.15835200      -0.39446784
C        0.76780108      -0.92935241      -1.41894710
O        1.30259761      -1.80118324      -0.39586858
C       -0.45816091      -1.60795715      -2.01073571
O       -0.21071865      -2.91051391      -2.48905422
O        1.91801008      -2.21914781       3.46966029
P        1.31398354      -1.02340622       2.57379139
O        0.55150810       0.01182885       3.32308022
O        2.35720894      -0.66168220       1.51443190
O        0.13297074      -1.93831064       1.68546440
H       -1.74465067       2.89943209      -2.10566099
H        0.06135414       2.83035413      -0.29888412
H       -2.16726101       3.05010467       1.23883598
H       -1.63736000       0.58667830      -1.04913042
H       -0.93741134       0.77062831       1.59799198
H        0.42495204       1.06099527      -1.98510658
H        1.84460365       0.70173194       0.43936902
H        1.54950950      -0.88840704      -2.18440893
H        0.58608965      -2.01872615       0.55083396
H       -0.86615410      -0.96240672      -2.79973641
H       -1.22682645      -1.71466927      -1.24441088
H        0.50772841      -2.88267172      -3.13144285
H        1.50543433      -2.21366033       4.34250908
H        1.96852479      -1.26793546       0.20809451
H       -0.59905168      -1.26781583       1.55999899
32
Properties=species:S:1:pos:R:3 relative_energy_eV=0.875440253134002 branch=right pbc="F F F"
O       -2.96129369       3.52640956      -0.61688856
C       -1.94515857       3.00656320      -1.02056962
C       -0.92668400       2.41328888      -0.08429756
O       -1.25601036       2.71198164       1.24534277
C       -0.84516345       0.87065115      -0.34869740
O       -1.11194265       0.16221008       0.85015926
C        0.50282670       0.54006131      -1.02412084
O        1.59785412       1.16004971      -0.39436971
C        0.76798943      -0.93086940      -1.43051126
O        1.29662536      -1.81060666      -0.42321624
C       -0.46081793      -1.60527299      -2.01550348
O       -0.21335681      -2.90963900      -2.49304261
O        1.91319046      -2.22489360       3.47308122
P        1.34630115      -1.00252923       2.59377846
O        0.53536267       0.00539258       3.32599479
O        2.37160114      -0.65240496       1.53688944
O        0.11925588      -1.94153404       1.68589362
H       -1.74458301       2.89926522      -2.10534976
H        0.06089270       2.83023112      -0.29887766
H       -2.16748375       3.05069077       1.23885227
H       -1.63667123       0.58583577      -1.04915102
H       -0.94561431       0.77266843       1.59700428
H        0.42450477       1.06149067      -1.98565718
H        1.84851048       0.69673135       0.43232979
H        1.54696740      -0.88222942      -2.19951808
H        0.56399933      -2.04195621       0.67053432
H       -0.87367827      -0.96355314      -2.80333076
H       -1.22436336      -1.71504545      -1.24397652
H        0.51313497      -2.88270585      -3.12657564
H        1.49436635      -2.22169234       4.34147023
H        1.95982647      -1.29838376       0.14994723
H       -0.60297069      -1.25342604       1.53760074
32
Properties=species:S:1:pos:R:3 relative_energy_eV=0.8545340203563683 branch=right pbc="F F F"
O       -2.96044861       3.52734383      -0.61622537
C       -1.94455637       3.00598885      -1.02049035
C       -0.92693832       2.41189116      -0.08433200
O       -1.25616812       2.71153179       1.24548023
C       -0.84572261       0.86911726      -0.35167162
O       -1.11239951       0.16209664       0.84797899
C        0.50051665       0.53773106      -1.03087885
O        1.59289678       1.15638099      -0.39564989
C        0.77337696      -0.93073675      -1.44645688
O        1.31206576      -1.81581228      -0.44934242
C       -0.46384143      -1.60147209      -2.02549252
O       -0.22452899      -2.90541012      -2.50952331
O        1.91731584      -2.22035644       3.48964273
P        1.36740059      -0.98385075       2.61570021
O        0.52327676      -0.00260786       3.34378780
O        2.40686582      -0.62882998       1.58167847
O        0.12992915      -1.93914640       1.68422096
H       -1.74440011       2.89986833      -2.10500148
H        0.06030662       2.82972096      -0.29862693
H       -2.16771952       3.05042023       1.23912063
H       -1.63667175       0.58297476      -1.05104651
H       -0.94794585       0.77440539       1.59407948
H        0.42343578       1.06283603      -1.99010458
H        1.84725813       0.69086486       0.42755575
H        1.54210669      -0.87233782      -2.22847389
H        0.52672986      -2.06825833       0.70090358
H       -0.88494349      -0.95852265      -2.81093348
H       -1.22088734      -1.71175609      -1.24627531
H        0.51854196      -2.88202761      -3.12376189
H        1.48687485      -2.22701920       4.35309285
H        1.94892688      -1.31736741       0.13457386
H       -0.59323557      -1.25088089       1.54169619
32
Properties=species:S:1:pos:R:3 relative_energy_eV=0.8386372244785889 branch=right pbc="F F F"
O       -2.95978186       3.52874907      -0.61464049
C       -1.94444186       3.00647068      -1.02135372
C       -0.92745775       2.40836595      -0.08662474
O       -1.25614139       2.70644668       1.24420704
C       -0.84760377       0.86408071      -0.35684839
O       -1.10533035       0.15706050       0.84536396
C        0.49940725       0.53651914      -1.03935179
O        1.59503249       1.14607155      -0.40003970
C        0.77164984      -0.92655071      -1.46270076
O        1.30350422      -1.80917143      -0.46123534
C       -0.46490056      -1.59361480      -2.03802101
O       -0.23971453      -2.89386441      -2.53696617
O        1.93047584      -2.20673827       3.52051659
P        1.37266118      -0.98471502       2.63684868
O        0.51882111      -0.01447224       3.36440018
O        2.40469598      -0.61543701       1.60341044
O        0.12426171      -1.95376374       1.71838174
H       -1.74437101       2.90020198      -2.10584940
H        0.06057744       2.82521712      -0.29964778
H       -2.16653440       3.04887150       1.23849931
H       -1.64153221       0.57919350      -1.05528136
H       -0.95459865       0.78027696       1.58619219
H        0.42174715       1.06675894      -1.99545850
H        1.84681144       0.67937643       0.42465960
H        1.52766258      -0.86239419      -2.25835127
H        0.53163000      -2.07894796       0.75006006
H       -0.89551065      -0.94835062      -2.81203825
H       -1.21338332      -1.70587412      -1.25408061
H        0.52740084      -2.88496065      -3.12137734
H        1.47006211      -2.23372720       4.36739108
H        1.97084988      -1.32725442       0.09419984
H       -0.56853110      -1.23704451       1.54096030
32
Properties=species:S:1:pos:R:3 relative_energy_eV=0.826573099468078 branch=right pbc="F F F"
O       -2.95525692       3.53041235      -0.61379853
C       -1.94479595       3.00430217      -1.02268447
C       -0.92767588       2.40136835      -0.09054856
O       -1.25674979       2.69273603       1.24228432
C       -0.84475931       0.86163802      -0.36412568
O       -1.08143782       0.14957506       0.83950042
C        0.49709500       0.53908770      -1.05354125
O        1.59553208       1.13266520      -0.40495747
C        0.76357830      -0.92225993      -1.48031091
O        1.30126052      -1.79942350      -0.48219633
C       -0.47777795      -1.58404479      -2.05623130
O       -0.25603015      -2.88084256      -2.57085366
O        1.94972649      -2.18937262       3.56169096
P        1.37821045      -0.97429809       2.67176926
O        0.50737531      -0.01916048       3.40248882
O        2.38905042      -0.61777612       1.61679580
O        0.13616989      -1.94757604       1.75072093
H       -1.74652848       2.90278513      -2.10806266
H        0.06041249       2.81767733      -0.30275771
H       -2.16341140       3.04499839       1.23664663
H       -1.64356580       0.57362199      -1.05470672
H       -0.96935368       0.78562493       1.57646499
H        0.42231304       1.07985948      -2.00414054
H        1.83479123       0.65753995       0.41925088
H        1.52072498      -0.86158657      -2.27264945
H        0.54470089      -2.10749381       0.80515306
H       -0.91113351      -0.92217850      -2.82042338
H       -1.21686070      -1.70506565      -1.26183292
H        0.53920078      -2.88200599      -3.11752310
H        1.44857985      -2.24280047       4.38510190
H        2.00282341      -1.33433230       0.03583769
H       -0.54878988      -1.22689533       1.55286323
32
Properties=species:S:1:pos:R:3 relative_energy_eV=0.8234677817235934 branch=right pbc="F F F"
O       -2.95331132       3.53110817      -0.61242039
C       -1.94414629       3.00444101      -1.02358503
C       -0.92667079       2.39825489      -0.09227743
O       -1.25814241       2.68385443       1.24156533
C       -0.84192503       0.85861509      -0.36683927
O       -1.06480345       0.14456057       0.83816166
C        0.49819938       0.53971114      -1.05979400
O        1.59520375       1.12644544      -0.40434686
C        0.76180701      -0.92204456      -1.48736562
O        1.29933434      -1.80452630      -0.49106514
C       -0.48129976      -1.57919181      -2.06039833
O       -0.26231132      -2.87162781      -2.58176430
O        1.95292670      -2.17712677       3.57419283
P        1.37929281      -0.96518582       2.68207161
O        0.51016321      -0.01371725       3.42010956
O        2.39149027      -0.61150087       1.62589397
O        0.13801045      -1.95242508       1.76042500
H       -1.74752709       2.90352566      -2.10979496
H        0.06108699       2.81703404      -0.30358681
H       -2.16228306       3.04279460       1.23553512
H       -1.64438701       0.57052359      -1.05314958
H       -0.97939802       0.78727126       1.57330734
H        0.42580366       1.08507057      -2.00862106
H        1.82279918       0.64577973       0.42037233
H        1.52241470      -0.86385478      -2.27687083
H        0.54793252      -2.10979194       0.81494132
H       -0.91652732      -0.91670426      -2.82013135
H       -1.22550388      -1.70529707      -1.27276865
H        0.54179335      -2.87218098      -3.11420073
H        1.44517335      -2.24659523       4.39225701
H        2.00546238      -1.34070446       0.01839719
H       -0.54323927      -1.22973583       1.55697418
32
Properties=species:S:1:pos:R:3 relative_energy_eV=0.8216634361160686 branch=right pbc="F F F"
O       -2.95064937       3.53167741      -0.61114166
C       -1.94309193       3.00280639      -1.02388019
C       -0.92586742       2.39518605      -0.09373621
O       -1.26000864       2.67519685       1.24090095
C       -0.83883256       0.85734229      -0.36991315
O       -1.05070722       0.14168027       0.83519095
C        0.50007405       0.53837760      -1.06244615
O        1.59703077       1.11699759      -0.40109064
C        0.75875273      -0.92258326      -1.49002654
O        1.29168353      -1.80290599      -0.49111270
C       -0.48614257      -1.57673764      -2.06483533
O       -0.26410805      -2.86810418      -2.59019109
O        1.95802428      -2.17228966       3.57989409
P        1.38111711      -0.96024286       2.68874905
O        0.51577745      -0.00483761       3.42524927
O        2.38364295      -0.60307823       1.62641047
O        0.14300539      -1.95420225       1.76550780
H       -1.74790221       2.90410738      -2.11021056
H        0.06129173       2.81679129      -0.30216989
H       -2.16167484       3.04019410       1.23385994
H       -1.64486395       0.56672992      -1.05107324
H       -0.98908346       0.78837076       1.56898853
H        0.43180497       1.08516493      -2.01038433
H        1.81416944       0.63704294       0.42791862
H        1.51983380      -0.86796218      -2.27992098
H        0.55059820      -2.10424150       0.82000265
H       -0.91874467      -0.90874146      -2.82293986
H       -1.23230222      -1.70130940      -1.27769573
H        0.54524041      -2.86241754      -3.11506986
H        1.44588885      -2.24452058       4.39508534
H        2.00708371      -1.34819912       0.01271532
H       -0.54362217      -1.23851287       1.56258905
32
Properties=species:S:1:pos:R:3 relative_energy_eV=0.8205271546175936 branch=right pbc="F F F"
O       -2.94856137       3.53181960      -0.61029305
C       -1.94171288       3.00218700      -1.02367600
C       -0.92511349       2.39251294      -0.09350013
O       -1.26226794       2.66932231       1.24126005
C       -0.83711630       0.85498803      -0.37147685
O       -1.04844490       0.13788845       0.83344895
C        0.50251101       0.53711736      -1.06285362
O        1.59955876       1.10930799      -0.39728319
C        0.75558885      -0.92329526      -1.49252598
O        1.28635443      -1.80648857      -0.49277451
C       -0.48834766      -1.57239384      -2.06994169
O       -0.26637107      -2.86138038      -2.59960478
O        1.96195999      -2.16534156       3.58045855
P        1.38321817      -0.95376276       2.69034798
O        0.51549111      -0.00316841       3.43003869
O        2.38567275      -0.59454543       1.62784816
O        0.14648578      -1.95354739       1.77499026
H       -1.74643692       2.90315913      -2.11018051
H        0.06216227       2.81549101      -0.29940835
H       -2.16278290       3.03740083       1.23216997
H       -1.64258624       0.56501031      -1.05323014
H       -0.99553872       0.78921291       1.56422344
H        0.43925114       1.08523205      -2.01093928
H        1.81033420       0.63051073       0.43483828
H        1.51357245      -0.87201497      -2.28450595
H        0.54650617      -2.10431101       0.82556399
H       -0.91908210      -0.90387344      -2.82837563
H       -1.23207325      -1.69768497      -1.28132636
H        0.54679693      -2.85807474      -3.11860467
H        1.45085993      -2.23887593       4.39630018
H        2.00387149      -1.35153253       0.00752254
H       -0.54634152      -1.24408990       1.57671347
32
Properties=species:S:1:pos:R:3 relative_energy_eV=0.8193147733836668 branch=right pbc="F F F"
O       -2.94496288       3.53135806      -0.61059432
C       -1.93860419       3.00006451      -1.02317899
C       -0.92402162       2.38875176      -0.09237746
O       -1.26561735       2.66218824       1.24220263
C       -0.83499498       0.85245710      -0.37339481
O       -1.04907174       0.13400394       0.83025317
C        0.50630930       0.53538939      -1.06200856
O        1.60284790       1.10300282      -0.39187174
C        0.75417011      -0.92490086      -1.49536781
O        1.27663015      -1.80652887      -0.49333595
C       -0.49091791      -1.56937797      -2.07666219
O       -0.27172436      -2.85691096      -2.61219286
O        1.97328275      -2.15492813       3.58143902
P        1.38523404      -0.94692222       2.69399783
O        0.51399360      -0.00071621       3.43526966
O        2.38015050      -0.58947384       1.62527987
O        0.14374097      -1.95673645       1.78381086
H       -1.74314507       2.90138229      -2.10937610
H        0.06383911       2.81192800      -0.29486107
H       -2.16525452       3.03259636       1.23044108
H       -1.63801306       0.56455337      -1.05927840
H       -1.00498917       0.78715529       1.56000340
H        0.44794967       1.08775451      -2.00701821
H        1.80844873       0.62152150       0.44050950
H        1.51562986      -0.87778381      -2.28479601
H        0.54284599      -2.09980757       0.83543029
H       -0.91871978      -0.89546599      -2.83206999
H       -1.23666991      -1.69657717      -1.29023864
H        0.54582556      -2.85268137      -3.12409351
H        1.46166083      -2.22786294       4.39670098
H        2.00096486      -1.35377480      -0.00430654
H       -0.54939924      -1.24687818       1.59690848
32
Properties=species:S:1:pos:R:3 relative_energy_eV=0.8179735576632083 branch=right pbc="F F F"
O       -2.94097702       3.52987571      -0.61246243
C       -1.93403611       2.99818163      -1.02280014
C       -0.92239660       2.38507852      -0.08979425
O       -1.26863612       2.65650556       1.24411877
C       -0.83354570       0.84941434      -0.37479577
O       -1.05320431       0.12761554       0.82664620
C        0.50875810       0.53467362      -1.06215036
O        1.60318501       1.09842039      -0.38661574
C        0.75343886      -0.92516436      -1.50046751
O        1.26814846      -1.81013628      -0.49556073
C       -0.49293856      -1.56529825      -2.08555404
O       -0.27731307      -2.85150404      -2.62475247
O        1.98836405      -2.14215418       3.58681412
P        1.38683792      -0.94075887       2.69797765
O        0.51172360       0.00034616       3.44043261
O        2.37785186      -0.57960361       1.62661894
O        0.14173902      -1.95348487       1.79773208
H       -1.73564900       2.89829271      -2.10855354
H        0.06652750       2.80810454      -0.28741327
H       -2.16882350       3.02573644       1.22944303
H       -1.63288616       0.56438623      -1.06562114
H       -1.01755040       0.78199859       1.55621726
H        0.45232889       1.09238396      -2.00488629
H        1.81341122       0.61150828       0.44268860
H        1.52148639      -0.87820491      -2.28400953
H        0.52674018      -2.09536171       0.84441470
H       -0.91987784      -0.88674463      -2.83727032
H       -1.24187923      -1.69520742      -1.30240685
H        0.54157643      -2.85112745      -3.13415425
H        1.48139619      -2.21757796       4.40503174
H        1.99962458      -1.36414062      -0.01191151
H       -0.55600637      -1.24927311       1.60826780
32
Properties=species:S:1:pos:R:3 relative_energy_eV=0.8169292030870565 branch=right pbc="F F F"
O       -2.93715376       3.52784954      -0.61592505
C       -1.92859550       2.99616709      -1.02286674
C       -0.92082362       2.38185857      -0.08715917
O       -1.27174097       2.64935311       1.24645326
C       -0.83313054       0.84776394      -0.37584430
O       -1.05483193       0.12209760       0.82256197
C        0.51003610       0.53480987      -1.06113247
O        1.60522178       1.09629745      -0.38517635
C        0.75230175      -0.92418624      -1.49959449
O        1.25778275      -1.81256672      -0.49478522
C       -0.49273706      -1.55981965      -2.09314369
O       -0.28034737      -2.84642095      -2.63393725
O        1.99804517      -2.13019445       3.59008403
P        1.38533262      -0.93379815       2.70284498
O        0.51076962       0.00560331       3.44782485
O        2.37045831      -0.57654683       1.62565750
O        0.13741173      -1.95071016       1.80347415
H       -1.72718846       2.89663246      -2.10786337
H        0.06921687       2.80444704      -0.27966583
H       -2.17189230       3.01839546       1.22940957
H       -1.63250887       0.56386423      -1.06750646
H       -1.03143936       0.77612205       1.55251356
H        0.45344209       1.09313381      -2.00308369
H        1.81680586       0.60169270       0.43987579
H        1.52232699      -0.87761728      -2.27994831
H        0.52360786      -2.09214203       0.85228475
H       -0.91787995      -0.87936469      -2.84469084
H       -1.24343204      -1.69031724      -1.31239896
H        0.53655140      -2.84997818      -3.14693390
H        1.50431354      -2.20888473       4.41585309
H        1.99993896      -1.37914032      -0.01842071
H       -0.56244329      -1.24762074       1.61646229
32
Properties=species:S:1:pos:R:3 relative_energy_eV=0.8159011141324299 branch=right pbc="F F F"
O       -2.93239943       3.52609982      -0.61991360
C       -1.92229880       2.99491253      -1.02316500
C       -0.91957277       2.37697331      -0.08442222
O       -1.27781023       2.63678368       1.24914467
C       -0.83313338       0.84429732      -0.37739598
O       -1.05365261       0.11650539       0.82029992
C        0.50951212       0.53169035      -1.06424698
O        1.60445861       1.08950793      -0.38632207
C        0.75059430      -0.92525935      -1.50903260
O        1.24661225      -1.81941629      -0.50461869
C       -0.49508676      -1.55343537      -2.10600099
O       -0.28684223      -2.83871309      -2.65079814
O        2.00813068      -2.11807898       3.59936989
P        1.38442346      -0.92309806       2.71775790
O        0.50727653       0.01189275       3.46553248
O        2.36545862      -0.56742260       1.63713241
O        0.13762987      -1.94873966       1.82403784
H       -1.71554860       2.89706092      -2.10748358
H        0.07211526       2.79891360      -0.26956747
H       -2.17643489       3.00933067       1.23008087
H       -1.63364245       0.56437372      -1.06896013
H       -1.05146326       0.77466535       1.54760249
H        0.45441337       1.09189367      -2.00469852
H        1.81751868       0.58826885       0.43487447
H        1.52349146      -0.87624911      -2.28692989
H        0.52060021      -2.09734101       0.87699994
H       -0.91193646      -0.86624374      -2.85608414
H       -1.24606348      -1.68048292      -1.32457307
H        0.53153256      -2.84126574      -3.16152100
H        1.52615187      -2.19536336       4.43165272
H        2.00160453      -1.40063912      -0.04005198
H       -0.55822058      -1.24464161       1.62652299
32
Properties=species:S:1:pos:R:3 relative_energy_eV=0.8149712185550015 branch=right pbc="F F F"
O       -2.92928906       3.52507310      -0.62393544
C       -1.91687969       2.99489101      -1.02307100
C       -0.91911238       2.37304622      -0.08087522
O       -1.28407913       2.62917831       1.25204566
C       -0.83384880       0.83983557      -0.37661510
O       -1.05103486       0.11245559       0.82213657
C        0.50862091       0.52835140      -1.06739698
O        1.60469070       1.08316076      -0.38954723
C        0.75097930      -0.92750779      -1.51377081
O        1.23906577      -1.82370233      -0.51035560
C       -0.49471407      -1.54857580      -2.11477836
O       -0.29063416      -2.83383407      -2.65945670
O        2.01058702      -2.11421209       3.60815559
P        1.38648949      -0.91693335       2.72825949
O        0.50724851       0.01341504       3.47872732
O        2.35806544      -0.55737321       1.64123527
O        0.13740697      -1.94539954       1.83639622
H       -1.70402641       2.90047322      -2.10656745
H        0.07405826       2.79449795      -0.25962306
H       -2.18221896       3.00289711       1.23046955
H       -1.63679454       0.56491521      -1.06805359
H       -1.06669132       0.77550795       1.54492937
H        0.45061556       1.08924143      -2.00864284
H        1.81821331       0.58175780       0.43246994
H        1.52622449      -0.87769155      -2.28990123
H        0.52353538      -2.10516352       0.89757402
H       -0.90536030      -0.85883149      -2.86556634
H       -1.25055848      -1.67389189      -1.33847143
H        0.52403690      -2.83361652      -3.17574046
H        1.54097995      -2.18144967       4.44880876
H        2.00654491      -1.41522465      -0.06344878
H       -0.55470243      -1.23851041       1.62983209
32
Properties=species:S:1:pos:R:3 relative_energy_eV=0.8139161661092658 branch=right pbc="F F F"
O       -2.92471142       3.52382715      -0.62767154
C       -1.91003211       2.99475587      -1.02218955
C       -0.91899233       2.36974999      -0.07584154
O       -1.29255641       2.62328681       1.25558997
C       -0.83302378       0.83803176      -0.37514229
O       -1.04996367       0.11018614       0.82284828
C        0.50868498       0.52525468      -1.06718907
O        1.60763656       1.07800145      -0.39247075
C        0.74820074      -0.92933182      -1.51818109
O        1.23360875      -1.82737881      -0.51564492
C       -0.49676259      -1.54643339      -2.12601795
O       -0.29244216      -2.83317852      -2.66756151
O        2.01173832      -2.11097298       3.61375429
P        1.38765661      -0.91208687       2.73558697
O        0.50950459       0.01359115       3.49280494
O        2.35950148      -0.54385222       1.65230125
O        0.13630931      -1.94238598       1.84581504
H       -1.68987066       2.90660027      -2.10432635
H        0.07565845       2.78974062      -0.24642667
H       -2.19084033       2.99667341       1.22844399
H       -1.63736262       0.56151261      -1.06431399
H       -1.07968949       0.77487205       1.54412169
H        0.44818933       1.08414793      -2.00766686
H        1.81489532       0.57888653       0.43278279
H        1.52660991      -0.88156767      -2.29064021
H        0.52079865      -2.11248877       0.91091249
H       -0.90002294      -0.85382233      -2.87887197
H       -1.25779810      -1.66875163      -1.35447643
H        0.51406784      -2.83007783      -3.19709181
H        1.55691727      -2.15853024       4.46378778
H        2.01361825      -1.42877904      -0.08422274
H       -0.55210959      -1.23270058       1.63241970
32
Properties=species:S:1:pos:R:3 relative_energy_eV=0.813131803930446 branch=right pbc="F F F"
O       -2.92223598       3.52344583      -0.62877575
C       -1.90577381       2.99674318      -1.02229481
C       -0.91803009       2.36786417      -0.07363717
O       -1.29853464       2.61802218       1.25640919
C       -0.83206411       0.83518517      -0.37289440
O       -1.04459273       0.10764278       0.82603880
C        0.50734489       0.52380354      -1.06947451
O        1.60709535       1.07237129      -0.39319417
C        0.74533574      -0.93098232      -1.52086854
O        1.22916458      -1.82627741      -0.51643885
C       -0.49875088      -1.54657225      -2.13300180
O       -0.29539094      -2.83279199      -2.67661671
O        2.01366213      -2.10775789       3.62132097
P        1.38904533      -0.90777320       2.74494397
O        0.50828020       0.01427469       3.50429723
O        2.35905845      -0.53990231       1.66103509
O        0.13831197      -1.94166165       1.85123595
H       -1.68157474       2.91185015      -2.10416611
H        0.07786750       2.78817427      -0.23935952
H       -2.19587535       2.99348634       1.22528826
H       -1.63643929       0.55847357      -1.06143289
H       -1.08470320       0.77368450       1.54522464
H        0.44959539       1.08719162      -2.00895692
H        1.81024923       0.57732394       0.43553445
H        1.52264943      -0.88093880      -2.29412081
H        0.52407239      -2.11347568       0.91908773
H       -0.89975712      -0.85353329      -2.88690338
H       -1.26367331      -1.66911153      -1.36537949
H        0.50785926      -2.83015994      -3.21103254
H        1.56081203      -2.14523904       4.47270278
H        2.02078550      -1.43651745      -0.10167174
H       -0.54637501      -1.23006288       1.63232289
32
Properties=species:S:1:pos:R:3 relative_energy_eV=0.8122248356448836 branch=right pbc="F F F"
O       -2.91786197       3.52243619      -0.63260816
C       -1.89900228       2.99773540      -1.02251794
C       -0.91707129       2.36611724      -0.06993884
O       -1.30583151       2.61384360       1.25819174
C       -0.83236277       0.83475716      -0.37125754
O       -1.04213508       0.10666970       0.82827822
C        0.50584857       0.52306969      -1.06958944
O        1.60660027       1.06796050      -0.39132230
C        0.74106976      -0.93063613      -1.52735185
O        1.22301378      -1.82632795      -0.52325604
C       -0.50098510      -1.55012924      -2.14101661
O       -0.29829818      -2.83696843      -2.68441269
O        2.01225389      -2.10293937       3.63194312
P        1.38936993      -0.90413860       2.75217393
O        0.50337410       0.01339878       3.51134546
O        2.36027959      -0.53378290       1.67000239
O        0.14587258      -1.93786757       1.85544270
H       -1.67009200       2.92045076      -2.10354879
H        0.07984419       2.78631389      -0.22942702
H       -2.20277908       2.98972199       1.22061816
H       -1.63895841       0.55755906      -1.05749115
H       -1.08373711       0.77067135       1.55021675
H        0.45114641       1.08978299      -2.00632063
H        1.80735499       0.57542309       0.43976987
H        1.51917809      -0.87806102      -2.29951817
H        0.53262631      -2.10982245       0.92526749
H       -0.89762411      -0.85794970      -2.89619845
H       -1.26731618      -1.67380703      -1.37544003
H        0.49629892      -2.83091396      -3.23154687
H        1.56729690      -2.13251685       4.48769998
H        2.02203531      -1.44426560      -0.11792239
H       -0.54199057      -1.22900510       1.63495672
32
Properties=species:S:1:pos:R:3 relative_energy_eV=0.8112984729596064 branch=right pbc="F F F"
O       -2.91677696       3.52370528      -0.63526218
C       -1.89606080       3.00131247      -1.02394325
C       -0.91743614       2.36603328      -0.06929443
O       -1.30923880       2.61478803       1.25742897
C       -0.83297935       0.83344578      -0.37018799
O       -1.03562617       0.10431671       0.82943461
C        0.50397259       0.52232267      -1.07147999
O        1.60597587       1.06080728      -0.38951119
C        0.73822578      -0.93049042      -1.53505323
O        1.22494450      -1.82588021      -0.53222509
C       -0.50490058      -1.55166268      -2.14671996
O       -0.29785610      -2.83915176      -2.68790221
O        2.01371681      -2.09651775       3.64956542
P        1.39092647      -0.90171383       2.76362900
O        0.49650808       0.01471632       3.51418111
O        2.36166934      -0.52971539       1.68300717
O        0.15327996      -1.94116992       1.85757071
H       -1.66196958       2.92734204      -2.10450199
H        0.08078229       2.78412570      -0.22563283
H       -2.20679586       2.98904430       1.21782454
H       -1.64394978       0.55845432      -1.05147367
H       -1.07268977       0.76865176       1.55021303
H        0.45088994       1.09528370      -2.00472562
H        1.80097957       0.56855355       0.44305672
H        1.51453186      -0.87509001      -2.30914176
H        0.54438038      -2.10663030       0.92897790
H       -0.90954432      -0.86167518      -2.90187174
H       -1.26746461      -1.67992934      -1.37782922
H        0.49033249      -2.83071294      -3.24452085
H        1.55761432      -2.13307282       4.49958963
H        2.02610461      -1.44061658      -0.13618310
H       -0.53412837      -1.23209464       1.63820299
32
Properties=species:S:1:pos:R:3 relative_energy_eV=0.8107363489834825 branch=right pbc="F F F"
O       -2.91482807       3.52420451      -0.64134211
C       -1.89190706       3.00248528      -1.02467563
C       -0.91723858       2.36621713      -0.06681158
O       -1.31176495       2.61694856       1.25868021
C       -0.83478893       0.83361915      -0.36847707
O       -1.03772273       0.10402061       0.83083919
C        0.50127148       0.52094123      -1.07115294
O        1.60568641       1.05470456      -0.38954412
C        0.73644992      -0.92933492      -1.53744750
O        1.22656569      -1.82154753      -0.53396987
C       -0.50465931      -1.55461446      -2.14645418
O       -0.29427743      -2.84221098      -2.68504864
O        2.01223773      -2.09157203       3.65411214
P        1.38945989      -0.89939990       2.76481945
O        0.49068403       0.01669856       3.51125768
O        2.36465449      -0.52867398       1.68794806
O        0.15777066      -1.94341749       1.85557467
H       -1.65314198       2.93229128      -2.10395407
H        0.08214175       2.78240471      -0.22140721
H       -2.21114710       2.98664755       1.21788180
H       -1.64615881       0.55939369      -1.04986266
H       -1.06387233       0.76545290       1.55519189
H        0.44893049       1.09488997      -2.00313887
H        1.80028849       0.56476232       0.44469204
H        1.51239988      -0.87473242      -2.31163859
H        0.54611242      -2.10311414       0.92405172
H       -0.91335643      -0.86911522      -2.90173205
H       -1.26652880      -1.68024450      -1.37746932
H        0.48196692      -2.82649206      -3.25785023
H        1.55707182      -2.12849285       4.50435290
H        2.02994771      -1.43617334      -0.14262054
H       -0.53482998      -1.23976672       1.64041675
32
Properties=species:S:1:pos:R:3 relative_energy_eV=0.8103088423667941 branch=right pbc="F F F"
O       -2.91317312       3.52462814      -0.64505415
C       -1.88874856       3.00426792      -1.02650474
C       -0.91723969       2.36620027      -0.06619065
O       -1.31161399       2.61768283       1.25887485
C       -0.83576519       0.83356785      -0.36716811
O       -1.03700116       0.10356781       0.83225503
C        0.50023554       0.52219485      -1.07222075
O        1.60586144       1.05352278      -0.39010263
C        0.73568003      -0.92888175      -1.53750290
O        1.23026319      -1.81771689      -0.53318160
C       -0.50654826      -1.55707908      -2.14336336
O       -0.29295973      -2.84447599      -2.68297007
O        2.01119325      -2.08654172       3.65897205
P        1.38911219      -0.89784439       2.76516399
O        0.48579436       0.01650766       3.50801418
O        2.36551928      -0.52775666       1.68936166
O        0.15931223      -1.94754318       1.85427840
H       -1.64613604       2.93491418      -2.10563408
H        0.08252872       2.78136950      -0.21940045
H       -2.21219766       2.98366960       1.21826953
H       -1.64782815       0.55907753      -1.04803025
H       -1.05743608       0.76243168       1.55881258
H        0.44664705       1.09684791      -2.00449719
H        1.79734364       0.56024786       0.44291257
H        1.50929105      -0.87226399      -2.31444476
H        0.55088181      -2.10065154       0.92298208
H       -0.91582187      -0.87163237      -2.89957139
H       -1.26653766      -1.68406687      -1.37174142
H        0.47632069      -2.82041932      -3.26512962
H        1.55062730      -2.12734368       4.50633685
H        2.03649537      -1.43175415      -0.14926254
H       -0.53668296      -1.24794730       1.64095819
32
Properties=species:S:1:pos:R:3 relative_energy_eV=0.8099445152911358 branch=right pbc="F F F"
O       -2.91024680       3.52474802      -0.64982654
C       -1.88431521       3.00487605      -1.02764812
C       -0.91594237       2.36590873      -0.06494550
O       -1.31254868       2.61822053       1.25910378
C       -0.83562671       0.83344552      -0.36609863
O       -1.03650498       0.10154381       0.83217330
C        0.49866528       0.52241349      -1.07198876
O        1.60369665       1.05448259      -0.39033914
C        0.73441572      -0.92782740      -1.53701718
O        1.23379801      -1.81661330      -0.53522848
C       -0.50709391      -1.55844599      -2.13945691
O       -0.29206908      -2.84426088      -2.68075117
O        2.01090429      -2.08304276       3.66109296
P        1.38777762      -0.89666353       2.76436817
O        0.48034345       0.01684872       3.50329335
O        2.36624953      -0.52387156       1.69170879
O        0.16150224      -1.95063356       1.85304856
H       -1.63759196       2.93807187      -2.10577837
H        0.08461937       2.78040275      -0.21560212
H       -2.21499820       2.97937787       1.21815297
H       -1.64812914       0.55856256      -1.04515229
H       -1.05301396       0.75855922       1.56047403
H        0.44581182       1.09736155      -2.00366058
H        1.79659160       0.56004293       0.44133506
H        1.50500662      -0.87074590      -2.31600554
H        0.55454676      -2.09793263       0.92137037
H       -0.91742324      -0.87395170      -2.89474344
H       -1.26546636      -1.68991185      -1.36758862
H        0.46764851      -2.81562989      -3.27466557
H        1.54629088      -2.12092388       4.50634910
H        2.04090814      -1.43079345      -0.15329774
H       -0.54038922      -1.25683847       1.64254545
32
Properties=species:S:1:pos:R:3 relative_energy_eV=0.8094912994565675 branch=right pbc="F F F"
O       -2.90629443       3.52471838      -0.65513499
C       -1.87818000       3.00607462      -1.02886902
C       -0.91409967       2.36529640      -0.06320707
O       -1.31355239       2.61793355       1.25988720
C       -0.83651682       0.83249713      -0.36583442
O       -1.03126082       0.09788999       0.83102669
C        0.49809585       0.52309777      -1.07176425
O        1.60295900       1.05766188      -0.39091070
C        0.73505799      -0.92761956      -1.53670960
O        1.23979442      -1.81618985      -0.53719132
C       -0.50864996      -1.56005381      -2.13361312
O       -0.29285294      -2.84395977      -2.68012249
O        2.00845668      -2.07531154       3.66432946
P        1.38532120      -0.89271765       2.76386901
O        0.47168573       0.01671191       3.50020969
O        2.36452959      -0.52005532       1.69216663
O        0.16580101      -1.95644347       1.85144819
H       -1.62787284       2.94147517      -2.10623790
H        0.08775486       2.77801724      -0.21213174
H       -2.21813624       2.97334322       1.21657592
H       -1.65095998       0.55845029      -1.04415082
H       -1.04885672       0.75312700       1.56018511
H        0.44389049       1.09717704      -2.00389554
H        1.79786496       0.56496393       0.44133748
H        1.50142075      -0.86907282      -2.32016563
H        0.56048399      -2.09688011       0.91923126
H       -0.92795041      -0.87186859      -2.88126666
H       -1.26274621      -1.69639449      -1.35856927
H        0.45833930      -2.81008475      -3.28466811
H        1.53588671      -2.11629127       4.50500809
H        2.04833395      -1.43054244      -0.15924105
H       -0.54033080      -1.26817085       1.64363030
32
Properties=species:S:1:pos:R:3 relative_energy_eV=0.8088435718382243 branch=right pbc="F F F"
O       -2.89948241       3.52432589      -0.66115086
C       -1.86852749       3.00790279      -1.03031540
C       -0.91256635       2.36164925      -0.06012816
O       -1.32052211       2.61171783       1.26031338
C       -0.83403321       0.83074431      -0.36497339
O       -1.03248972       0.09315290       0.83020148
C        0.49993473       0.52158948      -1.07275577
O        1.60552211       1.05932599      -0.39551080
C        0.73585164      -0.92890123      -1.53791778
O        1.24456368      -1.81715940      -0.53954203
C       -0.51185111      -1.56117936      -2.12673993
O       -0.29924429      -2.84040534      -2.68515146
O        2.00682495      -2.06357814       3.67004019
P        1.38060976      -0.88678036       2.76355778
O        0.45936632       0.01877014       3.49573950
O        2.36098446      -0.50842265       1.69528426
O        0.17264897      -1.96166054       1.84740475
H       -1.60788034       2.94800801      -2.10592066
H        0.09119181       2.77120544      -0.19907596
H       -2.22635402       2.96294990       1.21258518
H       -1.64904043       0.56074121      -1.04277647
H       -1.04873869       0.74458700       1.56353961
H        0.44317336       1.09405670      -2.00553911
H        1.79887508       0.57352045       0.44122945
H        1.50062971      -0.87060521      -2.32263236
H        0.56711617      -2.09678955       0.91346803
H       -0.94116958      -0.87126328      -2.86644667
H       -1.25596032      -1.70356938      -1.34240462
H        0.43947769      -2.79956771      -3.30462159
H        1.53137540      -2.10439167       4.50922480
H        2.05636187      -1.43366107      -0.16695149
H       -0.53923191      -1.27953338       1.64318756
32
Properties=species:S:1:pos:R:3 relative_energy_eV=0.8083665466620005 branch=right pbc="F F F"
O       -2.89418750       3.52470131      -0.66604183
C       -1.86154476       3.00821925      -1.03061426
C       -0.91037773       2.35938510      -0.05671902
O       -1.32592241       2.60638497       1.26221202
C       -0.83285414       0.82898842      -0.36525183
O       -1.02923428       0.08832654       0.82775724
C        0.50117134       0.52180994      -1.07495381
O        1.60919813       1.05788240      -0.40047766
C        0.73651559      -0.92968584      -1.53900027
O        1.25044171      -1.81579980      -0.54114457
C       -0.51497081      -1.56173228      -2.12012515
O       -0.30747415      -2.83704920      -2.68972032
O        2.00747995      -2.05335202       3.67775856
P        1.37802693      -0.88288619       2.76588892
O        0.44829442       0.01868006       3.49175337
O        2.35884801      -0.50162928       1.69975912
O        0.17785880      -1.96518978       1.84526659
H       -1.59840417       2.95390758      -2.10545836
H        0.09450940       2.76910618      -0.19277755
H       -2.23170673       2.95733258       1.20872206
H       -1.64689465       0.55873215      -1.04511981
H       -1.04822675       0.73802996       1.56210386
H        0.44423051       1.09377029      -2.00826047
H        1.79651633       0.57617597       0.43967366
H        1.49770842      -0.87336709      -2.32733764
H        0.57639797      -2.09695375       0.91261841
H       -0.95528345      -0.86745630      -2.84971420
H       -1.24833177      -1.71152035      -1.32785083
H        0.42772750      -2.78943378      -3.31290769
H        1.52122605      -2.10233286       4.51030378
H        2.06285963      -1.42993316      -0.17364860
H       -0.53618195      -1.28633213       1.63852788
32
Properties=species:S:1:pos:R:3 relative_energy_eV=0.8077560506935697 branch=right pbc="F F F"
O       -2.88804151       3.52409933      -0.67036368
C       -1.85191803       3.01155117      -1.03049357
C       -0.90888680       2.35700695      -0.05249088
O       -1.33595517       2.59950919       1.26365301
C       -0.82957136       0.82690605      -0.36754503
O       -1.02923543       0.08166948       0.82226712
C        0.50353037       0.51882795      -1.07765891
O        1.61308638       1.05323595      -0.40484027
C        0.73627162      -0.93270679      -1.54044830
O        1.25636662      -1.81448961      -0.54185448
C       -0.51910259      -1.56402584      -2.11137147
O       -0.31342066      -2.83437389      -2.69216223
O        2.00571315      -2.04388228       3.68205836
P        1.37327031      -0.87750577       2.76615211
O        0.43338639       0.01860841       3.48649097
O        2.36007354      -0.49278891       1.70623213
O        0.18414687      -1.96449671       1.84150919
H       -1.57990002       2.96175813      -2.10349477
H        0.09683832       2.76770501      -0.17694897
H       -2.24146830       2.95062403       1.20362292
H       -1.64281514       0.55684976      -1.04792003
H       -1.05078199       0.72743806       1.56033577
H        0.44456113       1.09083477      -2.01047272
H        1.79793058       0.57714076       0.43930766
H        1.49368994      -0.87861993      -2.33264521
H        0.58934783      -2.09596028       0.91184884
H       -0.96684776      -0.86292710      -2.82993205
H       -1.24388125      -1.72070155      -1.31196527
H        0.40732428      -2.77868252      -3.33117002
H        1.51956513      -2.09338127       4.51460137
H        2.06751787      -1.42239652      -0.17778475
H       -0.53337928      -1.29004738       1.62870483
32
Properties=species:S:1:pos:R:3 relative_energy_eV=0.8072393982220092 branch=right pbc="F F F"
O       -2.88280091       3.52501709      -0.67482771
C       -1.84522583       3.01266134      -1.03154011
C       -0.90828044       2.35410011      -0.05078011
O       -1.34331478       2.59128780       1.26310471
C       -0.82833400       0.82685997      -0.36981399
O       -1.02628705       0.07566619       0.81618756
C        0.50542538       0.52007837      -1.07927992
O        1.61590362       1.05094250      -0.40517947
C        0.73618379      -0.93273398      -1.54051832
O        1.26766328      -1.81010642      -0.54450797
C       -0.52312753      -1.56684728      -2.10091538
O       -0.32058125      -2.83232161      -2.69407393
O        2.00295545      -2.03525092       3.68850108
P        1.37013423      -0.87282403       2.76916542
O        0.42158208       0.01868686       3.48320247
O        2.35849745      -0.48496889       1.71230762
O        0.19046595      -1.96757317       1.83872642
H       -1.56444533       2.97048544      -2.10226818
H        0.09859684       2.76488693      -0.16582705
H       -2.24740685       2.94471686       1.19886581
H       -1.64152860       0.56050935      -1.05165742
H       -1.05216172       0.71717217       1.55713934
H        0.44799754       1.08992614      -2.01410877
H        1.79981294       0.57461017       0.43944043
H        1.48554033      -0.88177154      -2.34057179
H        0.60311888      -2.09869385       0.91298581
H       -0.98177323      -0.86284328      -2.80914261
H       -1.24129512      -1.73169421      -1.29750768
H        0.38905884      -2.76900134      -3.34515071
H        1.51074177      -2.08949872       4.51701848
H        2.07614790      -1.41081809      -0.18305209
H       -0.52584903      -1.29388149       1.61929982
32
Properties=species:S:1:pos:R:3 relative_energy_eV=0.8067983788860147 branch=right pbc="F F F"
O       -2.87916386       3.52463373      -0.68031906
C       -1.83785374       3.01599290      -1.03115917
C       -0.90740652       2.35256978      -0.04618664
O       -1.35178500       2.58375507       1.26620466
C       -0.82724673       0.82648933      -0.37183696
O       -1.03033189       0.07061670       0.81115788
C        0.50766704       0.51861669      -1.07906560
O        1.61691967       1.05120563      -0.40390569
C        0.73595451      -0.93517281      -1.53943349
O        1.27457585      -1.80959293      -0.54406083
C       -0.52569466      -1.57045850      -2.09471114
O       -0.32340030      -2.83426515      -2.69165285
O        2.00007961      -2.03405256       3.68809276
P        1.36735988      -0.87038641       2.76873477
O        0.41689783       0.02042228       3.48186766
O        2.35809559      -0.47720154       1.71565436
O        0.19451758      -1.96629606       1.83503712
H       -1.55138286       2.97801066      -2.10093959
H        0.10040297       2.76207451      -0.15622613
H       -2.25448402       2.94001708       1.19578407
H       -1.64028854       0.56620542      -1.05624398
H       -1.05936176       0.70995946       1.55453951
H        0.45349497       1.08843283      -2.01365736
H        1.80330982       0.57348562       0.43970125
H        1.48062569      -0.88294545      -2.34343444
H        0.60977805      -2.10327646       0.91122781
H       -0.98719095      -0.86538676      -2.80036443
H       -1.24010598      -1.73820196      -1.28853292
H        0.36969565      -2.76243070      -3.35937410
H        1.51495687      -2.08006977       4.52137875
H        2.08019018      -1.40314755      -0.18264012
H       -0.52141061      -1.29282478       1.60958567
32
Properties=species:S:1:pos:R:3 relative_energy_eV=0.8063491915745544 branch=right pbc="F F F"
O       -2.87395090       3.52633991      -0.68589900
C       -1.82981953       3.02019493      -1.03187210
C       -0.90629739       2.35209279      -0.04475983
O       -1.35810133       2.57874209       1.26562975
C       -0.82832590       0.82669494      -0.37477252
O       -1.03239152       0.06562688       0.80426233
C        0.50731778       0.51932989      -1.07961171
O        1.61651846       1.04827133      -0.40235523
C        0.73560160      -0.93419909      -1.54091971
O        1.28251182      -1.80523609      -0.54747818
C       -0.52822740      -1.57483180      -2.08568007
O       -0.32543520      -2.83697799      -2.68662996
O        1.99831482      -2.02759836       3.69352435
P        1.36691092      -0.86725709       2.77008960
O        0.41164042       0.01907947       3.48151030
O        2.35840282      -0.47214675       1.71873703
O        0.19973728      -1.96935047       1.83095105
H       -1.53593311       2.98664546      -2.09903233
H        0.10356964       2.75956617      -0.14656549
H       -2.26114979       2.93397032       1.19421555
H       -1.63965719       0.56896567      -1.06195437
H       -1.06714541       0.70267042       1.54864630
H        0.45867065       1.09251760      -2.01212757
H        1.80096970       0.57381233       0.44330705
H        1.47579751      -0.88157318      -2.34908229
H        0.62174072      -2.10756666       0.91117177
H       -0.99902062      -0.87151555      -2.78675728
H       -1.23369548      -1.74742283      -1.27251066
H        0.34754672      -2.75537491      -3.37288827
H        1.50938270      -2.07478249       4.52459998
H        2.08708439      -1.39471128      -0.18913634
H       -0.51515323      -1.29719772       1.59860976
32
Properties=species:S:1:pos:R:3 relative_energy_eV=0.8060085526085459 branch=right pbc="F F F"
O       -2.87167501       3.52902997      -0.68674273
C       -1.82774496       3.02194303      -1.03208473
C       -0.90654432       2.35125613      -0.04394872
O       -1.35954702       2.57562249       1.26677780
C       -0.82840668       0.82722496      -0.37838597
O       -1.03661643       0.06411755       0.79888978
C        0.50959003       0.52098933      -1.08020840
O        1.61719074       1.04882855      -0.39886496
C        0.73666487      -0.93327655      -1.54131330
O        1.28482672      -1.80387826      -0.54819253
C       -0.52792717      -1.57655069      -2.08096186
O       -0.32541858      -2.83945192      -2.68035289
O        2.00031357      -2.02881650       3.69279930
P        1.36741517      -0.86793444       2.77028048
O        0.41254916       0.01883216       3.48205377
O        2.35929276      -0.47291807       1.71942538
O        0.20153742      -1.96827106       1.82952896
H       -1.53028703       2.99082178      -2.09908462
H        0.10318516       2.75884593      -0.14208257
H       -2.26220947       2.93115960       1.19289505
H       -1.63856365       0.57123815      -1.06838672
H       -1.08034606       0.70140682       1.54293710
H        0.46130729       1.09569320      -2.01203707
H        1.79702989       0.57388462       0.44789493
H        1.47476626      -0.88056680      -2.35107045
H        0.62619585      -2.11146668       0.91228245
H       -1.00392471      -0.87599489      -2.78075696
H       -1.22908654      -1.74935674      -1.26459558
H        0.33731447      -2.75576128      -3.37636089
H        1.51055424      -2.07301425       4.52349516
H        2.08794269      -1.39099610      -0.18988981
H       -0.51196473      -1.29586233       1.59128259
32
Properties=species:S:1:pos:R:3 relative_energy_eV=0.8058428875447134 branch=right pbc="F F F"
O       -2.86940830       3.53168280      -0.68803057
C       -1.82538147       3.02401202      -1.03212950
C       -0.90619913       2.35080204      -0.04374373
O       -1.36144559       2.57260610       1.26660983
C       -0.82834337       0.82723043      -0.37908264
O       -1.03794315       0.06265179       0.79699526
C        0.50960516       0.52142642      -1.08051529
O        1.61560732       1.04923395      -0.39702575
C        0.73745119      -0.93258567      -1.54202088
O        1.28801219      -1.80126418      -0.54864274
C       -0.52803387      -1.57789859      -2.07808700
O       -0.32476795      -2.84136320      -2.67645736
O        1.99967877      -2.02913131       3.69281503
P        1.36786201      -0.86818885       2.76983100
O        0.41133623       0.01797347       3.47971884
O        2.36112577      -0.47233282       1.72053605
O        0.20267572      -1.96826470       1.82812148
H       -1.52756842       2.99489891      -2.09870576
H        0.10377887       2.75836652      -0.14066696
H       -2.26357638       2.92941952       1.19251715
H       -1.63700330       0.57362018      -1.07109002
H       -1.08780008       0.69998244       1.54059639
H        0.46246666       1.09602138      -2.01255809
H        1.79408730       0.57397661       0.44978168
H        1.47406295      -0.88071081      -2.35347584
H        0.62961944      -2.11075985       0.91199965
H       -1.00787050      -0.87835328      -2.77656437
H       -1.22712808      -1.75103268      -1.25981646
H        0.33115975      -2.75742812      -3.37892518
H        1.51079359      -2.07436819       4.52395957
H        2.09125233      -1.38808918      -0.19100834
H       -0.51069174      -1.29535548       1.59028647
32
Properties=species:S:1:pos:R:3 relative_energy_eV=0.8057471375577734 branch=right pbc="F F F"
O       -2.86768507       3.53507078      -0.68643858
C       -1.82474511       3.02609195      -1.03203549
C       -0.90631362       2.35091452      -0.04411147
O       -1.36263658       2.57098144       1.26638138
C       -0.82892004       0.82737452      -0.38047482
O       -1.03826287       0.06234077       0.79532268
C        0.50954188       0.52111361      -1.08083203
O        1.61495915       1.04973028      -0.39686893
C        0.73822072      -0.93311984      -1.54150788
O        1.29103452      -1.80067853      -0.54837652
C       -0.52736309      -1.57909860      -2.07621768
O       -0.32543751      -2.84312895      -2.67356199
O        1.99930831      -2.03086765       3.69144498
P        1.36812006      -0.86849525       2.76921856
O        0.41035344       0.01769046       3.47767818
O        2.36250120      -0.47199918       1.72108249
O        0.20417140      -1.96760401       1.82699698
H       -1.52612359       2.99744175      -2.09889839
H        0.10423081       2.75786370      -0.13981565
H       -2.26431892       2.92910422       1.19210816
H       -1.63804274       0.57347977      -1.07211382
H       -1.09346818       0.69931849       1.53895976
H        0.46274301       1.09561079      -2.01269004
H        1.79252024       0.57548181       0.45064805
H        1.47384931      -0.88106016      -2.35361182
H        0.62902967      -2.10620554       0.90879337
H       -1.00781062      -0.88035196      -2.77503475
H       -1.22537894      -1.75180617      -1.25729006
H        0.32880282      -2.75945254      -3.37773621
H        1.51135899      -2.07729439       4.52307334
H        2.09401964      -1.38574402      -0.19181099
H       -0.51084422      -1.29592441       1.59294089
32
Properties=species:S:1:pos:R:3 relative_energy_eV=0.8056404212111374 branch=right pbc="F F F"
O       -2.86404300       3.53856662      -0.68813849
C       -1.82079106       3.02878338      -1.03153222
C       -0.90651226       2.34944948      -0.04285734
O       -1.36574892       2.56824189       1.26667644
C       -0.82986988       0.82646769      -0.38165357
O       -1.03925709       0.05961797       0.79276767
C        0.50927687       0.52093636      -1.08171675
O        1.61507675       1.04850266      -0.39733913
C        0.73839172      -0.93348857      -1.54199196
O        1.29536718      -1.79923288      -0.54971041
C       -0.52788543      -1.58148490      -2.07276666
O       -0.32677886      -2.84499269      -2.67185582
O        1.99954215      -2.02911983       3.69267249
P        1.36770209      -0.86731572       2.77034050
O        0.40755077       0.01670898       3.47808129
O        2.36283033      -0.46834290       1.72410017
O        0.20680951      -1.96750988       1.82484639
H       -1.52058161       3.00276070      -2.09741831
H        0.10438008       2.75565799      -0.13463382
H       -2.26686066       2.92716503       1.19001703
H       -1.63907700       0.57441592      -1.07395674
H       -1.09839025       0.69665033       1.53585972
H        0.46358379       1.09570788      -2.01371957
H        1.79241268       0.57591792       0.45130188
H        1.47215471      -0.88102543      -2.35574986
H        0.63210698      -2.10209303       0.90586433
H       -1.00964250      -0.88289087      -2.77047969
H       -1.22401631      -1.75463557      -1.25202156
H        0.32109628      -2.75929321      -3.38147690
H        1.51061247      -2.07694791       4.52361177
H        2.09846307      -1.38256666      -0.19568210
H       -0.51048850      -1.29783321       1.59378273
