26
Properties=species:S:1:pos:R:3 relative_energy_eV=0.0 branch=left pbc="F F F"
O       -1.13724475      -1.06928483      -0.36862902
C        0.02472982      -0.74127359      -0.59451965
O        0.99174166      -1.59504451      -0.89943404
P        0.74441249      -3.19435972      -1.54492565
O        0.31086775      -3.08654917      -2.94344022
O       -0.74050969      -3.58362693      -0.62862423
O        1.79334830      -4.01422708      -0.88057141
C        0.53222228       0.69391366      -0.57181620
O        1.86314556       0.78963214      -0.12059607
C       -0.34777220       1.56457487       0.29856267
O       -0.02887658       2.92152850      -0.03366628
P       -0.69158363       4.10594622       0.81709060
O       -0.51917052       4.07475116       2.28527463
O       -0.06018450       5.36034671       0.04396290
O       -2.23048087       4.09437850       0.32296505
O        0.37125849      -4.71493118       1.26753830
H       -1.17547464      -2.68079439      -0.44300412
H        1.18970013      -4.66168499       0.70218692
H        0.44271154       1.06150642      -1.60476453
H        2.38349647       0.14563006      -0.61796480
H       -1.39612643       1.36353168       0.09318689
H       -0.13341679       1.37066606       1.34872847
H        0.43208872       5.91705799       0.65916079
H       -2.81474348       4.11746810       1.09084428
H        0.57592384      -4.19633052       2.05513233
H       -0.38660392      -4.04584020       0.28386413
26
Properties=species:S:1:pos:R:3 relative_energy_eV=0.00011015974450856447 branch=left pbc="F F F"
O       -1.13689069      -1.06953957      -0.36547459
C        0.02490212      -0.74119355      -0.59280303
O        0.99309857      -1.59411840      -0.89635177
P        0.74537938      -3.19341782      -1.54326020
O        0.31260662      -3.08438755      -2.94195089
O       -0.73934096      -3.58179872      -0.62709534
O        1.79424589      -4.01371486      -0.87930631
C        0.53046708       0.69472438      -0.57193984
O        1.86079565       0.79423695      -0.11960465
C       -0.35197078       1.56540358       0.29616631
O       -0.03159151       2.92209822      -0.03544953
P       -0.69011487       4.10806372       0.81595419
O       -0.51653660       4.07483786       2.28396526
O       -0.05555361       5.36019727       0.04113427
O       -2.22994974       4.09999236       0.32478746
O        0.37194335      -4.72163810       1.26429963
H       -1.17461914      -2.67946248      -0.43790739
H        1.19058404      -4.66879541       0.69934038
H        0.44138264       1.05914723      -1.60611362
H        2.38268975       0.14993290      -0.61485681
H       -1.39971913       1.36424683       0.08750448
H       -0.14156341       1.37114067       1.34725641
H        0.43401495       5.91816087       0.65741024
H       -2.81271008       4.11699334       1.09396677
H        0.57726027      -4.20650581       2.05394654
H       -0.38535071      -4.04761900       0.28292378
26
Properties=species:S:1:pos:R:3 relative_energy_eV=0.00019967353000538424 branch=left pbc="F F F"
O       -1.13532107      -1.07088188      -0.36069214
C        0.02591596      -0.74133176      -0.58895114
O        0.99356960      -1.59371638      -0.89450344
P        0.74581098      -3.19287049      -1.54302770
O        0.31447593      -3.08283608      -2.94214699
O       -0.73891252      -3.58126123      -0.62716719
O        1.79410338      -4.01454725      -0.87986550
C        0.52919388       0.69493834      -0.57122729
O        1.85905685       0.79715137      -0.11913838
C       -0.35431830       1.56573060       0.29499184
O       -0.03390759       2.92173641      -0.03702872
P       -0.68933933       4.10866428       0.81488487
O       -0.51498961       4.07508604       2.28265502
O       -0.05272244       5.35956950       0.04017731
O       -2.22956157       4.10367842       0.32544545
O        0.37189580      -4.72434944       1.26255767
H       -1.17271992      -2.67841404      -0.43511645
H        1.19048105      -4.67193873       0.69762953
H        0.43975675       1.05652804      -1.60634405
H        2.38278320       0.15368546      -0.61351878
H       -1.40127941       1.36465532       0.08417168
H       -0.14632535       1.37084473       1.34638712
H        0.43521618       5.91914863       0.65631394
H       -2.81135268       4.11618714       1.09544261
H        0.57720695      -4.20961266       2.05248070
H       -0.38525762      -4.04885946       0.28213180
26
Properties=species:S:1:pos:R:3 relative_energy_eV=0.00028785094764316455 branch=left pbc="F F F"
O       -1.13549465      -1.07059694      -0.35932494
C        0.02555461      -0.74069515      -0.58786069
O        0.99393878      -1.59322534      -0.89175540
P        0.74660041      -3.19153320      -1.54178452
O        0.31562582      -3.08148832      -2.94095685
O       -0.73829932      -3.58245108      -0.62557793
O        1.79472426      -4.01436786      -0.88004669
C        0.52825378       0.69589899      -0.57182029
O        1.85754898       0.80035171      -0.11827109
C       -0.35696652       1.56718664       0.29193053
O       -0.03530469       2.92318438      -0.04006947
P       -0.68861364       4.10987592       0.81443493
O       -0.51212533       4.07555006       2.28203596
O       -0.05105675       5.36049037       0.04053123
O       -2.22967175       4.10821314       0.32625512
O        0.37170632      -4.73089434       1.26141370
H       -1.17044471      -2.67980806      -0.43151948
H        1.18988048      -4.67660004       0.69580788
H        0.43893827       1.05623345      -1.60738894
H        2.38246411       0.15679511      -0.61110677
H       -1.40364141       1.36663612       0.07865997
H       -0.15117333       1.37196023       1.34378873
H        0.43623104       5.92116661       0.65616042
H       -2.80929750       4.11559122       1.09796470
H        0.57886138      -4.21805087       2.05206304
H       -0.38477952      -4.05243790       0.28297864
26
Properties=species:S:1:pos:R:3 relative_energy_eV=0.00037909567618044093 branch=left pbc="F F F"
O       -1.13551960      -1.07061503      -0.35757555
C        0.02523384      -0.74055777      -0.58770893
O        0.99422809      -1.59333887      -0.88971918
P        0.74713170      -3.19161446      -1.54091947
O        0.31612847      -3.07982985      -2.93999312
O       -0.73729175      -3.58370340      -0.62438878
O        1.79559425      -4.01440579      -0.87964046
C        0.52746682       0.69659539      -0.57243846
O        1.85638328       0.80248531      -0.11753706
C       -0.35923612       1.56860954       0.28948915
O       -0.03617918       2.92470339      -0.04177725
P       -0.68773565       4.11146129       0.81411235
O       -0.51020775       4.07534508       2.28159604
O       -0.05008423       5.36216316       0.04023208
O       -2.22918202       4.11148128       0.32730344
O        0.37152282      -4.73553843       1.26081907
H       -1.16871824      -2.68117788      -0.42920159
H        1.18886247      -4.68032626       0.69405579
H        0.43851128       1.05625433      -1.60815124
H        2.38245306       0.15921326      -0.60954658
H       -1.40586773       1.36830044       0.07448802
H       -0.15457710       1.37390378       1.34158155
H        0.43673351       5.92247540       0.65655720
H       -2.80789038       4.11503593       1.09969110
H        0.58028235      -4.22394913       2.05192999
H       -0.38458298      -4.05598584       0.28328364
26
Properties=species:S:1:pos:R:3 relative_energy_eV=0.00048645149945514277 branch=left pbc="F F F"
O       -1.13373115      -1.07212878      -0.35271194
C        0.02608897      -0.74088858      -0.58496505
O        0.99453057      -1.59395373      -0.88762500
P        0.74796957      -3.19191205      -1.53995050
O        0.31608216      -3.07706151      -2.93858014
O       -0.73615537      -3.58526296      -0.62422434
O        1.79646213      -4.01550314      -0.87932720
C        0.52622985       0.69717865      -0.57305870
O        1.85446249       0.80455147      -0.11715172
C       -0.36166099       1.57053544       0.28668832
O       -0.03722362       2.92626174      -0.04386306
P       -0.68649268       4.11314558       0.81324970
O       -0.50817753       4.07435883       2.28047187
O       -0.04934133       5.36464086       0.03997762
O       -2.22826524       4.11477900       0.32888767
O        0.37164029      -4.73977597       1.25977055
H       -1.16743357      -2.68304068      -0.42708709
H        1.18821912      -4.68350267       0.69202879
H        0.43854183       1.05501384      -1.60944780
H        2.38277121       0.16264242      -0.60858170
H       -1.40788433       1.37061252       0.06971142
H       -0.15916674       1.37701738       1.33916032
H        0.43716919       5.92387163       0.65757983
H       -2.80663619       4.11450252       1.10148683
H        0.58022547      -4.22894829       2.05150118
H       -0.38476488      -4.06014866       0.28260188
26
Properties=species:S:1:pos:R:3 relative_energy_eV=0.0006523887350340374 branch=left pbc="F F F"
O       -1.13291873      -1.07350798      -0.34987363
C        0.02594084      -0.74032074      -0.58283381
O        0.99594602      -1.59294558      -0.88414984
P        0.74955658      -3.18982822      -1.53653251
O        0.31552777      -3.07503650      -2.93434317
O       -0.73538826      -3.58775643      -0.62278428
O        1.79731839      -4.01567013      -0.87765913
C        0.52479713       0.69876461      -0.57506119
O        1.85185078       0.80714696      -0.11609303
C       -0.36405644       1.57429095       0.28171821
O       -0.03759996       2.92988676      -0.04907502
P       -0.68530454       4.11517304       0.81219974
O       -0.50374074       4.07316698       2.27897059
O       -0.04937764       5.36878145       0.04164156
O       -2.22835243       4.11899283       0.33089153
O        0.37240663      -4.74869114       1.25736908
H       -1.16823181      -2.68775583      -0.42342554
H        1.18928000      -4.69040438       0.69003537
H        0.44047489       1.05402050      -1.61301190
H        2.38147859       0.16608607      -0.60704298
H       -1.40978382       1.37591925       0.06216024
H       -0.16695908       1.38165922       1.33560977
H        0.43807613       5.92682215       0.65963420
H       -2.80468329       4.11452188       1.10507580
H        0.58128455      -4.24077787       2.05086178
H       -0.38408219      -4.06555289       0.28225998
26
Properties=species:S:1:pos:R:3 relative_energy_eV=0.000795282241597306 branch=left pbc="F F F"
O       -1.13336084      -1.07250096      -0.34817254
C        0.02498857      -0.73907731      -0.58258497
O        0.99677390      -1.59164840      -0.88079940
P        0.75016406      -3.18835119      -1.53408289
O        0.31586349      -3.07421903      -2.93187847
O       -0.73557561      -3.58987516      -0.62089006
O        1.79834758      -4.01370344      -0.87563527
C        0.52443521       0.70002370      -0.57553100
O        1.85116976       0.80890467      -0.11472785
C       -0.36610444       1.57754580       0.27745767
O       -0.03810102       2.93318035      -0.05329125
P       -0.68450740       4.11688504       0.81147714
O       -0.49982536       4.07167663       2.27778836
O       -0.04996699       5.37241480       0.04313079
O       -2.22835824       4.12113369       0.33230357
O        0.37323574      -4.75622722       1.25523853
H       -1.16985182      -2.69174786      -0.42083733
H        1.19074989      -4.69756466       0.68935911
H        0.44146052       1.05207632      -1.61435816
H        2.38024237       0.16789146      -0.60650154
H       -1.41172163       1.38055268       0.05547913
H       -0.17196026       1.38501408       1.33190997
H        0.43867768       5.92890265       0.66160520
H       -2.80296697       4.11490897       1.10773230
H        0.58256369      -4.25034670       2.04982254
H       -0.38291242      -4.06886386       0.28252826
26
Properties=species:S:1:pos:R:3 relative_energy_eV=0.0009636856411816552 branch=left pbc="F F F"
O       -1.13263485      -1.07050567      -0.34448818
C        0.02549175      -0.73799715      -0.57883648
O        0.99600962      -1.59190098      -0.87783264
P        0.75071927      -3.18693972      -1.53285610
O        0.31580083      -3.07245064      -2.93049291
O       -0.73612569      -3.59159602      -0.62001959
O        1.79994230      -4.01133678      -0.87480702
C        0.52440286       0.70072384      -0.57519674
O        1.85085797       0.81057361      -0.11444838
C       -0.36822124       1.58020412       0.27329962
O       -0.03912527       2.93552825      -0.05700233
P       -0.68346498       4.11813719       0.81057171
O       -0.49659327       4.06937567       2.27644752
O       -0.05076403       5.37587745       0.04407975
O       -2.22780354       4.12226578       0.33398236
O        0.37455573      -4.76258480       1.25331659
H       -1.17147691      -2.69527313      -0.41859259
H        1.19286361      -4.70230631       0.68904212
H        0.44184181       1.04865039      -1.61499097
H        2.38032073       0.16986721      -0.60632228
H       -1.41336077       1.38411500       0.04806401
H       -0.17601763       1.38805184       1.32784338
H        0.43882769       5.93022304       0.66378562
H       -2.80158588       4.11573888       1.10994807
H        0.58118459      -4.25794608       2.04938630
H       -0.38218514      -4.07150981       0.28266102
26
Properties=species:S:1:pos:R:3 relative_energy_eV=0.001122255765949376 branch=left pbc="F F F"
O       -1.13589346      -1.06550175      -0.34570773
C        0.02314570      -0.73564308      -0.57718994
O        0.99309778      -1.59161703      -0.87410239
P        0.75177221      -3.18331106      -1.53069266
O        0.31500639      -3.07052271      -2.92783143
O       -0.73460158      -3.59238596      -0.61688008
O        1.80216305      -4.00674847      -0.87343377
C        0.52465287       0.70230549      -0.57763860
O        1.85021758       0.81292024      -0.11495215
C       -0.36936040       1.58284311       0.26799455
O       -0.03883846       2.93833122      -0.06162250
P       -0.68220095       4.11890636       0.81001780
O       -0.49258323       4.06727287       2.27553376
O       -0.05198832       5.37919482       0.04557625
O       -2.22763717       4.12377022       0.33648207
O        0.37632631      -4.77215090       1.25148902
H       -1.17365372      -2.70029280      -0.41405672
H        1.19545516      -4.70820805       0.68852839
H        0.44390813       1.04831662      -1.61870408
H        2.38090724       0.17084140      -0.60357874
H       -1.41348006       1.38639833       0.03832390
H       -0.18159592       1.39164539       1.32375031
H        0.43869309       5.93167695       0.66610879
H       -2.80006927       4.11764484       1.11348293
H        0.58067060      -4.27279325       2.05161919
H       -0.38065384      -4.07590753       0.28402567
26
Properties=species:S:1:pos:R:3 relative_energy_eV=0.0012506929342634976 branch=left pbc="F F F"
O       -1.13842220      -1.06275151      -0.34545293
C        0.02038280      -0.73368884      -0.57836315
O        0.99124072      -1.59044447      -0.87136578
P        0.75216089      -3.18137734      -1.52944777
O        0.31497954      -3.06909165      -2.92661982
O       -0.73335151      -3.59284588      -0.61477913
O        1.80306103      -4.00425090      -0.87241340
C        0.52481718       0.70345622      -0.57927920
O        1.85004084       0.81412826      -0.11513446
C       -0.36957101       1.58445449       0.26503792
O       -0.03848243       2.93991863      -0.06396966
P       -0.68164838       4.11910858       0.80964127
O       -0.49010219       4.06590753       2.27480495
O       -0.05265099       5.38059416       0.04656781
O       -2.22759425       4.12428937       0.33774686
O        0.37689468      -4.77711763       1.25028608
H       -1.17481629      -2.70312348      -0.41133633
H        1.19653365      -4.71169680       0.68872515
H        0.44530001       1.04810423      -1.62080768
H        2.38146765       0.17135438      -0.60198618
H       -1.41290763       1.38713883       0.03309905
H       -0.18511831       1.39371796       1.32151654
H        0.43851769       5.93228585       0.66734405
H       -2.79910737       4.11883832       1.11541879
H        0.58085244      -4.28130929       2.05268274
H       -0.37901683      -4.07861370       0.28462611
26
Properties=species:S:1:pos:R:3 relative_energy_eV=0.001392186968587339 branch=left pbc="F F F"
O       -1.13866018      -1.06032065      -0.34448567
C        0.01934898      -0.73107044      -0.57875667
O        0.98994458      -1.58916847      -0.86947255
P        0.75236314      -3.17942090      -1.52797516
O        0.31492102      -3.06575349      -2.92491918
O       -0.73394239      -3.59431814      -0.61328814
O        1.80308205      -4.00379871      -0.87222612
C        0.52486730       0.70513552      -0.58110277
O        1.84954359       0.81472291      -0.11558992
C       -0.37022249       1.58595771       0.26203600
O       -0.03937807       2.94108220      -0.06522446
P       -0.68141330       4.11939779       0.80939004
O       -0.48817410       4.06370266       2.27417951
O       -0.05233815       5.38101868       0.04653408
O       -2.22759279       4.12384100       0.33884797
O        0.37733453      -4.78110664       1.24882117
H       -1.17540140      -2.70589739      -0.40767458
H        1.19772968      -4.71077837       0.68916369
H        0.44727227       1.04862182      -1.62274107
H        2.38188713       0.17134256      -0.60072690
H       -1.41280233       1.38773555       0.02881828
H       -0.18779433       1.39385761       1.31831529
H        0.43802753       5.93236374       0.66825609
H       -2.79810120       4.12019932       1.11720428
H        0.57944041      -4.28970670       2.05430065
H       -0.37648170      -4.08065375       0.28485800
26
Properties=species:S:1:pos:R:3 relative_energy_eV=0.0015513095204369165 branch=left pbc="F F F"
O       -1.13999243      -1.05618308      -0.34932275
C        0.01877746      -0.72848440      -0.58014568
O        0.98959288      -1.58820060      -0.86775791
P        0.75258455      -3.17664748      -1.52565702
O        0.31401134      -3.06301565      -2.92204041
O       -0.73411421      -3.59559747      -0.61028685
O        1.80316828      -4.00184490      -0.87078839
C        0.52521613       0.70730219      -0.58401689
O        1.84906145       0.81573378      -0.11560873
C       -0.37149104       1.58732055       0.25826657
O       -0.04003901       2.94274108      -0.06730848
P       -0.68096314       4.11991752       0.80956855
O       -0.48627989       4.06238449       2.27418839
O       -0.05201942       5.38184973       0.04678982
O       -2.22778369       4.12424104       0.34065976
O        0.37887805      -4.78741278       1.24737953
H       -1.17649972      -2.70972613      -0.40250153
H        1.19964628      -4.71065369       0.68860826
H        0.45005335       1.05186138      -1.62585459
H        2.38083859       0.17007118      -0.59834850
H       -1.41401126       1.38948743       0.02360777
H       -0.18992105       1.39337983       1.31452066
H        0.43773676       5.93316736       0.66899377
H       -2.79714545       4.12175390       1.11987065
H        0.57906886      -4.30302115       2.05752863
H       -0.37491370      -4.08343860       0.28619725
26
Properties=species:S:1:pos:R:3 relative_energy_eV=0.0017338646794087254 branch=left pbc="F F F"
O       -1.14100812      -1.05252837      -0.35406984
C        0.01839168      -0.72658611      -0.58283664
O        0.99049189      -1.58744383      -0.86527464
P        0.75253138      -3.17423918      -1.52419348
O        0.31240578      -3.06051367      -2.92014199
O       -0.73319278      -3.59605971      -0.60738400
O        1.80283432      -3.99921723      -0.86895816
C        0.52577086       0.70898148      -0.58664165
O        1.84902922       0.81720109      -0.11543453
C       -0.37278425       1.58798135       0.25468691
O       -0.04026749       2.94379582      -0.06987473
P       -0.68037743       4.11973666       0.80963127
O       -0.48491982       4.06201728       2.27413076
O       -0.05198067       5.38234272       0.04780009
O       -2.22789260       4.12513486       0.34270698
O        0.38093923      -4.79273378       1.24603217
H       -1.17780788      -2.71337866      -0.39751419
H        1.20181525      -4.71057124       0.68804742
H        0.45264632       1.05493208      -1.62836793
H        2.37927280       0.16875892      -0.59612510
H       -1.41558018       1.39148312       0.01868580
H       -0.19147983       1.39286116       1.31101098
H        0.43763287       5.93432000       0.66944148
H       -2.79659363       4.12319790       1.12245093
H        0.57850263      -4.31585448       2.06127212
H       -0.37491939      -4.08663257       0.28746181
26
Properties=species:S:1:pos:R:3 relative_energy_eV=0.0019033081844099797 branch=left pbc="F F F"
O       -1.13955495      -1.05222183      -0.35634466
C        0.01936301      -0.72554139      -0.58488471
O        0.99180361      -1.58714734      -0.86296648
P        0.75233150      -3.17302763      -1.52439594
O        0.30953508      -3.05842259      -2.91967172
O       -0.73296369      -3.59609853      -0.60613112
O        1.80344503      -3.99769122      -0.87014898
C        0.52586978       0.70963925      -0.58786229
O        1.84867541       0.81896380      -0.11676243
C       -0.37321319       1.58839247       0.25251289
O       -0.04098725       2.94411955      -0.07059164
P       -0.68023499       4.11983088       0.80966873
O       -0.48438181       4.06192778       2.27400553
O       -0.05201048       5.38268085       0.04837630
O       -2.22800886       4.12642449       0.34410000
O        0.38242252      -4.79604575       1.24556279
H       -1.17888330      -2.71440440      -0.39543143
H        1.20409692      -4.70848636       0.69024261
H        0.45371934       1.05481718      -1.62902036
H        2.37944088       0.16845044      -0.59403275
H       -1.41537994       1.39208112       0.01546710
H       -0.19302340       1.39300765       1.30855093
H        0.43746885       5.93516005       0.66976992
H       -2.79630598       4.12413793       1.12415405
H        0.57678185      -4.32404104       2.06443416
H       -0.37654575      -4.08951971       0.28794129
26
Properties=species:S:1:pos:R:3 relative_energy_eV=0.002190632003475912 branch=left pbc="F F F"
O       -1.14124259      -1.04999747      -0.36922128
C        0.01949250      -0.72368016      -0.58865345
O        0.99282618      -1.58601970      -0.86206357
P        0.75207733      -3.17143449      -1.52227538
O        0.30528456      -3.05810671      -2.91616538
O       -0.73380192      -3.59715448      -0.60174153
O        1.80611400      -3.99454827      -0.87120742
C        0.52628646       0.71183309      -0.59068153
O        1.84844223       0.82163132      -0.11813621
C       -0.37378030       1.59034567       0.24964548
O       -0.04172169       2.94682380      -0.07067186
P       -0.68032226       4.12224357       0.81064624
O       -0.48291290       4.06239633       2.27484420
O       -0.05208571       5.38494279       0.04849410
O       -2.22859954       4.12947241       0.34612436
O        0.38477188      -4.80499999       1.24553146
H       -1.18032527      -2.71559620      -0.39350068
H        1.20746747      -4.70963221       0.69333995
H        0.45476257       1.05714052      -1.63232086
H        2.37942499       0.16662789      -0.58890749
H       -1.41534118       1.39310858       0.01058702
H       -0.19549667       1.39376383       1.30589546
H        0.43737733       5.93678121       0.67036177
H       -2.79535242       4.12521268       1.12727321
H        0.57789755      -4.34067379       2.06901143
H       -0.37778231      -4.09349454       0.29033378
26
Properties=species:S:1:pos:R:3 relative_energy_eV=0.0024528738285880536 branch=left pbc="F F F"
O       -1.14434548      -1.04604226      -0.38196360
C        0.01826411      -0.72130263      -0.59357079
O        0.99293924      -1.58464099      -0.86220469
P        0.75160971      -3.17183206      -1.51956926
O        0.30098681      -3.05908086      -2.91223385
O       -0.73350252      -3.59910745      -0.59767384
O        1.80701178      -3.99386788      -0.86936749
C        0.52724606       0.71435537      -0.59265964
O        1.84942508       0.82454933      -0.11854938
C       -0.37447190       1.59183165       0.24790275
O       -0.04168239       2.94893252      -0.07119290
P       -0.68010290       4.12398096       0.81116155
O       -0.48193885       4.06399872       2.27519633
O       -0.05275709       5.38716608       0.04945074
O       -2.22885290       4.13279432       0.34820203
O        0.38760884      -4.81156926       1.24458118
H       -1.17982340      -2.71741103      -0.39363241
H        1.21045279      -4.71335014       0.69348008
H        0.45470790       1.05945777      -1.63519730
H        2.37908416       0.16477144      -0.58426251
H       -1.41607802       1.39444230       0.00694023
H       -0.19739021       1.39451350       1.30470148
H        0.43772305       5.93878218       0.67076684
H       -2.79491535       4.12580400       1.12988002
H        0.57826364      -4.35512327       2.07298311
H       -0.37600178      -4.09506663       0.29337327
26
Properties=species:S:1:pos:R:3 relative_energy_eV=0.0027322594105498865 branch=left pbc="F F F"
O       -1.14520139      -1.04246737      -0.39071188
C        0.01788684      -0.71877139      -0.59805277
O        0.99214427      -1.58454808      -0.86153272
P        0.75179197      -3.17197542      -1.51834016
O        0.29687203      -3.06079831      -2.90975019
O       -0.73151898      -3.60024798      -0.59546936
O        1.80678159      -3.99477843      -0.86796699
C        0.52710898       0.71573562      -0.59370012
O        1.84870349       0.82666271      -0.12021825
C       -0.37484003       1.59274513       0.24663505
O       -0.04219206       2.94987801      -0.07129569
P       -0.67988160       4.12514409       0.81141496
O       -0.48135252       4.06542576       2.27536437
O       -0.05332834       5.38912144       0.05026013
O       -2.22896981       4.13532724       0.34974316
O        0.38908645      -4.81590019       1.24362548
H       -1.17919970      -2.71988627      -0.39414862
H        1.21253436      -4.71646385       0.69351460
H        0.45504545       1.06124054      -1.63513686
H        2.37884072       0.16369698      -0.58066072
H       -1.41584697       1.39594490       0.00481949
H       -0.19899279       1.39530020       1.30322809
H        0.43811108       5.94045411       0.67108341
H       -2.79470102       4.12609800       1.13165611
H        0.57760149      -4.36540665       2.07572466
H       -0.37302307      -4.09454507       0.29645684
26
Properties=species:S:1:pos:R:3 relative_energy_eV=0.0031033130289870314 branch=left pbc="F F F"
O       -1.14822423      -1.03818581      -0.40346474
C        0.01667020      -0.71711073      -0.60287876
O        0.99178026      -1.58481030      -0.86052950
P        0.75188306      -3.17125430      -1.51775366
O        0.29467042      -3.06483944      -2.90872657
O       -0.72722298      -3.59980864      -0.59116573
O        1.80623674      -3.99402432      -0.86666538
C        0.52648771       0.71772046      -0.59578366
O        1.84731083       0.82782518      -0.12078998
C       -0.37557585       1.59470133       0.24515198
O       -0.04272032       2.95249487      -0.07097837
P       -0.67990468       4.12767200       0.81236431
O       -0.47995386       4.06663891       2.27622203
O       -0.05362027       5.39162172       0.05034177
O       -2.22922099       4.13728258       0.35079306
O        0.38832445      -4.82300487       1.24378418
H       -1.18111070      -2.72374313      -0.39364791
H        1.21294802      -4.72352017       0.69522954
H        0.45653688       1.06786835      -1.63569522
H        2.37659391       0.16148655      -0.57711024
H       -1.41654671       1.39849432       0.00327113
H       -0.19998239       1.39602108       1.30144752
H        0.43859178       5.94202526       0.67146317
H       -2.79391875       4.12613105       1.13339641
H        0.58097236      -4.37751540       2.07744620
H       -0.36754442      -4.09318086       0.30082051
26
Properties=species:S:1:pos:R:3 relative_energy_eV=0.003375514417712111 branch=left pbc="F F F"
O       -1.15057385      -1.03656085      -0.41086800
C        0.01523731      -0.71589682      -0.60604349
O        0.99164248      -1.58384022      -0.86023485
P        0.75166581      -3.17165422      -1.51748302
O        0.29492267      -3.06659039      -2.90900841
O       -0.72551874      -3.59947416      -0.58791856
O        1.80679085      -3.99329385      -0.86631485
C        0.52657309       0.71991951      -0.59711515
O        1.84742826       0.82812058      -0.11966239
C       -0.37632466       1.59598679       0.24456443
O       -0.04249963       2.95392754      -0.07100918
P       -0.67972040       4.12867640       0.81267026
O       -0.47920700       4.06753415       2.27637607
O       -0.05387806       5.39269185       0.05077296
O       -2.22907609       4.13820623       0.35156557
O        0.38833785      -4.82685036       1.24454242
H       -1.18351728      -2.72523159      -0.39306528
H        1.21252052      -4.72920523       0.69595429
H        0.45713815       1.07247962      -1.63714052
H        2.37477731       0.15982997      -0.57561063
H       -1.41781703       1.40002261       0.00248273
H       -0.20004614       1.39636848       1.30087540
H        0.43890981       5.94288523       0.67154659
H       -2.79361468       4.12608291       1.13423991
H        0.58348125      -4.38411153       2.07911925
H       -0.36417128      -4.09303696       0.30330658
26
Properties=species:S:1:pos:R:3 relative_energy_eV=0.003905158599081915 branch=left pbc="F F F"
O       -1.15371739      -1.03322982      -0.42354980
C        0.01222304      -0.71162087      -0.61363002
O        0.98903764      -1.58102298      -0.86142046
P        0.75288263      -3.17129615      -1.51550644
O        0.29801979      -3.06867701      -2.90793671
O       -0.72533034      -3.59934465      -0.58274758
O        1.81028339      -3.99200682      -0.86614968
C        0.52548756       0.72311480      -0.59927465
O        1.84532731       0.82666649      -0.11828700
C       -0.37710628       1.59753010       0.24367687
O       -0.04192510       2.95506152      -0.07119571
P       -0.67890856       4.12946398       0.81289765
O       -0.47825641       4.06936113       2.27650579
O       -0.05445255       5.39439346       0.05171193
O       -2.22852387       4.13938535       0.35310966
O        0.39000668      -4.83275756       1.24679691
H       -1.18796317      -2.72686754      -0.39087748
H        1.21175681      -4.74110163       0.69403411
H        0.45885992       1.07944342      -1.63796623
H        2.37177770       0.15694047      -0.57331861
H       -1.41882572       1.40298903       0.00175242
H       -0.19982680       1.39731948       1.29959508
H        0.43965784       5.94439759       0.67159170
H       -2.79352569       4.12591729       1.13544975
H        0.58838359      -4.39382114       2.08297389
H       -0.36188142      -4.09325228       0.30830684
26
Properties=species:S:1:pos:R:3 relative_energy_eV=0.004553189683065284 branch=left pbc="F F F"
O       -1.15901761      -1.02716587      -0.43724587
C        0.00806201      -0.70837935      -0.62156330
O        0.98620896      -1.57839732      -0.86588489
P        0.75521577      -3.16816292      -1.51220288
O        0.30215474      -3.06926248      -2.90488441
O       -0.72511149      -3.59931486      -0.57834480
O        1.81133848      -3.98956044      -0.86225584
C        0.52340768       0.72400548      -0.60156390
O        1.84160449       0.82378933      -0.11748330
C       -0.37714346       1.59899412       0.24256595
O       -0.04161261       2.95696863      -0.07100170
P       -0.67850373       4.13118030       0.81377667
O       -0.47682211       4.07042161       2.27739430
O       -0.05462806       5.39626816       0.05161270
O       -2.22833625       4.13972080       0.35386958
O        0.39138703      -4.83961523       1.24864475
H       -1.18881195      -2.72903548      -0.38844054
H        1.21260506      -4.75375851       0.69318058
H        0.46150045       1.08562120      -1.63783768
H        2.36874619       0.15395674      -0.57108761
H       -1.41877372       1.40581702       0.00178180
H       -0.19949909       1.39796104       1.29802998
H        0.44029749       5.94540756       0.67169860
H       -2.79296431       4.12569653       1.13646577
H        0.59716429      -4.40270715       2.08399149
H       -0.36500751      -4.09346332       0.31332684
26
Properties=species:S:1:pos:R:3 relative_energy_eV=0.005146751907886937 branch=left pbc="F F F"
O       -1.16403844      -1.02397478      -0.44766640
C        0.00407704      -0.70604911      -0.62620897
O        0.98396728      -1.57579306      -0.86819855
P        0.75588025      -3.16731552      -1.51007316
O        0.30381017      -3.06939480      -2.90367830
O       -0.72402228      -3.59911769      -0.57593248
O        1.80983311      -3.98645378      -0.85419640
C        0.52329363       0.72610042      -0.60271531
O        1.84146364       0.82196191      -0.11513129
C       -0.37751961       1.60058595       0.24213512
O       -0.04105107       2.95850580      -0.07058286
P       -0.67831504       4.13215509       0.81414200
O       -0.47576375       4.07098973       2.27752304
O       -0.05485264       5.39708792       0.05184682
O       -2.22800946       4.13976787       0.35434297
O        0.39219038      -4.84477537       1.24864770
H       -1.18800613      -2.72991767      -0.38685701
H        1.21277101      -4.76110334       0.69377962
H        0.46271445       1.08890568      -1.63964932
H        2.36682197       0.15148891      -0.57020171
H       -1.41975165       1.40718224       0.00177436
H       -0.19874231       1.39783346       1.29737636
H        0.44066699       5.94589458       0.67160327
H       -2.79237079       4.12555887       1.13704723
H        0.60613777      -4.40828502       2.08195324
H       -0.36772373      -4.09485276       0.31546238
26
Properties=species:S:1:pos:R:3 relative_energy_eV=0.005888709783903323 branch=left pbc="F F F"
O       -1.16758679      -1.02206655      -0.45997864
C        0.00095478      -0.70201074      -0.63029202
O        0.97961645      -1.57365978      -0.86543373
P        0.75548775      -3.16665883      -1.50628540
O        0.30390187      -3.07505623      -2.90037497
O       -0.72454547      -3.59885146      -0.57541134
O        1.81086340      -3.97953569      -0.84412027
C        0.52312824       0.72831499      -0.60334632
O        1.84077108       0.81979010      -0.11381251
C       -0.37748957       1.60150188       0.24185126
O       -0.04036765       2.95880301      -0.07027310
P       -0.67774294       4.13235844       0.81424975
O       -0.47529565       4.07200390       2.27762855
O       -0.05555444       5.39803222       0.05242585
O       -2.22753789       4.14013042       0.35505335
O        0.39346659      -4.85124587       1.24989770
H       -1.18793912      -2.72956038      -0.38369513
H        1.20914677      -4.76468044       0.68768502
H        0.46462863       1.09048296      -1.64044131
H        2.36568107       0.14914434      -0.56945020
H       -1.41985735       1.40842133       0.00158916
H       -0.19764685       1.39780724       1.29663057
H        0.44127112       5.94663967       0.67140565
H       -2.79204628       4.12545806       1.13769290
H        0.61586358      -4.41197405       2.07979241
H       -0.36771050      -4.09660307       0.31355517
26
Properties=species:S:1:pos:R:3 relative_energy_eV=0.006815648623160087 branch=left pbc="F F F"
O       -1.17128536      -1.01868548      -0.46887567
C       -0.00095327      -0.70205870      -0.63297278
O        0.97910969      -1.57455873      -0.86258642
P        0.75534970      -3.16371754      -1.50194427
O        0.30405922      -3.08211528      -2.89606960
O       -0.72723685      -3.59929771      -0.57398507
O        1.81274764      -3.97181878      -0.83816496
C        0.52218285       0.72689763      -0.60412655
O        1.83910054       0.81849489      -0.11416703
C       -0.37677060       1.60176802       0.24139725
O       -0.04002131       2.95975870      -0.07022219
P       -0.67766793       4.13335833       0.81514378
O       -0.47502537       4.07253249       2.27824012
O       -0.05589030       5.39909930       0.05229830
O       -2.22749740       4.14032307       0.35531731
O        0.39342487      -4.85243876       1.24966773
H       -1.18744287      -2.72894660      -0.38120795
H        1.20552996      -4.76713193       0.68019881
H        0.46690105       1.09200495      -1.63977148
H        2.36453318       0.14787969      -0.56867578
H       -1.41888838       1.40932876       0.00150363
H       -0.19703658       1.39794257       1.29614985
H        0.44164452       5.94702098       0.67126989
H       -2.79168680       4.12539287       1.13814770
H        0.62232378      -4.41454321       2.07872697
H       -0.36604313      -4.09950414       0.31125079
26
Properties=species:S:1:pos:R:3 relative_energy_eV=0.008592043886892498 branch=left pbc="F F F"
O       -1.17582829      -1.01458231      -0.48072975
C       -0.00442214      -0.70113846      -0.63595816
O        0.97678927      -1.57681595      -0.85673604
P        0.75838202      -3.16515308      -1.49502582
O        0.30480723      -3.09458313      -2.88993070
O       -0.72923752      -3.59968558      -0.56815792
O        1.82181169      -3.96508875      -0.82967622
C        0.52285522       0.72772778      -0.60489675
O        1.83966729       0.81724668      -0.11279678
C       -0.37620111       1.60292585       0.24117034
O       -0.03903756       2.96109172      -0.06947981
P       -0.67771379       4.13428600       0.81527926
O       -0.47500029       4.07335959       2.27892153
O       -0.05646807       5.40000659       0.05272378
O       -2.22740523       4.14086504       0.35609608
O        0.39109853      -4.84676131       1.23822589
H       -1.19073538      -2.73147507      -0.37548506
H        1.20172245      -4.76582517       0.66740378
H        0.46758923       1.09443536      -1.64067282
H        2.36416517       0.14617735      -0.56777870
H       -1.41845999       1.41017031       0.00098046
H       -0.19604625       1.39856177       1.29588108
H        0.44231983       5.94772278       0.67083437
H       -2.79160562       4.12533730       1.13890393
H        0.62902716      -4.41798086       2.06887363
H       -0.36861307      -4.10383910       0.31857278
26
Properties=species:S:1:pos:R:3 relative_energy_eV=0.010662067797966301 branch=left pbc="F F F"
O       -1.17813644      -1.01191497      -0.48842288
C       -0.00569523      -0.69790526      -0.63794874
O        0.97212025      -1.57660862      -0.85228831
P        0.75848809      -3.16929100      -1.48880066
O        0.30869856      -3.10464747      -2.88345460
O       -0.72716751      -3.59826650      -0.56443905
O        1.82845079      -3.96493044      -0.82495421
C        0.52351813       0.72967874      -0.60529279
O        1.83978357       0.81602646      -0.11250010
C       -0.37574800       1.60331065       0.24108985
O       -0.03838541       2.96121811      -0.06900514
P       -0.67744464       4.13437011       0.81561172
O       -0.47525921       4.07417859       2.27902556
O       -0.05696177       5.40069513       0.05310060
O       -2.22752261       4.14149624       0.35666340
O        0.39068607      -4.85158342       1.23200316
H       -1.19607709      -2.73488766      -0.37181403
H        1.20132994      -4.75853634       0.65375266
H        0.46760095       1.09585932      -1.64086945
H        2.36520513       0.14506744      -0.56682882
H       -1.41802673       1.41084487       0.00051113
H       -0.19552163       1.39919041       1.29562370
H        0.44288689       5.94833242       0.67050672
H       -2.79174339       4.12529410       1.13954989
H        0.63190683      -4.41765360       2.05874437
H       -0.37352484      -4.10235193       0.32697842
26
Properties=species:S:1:pos:R:3 relative_energy_eV=0.014312304185295943 branch=left pbc="F F F"
O       -1.18246717      -1.00731542      -0.49273402
C       -0.00727050      -0.69759663      -0.63934120
O        0.97156674      -1.57780227      -0.85050147
P        0.75731256      -3.17054038      -1.48049242
O        0.31625517      -3.11382765      -2.87831052
O       -0.72528513      -3.59584873      -0.55867845
O        1.82737758      -3.96808613      -0.82120388
C        0.52340796       0.72880923      -0.60584701
O        1.83970757       0.81592191      -0.11350594
C       -0.37502173       1.60380467       0.24102995
O       -0.03824892       2.96209662      -0.06885204
P       -0.67767083       4.13521641       0.81603826
O       -0.47541442       4.07464937       2.27963075
O       -0.05727702       5.40121663       0.05308384
O       -2.22764112       4.14201529       0.35697384
O        0.39772611      -4.86552574       1.22905155
H       -1.20231664      -2.73576230      -0.37326734
H        1.19980322      -4.74681741       0.63959725
H        0.46843777       1.09787058      -1.64043805
H        2.36609994       0.14444979      -0.56568629
H       -1.41704637       1.41134565       0.00016805
H       -0.19549873       1.39938767       1.29573958
H        0.44315781       5.94851791       0.67025144
H       -2.79158455       4.12523940       1.14000099
H        0.63175158      -4.41436321       2.04882809
H       -0.37640018      -4.10006985       0.33500745
26
Properties=species:S:1:pos:R:3 relative_energy_eV=0.022603386336413678 branch=left pbc="F F F"
O       -1.18384792      -1.00566544      -0.49534968
C       -0.00983507      -0.69723329      -0.63976555
O        0.97064566      -1.58088110      -0.84982804
P        0.75784346      -3.16916239      -1.47945536
O        0.32445270      -3.11927744      -2.87794390
O       -0.72964927      -3.59177927      -0.54496064
O        1.81600588      -3.97395990      -0.80698551
C        0.52399695       0.72910280      -0.60597934
O        1.84067473       0.81703312      -0.11401080
C       -0.37461085       1.60468299       0.24118440
O       -0.03813404       2.96274228      -0.06864353
P       -0.67791048       4.13582995       0.81638204
O       -0.47559649       4.07491970       2.27984051
O       -0.05755455       5.40159392       0.05293582
O       -2.22763990       4.14252638       0.35721945
O        0.40968653      -4.87255675       1.21798039
H       -1.20879516      -2.73047843      -0.38242255
H        1.19818300      -4.73715340       0.62978943
H        0.46953701       1.09939063      -1.64062215
H        2.36587534       0.14402985      -0.56504453
H       -1.41643872       1.41162546      -0.00003264
H       -0.19553797       1.39923407       1.29599205
H        0.44324014       5.94844715       0.67007389
H       -2.79130948       4.12519339       1.14038591
H        0.63094568      -4.41110184       2.03990168
H       -0.37076652      -4.11011706       0.34590108
26
Properties=species:S:1:pos:R:3 relative_energy_eV=0.05924402999517042 branch=left pbc="F F F"
O       -1.18232014      -1.00348900      -0.49996803
C       -0.00496614      -0.69652845      -0.64148619
O        0.96647736      -1.57756665      -0.85216876
P        0.71506134      -3.18529889      -1.45723846
O        0.35236922      -3.12112610      -2.87649451
O       -0.72793729      -3.57795300      -0.53992044
O        1.77626082      -3.97842332      -0.77228285
C        0.52586907       0.73195634      -0.60569837
O        1.84237274       0.81903460      -0.11399126
C       -0.37411528       1.60450769       0.24110132
O       -0.03738529       2.96298371      -0.06738530
P       -0.67779716       4.13594421       0.81612321
O       -0.47585997       4.07524540       2.27964375
O       -0.05819800       5.40204739       0.05274844
O       -2.22803607       4.14373467       0.35749697
O        0.40941701      -4.86526593       1.19971216
H       -1.22129587      -2.71327176      -0.40515046
H        1.22696231      -4.72363858       0.60569271
H        0.47149467       1.09972251      -1.64080526
H        2.36483913       0.14356125      -0.56483402
H       -1.41620064       1.41195789      -0.00000884
H       -0.19551609       1.39928440       1.29581199
H        0.44335659       5.94831387       0.66978656
H       -2.79085420       4.12512881       1.14128720
H        0.63245559      -4.41025932       2.01909881
H       -0.34299303      -4.15361644       0.37547209
26
Properties=species:S:1:pos:R:3 relative_energy_eV=0.09783721364510711 branch=ts pbc="F F F"
O       -1.18260682      -0.99928515      -0.50117214
C       -0.00387563      -0.69728229      -0.64222863
O        0.96932117      -1.57594608      -0.85464497
P        0.68910562      -3.19028409      -1.44452600
O        0.36372162      -3.12069267      -2.87583565
O       -0.71998591      -3.57098171      -0.55016187
O        1.76804866      -3.98241161      -0.75922283
C        0.52606124       0.73124921      -0.60566906
O        1.84266090       0.81956888      -0.11382974
C       -0.37393491       1.60400300       0.24089071
O       -0.03711196       2.96341409      -0.06674419
P       -0.67792724       4.13583426       0.81589440
O       -0.47582437       4.07532731       2.27943480
O       -0.05821792       5.40217878       0.05287685
O       -2.22800460       4.14394533       0.35768955
O        0.42181697      -4.86564035       1.18283354
H       -1.22651690      -2.71990237      -0.43430930
H        1.22631852      -4.68141506       0.54906498
H        0.47173674       1.09830332      -1.64124000
H        2.36501852       0.14389309      -0.56460087
H       -1.41610622       1.41212973      -0.00016590
H       -0.19540322       1.39858642       1.29577139
H        0.44341756       5.94858939       0.66954523
H       -2.79110841       4.12496215       1.14120533
H        0.62712068      -4.37119554       1.99044185
H       -0.32768808      -4.22663866       0.47890104
26
Properties=species:S:1:pos:R:3 relative_energy_eV=-0.016654685816320125 branch=right pbc="F F F"
O       -1.18408044      -0.98593126      -0.50347102
C       -0.00235468      -0.69880597      -0.64286787
O        0.97250963      -1.57508733      -0.85888753
P        0.64635498      -3.19810216      -1.42834339
O        0.38929994      -3.12161394      -2.87408515
O       -0.70737570      -3.54921198      -0.57862664
O        1.74621361      -3.99802533      -0.72297130
C        0.52670527       0.73021515      -0.60538010
O        1.84383802       0.82170645      -0.11400617
C       -0.37371609       1.60340766       0.24078397
O       -0.03640554       2.96355661      -0.06642088
P       -0.67729335       4.13541416       0.81558724
O       -0.47593257       4.07606991       2.27953503
O       -0.05804486       5.40261274       0.05296283
O       -2.22790477       4.14360959       0.35758694
O        0.42094062      -4.85552890       1.16641121
H       -1.24058309      -2.72649855      -0.46652630
H        1.24711468      -4.62341474       0.44775292
H        0.47138156       1.09668028      -1.64141541
H        2.36489785       0.14442597      -0.56399156
H       -1.41591765       1.41291498      -0.00028858
H       -0.19546322       1.39791918       1.29563715
H        0.44342419       5.94883464       0.66999240
H       -2.79150519       4.12470213       1.14066873
H        0.62041035      -4.33269711       1.96245911
H       -0.29990209      -4.33351877       0.62175894
26
Properties=species:S:1:pos:R:3 relative_energy_eV=-0.36081077459675726 branch=right pbc="F F F"
O       -1.18095430      -0.95476987      -0.51057396
C       -0.00199460      -0.69639044      -0.64405910
O        0.96585994      -1.58117654      -0.86575239
P        0.62941434      -3.19745693      -1.42310877
O        0.47674874      -3.13757573      -2.86791538
O       -0.76368736      -3.52054768      -0.61125517
O        1.66627705      -4.02982436      -0.64327983
C        0.53151181       0.73308556      -0.60306195
O        1.84866708       0.82808248      -0.11642559
C       -0.37288251       1.60244684       0.24017450
O       -0.03371117       2.96404254      -0.06628526
P       -0.67661595       4.13495391       0.81570453
O       -0.47622192       4.07842012       2.27993622
O       -0.05744435       5.40337835       0.05298684
O       -2.22691595       4.14234303       0.35655106
O        0.44941738      -4.89007860       1.20719426
H       -1.28465453      -2.69874846      -0.49663223
H        1.31229370      -4.53107082       0.25168660
H        0.47110669       1.09528287      -1.64009341
H        2.36426782       0.14501995      -0.56227400
H       -1.41529257       1.41520703      -0.00022762
H       -0.19591703       1.39835295       1.29572373
H        0.44301571       5.94839956       0.67205390
H       -2.79104266       4.12431579       1.13940896
H        0.61599645      -4.32524064       1.96134615
H       -0.29063001      -4.44681764       0.76203271
26
Properties=species:S:1:pos:R:3 relative_energy_eV=-0.5876962988695595 branch=right pbc="F F F"
O       -1.19072209      -0.94836135      -0.51491825
C       -0.00032244      -0.68126875      -0.64213326
O        0.95431707      -1.59046994      -0.85439893
P        0.58017608      -3.17518459      -1.41106895
O        0.54703118      -3.16638610      -2.87132329
O       -0.79783782      -3.52064818      -0.63324722
O        1.68919121      -4.01151996      -0.68673614
C        0.53586747       0.73613822      -0.60296421
O        1.85380060       0.82787463      -0.11785164
C       -0.37034227       1.60774264       0.24112993
O       -0.03220285       2.96531456      -0.06559097
P       -0.67672568       4.13683105       0.81699980
O       -0.47611383       4.07858422       2.28053757
O       -0.05682892       5.40273979       0.05316264
O       -2.22611269       4.14083729       0.35521770
O        0.45969606      -4.93614913       1.27754420
H       -1.30370665      -2.67662659      -0.52297298
H        1.30798443      -4.47391509       0.15326495
H        0.47313945       1.09681929      -1.64106388
H        2.37118893       0.14518310      -0.56181721
H       -1.41245201       1.41615392      -0.00136393
H       -0.19604433       1.39904891       1.29631142
H        0.44250664       5.94825208       0.67277685
H       -2.79021736       4.12416988       1.13821147
H        0.63072303      -4.31984443       2.00050312
H       -0.30938120      -4.52168216       0.82564611
26
Properties=species:S:1:pos:R:3 relative_energy_eV=-0.6265307276044041 branch=right pbc="F F F"
O       -1.20040924      -0.94131100      -0.51888334
C       -0.01478091      -0.67490535      -0.63647631
O        0.93718174      -1.59014480      -0.83789895
P        0.56923041      -3.16369503      -1.42551216
O        0.57561782      -3.18212561      -2.88874637
O       -0.80194606      -3.52162884      -0.64934579
O        1.69920024      -3.98891576      -0.72652610
C        0.53795438       0.73919303      -0.60336989
O        1.85671080       0.82394571      -0.11774295
C       -0.36670587       1.61175443       0.24143461
O       -0.03002288       2.96849111      -0.06476294
P       -0.67668035       4.13826480       0.81813088
O       -0.47636078       4.07820600       2.28158609
O       -0.05621750       5.40314317       0.05358495
O       -2.22521628       4.13948280       0.35451614
O        0.44304779      -4.95095415       1.33200101
H       -1.30875175      -2.67382127      -0.53912180
H        1.32420826      -4.44610080       0.10204499
H        0.47731988       1.10073902      -1.64214870
H        2.38020510       0.14650427      -0.56309519
H       -1.40763334       1.41800441      -0.00291873
H       -0.19517872       1.40141296       1.29683071
H        0.44252314       5.94941252       0.67285960
H       -2.79009504       4.12405136       1.13702438
H        0.64455305      -4.32665068       2.03754249
H       -0.33114178      -4.57871904       0.87284836
26
Properties=species:S:1:pos:R:3 relative_energy_eV=-0.6631929576396942 branch=right pbc="F F F"
O       -1.22840367      -0.91838045      -0.52157453
C       -0.04016015      -0.66669831      -0.63704117
O        0.91260619      -1.58942392      -0.83988893
P        0.57664700      -3.14877552      -1.46407070
O        0.57052742      -3.16448293      -2.93030372
O       -0.78124635      -3.52216903      -0.68930859
O        1.70709730      -3.98245596      -0.74844812
C        0.53656455       0.73925062      -0.60173688
O        1.85393429       0.81200881      -0.11081315
C       -0.36063017       1.61854508       0.24182560
O       -0.02214575       2.97439575      -0.06448407
P       -0.67487180       4.14073652       0.81997172
O       -0.47799805       4.07932828       2.28306340
O       -0.05660305       5.40756799       0.05599940
O       -2.22338753       4.13859826       0.35428104
O        0.43656763      -4.97258968       1.37875954
H       -1.30455045      -2.69481603      -0.55689648
H        1.38926713      -4.44346338       0.08044112
H        0.48552732       1.10477153      -1.63950262
H        2.38524259       0.15095277      -0.57085468
H       -1.40019476       1.42482888      -0.00540549
H       -0.19009263       1.40858387       1.29730672
H        0.44370374       5.95449362       0.67326555
H       -2.79086768       4.12343246       1.13503445
H        0.63636822      -4.33943624       2.08046619
H       -0.37628920      -4.63116970       0.96376946
26
Properties=species:S:1:pos:R:3 relative_energy_eV=-0.6773678411263973 branch=right pbc="F F F"
O       -1.23730536      -0.91278103      -0.52469602
C       -0.05012247      -0.66149683      -0.64655299
O        0.89869689      -1.58403183      -0.86065637
P        0.57573285      -3.14973451      -1.47205989
O        0.58038131      -3.13802336      -2.93678038
O       -0.78897888      -3.54136166      -0.71653264
O        1.72665769      -3.97605558      -0.78173759
C        0.53487342       0.74098333      -0.59980505
O        1.84865857       0.79663200      -0.09763082
C       -0.35777061       1.62461101       0.24263815
O       -0.01487953       2.98065434      -0.06295337
P       -0.67282660       4.14487030       0.82032575
O       -0.47859030       4.08211109       2.28464168
O       -0.05827344       5.41454400       0.05878276
O       -2.22046711       4.13931064       0.35280811
O        0.44324992      -4.97801000       1.40855739
H       -1.30481034      -2.70871183      -0.58085056
H        1.41548703      -4.42995588       0.05069590
H        0.49235327       1.10740471      -1.63706472
H        2.37984416       0.15386917      -0.58287229
H       -1.39809234       1.43472396      -0.00446883
H       -0.18488139       1.41612277       1.29793615
H        0.44463419       5.96008139       0.67511273
H       -2.78918292       4.12214599       1.13264008
H        0.62444907      -4.35716525       2.12421517
H       -0.40222488      -4.67710367       1.04016276
26
Properties=species:S:1:pos:R:3 relative_energy_eV=-0.6864093701951788 branch=right pbc="F F F"
O       -1.23495105      -0.93391901      -0.53069991
C       -0.05143823      -0.66793762      -0.65325029
O        0.90440762      -1.58146267      -0.87365095
P        0.57382594      -3.14397886      -1.48763220
O        0.58006999      -3.11578728      -2.95247452
O       -0.78143544      -3.55209252      -0.72649004
O        1.71983555      -3.97297772      -0.79042028
C        0.52898456       0.73952972      -0.59892781
O        1.83959792       0.77846562      -0.08481154
C       -0.35838913       1.62927458       0.24401457
O       -0.00994468       2.98559084      -0.06134670
P       -0.67004767       4.15056655       0.82037095
O       -0.47766268       4.08777911       2.28497344
O       -0.06042251       5.42467147       0.06188021
O       -2.21667124       4.14281678       0.34988178
O        0.46158222      -4.95564911       1.41252693
H       -1.31063535      -2.72782213      -0.60236135
H        1.41903477      -4.42297200       0.04373983
H        0.50197372       1.11469326      -1.63395699
H        2.36999119       0.15613945      -0.59703913
H       -1.40118676       1.44738439       0.00171593
H       -0.18217304       1.42183124       1.29852785
H        0.44541566       5.96708333       0.67879802
H       -2.78505462       4.11989350       1.12964184
H        0.61476813      -4.38210055       2.17392050
H       -0.41286269      -4.70538706       1.07692500
26
Properties=species:S:1:pos:R:3 relative_energy_eV=-0.691877241115435 branch=right pbc="F F F"
O       -1.24012511      -0.93722322      -0.53976026
C       -0.05658638      -0.67039251      -0.65558263
O        0.90251230      -1.58241311      -0.87399001
P        0.57715955      -3.13620946      -1.50806469
O        0.58613592      -3.11274739      -2.97328485
O       -0.77820671      -3.54995147      -0.75369892
O        1.71941644      -3.97121947      -0.81324679
C        0.52509550       0.73648718      -0.59519811
O        1.83481645       0.76709295      -0.07845088
C       -0.35952067       1.63168594       0.24646445
O       -0.00608595       2.98797288      -0.06081564
P       -0.66680577       4.15483036       0.81965268
O       -0.47574618       4.09408120       2.28465335
O       -0.05914463       5.43166750       0.06410210
O       -2.21289411       4.14703801       0.34717741
O        0.48174581      -4.95767005       1.43704549
H       -1.32307803      -2.73790047      -0.62516164
H        1.41039415      -4.39487197       0.03032969
H        0.50600194       1.11713294      -1.62723138
H        2.36954178       0.16041805      -0.60484843
H       -1.40425334       1.45593873       0.00686870
H       -0.18215565       1.42366365       1.30048492
H        0.44547785       5.97382334       0.68253286
H       -2.78211907       4.11755738       1.12608929
H        0.60323324      -4.40589777       2.21809526
H       -0.40819711      -4.73925993       1.12969325
26
Properties=species:S:1:pos:R:3 relative_energy_eV=-0.697166103112977 branch=right pbc="F F F"
O       -1.24419938      -0.92627270      -0.55217803
C       -0.05749664      -0.66849914      -0.65752954
O        0.89798157      -1.58250312      -0.88326565
P        0.57347659      -3.13838196      -1.52282817
O        0.59216877      -3.10816828      -2.98776437
O       -0.79025780      -3.55146673      -0.78576942
O        1.70055476      -3.98171425      -0.81607670
C        0.52590581       0.73597243      -0.58817391
O        1.83577041       0.77002697      -0.07216321
C       -0.36169037       1.62900194       0.25209521
O       -0.00643945       2.98446110      -0.05639902
P       -0.66308951       4.15662929       0.81818298
O       -0.47160982       4.09933915       2.28309175
O       -0.05022888       5.43083657       0.06174614
O       -2.20882925       4.15292950       0.34419355
O        0.50796833      -4.95085553       1.45099961
H       -1.32385849      -2.73368844      -0.65116064
H        1.39146480      -4.36664539       0.04627069
H        0.49588661       1.10974175      -1.62373676
H        2.37101958       0.16802549      -0.60341966
H       -1.40632211       1.45441174       0.01060112
H       -0.18750114       1.42230526       1.30696502
H        0.44282614       5.97762885       0.68569772
H       -2.77927153       4.11570710       1.12176735
H        0.61519081      -4.42797350       2.25426922
H       -0.39280762      -4.76721483       1.14843990
26
Properties=species:S:1:pos:R:3 relative_energy_eV=-0.7005491560557857 branch=right pbc="F F F"
O       -1.24774269      -0.92807732      -0.55845796
C       -0.06110796      -0.66978706      -0.66230951
O        0.89112386      -1.58365228      -0.89180390
P        0.56503105      -3.13774073      -1.53147111
O        0.60719188      -3.10277585      -2.99582736
O       -0.80452451      -3.54753100      -0.80420398
O        1.68656757      -3.98285605      -0.81562557
C        0.52227727       0.73455940      -0.58647535
O        1.83179001       0.77279755      -0.07342932
C       -0.36195534       1.62905546       0.25591480
O       -0.00417587       2.98351291      -0.05399521
P       -0.66079923       4.15678799       0.81940950
O       -0.47108861       4.10238265       2.28485115
O       -0.04165609       5.42519277       0.05942763
O       -2.20593276       4.15607176       0.34246550
O        0.52645536      -4.94651202       1.45357840
H       -1.33269544      -2.72554269      -0.67028199
H        1.39313042      -4.35658163       0.05720723
H        0.49721913       1.11294660      -1.61891971
H        2.37296461       0.17285565      -0.60051071
H       -1.40479659       1.45040107       0.01154724
H       -0.19079532       1.42308796       1.31194952
H        0.44045402       5.97899408       0.68536903
H       -2.77743845       4.11600770       1.11903931
H        0.62274015      -4.44076496       2.26782054
H       -0.38562433      -4.78919868       1.17858695
26
Properties=species:S:1:pos:R:3 relative_energy_eV=-0.7024719817272853 branch=right pbc="F F F"
O       -1.25170298      -0.92438100      -0.56013064
C       -0.06351452      -0.66908970      -0.66334211
O        0.88871853      -1.58205670      -0.89032144
P        0.56324747      -3.13910725      -1.53098436
O        0.61907081      -3.11076274      -2.99479738
O       -0.81583735      -3.53590733      -0.81499474
O        1.68142621      -3.98190486      -0.81008460
C        0.52338267       0.73548959      -0.58738347
O        1.83335934       0.77559245      -0.07194344
C       -0.36356897       1.62441995       0.25674949
O       -0.00599063       2.97847012      -0.05084510
P       -0.65908560       4.15411981       0.81967495
O       -0.47322028       4.10270422       2.28558889
O       -0.03332634       5.41787241       0.05678960
O       -2.20412090       4.15634405       0.34266397
O        0.53658156      -4.94656382       1.45152185
H       -1.34407410      -2.71284672      -0.67970067
H        1.38474800      -4.35296916       0.06416062
H        0.49407661       1.11871905      -1.61957452
H        2.37417781       0.17291231      -0.59644508
H       -1.40660453       1.44723142       0.01163100
H       -0.19265729       1.42014971       1.31267471
H        0.43950982       5.97914676       0.68315154
H       -2.77712973       4.11825997       1.11829075
H        0.64176783      -4.43953318       2.26507906
H       -0.38262139      -4.80267606       1.18642618
26
Properties=species:S:1:pos:R:3 relative_energy_eV=-0.7038281348432065 branch=right pbc="F F F"
O       -1.25262034      -0.91941120      -0.56132998
C       -0.06499665      -0.66598829      -0.66687479
O        0.88734150      -1.57965535      -0.89404545
P        0.56541892      -3.13573258      -1.53164097
O        0.62363328      -3.11111537      -2.99553648
O       -0.81840756      -3.53183748      -0.82480474
O        1.68052063      -3.97949947      -0.80326759
C        0.52041792       0.73628943      -0.58814975
O        1.82814296       0.76722350      -0.06738624
C       -0.36611853       1.62418370       0.25721106
O       -0.00544244       2.97764790      -0.04910063
P       -0.65811285       4.15380970       0.82048258
O       -0.47602558       4.10327557       2.28693419
O       -0.02757094       5.41427385       0.05606734
O       -2.20274889       4.15605030       0.34156351
O        0.54361329      -4.94294296       1.44972846
H       -1.34963811      -2.71044496      -0.69350037
H        1.37821779      -4.35554487       0.06719222
H        0.49609607       1.12528853      -1.61779979
H        2.36958198       0.17078855      -0.59830388
H       -1.41019541       1.44939106       0.01342448
H       -0.19165093       1.41493333       1.31170013
H        0.44001285       5.98112166       0.68125310
H       -2.77522242       4.12143506       1.11777311
H        0.65617095      -4.44114074       2.26508545
H       -0.38380552      -4.81876552       1.20718001
26
Properties=species:S:1:pos:R:3 relative_energy_eV=-0.7051886314075091 branch=right pbc="F F F"
O       -1.25833942      -0.91354168      -0.56776199
C       -0.06988425      -0.66220023      -0.67057021
O        0.88156590      -1.57570912      -0.89728913
P        0.56393766      -3.13466551      -1.53554159
O        0.63552503      -3.11488476      -2.99892169
O       -0.82048232      -3.53148074      -0.83146394
O        1.67307127      -3.97122208      -0.79728727
C        0.51876991       0.73796013      -0.58728387
O        1.82565695       0.76340308      -0.06436404
C       -0.36713738       1.62419760       0.25884302
O       -0.00485252       2.97718944      -0.04544790
P       -0.65738555       4.15434881       0.82158980
O       -0.47855093       4.10474820       2.28852064
O       -0.02171948       5.41080486       0.05507843
O       -2.20120275       4.15753515       0.33986029
O        0.55205762      -4.94832495       1.45357888
H       -1.34879796      -2.70693943      -0.71293422
H        1.36126273      -4.35334061       0.06871036
H        0.49981943       1.12864154      -1.61585674
H        2.36474715       0.16753452      -0.59829677
H       -1.41141469       1.45046991       0.01599677
H       -0.19376383       1.40874074       1.31237346
H        0.44030776       5.98209381       0.68007868
H       -2.77280256       4.12698792       1.11684352
H        0.67812324      -4.43946714       2.26244756
H       -0.38189907      -4.83924606       1.23295289
26
Properties=species:S:1:pos:R:3 relative_energy_eV=-0.7061572451857501 branch=right pbc="F F F"
O       -1.26248693      -0.91393776      -0.57476895
C       -0.07409417      -0.66166251      -0.67458714
O        0.87769359      -1.57407179      -0.90392446
P        0.56756469      -3.13469940      -1.53408545
O        0.63800382      -3.11530447      -2.99771105
O       -0.81625954      -3.53117122      -0.82829008
O        1.67584716      -3.96871986      -0.78685620
C        0.51835387       0.73793870      -0.58779307
O        1.82542391       0.76190310      -0.06445992
C       -0.36674479       1.62408699       0.25949144
O       -0.00315015       2.97724055      -0.04224825
P       -0.65753828       4.15518621       0.82261444
O       -0.48089296       4.10689410       2.28979263
O       -0.02310478       5.41245091       0.05607808
O       -2.20109238       4.15942239       0.34031197
O        0.55235655      -4.95806488       1.45260319
H       -1.34966350      -2.70926885      -0.71403289
H        1.35018811      -4.36064405       0.07002641
H        0.50281564       1.12967122      -1.61639472
H        2.36173363       0.16198935      -0.59676227
H       -1.41088719       1.45195874       0.01516963
H       -0.19452156       1.40940570       1.31338743
H        0.44208741       5.98173456       0.68069093
H       -2.77343748       4.13285043       1.11696523
H        0.69198709      -4.43007447       2.24752520
H       -0.38356980      -4.84148032       1.24111280
26
Properties=species:S:1:pos:R:3 relative_energy_eV=-0.7067075761733577 branch=right pbc="F F F"
O       -1.26514641      -0.91357439      -0.58686924
C       -0.07637286      -0.66133050      -0.68131077
O        0.87730535      -1.57182017      -0.91116973
P        0.56654063      -3.13419868      -1.53764655
O        0.64617563      -3.11711904      -3.00071943
O       -0.81967298      -3.53196585      -0.83748567
O        1.66974301      -3.96742793      -0.78509705
C        0.51627230       0.73734376      -0.58673784
O        1.82278188       0.75737223      -0.06242071
C       -0.36710713       1.62509054       0.26152293
O       -0.00130868       2.97865366      -0.03893528
P       -0.65677236       4.15793571       0.82400347
O       -0.48082403       4.11183303       2.29140133
O       -0.02198191       5.41503383       0.05751856
O       -2.19966277       4.16280400       0.33933808
O        0.55858963      -4.96203906       1.45890359
H       -1.35536923      -2.71228871      -0.72216133
H        1.34235686      -4.35816910       0.07215814
H        0.50041276       1.13117647      -1.61427401
H        2.36108777       0.15902021      -0.59445575
H       -1.41097522       1.45388220       0.01517980
H       -0.19627730       1.41126603       1.31589537
H        0.44338556       5.98312648       0.68304007
H       -2.77349845       4.13754573       1.11490890
H        0.70742293      -4.43176130       2.25052849
H       -0.38049306      -4.85675579       1.25873955
26
Properties=species:S:1:pos:R:3 relative_energy_eV=-0.7069873061336693 branch=right pbc="F F F"
O       -1.26489330      -0.91200858      -0.59387915
C       -0.07591676      -0.66015303      -0.68357489
O        0.87685606      -1.57240825      -0.91131574
P        0.56609874      -3.13570728      -1.53658541
O        0.64688041      -3.12292726      -2.99968317
O       -0.82029237      -3.53350403      -0.83592660
O        1.67001273      -3.96787405      -0.78229615
C        0.51660656       0.73874934      -0.58704169
O        1.82270728       0.75702814      -0.06154440
C       -0.36737703       1.62616812       0.26110725
O       -0.00189913       2.98004256      -0.03846496
P       -0.65720123       4.15929275       0.82486952
O       -0.48090898       4.11375399       2.29221689
O       -0.02314338       5.41753425       0.05939452
O       -2.19982476       4.16316007       0.33954920
O        0.55945683      -4.96669123       1.45763781
H       -1.35629732      -2.71439528      -0.71936043
H        1.34299194      -4.36401933       0.07273280
H        0.49903666       1.13404411      -1.61432608
H        2.35884731       0.15511333      -0.59189439
H       -1.41132079       1.45605544       0.01486352
H       -0.19669876       1.41110810       1.31503768
H        0.44553749       5.98319968       0.68479543
H       -2.77503597       4.14122160       1.11417933
H        0.71224303      -4.42812236       2.24303428
H       -0.37985332      -4.85502745       1.26032976
26
Properties=species:S:1:pos:R:3 relative_energy_eV=-0.7072049201087793 branch=right pbc="F F F"
O       -1.26689742      -0.91081989      -0.60303018
C       -0.07727255      -0.66029022      -0.68795104
O        0.87538640      -1.57427456      -0.91164945
P        0.56531794      -3.13894657      -1.53740109
O        0.64645836      -3.12750831      -3.00049088
O       -0.82199914      -3.53532965      -0.83791481
O        1.66934129      -3.96995981      -0.78274352
C        0.51544231       0.73964732      -0.58740681
O        1.82125177       0.75815743      -0.06137863
C       -0.36852227       1.62729303       0.26157976
O       -0.00170350       2.98158610      -0.03733424
P       -0.65700877       4.16131026       0.82569604
O       -0.48051047       4.11596121       2.29303654
O       -0.02268523       5.42031738       0.06138510
O       -2.19926027       4.16458574       0.33896681
O        0.56396234      -4.96626294       1.45941473
H       -1.35714914      -2.71542635      -0.72295176
H        1.34229858      -4.36481535       0.07298399
H        0.50136589       1.13826654      -1.61310091
H        2.35578340       0.15232245      -0.58871255
H       -1.41280837       1.45868949       0.01540808
H       -0.19753274       1.41122237       1.31546740
H        0.44759841       5.98386983       0.68757459
H       -2.77599851       4.14501396       1.11252021
H        0.71816535      -4.43125929       2.24695719
H       -0.37641166      -4.85971692       1.26493035
26
Properties=species:S:1:pos:R:3 relative_energy_eV=-0.7073740062260185 branch=right pbc="F F F"
O       -1.26992638      -0.90921296      -0.61190415
C       -0.08009780      -0.65865190      -0.69313146
O        0.87377732      -1.57313945      -0.91209859
P        0.56487840      -3.13881779      -1.53618817
O        0.64382409      -3.13011436      -2.99938831
O       -0.82144635      -3.53515068      -0.83505889
O        1.66896783      -3.97139518      -0.78318338
C        0.51447794       0.74027897      -0.58954941
O        1.81914532       0.75651446      -0.06009206
C       -0.36922616       1.62702006       0.26071089
O       -0.00135054       2.98132978      -0.03553432
P       -0.65671462       4.16149217       0.82669705
O       -0.48179403       4.11641094       2.29419437
O       -0.02173758       5.42079638       0.06338109
O       -2.19840730       4.16688788       0.33845656
O        0.56865058      -4.96679257       1.46030678
H       -1.35787735      -2.71527220      -0.72778732
H        1.34360117      -4.36624765       0.07300269
H        0.50209432       1.14134170      -1.61462170
H        2.35448647       0.14840220      -0.58394128
H       -1.41371581       1.45986343       0.01506918
H       -0.19847470       1.41168353       1.31443803
H        0.44946244       5.98324732       0.68987988
H       -2.77625034       4.14981061       1.11122812
H        0.72255585      -4.43456917       2.24964704
H       -0.37229069      -4.86208244       1.26932227
26
Properties=species:S:1:pos:R:3 relative_energy_eV=-0.7076107497414341 branch=right pbc="F F F"
O       -1.27178891      -0.90638206      -0.62530785
C       -0.08135240      -0.65715960      -0.69810634
O        0.87215667      -1.57372432      -0.91169255
P        0.56402400      -3.13968801      -1.53287903
O        0.63719937      -3.13283159      -2.99644321
O       -0.81910903      -3.53394482      -0.82393341
O        1.67094772      -3.97202879      -0.78354398
C        0.51350088       0.74142152      -0.59216857
O        1.81676437       0.75537650      -0.05965638
C       -0.37033150       1.62801347       0.25894536
O       -0.00145703       2.98265013      -0.03542699
P       -0.65727278       4.16185853       0.82818158
O       -0.48367939       4.11506702       2.29586818
O       -0.02093691       5.42120983       0.06635390
O       -2.19821999       4.16946696       0.33787370
O        0.57276575      -4.96944279       1.46091793
H       -1.35950234      -2.71523560      -0.72826887
H        1.34735476      -4.36899557       0.07234291
H        0.50230685       1.14342101      -1.61723979
H        2.35292222       0.14177196      -0.57630370
H       -1.41481158       1.46026191       0.01264260
H       -0.19938700       1.41011175       1.31246973
H        0.45238163       5.98096860       0.69343442
H       -2.77699581       4.15656998       1.10996997
H        0.72617237      -4.43695309       2.25026387
H       -0.36703975      -4.85815014       1.26556139
26
Properties=species:S:1:pos:R:3 relative_energy_eV=-0.7080112486364669 branch=right pbc="F F F"
O       -1.27580442      -0.90076511      -0.65024435
C       -0.08371132      -0.65546185      -0.70863785
O        0.87173539      -1.57279979      -0.91245191
P        0.55994025      -3.13954769      -1.53109266
O        0.62828211      -3.13252707      -2.99498375
O       -0.82003673      -3.53095443      -0.81350717
O        1.67060203      -3.96853816      -0.78433733
C        0.51250132       0.74158043      -0.59361922
O        1.81408629       0.75431409      -0.05672823
C       -0.37272734       1.62703014       0.25618610
O       -0.00340909       2.98237357      -0.03484617
P       -0.65726019       4.16197996       0.82944237
O       -0.48747201       4.11198612       2.29748048
O       -0.01430990       5.42032749       0.07067880
O       -2.19740297       4.17370362       0.33634466
O        0.58337248      -4.97313678       1.46587777
H       -1.36687455      -2.71469169      -0.73437823
H        1.35233796      -4.36514355       0.07360783
H        0.50437562       1.14597206      -1.61729841
H        2.34658992       0.13192943      -0.56638747
H       -1.41686472       1.46207588       0.00802893
H       -0.20198616       1.40510342       1.30867711
H        0.45757043       5.97918081       0.69971859
H       -2.77765648       4.16715439       1.10748005
H        0.73668484      -4.44618557       2.25899777
H       -0.35595042      -4.86132733       1.26984711
26
Properties=species:S:1:pos:R:3 relative_energy_eV=-0.7083440805217833 branch=right pbc="F F F"
O       -1.27790046      -0.89787472      -0.67505084
C       -0.08572694      -0.65152634      -0.71818239
O        0.87006271      -1.57089410      -0.91102687
P        0.55678881      -3.13678358      -1.52573221
O        0.61493887      -3.13366987      -2.98997191
O       -0.82012214      -3.53045555      -0.80349602
O        1.67165587      -3.96383211      -0.78257946
C        0.51189630       0.74350708      -0.59659501
O        1.81184796       0.75288735      -0.05566807
C       -0.37595329       1.62605990       0.25328835
O       -0.00465530       2.98120441      -0.03449583
P       -0.65741341       4.16073988       0.83041708
O       -0.49153827       4.10827004       2.29867858
O       -0.00839449       5.41865020       0.07609001
O       -2.19691462       4.17758040       0.33488117
O        0.59138797      -4.97829969       1.46701810
H       -1.37115217      -2.71660139      -0.73486118
H        1.35844756      -4.36417738       0.07530235
H        0.51056708       1.15111744      -1.61897462
H        2.34063698       0.12083796      -0.55743395
H       -1.41994993       1.46267030       0.00228869
H       -0.20672425       1.40226813       1.30581075
H        0.46323311       5.97652537       0.70631232
H       -2.77851533       4.17772707       1.10517165
H        0.74775027      -4.45197808       2.25988084
H       -0.34764042      -4.86032075       1.27278322
26
Properties=species:S:1:pos:R:3 relative_energy_eV=-0.7085609072819352 branch=right pbc="F F F"
O       -1.27875642      -0.89537415      -0.68574868
C       -0.08598335      -0.65047059      -0.72278160
O        0.87044432      -1.57101934      -0.90778889
P        0.55449794      -3.13676424      -1.52420844
O        0.60743956      -3.13241827      -2.98868049
O       -0.82098620      -3.53154870      -0.79911060
O        1.67225960      -3.96055874      -0.78255620
C        0.51222262       0.74440466      -0.59840512
O        1.81133116       0.75168860      -0.05478878
C       -0.37740906       1.62607551       0.25131131
O       -0.00597039       2.98137177      -0.03501814
P       -0.65725827       4.16033942       0.83117979
O       -0.49283605       4.10507799       2.29962320
O       -0.00469797       5.41698787       0.07794978
O       -2.19579644       4.17985164       0.33338529
O        0.59518555      -4.97933291       1.46703274
H       -1.37296777      -2.71822194      -0.73243112
H        1.35993024      -4.35943412       0.07640321
H        0.51269042       1.15468568      -1.62010883
H        2.34022606       0.11741992      -0.55383051
H       -1.42076890       1.46093715      -0.00149005
H       -0.21239314       1.40205946       1.30453041
H        0.46490725       5.97364369       0.71052281
H       -2.77780851       4.18082871       1.10321083
H        0.75317545      -4.45645284       2.26195071
H       -0.34406513      -4.86014439       1.27370214
26
Properties=species:S:1:pos:R:3 relative_energy_eV=-0.708688136197452 branch=right pbc="F F F"
O       -1.28016097      -0.89285737      -0.69539209
C       -0.08724670      -0.64903313      -0.72737578
O        0.86795857      -1.57181284      -0.90699359
P        0.55315242      -3.13614733      -1.52274768
O        0.60225675      -3.13120685      -2.98741112
O       -0.81958803      -3.53251663      -0.79298732
O        1.67307498      -3.95933102      -0.78331825
C        0.51233316       0.74478409      -0.59973495
O        1.80977017       0.75008595      -0.05267142
C       -0.37885256       1.62570756       0.24869015
O       -0.00623820       2.98097209      -0.03586618
P       -0.65677376       4.15967801       0.83143337
O       -0.49429054       4.10298260       2.29999041
O       -0.00203621       5.41715298       0.08150473
O       -2.19477633       4.18276113       0.33220200
O        0.59829805      -4.97901268       1.46588168
H       -1.37454768      -2.72127428      -0.73067391
H        1.36153908      -4.35831268       0.07577204
H        0.51478395       1.15884019      -1.61973204
H        2.33919710       0.11562798      -0.55076753
H       -1.42149691       1.46190275      -0.00705846
H       -0.21640620       1.40168507       1.30199340
H        0.46766786       5.97218288       0.71552439
H       -2.77809817       4.18333579       1.10105076
H        0.75936793      -4.46082426       2.26304089
H       -0.34227506      -4.86173820       1.27950130
26
Properties=species:S:1:pos:R:3 relative_energy_eV=-0.7088261854078155 branch=right pbc="F F F"
O       -1.28120887      -0.89126722      -0.70017437
C       -0.08794192      -0.64820476      -0.72820255
O        0.86828862      -1.57075709      -0.90522018
P        0.55173712      -3.13562647      -1.52106640
O        0.59752969      -3.13070917      -2.98577195
O       -0.81870046      -3.53293007      -0.78693764
O        1.67263987      -3.96043759      -0.78585943
C        0.51241415       0.74523357      -0.59976946
O        1.80937382       0.75115830      -0.05107191
C       -0.38074201       1.62620384       0.24621993
O       -0.00634525       2.98143534      -0.03755620
P       -0.65660012       4.15937422       0.83098023
O       -0.49457773       4.09900734       2.29942272
O        0.00078307       5.41750687       0.08453171
O       -2.19434422       4.18497845       0.33056711
O        0.60001284      -4.97783172       1.46390266
H       -1.37551441      -2.72313545      -0.72551539
H        1.36201383      -4.35696022       0.07475191
H        0.51681754       1.15849091      -1.62002983
H        2.34066579       0.11806384      -0.54909509
H       -1.42250758       1.46227247      -0.01451371
H       -0.22084660       1.40051292       1.29996952
H        0.46979474       5.97050984       0.72086504
H       -2.77829098       4.18191989       1.09899106
H        0.76359331      -4.46443871       2.26368084
H       -0.34143148      -4.86073751       1.28075635
26
Properties=species:S:1:pos:R:3 relative_energy_eV=-0.7090847143772407 branch=right pbc="F F F"
O       -1.28225830      -0.88894458      -0.71244217
C       -0.08890634      -0.64616160      -0.73340203
O        0.86762413      -1.57017241      -0.90399628
P        0.54827896      -3.13462829      -1.51779335
O        0.58589071      -3.13069031      -2.98290406
O       -0.81853574      -3.53147878      -0.77613756
O        1.67211580      -3.96160614      -0.78830694
C        0.51198851       0.74689177      -0.60239603
O        1.80499742       0.75227996      -0.04506473
C       -0.38460124       1.62864234       0.23880876
O       -0.00690334       2.98340930      -0.03860480
P       -0.65595960       4.15974280       0.83207208
O       -0.49773889       4.09032356       2.30055374
O        0.00718833       5.41901877       0.09215235
O       -2.19176369       4.19058830       0.32661486
O        0.60600384      -4.98049785       1.46336490
H       -1.37916638      -2.72415641      -0.71997262
H        1.36388956      -4.36065206       0.07181857
H        0.52420642       1.15667243      -1.62388483
H        2.33991477       0.12322022      -0.54399251
H       -1.42472155       1.46723775      -0.02743703
H       -0.23407228       1.39998546       1.29299944
H        0.47581160       5.96679519       0.73333127
H       -2.77786037       4.18076992       1.09320723
H        0.77819704      -4.47112254       2.26373900
H       -0.33700653      -4.86183507       1.29152808
26
Properties=species:S:1:pos:R:3 relative_energy_eV=-0.7095537987479474 branch=right pbc="F F F"
O       -1.28172720      -0.88371257      -0.73427561
C       -0.08768835      -0.64467221      -0.74168279
O        0.86761453      -1.57200014      -0.89976791
P        0.53850325      -3.13475046      -1.51176741
O        0.56129429      -3.13141290      -2.97701793
O       -0.82149296      -3.52778366      -0.75550417
O        1.66758917      -3.96222233      -0.79292112
C        0.51144048       0.74833087      -0.60761583
O        1.79759855       0.75593848      -0.03469495
C       -0.39431896       1.63142195       0.22324149
O       -0.00509848       2.98572213      -0.04461471
P       -0.65392242       4.15733166       0.83406198
O       -0.50556245       4.07590556       2.30293189
O        0.01886128       5.42011718       0.11064664
O       -2.18646016       4.20336188       0.31976571
O        0.62002868      -4.98900879       1.46583769
H       -1.38441476      -2.72172376      -0.71043410
H        1.36554940      -4.36535919       0.06760607
H        0.53533709       1.15437030      -1.63083499
H        2.34190929       0.13388609      -0.53191249
H       -1.43259855       1.47656845      -0.05610318
H       -0.25953739       1.40004651       1.27934780
H        0.48831175       5.96038266       0.75741653
H       -2.77799127       4.17780323       1.08185588
H        0.80709041      -4.48421579       2.26581670
H       -0.32370216      -4.86069359       1.30447484
26
Properties=species:S:1:pos:R:3 relative_energy_eV=-0.7098231948839384 branch=right pbc="F F F"
O       -1.28148404      -0.88512832      -0.72882974
C       -0.08705499      -0.64525122      -0.74009664
O        0.86917410      -1.57176466      -0.89857670
P        0.53574402      -3.13538895      -1.51051744
O        0.55413537      -3.13013289      -2.97607483
O       -0.82366554      -3.52750588      -0.75231857
O        1.66571457      -3.96390417      -0.79329849
C        0.51145687       0.74828268      -0.60817127
O        1.79639638       0.75760008      -0.03198403
C       -0.39746365       1.63300054       0.21721772
O       -0.00459822       2.98698815      -0.04655814
P       -0.65333620       4.15706214       0.83430307
O       -0.50851840       4.06977758       2.30328035
O        0.02212781       5.42138745       0.11552564
O       -2.18491167       4.20592965       0.31757250
O        0.62210318      -4.99343112       1.46667613
H       -1.38331500      -2.71842803      -0.70648707
H        1.36388656      -4.36962479       0.06614561
H        0.53801723       1.15363084      -1.63101607
H        2.34650546       0.14216576      -0.53134124
H       -1.43426810       1.48035127      -0.06951360
H       -0.26761775       1.40072557       1.27337680
H        0.49168755       5.95881527       0.76471890
H       -2.77748104       4.17196375       1.07851944
H        0.81484313      -4.48513974       2.26339454
H       -0.32146455      -4.85834933       1.30790952
26
Properties=species:S:1:pos:R:3 relative_energy_eV=-0.7099901183246402 branch=right pbc="F F F"
O       -1.28199475      -0.88379463      -0.74041590
C       -0.08797733      -0.64352672      -0.74531528
O        0.86710621      -1.57210295      -0.89804179
P        0.53133366      -3.13487267      -1.50708828
O        0.54197081      -3.13075054      -2.97256143
O       -0.82458849      -3.52580508      -0.74257922
O        1.66338100      -3.96453693      -0.79505956
C        0.51154143       0.75016654      -0.61087847
O        1.79299872       0.75724702      -0.02727602
C       -0.40099154       1.63498973       0.21038539
O       -0.00496016       2.98891308      -0.04778003
P       -0.65329975       4.15736543       0.83529489
O       -0.51284485       4.06254079       2.30414091
O        0.02842980       5.42254778       0.12397946
O       -2.18304638       4.21157209       0.31385454
O        0.63061315      -4.99812253       1.46885114
H       -1.38705984      -2.71886681      -0.70420320
H        1.36529619      -4.37151403       0.06501783
H        0.54281117       1.15735410      -1.63301328
H        2.34519084       0.14224454      -0.52468736
H       -1.43531307       1.48454160      -0.08529516
H       -0.28001749       1.39863704       1.26674302
H        0.49834859       5.95533957       0.77673152
H       -2.77732837       4.17436287       1.07329831
H        0.82958347      -4.49246336       2.26548447
H       -0.31256981      -4.85783448       1.31427018
26
Properties=species:S:1:pos:R:3 relative_energy_eV=-0.7101289789497969 branch=right pbc="F F F"
O       -1.28206514      -0.88223461      -0.73333321
C       -0.08782773      -0.64263970      -0.74427750
O        0.86740666      -1.57128237      -0.89916144
P        0.52950637      -3.13501651      -1.50704712
O        0.53913020      -3.13083415      -2.97266201
O       -0.82581956      -3.52559132      -0.74070350
O        1.66135130      -3.96662251      -0.79649308
C        0.51219615       0.75096302      -0.61165767
O        1.79268534       0.75756802      -0.02628344
C       -0.40191146       1.63607410       0.20676594
O       -0.00283781       2.98976723      -0.04836594
P       -0.65331740       4.15685182       0.83520211
O       -0.51566327       4.05929095       2.30412861
O        0.02956460       5.42363851       0.12808950
O       -2.18245708       4.21392061       0.31190106
O        0.63383129      -5.00068196       1.47039853
H       -1.38911092      -2.71921344      -0.70179077
H        1.36501461      -4.37321874       0.06439540
H        0.54605469       1.15761570      -1.63392927
H        2.34436827       0.14289226      -0.52466866
H       -1.43420861       1.48692999      -0.09564787
H       -0.28909951       1.39846062       1.26393233
H        0.50087411       5.95326403       0.78246095
H       -2.77728252       4.17404956       1.07088366
H        0.83501217      -4.49460747       2.26639070
H       -0.30878159      -4.85571215       1.31532949
26
Properties=species:S:1:pos:R:3 relative_energy_eV=-0.7102432215833687 branch=right pbc="F F F"
O       -1.28295226      -0.87970994      -0.73538982
C       -0.08871630      -0.64126013      -0.74573590
O        0.86523051      -1.57109369      -0.90106492
P        0.52692925      -3.13477576      -1.50672491
O        0.53489897      -3.13194111      -2.97231740
O       -0.82672539      -3.52522144      -0.73717232
O        1.65999730      -3.96576763      -0.79754186
C        0.51262993       0.75167876      -0.61271103
O        1.79236018       0.75649093      -0.02514310
C       -0.40481711       1.63737843       0.20230435
O       -0.00176773       2.99080320      -0.04711046
P       -0.65302891       4.15720693       0.83658843
O       -0.51930053       4.05617282       2.30566819
O        0.03219967       5.42468687       0.13274183
O       -2.18054127       4.21678042       0.30956070
O        0.63965489      -5.00185617       1.47115965
H       -1.39225623      -2.72066826      -0.70050745
H        1.36594608      -4.37341856       0.06364442
H        0.55008618       1.15740140      -1.63507653
H        2.34322695       0.13896446      -0.52126801
H       -1.43652094       1.49065155      -0.10507585
H       -0.29744499       1.39834533       1.25950301
H        0.50440214       5.95044431       0.78950250
H       -2.77741382       4.17797236       1.06692511
H        0.84388136      -4.49944206       2.26858137
H       -0.30334472      -4.85619149       1.32051690
