26
Properties=species:S:1:pos:R:3 relative_energy_eV=0.06720289454096928 branch=ts pbc="F F F"
O        1.78119400      -0.68656099       0.16762749
C        1.54834857       0.44663068      -0.20406208
O        2.49194787       1.28891185      -0.62380935
C        0.15887958       1.05584551      -0.28196811
O       -0.36653657       1.38910787       1.01550814
C       -0.83386492       0.12033459      -0.94335548
O       -0.46094999       0.04281208      -2.32615091
P       -1.34292228      -0.74931763      -3.40878832
O       -0.76131710      -0.74334974      -4.76361294
O       -1.56213677      -2.19779016      -2.72925397
O       -2.80807658      -0.08646551      -3.25844323
O        1.58305824      -1.59692859       2.93772825
P        0.48834394      -0.41136369       3.06072161
O        0.54249352       2.30069599       1.66923770
O        1.22213803       0.86105281       3.71241991
O       -0.46672081      -0.98456890       4.25412211
H        3.34763818       0.84535440      -0.50103659
H        0.20096822       2.00427595      -0.81714482
H       -0.26221416       0.42590031       1.76740256
H       -0.79583225      -0.86274524      -0.47998315
H       -1.82870442       0.54378528      -0.83182460
H       -1.23233099      -2.89103831      -3.31511497
H       -3.09307567       0.28146589      -4.10469472
H        1.87612091      -1.67706663       2.01531641
H        1.05911568       1.60496816       3.03079050
H       -0.48560040      -0.32393944       4.95835323
