26
Properties=species:S:1:pos:R:3 relative_energy_eV=0.0 branch=left pbc="F F F"
O       -1.39747025       0.78133960       1.57659152
C       -0.78199077       0.52916056       0.57013306
O       -1.18293954      -0.34198736      -0.38796109
P       -2.68786541      -1.06746658      -0.31808749
O       -3.80474233      -0.10186067      -0.39620583
O       -2.60300216      -2.03555839       0.92093285
O       -2.49281480      -2.05099090      -1.56679411
C        0.58172539       1.09164095       0.22660349
O        0.71488348       1.38821538      -1.15365636
C        1.64787218       0.10069346       0.71991946
O        2.96635206       0.54592589       0.41921590
P        3.47433349       0.41583430      -1.12470534
O        2.77335651      -0.64938347      -1.88748563
O        3.40256258       1.90459120      -1.70365729
O        5.05824073       0.25688086      -0.93668417
O       -3.99688316      -0.55208722       2.60435983
H       -3.13789090      -1.62617406       1.67258342
H       -3.12187555      -1.84199717      -2.26931173
H        0.69123584       2.03055906       0.76035032
H        0.70290024       0.54797485      -1.64271752
H        1.59554657       0.01278800       1.80288576
H        1.46697334      -0.87689017       0.27261918
H        2.45728400       2.15130638      -1.73315197
H        5.33493371      -0.65374633      -1.09938111
H       -3.29293255       0.09568851       2.75605492
H       -4.50762378      -0.14738804       1.88862418
26
Properties=species:S:1:pos:R:3 relative_energy_eV=0.0005797336925752461 branch=left pbc="F F F"
O       -1.39767384       0.78121639       1.58264551
C       -0.78133037       0.53466346       0.57544910
O       -1.17902331      -0.33370023      -0.38672663
P       -2.67978933      -1.06844877      -0.32282470
O       -3.80031158      -0.10796106      -0.41455437
O       -2.59842197      -2.03179975       0.92059445
O       -2.47101626      -2.06093845      -1.56202488
C        0.58313504       1.09749373       0.23679399
O        0.71611414       1.40506092      -1.14103964
C        1.64104439       0.09319889       0.72095112
O        2.96473316       0.52485677       0.42346236
P        3.46853870       0.41090604      -1.12320500
O        2.76018479      -0.64175047      -1.89691573
O        3.40091054       1.90596229      -1.68487059
O        5.05201786       0.24390935      -0.93949975
O       -3.99908553      -0.54026762       2.59032070
H       -3.13496289      -1.61941501       1.67016044
H       -3.08981249      -1.85523895      -2.27477469
H        0.69763007       2.03121260       0.77869081
H        0.70628818       0.56868244      -1.63705014
H        1.58827965      -0.00262249       1.80300127
H        1.44728267      -0.87877716       0.26688789
H        2.45598977       2.15448965      -1.71057932
H        5.32386840      -0.66737458      -1.10502429
H       -3.29660686       0.11253856       2.72779402
H       -4.51781948      -0.14882581       1.87340400
26
Properties=species:S:1:pos:R:3 relative_energy_eV=0.0019938942932640202 branch=left pbc="F F F"
O       -1.43275217       0.83278348       1.53035806
C       -0.80179739       0.58124147       0.53323992
O       -1.19848297      -0.27230250      -0.44260193
P       -2.67809912      -1.04623098      -0.36133241
O       -3.82686535      -0.11786155      -0.43072318
O       -2.55141589      -2.01351408       0.87626804
O       -2.45901864      -2.02322907      -1.61170591
C        0.58161511       1.11517385       0.22887338
O        0.75119436       1.43620784      -1.14165977
C        1.60230039       0.07738154       0.72584153
O        2.94362790       0.48085667       0.47033702
P        3.47474990       0.39031964      -1.06880998
O        2.75471823      -0.62752195      -1.87722997
O        3.45703141       1.89867361      -1.59743305
O        5.04961466       0.18043690      -0.86161746
O       -3.96662557      -0.57235328       2.57750584
H       -3.09186064      -1.62186767       1.63344484
H       -3.11387105      -1.85059480      -2.30012138
H        0.70756624       2.03894316       0.78513876
H        0.73550647       0.60655744      -1.64871024
H        1.51556626      -0.03455858       1.80485355
H        1.39909210      -0.88217411       0.24985370
H        2.51831840       2.16708401      -1.65330057
H        5.30049195      -0.73944605      -1.01396798
H       -3.28268317       0.10631065       2.68312460
H       -4.52778725      -0.20323334       1.88139819
26
Properties=species:S:1:pos:R:3 relative_energy_eV=0.002981368081236724 branch=left pbc="F F F"
O       -1.45326463       0.85447528       1.51957960
C       -0.80656406       0.59001467       0.53611702
O       -1.19216377      -0.27060828      -0.43807188
P       -2.66540246      -1.05691341      -0.35897277
O       -3.82229766      -0.14179066      -0.45353340
O       -2.53890152      -2.00229718       0.89481936
O       -2.42543865      -2.05086155      -1.59107016
C        0.58355567       1.11569742       0.24574130
O        0.75537763       1.46218096      -1.11819230
C        1.59803315       0.06288067       0.71906860
O        2.93996067       0.46579128       0.46654187
P        3.46959634       0.39370922      -1.07387334
O        2.73457547      -0.59836600      -1.90064119
O        3.47355260       1.91181019      -1.57540077
O        5.04183275       0.15593029      -0.87488420
O       -3.98309136      -0.55574126       2.56362690
H       -3.08865177      -1.60503013       1.64165675
H       -3.07939691      -1.90341297      -2.28580166
H        0.71840629       2.02707790       0.81995949
H        0.73224163       0.64244204      -1.64093532
H        1.51484797      -0.06906745       1.79535479
H        1.38817178      -0.88569981       0.22520687
H        2.53968922       2.19693669      -1.61393411
H        5.27794018      -0.76232625      -1.05840471
H       -3.31054786       0.13437221       2.67043028
H       -4.54192854      -0.20412087       1.85663312
26
Properties=species:S:1:pos:R:3 relative_energy_eV=0.003601455711759627 branch=left pbc="F F F"
O       -1.47011631       0.86850719       1.49745844
C       -0.81882508       0.60394846       0.51669880
O       -1.20531556      -0.24673577      -0.46532436
P       -2.67281061      -1.04518462      -0.38250237
O       -3.83807453      -0.13925952      -0.46345638
O       -2.53168524      -1.99827528       0.86389370
O       -2.43195791      -2.02790652      -1.62335751
C        0.57801460       1.12014318       0.24371766
O        0.77160147       1.47055206      -1.11620992
C        1.58152523       0.06105402       0.72734456
O        2.92659513       0.45849819       0.48633348
P        3.47444267       0.38136308      -1.04690335
O        2.74424075      -0.60406181      -1.88606775
O        3.49933620       1.90026126      -1.54667925
O        5.04074029       0.12701135      -0.82248009
O       -3.96148349      -0.57176028       2.55970208
H       -3.07032920      -1.60498446       1.62183009
H       -3.09177516      -1.87862623      -2.31208881
H        0.71011050       2.02837109       0.82360107
H        0.75373430       0.65295879      -1.64253732
H        1.48882253      -0.06861953       1.80316543
H        1.37309880      -0.88796388       0.23337975
H        2.57041570       2.19899930      -1.59756591
H        5.27269253      -0.78994165      -1.01667504
H       -3.29812072       0.12884276       2.65639148
H       -4.53476020      -0.23010212       1.85932944
26
Properties=species:S:1:pos:R:3 relative_energy_eV=0.004268855984264519 branch=left pbc="F F F"
O       -1.48635651       0.87695060       1.47345113
C       -0.83218261       0.61625556       0.49312609
O       -1.21717531      -0.22599459      -0.49654341
P       -2.68289665      -1.03073986      -0.41250153
O       -3.85031208      -0.12615235      -0.46971840
O       -2.52456429      -1.99852134       0.81995389
O       -2.45411119      -1.99887499      -1.66688132
C        0.56905986       1.12840863       0.23504986
O        0.78720584       1.46830984      -1.12346740
C        1.55927230       0.06692868       0.74151874
O        2.91143474       0.45210516       0.51736007
P        3.48260554       0.36565006      -1.00717294
O        2.75341340      -0.61261634      -1.85549032
O        3.53050427       1.88278909      -1.51105435
O        5.04409173       0.09794739      -0.76260153
O       -3.93181208      -0.59600646       2.55535622
H       -3.05397376      -1.61548933       1.58948180
H       -3.10211858      -1.82190539      -2.35975477
H        0.69238680       2.04107158       0.80995424
H        0.77702492       0.64700944      -1.64445415
H        1.45000146      -0.05644877       1.81677309
H        1.34880032      -0.88331514       0.25068120
H        2.60504734       2.18735408      -1.58325689
H        5.27308291      -0.81845210      -0.96185993
H       -3.26982987       0.10596850       2.65198844
H       -4.51850091      -0.24513544       1.87103239
26
Properties=species:S:1:pos:R:3 relative_energy_eV=0.0049240209482377395 branch=left pbc="F F F"
O       -1.49820596       0.88396614       1.45274963
C       -0.84036407       0.62976875       0.47315368
O       -1.22394480      -0.20501695      -0.52404036
P       -2.68546773      -1.01721570      -0.43267625
O       -3.85658230      -0.11628556      -0.47076479
O       -2.51093691      -1.99474204       0.79017300
O       -2.46594012      -1.97497392      -1.69654601
C        0.56419451       1.13723774       0.22703310
O        0.79588628       1.47386222      -1.12985722
C        1.54169770       0.06991273       0.74608367
O        2.89909625       0.44546941       0.54120390
P        3.48860803       0.35195732      -0.97550697
O        2.76740335      -0.62523892      -1.83183216
O        3.54877221       1.86840278      -1.48131009
O        5.04422052       0.07440923      -0.70558844
O       -3.91672447      -0.61739798       2.54624220
H       -3.03889097      -1.62334294       1.56613498
H       -3.12749793      -1.79823117      -2.37823493
H        0.68948621       2.04867314       0.80371346
H        0.78204884       0.65146846      -1.64873261
H        1.41610024      -0.04935456       1.81989694
H        1.33288625      -0.87939828       0.25282681
H        2.62640241       2.17760624      -1.57084838
H        5.27621365      -0.83532113      -0.93028582
H       -3.25112477       0.07827648       2.66202891
H       -4.49725188      -0.24738979       1.86593531
26
Properties=species:S:1:pos:R:3 relative_energy_eV=0.005450334720080718 branch=left pbc="F F F"
O       -1.49967308       0.88925090       1.44507467
C       -0.84198713       0.63510578       0.46553781
O       -1.22702199      -0.19683101      -0.53305334
P       -2.68526355      -1.01457300      -0.43745178
O       -3.85949621      -0.11746537      -0.47362011
O       -2.50334085      -1.99081299       0.78546718
O       -2.46764495      -1.97564309      -1.69860532
C        0.56446613       1.13744662       0.22331121
O        0.80286480       1.47365677      -1.13246554
C        1.53528166       0.06700902       0.74950309
O        2.89467031       0.43812120       0.55050568
P        3.48503642       0.35049590      -0.96569656
O        2.76265804      -0.62202203      -1.82653757
O        3.54709783       1.86881967      -1.46400427
O        5.03843516       0.06543037      -0.69492634
O       -3.91601922      -0.61991026       2.53782629
H       -3.03264743      -1.62192923       1.56239454
H       -3.11814062      -1.78939134      -2.38786512
H        0.69101550       2.04951189       0.79852460
H        0.79338810       0.65245315      -1.65362500
H        1.40426033      -0.05079796       1.82289355
H        1.32526090      -0.88315199       0.25806589
H        2.62320303       2.17632243      -1.54656795
H        5.26737810      -0.84185657      -0.93337027
H       -3.24652457       0.06809856       2.67284009
H       -4.47717655      -0.24023399       1.84678952
26
Properties=species:S:1:pos:R:3 relative_energy_eV=0.006389174501236994 branch=left pbc="F F F"
O       -1.49784781       0.89291826       1.43810135
C       -0.84803945       0.64744968       0.45120029
O       -1.24438566      -0.17053209      -0.55440203
P       -2.69429932      -1.00009498      -0.45023516
O       -3.87899494      -0.11592616      -0.45863630
O       -2.49150453      -1.98701974       0.76107697
O       -2.48006569      -1.93856173      -1.72909041
C        0.56065898       1.14407035       0.20977696
O        0.80658633       1.47542277      -1.14574052
C        1.52356015       0.07130444       0.74667511
O        2.88804377       0.43579645       0.56641839
P        3.49541654       0.33945250      -0.94298255
O        2.78190554      -0.64037663      -1.80279941
O        3.55774648       1.85553572      -1.44763833
O        5.04743770       0.05861254      -0.65909961
O       -3.89517200      -0.63998641       2.53857679
H       -3.01416863      -1.62842355       1.54788065
H       -3.16520649      -1.78160261      -2.39051208
H        0.68683374       2.05756428       0.78270652
H        0.80389653       0.65293066      -1.66448014
H        1.37830851      -0.04546920       1.81824897
H        1.31655047      -0.87765241       0.25171760
H        2.63352941       2.16060217      -1.53716347
H        5.27725601      -0.85185555      -0.88494547
H       -3.23056067       0.05178489       2.67750277
H       -4.45741185      -0.25883741       1.84877826
26
Properties=species:S:1:pos:R:3 relative_energy_eV=0.008305536430270877 branch=left pbc="F F F"
O       -1.50137574       0.89476060       1.42984659
C       -0.85349203       0.66321001       0.43863122
O       -1.25698305      -0.13413511      -0.58099773
P       -2.69695333      -0.97694243      -0.46989740
O       -3.89215939      -0.10672631      -0.45533923
O       -2.46989809      -1.97454748       0.72987914
O       -2.48191167      -1.89250677      -1.76513841
C        0.55831171       1.14947992       0.20491808
O        0.81715000       1.46923860      -1.15055968
C        1.50900757       0.06980557       0.74915732
O        2.87511981       0.42740691       0.57718998
P        3.49951873       0.32442634      -0.92532181
O        2.80125698      -0.66164435      -1.79044291
O        3.56104046       1.83606768      -1.44367275
O        5.04734725       0.05789278      -0.60600961
O       -3.87920107      -0.66023097       2.53676105
H       -2.99067782      -1.63458996       1.52508133
H       -3.21141813      -1.78340203      -2.38747978
H        0.68927764       2.06419371       0.77490673
H        0.79811947       0.64355972      -1.66368850
H        1.35526483      -0.04678464       1.81972630
H        1.29857045      -0.87826193       0.25337138
H        2.63574895       2.13729261      -1.53582660
H        5.30129850      -0.84459767      -0.83756432
H       -3.21524026       0.02859761       2.69126829
H       -4.43765665      -0.26445323       1.85212563
26
Properties=species:S:1:pos:R:3 relative_energy_eV=0.010697084035200533 branch=left pbc="F F F"
O       -1.50656874       0.90091269       1.41744782
C       -0.86182703       0.67702553       0.42228348
O       -1.27250502      -0.09905758      -0.61073310
P       -2.71179871      -0.94378823      -0.50799586
O       -3.90977295      -0.07880663      -0.45777239
O       -2.46354842      -1.96460164       0.66802480
O       -2.51015770      -1.82513446      -1.82827445
C        0.55403834       1.15257813       0.19495346
O        0.82629239       1.44758464      -1.16362575
C        1.49259737       0.07617081       0.76678408
O        2.86181689       0.42601810       0.60780834
P        3.50979245       0.30461357      -0.88289888
O        2.83892277      -0.70851778      -1.73779768
O        3.56970816       1.80680297      -1.42895514
O        5.05478501       0.05678400      -0.53667348
O       -3.83585341      -0.70176653       2.52801195
H       -2.97944959      -1.63826140       1.47390662
H       -3.25163410      -1.71356272      -2.43439527
H        0.68915870       2.07597011       0.75000128
H        0.80597091       0.61411820      -1.66303717
H        1.32929253      -0.02174815       1.83759571
H        1.28096278      -0.87965605       0.28592812
H        2.64594827       2.10305257      -1.54910631
H        5.30642436      -0.85320859      -0.73930848
H       -3.17046027      -0.01102810       2.67415936
H       -4.43208992      -0.29537645       1.88456527
26
Properties=species:S:1:pos:R:3 relative_energy_eV=0.014694343582959846 branch=left pbc="F F F"
O       -1.50362224       0.88611421       1.41436502
C       -0.86708948       0.68134926       0.40903833
O       -1.29068506      -0.06442623      -0.63998823
P       -2.73455287      -0.90930312      -0.55157747
O       -3.92411325      -0.03455524      -0.49418282
O       -2.49179094      -1.95567003       0.60102403
O       -2.53754175      -1.78190570      -1.87774338
C        0.55184567       1.15617292       0.19168608
O        0.84160841       1.43363320      -1.16661388
C        1.48798543       0.09082885       0.79075833
O        2.85931578       0.44252065       0.64340552
P        3.52099903       0.28469166      -0.83979227
O        2.85441510      -0.74761585      -1.67444890
O        3.58077936       1.77430037      -1.41760579
O        5.06502926       0.04604922      -0.48394736
O       -3.79696585      -0.73749298       2.52865196
H       -2.97901483      -1.63960217       1.42774092
H       -3.26772564      -1.64710620      -2.49469695
H        0.67874141       2.08686879       0.73743244
H        0.80145255       0.59635261      -1.65735018
H        1.30702081       0.00863642       1.86029698
H        1.29018219      -0.87357175       0.32184816
H        2.65437375       2.05279550      -1.56023781
H        5.32435605      -0.86558600      -0.66336676
H       -3.13245578      -0.03984456       2.64518244
H       -4.43252338      -0.33650841       1.92098832
26
Properties=species:S:1:pos:R:3 relative_energy_eV=0.01980762870516628 branch=left pbc="F F F"
O       -1.51213014       0.88843535       1.37777733
C       -0.87644448       0.68747283       0.37048736
O       -1.30326462      -0.04737837      -0.68180862
P       -2.76325478      -0.86863599      -0.59641549
O       -3.93337289       0.02388081      -0.47374718
O       -2.50593558      -1.96591589       0.50403373
O       -2.61695722      -1.68587113      -1.96389365
C        0.54332070       1.16246457       0.16136744
O        0.85463810       1.40187520      -1.19989627
C        1.46887973       0.11762987       0.81317398
O        2.84252253       0.46759042       0.68783577
P        3.53472318       0.25104798      -0.77278451
O        2.87521199      -0.80841444      -1.57851657
O        3.61049030       1.71691276      -1.40599664
O        5.06995494       0.02966729      -0.37119163
O       -3.71375708      -0.79692990       2.52324232
H       -2.96466927      -1.68020532       1.35696259
H       -3.33126883      -1.46574381      -2.57687892
H        0.65700589       2.11107755       0.67896929
H        0.84059256       0.54994254      -1.66716765
H        1.27274040       0.06413349       1.88200328
H        1.28180384      -0.85890713       0.36428945
H        2.68739158       2.00648798      -1.54763702
H        5.33366121      -0.89417602      -0.46691450
H       -3.06490226      -0.07301435       2.56817639
H       -4.42698934      -0.42628737       1.98534971
26
Properties=species:S:1:pos:R:3 relative_energy_eV=0.023343045970250387 branch=left pbc="F F F"
O       -1.52203337       0.90128728       1.34967317
C       -0.88387080       0.69917451       0.34358927
O       -1.30259764      -0.04777873      -0.70393234
P       -2.77560400      -0.84932157      -0.62024956
O       -3.93171336       0.05373478      -0.45241582
O       -2.52244614      -1.98403418       0.44288340
O       -2.66318964      -1.62356798      -2.01614864
C        0.53677143       1.17272801       0.14136495
O        0.87342217       1.39539046      -1.21556405
C        1.44929441       0.13483629       0.81600309
O        2.82318138       0.48783046       0.70859839
P        3.54972362       0.23166488      -0.72881703
O        2.91394847      -0.85008606      -1.52289122
O        3.63976017       1.67881558      -1.39996232
O        5.07641090       0.02112544      -0.28775928
O       -3.65933305      -0.84206973       2.51711958
H       -2.95238517      -1.70416954       1.31377191
H       -3.39208872      -1.37401176      -2.59817266
H        0.64615861       2.12562445       0.65043604
H        0.84235700       0.54283471      -1.67867180
H        1.22842642       0.09268075       1.88002276
H        1.27044071      -0.84665642       0.37571899
H        2.72244702       1.97562480      -1.56193533
H        5.32969681      -0.90788022      -0.35628210
H       -3.02442011      -0.10584494       2.53609489
H       -4.41238355      -0.47078521       2.03832219
26
Properties=species:S:1:pos:R:3 relative_energy_eV=0.024706034841074143 branch=left pbc="F F F"
O       -1.52411496       0.90755222       1.34280527
C       -0.88702808       0.70417424       0.33619094
O       -1.31099079      -0.03989226      -0.71040626
P       -2.78410258      -0.84027679      -0.62017876
O       -3.93853304       0.06176925      -0.43528976
O       -2.51850250      -1.98664811       0.42742912
O       -2.68517521      -1.60243554      -2.02392003
C        0.53543714       1.17230655       0.13429003
O        0.87607484       1.37955276      -1.22409095
C        1.44392027       0.13764709       0.82040663
O        2.81886059       0.48566072       0.71618786
P        3.55376299       0.23237412      -0.71743636
O        2.92520663      -0.85035480      -1.51578482
O        3.64923117       1.68107259      -1.38620127
O        5.07665111       0.01843609      -0.26626028
O       -3.64048721      -0.85133185       2.51236868
H       -2.94469009      -1.72192550       1.30484827
H       -3.40631503      -1.33228246      -2.60653254
H        0.64302867       2.12925088       0.63644604
H        0.84912384       0.52005114      -1.67497584
H        1.22093612       0.10140986       1.88428525
H        1.26200355      -0.84611745       0.38623732
H        2.73365888       1.96551826      -1.57751762
H        5.31806792      -0.91551268      -0.30937114
H       -3.00664632      -0.11373631       2.50071916
H       -4.39941006      -0.48911364       2.03653948
26
Properties=species:S:1:pos:R:3 relative_energy_eV=0.02595897407445591 branch=left pbc="F F F"
O       -1.52186885       0.91868901       1.34190260
C       -0.88982621       0.71025646       0.33298827
O       -1.32036208      -0.03211860      -0.71208868
P       -2.78963521      -0.83966954      -0.62126370
O       -3.94614757       0.05629064      -0.42171435
O       -2.52132363      -1.99294954       0.41778230
O       -2.69507508      -1.59109092      -2.03113974
C        0.53582674       1.16841106       0.12654298
O        0.87673301       1.36566449      -1.23282966
C        1.43919588       0.13667667       0.82444121
O        2.81530857       0.48180115       0.72376444
P        3.55138119       0.23281161      -0.71031406
O        2.91819919      -0.84154820      -1.51652378
O        3.65499567       1.68354140      -1.37345241
O        5.07303396       0.01732011      -0.25741593
O       -3.62494276      -0.85836351       2.50664099
H       -2.94405326      -1.72609260       1.29782445
H       -3.40733418      -1.30163417      -2.61578395
H        0.65047370       2.12920046       0.61921546
H        0.85907492       0.50262064      -1.67770545
H        1.20958732       0.11107957       1.88766011
H        1.26023711      -0.85034309       0.39629516
H        2.74229036       1.96121104      -1.58540707
H        5.31461001      -0.91716821      -0.27701329
H       -2.98990769      -0.12124788       2.48724093
H       -4.39050642      -0.49619849       2.04113709
26
Properties=species:S:1:pos:R:3 relative_energy_eV=0.02827303764934186 branch=left pbc="F F F"
O       -1.50996849       0.91205452       1.33894064
C       -0.88953103       0.70653381       0.32183300
O       -1.33216087      -0.02477417      -0.72365026
P       -2.80178240      -0.83380797      -0.63244857
O       -3.95640175       0.06313245      -0.42844600
O       -2.52981580      -1.99278173       0.39826677
O       -2.71041775      -1.58756591      -2.04130123
C        0.53622069       1.16038704       0.11030350
O        0.88340906       1.34118504      -1.24887449
C        1.43239612       0.13974262       0.83150106
O        2.81041031       0.48120613       0.73582358
P        3.54426699       0.23306814      -0.69960422
O        2.90281615      -0.83952970      -1.50212502
O        3.65709944       1.68384684      -1.36085366
O        5.06838632       0.01350668      -0.25827201
O       -3.60442245      -0.86817742       2.51703714
H       -2.93819148      -1.73279952       1.28526050
H       -3.37073797      -1.23829085      -2.65344841
H        0.64744849       2.12724365       0.59110670
H        0.89423939       0.46999039      -1.67937457
H        1.19531607       0.13672840       1.89257155
H        1.25108333      -0.85577631       0.42372873
H        2.74851744       1.97219049      -1.57489772
H        5.29518212      -0.92458863      -0.23672919
H       -2.97665222      -0.12556379       2.48693376
H       -4.38675107      -0.51000850       2.07749334
26
Properties=species:S:1:pos:R:3 relative_energy_eV=0.029939854983240366 branch=left pbc="F F F"
O       -1.51092988       0.90169077       1.34035500
C       -0.89205964       0.70083261       0.32123158
O       -1.33484629      -0.02685764      -0.72619624
P       -2.80940441      -0.83286074      -0.64298986
O       -3.95612116       0.07359069      -0.43753805
O       -2.54713715      -1.99792576       0.38277865
O       -2.71935900      -1.58949150      -2.05077273
C        0.53370979       1.16019103       0.11031810
O        0.88227151       1.32756393      -1.25024632
C        1.43269733       0.14809052       0.84136690
O        2.81114437       0.48516279       0.74008798
P        3.54245338       0.23068495      -0.69563306
O        2.90155364      -0.84138859      -1.49969867
O        3.65048915       1.68018263      -1.35875850
O        5.06553156       0.00685928      -0.25424559
O       -3.59172539      -0.86957876       2.51471691
H       -2.94490251      -1.73461875       1.27391228
H       -3.32972457      -1.19813939      -2.68898103
H        0.64243227       2.13364281       0.57942484
H        0.91187968       0.44939299      -1.66661619
H        1.19855784       0.14968246       1.90316622
H        1.25315860      -0.85024862       0.44152824
H        2.73749297       1.96652531      -1.55917443
H        5.28372382      -0.93337802      -0.22499060
H       -2.96777289      -0.12377664       2.48339414
H       -4.38315993      -0.50867461       2.09432741
26
Properties=species:S:1:pos:R:3 relative_energy_eV=0.03380051322164945 branch=left pbc="F F F"
O       -1.51448455       0.89066471       1.34220772
C       -0.89126958       0.68461796       0.32603175
O       -1.32833702      -0.03882253      -0.72462947
P       -2.81689472      -0.82630411      -0.65285360
O       -3.94798990       0.09917450      -0.44659817
O       -2.56233638      -1.99603619       0.36676902
O       -2.74077983      -1.59338820      -2.05381429
C        0.53197087       1.15141813       0.12122033
O        0.88479763       1.31349022      -1.23906311
C        1.43547745       0.15105655       0.85820234
O        2.81111247       0.48774907       0.74175338
P        3.53727337       0.22553676      -0.69166528
O        2.88603393      -0.84994559      -1.48201122
O        3.63839917       1.66963645      -1.36383847
O        5.06352520       0.00542633      -0.26269794
O       -3.58631556      -0.86450182       2.49470308
H       -2.95035375      -1.72809809       1.26272556
H       -3.27020459      -1.14072700      -2.72423645
H        0.62395854       2.12668402       0.59159075
H        0.93013064       0.43070978      -1.64676282
H        1.21042863       0.17432100       1.92144307
H        1.26048298      -0.85291038       0.47239688
H        2.71950873       1.95246998      -1.54336754
H        5.28490182      -0.93322246      -0.21871800
H       -2.96001773      -0.11960413       2.43541987
H       -4.38907375      -0.51223789       2.08654643
26
Properties=species:S:1:pos:R:3 relative_energy_eV=0.039555659306643065 branch=left pbc="F F F"
O       -1.52500308       0.85831780       1.34365835
C       -0.89295622       0.66057067       0.33041011
O       -1.31997305      -0.05658105      -0.72715482
P       -2.82600808      -0.82084788      -0.66829186
O       -3.93067008       0.13731887      -0.47104477
O       -2.60807828      -2.00321064       0.34452841
O       -2.75823637      -1.59267852      -2.06590037
C        0.52805620       1.14075484       0.13909905
O        0.88195957       1.30465145      -1.21978473
C        1.44041819       0.15596377       0.88974624
O        2.81592000       0.49815871       0.76025330
P        3.52778763       0.21844392      -0.68141139
O        2.86624921      -0.86811851      -1.44978802
O        3.62694144       1.65442984      -1.37537823
O        5.06029903       0.00311204      -0.26687341
O       -3.57693774      -0.85347219       2.47536302
H       -2.97390897      -1.72454992       1.24893176
H       -3.16702122      -1.07070513      -2.76841485
H        0.61167954       2.12125040       0.59850420
H        0.93457642       0.42252659      -1.62691698
H        1.21664273       0.18918855       1.95367791
H        1.26339900      -0.85527887       0.52457766
H        2.70978349       1.94483465      -1.55248881
H        5.28972617      -0.93451402      -0.23039892
H       -2.94513384      -0.11442543       2.38241411
H       -4.38958021      -0.50797828       2.08341874
26
Properties=species:S:1:pos:R:3 relative_energy_eV=0.045511201373301446 branch=left pbc="F F F"
O       -1.51636108       0.82419996       1.35206859
C       -0.89095031       0.64033855       0.33216663
O       -1.31417048      -0.07494928      -0.72810812
P       -2.83476320      -0.81702393      -0.69038869
O       -3.91975898       0.16209888      -0.49341868
O       -2.65998248      -2.01210220       0.31444766
O       -2.76505141      -1.59401765      -2.08524376
C        0.52270081       1.13870923       0.14492804
O        0.88575529       1.30594878      -1.21101752
C        1.43954909       0.16555072       0.90447000
O        2.81148598       0.51616560       0.77035690
P        3.52217194       0.21771948      -0.66609891
O        2.85696207      -0.87275034      -1.42683652
O        3.63396916       1.64593279      -1.37353336
O        5.05009207      -0.00490858      -0.24070140
O       -3.56179275      -0.84909238       2.47912245
H       -3.01513337      -1.72408519       1.21814478
H       -3.06428381      -1.04175341      -2.81856557
H        0.59033229       2.11651116       0.61267228
H        0.92097505       0.42457940      -1.62119569
H        1.21833012       0.21249748       1.96798107
H        1.27075961      -0.85171948       0.55233912
H        2.72009884       1.92399514      -1.58025987
H        5.27716778      -0.94298611      -0.25818950
H       -2.93284397      -0.10678850       2.39469675
H       -4.38533507      -0.49490523       2.12088697
26
Properties=species:S:1:pos:R:3 relative_energy_eV=0.0524023946854868 branch=left pbc="F F F"
O       -1.51859239       0.81123045       1.37176644
C       -0.89732187       0.62524867       0.34893598
O       -1.31085779      -0.10362860      -0.70384324
P       -2.84792282      -0.81191750      -0.71376163
O       -3.91992160       0.18606435      -0.54383781
O       -2.71709277      -2.01521159       0.28754887
O       -2.74780515      -1.58605456      -2.10811712
C        0.50956132       1.13991236       0.14905588
O        0.86549523       1.29988527      -1.21032328
C        1.43625504       0.17847475       0.91455076
O        2.80744688       0.53858943       0.77934646
P        3.52243672       0.21477466      -0.65011145
O        2.86066854      -0.87546282      -1.41383298
O        3.63946457       1.63518077      -1.37588398
O        5.04391531      -0.02833439      -0.20812783
O       -3.55934951      -0.85624800       2.48353933
H       -3.04094557      -1.72136626       1.19961048
H       -2.96126906      -1.01585158      -2.85729923
H        0.56717490       2.12511889       0.60518464
H        0.90621206       0.41924974      -1.62143269
H        1.21373108       0.22905526       1.97849462
H        1.28078607      -0.84273635       0.56524636
H        2.72933427       1.91677950      -1.59435605
H        5.28082768      -0.96138061      -0.28931632
H       -2.90253397      -0.13675329       2.41021005
H       -4.37978138      -0.45745073       2.16746660
26
Properties=species:S:1:pos:R:3 relative_energy_eV=0.0585791917910683 branch=left pbc="F F F"
O       -1.52365388       0.81805741       1.38401421
C       -0.90410608       0.62600187       0.36091215
O       -1.31454673      -0.11270751      -0.68639139
P       -2.85660184      -0.81437179      -0.72521276
O       -3.92209592       0.19435382      -0.57881577
O       -2.76207262      -2.01981523       0.27597420
O       -2.72665951      -1.58628895      -2.11938038
C        0.50232419       1.14629945       0.15466267
O        0.85892028       1.28830396      -1.20491523
C        1.43234593       0.18754477       0.91549722
O        2.80261112       0.54790534       0.77508103
P        3.52136577       0.20829539      -0.64748058
O        2.85996535      -0.89160981      -1.39772236
O        3.64726346       1.62571847      -1.38012597
O        5.03964660      -0.03397432      -0.19537870
O       -3.54845855      -0.86460033       2.48097662
H       -3.09074594      -1.72296682       1.18779253
H       -2.89988628      -0.99754939      -2.86510752
H        0.56454251       2.13752504       0.59811932
H        0.88791719       0.40023051      -1.60023200
H        1.21698264       0.23784232       1.97968681
H        1.27025434      -0.83197202       0.56209345
H        2.73729340       1.92228335      -1.57563891
H        5.28572556      -0.96036897      -0.31223257
H       -2.86454694      -0.16940280       2.40788003
H       -4.35387260      -0.42756427       2.17665038
26
Properties=species:S:1:pos:R:3 relative_energy_eV=0.06787017851456767 branch=left pbc="F F F"
O       -1.54409993       0.86405675       1.36925058
C       -0.91089109       0.63851261       0.36182740
O       -1.30875977      -0.12365877      -0.67348626
P       -2.85655848      -0.80491742      -0.73278077
O       -3.91792226       0.20625147      -0.57767676
O       -2.79111087      -2.02371637       0.25536079
O       -2.70586307      -1.58062822      -2.12218623
C        0.49978232       1.14639084       0.15859801
O        0.85194019       1.28590723      -1.20339147
C        1.42940858       0.18916090       0.92304574
O        2.80258719       0.53910759       0.77781805
P        3.51556649       0.19750450      -0.65017595
O        2.86000121      -0.91007821      -1.39477193
O        3.63124991       1.61249344      -1.38869500
O        5.03765237      -0.02775007      -0.20395820
O       -3.54004186      -0.86833724       2.48914752
H       -3.13172754      -1.73856199       1.16147569
H       -2.85760079      -1.00804574      -2.88402466
H        0.56076189       2.13792611       0.60251618
H        0.89573925       0.39785871      -1.59871784
H        1.20532804       0.23748995       1.98619315
H        1.26662631      -0.83290991       0.58326705
H        2.71896940       1.92052532      -1.55350021
H        5.29863985      -0.94955775      -0.32123206
H       -2.82533303      -0.20441984       2.42180323
H       -4.32443495      -0.39343361       2.18499761
26
Properties=species:S:1:pos:R:3 relative_energy_eV=0.0908188702960615 branch=left pbc="F F F"
O       -1.58487211       0.97364459       1.33221210
C       -0.92785843       0.66983397       0.36228849
O       -1.29572243      -0.16797739      -0.62858750
P       -2.85445726      -0.81978718      -0.74582079
O       -3.89247004       0.21589916      -0.60737066
O       -2.84399217      -2.06084253       0.22015440
O       -2.69602994      -1.57492909      -2.14811164
C        0.50071197       1.13960391       0.17027784
O        0.85864788       1.28393171      -1.19062168
C        1.41853164       0.17339458       0.93718500
O        2.79915640       0.49902565       0.79270685
P        3.50020880       0.19182075      -0.64643959
O        2.84573288      -0.92371898      -1.37950195
O        3.56846925       1.61022676      -1.38235589
O        5.03373874      -0.00479368      -0.22786145
O       -3.51379436      -0.86330079       2.47188512
H       -3.13491131      -1.77189664       1.13832520
H       -2.80750458      -0.98145213      -2.90199660
H        0.59108951       2.12390183       0.61887885
H        0.90522942       0.39917284      -1.59236020
H        1.21994061       0.24736359       2.00254199
H        1.23837481      -0.84935615       0.60843495
H        2.63810348       1.87648770      -1.53683410
H        5.31400567      -0.92331339      -0.32780895
H       -2.76665194      -0.23880558       2.45604976
H       -4.25377002      -0.31696219       2.17543012
26
Properties=species:S:1:pos:R:3 relative_energy_eV=0.13251467986992793 branch=left pbc="F F F"
O       -1.60638447       1.06685662       1.31481222
C       -0.92206266       0.67992565       0.39894922
O       -1.26089428      -0.23148118      -0.53710011
P       -2.81867007      -0.83549355      -0.74611309
O       -3.85379197       0.20955191      -0.65377313
O       -2.85401903      -2.09738140       0.19615512
O       -2.61888434      -1.52616916      -2.17195223
C        0.50353422       1.12573742       0.19776200
O        0.80295146       1.23723642      -1.17949707
C        1.40892700       0.14211983       0.95830485
O        2.79200833       0.45586891       0.82314441
P        3.47419123       0.19346752      -0.63753790
O        2.83374679      -0.91899103      -1.38770563
O        3.48924785       1.62128657      -1.35193564
O        5.02079182       0.03124040      -0.25833231
O       -3.46762639      -0.81099438       2.44081939
H       -3.11691299      -1.79199126       1.11509464
H       -2.80720871      -0.89052310      -2.87529093
H        0.60906527       2.11983897       0.62098899
H        0.85134222       0.33472651      -1.53604198
H        1.18585859       0.20654459       2.02073968
H        1.22907290      -0.87958279       0.62123513
H        2.55227046       1.82045957      -1.56106464
H        5.30251579      -0.88894881      -0.33673122
H       -2.71437621      -0.19369086       2.46805819
H       -4.15479192      -0.27244011       2.02770386
26
Properties=species:S:1:pos:R:3 relative_energy_eV=0.18483799373643706 branch=left pbc="F F F"
O       -1.61994620       1.08498001       1.35346681
C       -0.92769070       0.67760459       0.45289801
O       -1.26124595      -0.26004398      -0.45369596
P       -2.80718243      -0.83186433      -0.72889863
O       -3.83122438       0.22223326      -0.61422812
O       -2.88381314      -2.12062205       0.17615870
O       -2.53201389      -1.46226536      -2.16697939
C        0.49899478       1.11041164       0.22520314
O        0.78436789       1.16185977      -1.16128339
C        1.39794836       0.12649680       0.97344147
O        2.77542138       0.44529216       0.82904724
P        3.44760675       0.19990542      -0.63589439
O        2.81636070      -0.92346933      -1.38229900
O        3.44929502       1.63702612      -1.33228453
O        4.99638887       0.05721313      -0.26368487
O       -3.42593019      -0.76551670       2.35565848
H       -3.04971757      -1.79414881       1.11449758
H       -2.82626481      -0.87674723      -2.87598004
H        0.63536064       2.11419175       0.62350940
H        0.79331239       0.25332419      -1.51362528
H        1.18891243       0.15749579       2.03929594
H        1.19170752      -0.87449229       0.59451530
H        2.51911857       1.81412881      -1.58077969
H        5.28981880      -0.85892173      -0.34398158
H       -2.68577995      -0.13625173       2.43040444
H       -4.07390900      -0.25064497       1.85620324
26
Properties=species:S:1:pos:R:3 relative_energy_eV=0.4099413754083798 branch=left pbc="F F F"
O       -1.51412786       1.11431227       1.53598877
C       -0.92408906       0.70169572       0.56419565
O       -1.31876325      -0.25290597      -0.31187783
P       -2.83734115      -0.84004575      -0.70331591
O       -3.85506322       0.21222115      -0.57183927
O       -2.87013786      -2.18184614       0.13207379
O       -2.61681029      -1.47283339      -2.15956537
C        0.49366111       1.11618625       0.26202425
O        0.73566481       1.13158949      -1.12661338
C        1.39173969       0.10790816       0.97462673
O        2.76380844       0.44542704       0.81757443
P        3.43549884       0.20096553      -0.64650579
O        2.81322436      -0.93045923      -1.38168441
O        3.45596852       1.62571754      -1.38197161
O        4.97451481       0.07090086      -0.21968110
O       -3.39032771      -0.64195679       2.23084899
H       -2.98328635      -1.90271677       1.07616414
H       -2.90269476      -0.91776071      -2.88905677
H        0.67561677       2.12467392       0.64716052
H        0.74020809       0.20491234      -1.43051425
H        1.18496605       0.10758787       2.03777077
H        1.20965693      -0.90003925       0.59291172
H        2.53244632       1.88157710      -1.57222731
H        5.28972337      -0.83169620      -0.34785377
H       -2.61487516      -0.05069910       2.23689302
H       -4.00929309      -0.21553846       1.60514852
26
Properties=species:S:1:pos:R:3 relative_energy_eV=0.9766162034793524 branch=left pbc="F F F"
O       -1.41700094       1.08359615       1.68716516
C       -0.93698048       0.67625818       0.64325539
O       -1.46788024      -0.10959682      -0.27667293
P       -2.94245709      -0.85602091      -0.58006218
O       -4.05537027       0.12027515      -0.65369661
O       -2.79824851      -2.30986416       0.10021591
O       -2.54231032      -1.40495247      -2.02749885
C        0.47286322       1.04553486       0.29884888
O        0.68611205       1.17810774      -1.09319339
C        1.43770310       0.08244571       0.99936007
O        2.78296715       0.51043441       0.79136286
P        3.48800347       0.19843233      -0.64183881
O        2.87302951      -0.93613442      -1.37747240
O        3.51291492       1.62140038      -1.37571709
O        5.03932761       0.05961180      -0.25327933
O       -3.30922242      -0.51068655       1.78701699
H       -3.07551960      -2.28439723       1.02961771
H       -3.12052754      -0.91213692      -2.61700129
H        0.62159747       2.03177088       0.71832964
H        0.74580189       0.29439886      -1.48790785
H        1.28933150       0.10677227       2.08091205
H        1.31443502      -0.93331153       0.62366712
H        2.58766232       1.87922533      -1.54246283
H        5.35548012      -0.84822593      -0.35032594
H       -2.60323114       0.15819560       2.04399940
H       -4.07860912      -0.03394942       1.44402987
26
Properties=species:S:1:pos:R:3 relative_energy_eV=1.3789472497883253 branch=left pbc="F F F"
O       -1.32947582       1.01014082       1.73262027
C       -0.86396782       0.63039261       0.65240144
O       -1.42754946      -0.15470165      -0.23030517
P       -3.09959446      -0.91975674      -0.47006251
O       -4.41843704      -0.23388169      -0.65113350
O       -2.91813368      -2.42446606       0.10042302
O       -2.58857432      -1.22903307      -1.95071533
C        0.53946953       1.09024064       0.34588428
O        0.78793529       1.24729392      -1.03634979
C        1.51390623       0.10965566       1.01922780
O        2.86423370       0.49063025       0.81334771
P        3.53113920       0.20027250      -0.64289134
O        2.90972721      -0.93637181      -1.36685795
O        3.54286954       1.62335433      -1.37352632
O        5.08383124       0.05742295      -0.26647658
O       -3.29815975      -0.37871653       1.49382118
H       -3.11748321      -2.51179893       1.04727995
H       -3.26408514      -0.86483373      -2.53014251
H        0.66267779       2.07607249       0.80207180
H        0.70154963       0.37960652      -1.46073117
H        1.37009307       0.11099456       2.09696662
H        1.33947793      -0.89079098       0.62979790
H        2.61196144       1.87311624      -1.53233649
H        5.37574394      -0.85901060      -0.35216267
H       -2.51568265       0.32253886       1.75382973
H       -4.13361221       0.08881669       1.34665550
26
Properties=species:S:1:pos:R:3 relative_energy_eV=1.6190462663871585 branch=ts pbc="F F F"
O       -1.35224646       0.98004081       1.75826718
C       -0.83233123       0.62522157       0.64195518
O       -1.35401950      -0.14438787      -0.19216119
P       -3.22440381      -0.94688013      -0.40193359
O       -4.54172954      -0.29081534      -0.70739346
O       -2.93645934      -2.45441097       0.09992121
O       -2.60192426      -1.19323073      -1.90582767
C        0.56071344       1.11580427       0.36259170
O        0.80235241       1.26498711      -1.02214876
C        1.52614415       0.11902601       1.02674729
O        2.88375180       0.48843672       0.81917645
P        3.54124525       0.20043555      -0.64448336
O        2.91645270      -0.93571553      -1.36527502
O        3.54839289       1.62246621      -1.37347697
O        5.09307757       0.05577656      -0.27194983
O       -3.28903542      -0.38050604       1.34163456
H       -3.11283951      -2.53914440       1.04456806
H       -3.27037742      -0.84041491      -2.50797418
H        0.68222664       2.09661243       0.81319099
H        0.69406977       0.39816173      -1.44788219
H        1.38136393       0.11186964       2.10554723
H        1.34031870      -0.87957363       0.62750855
H        2.61718208       1.87207957      -1.53166294
H        5.38092773      -0.86169745      -0.35846170
H       -2.29838465       0.45684512       1.76678188
H       -4.15447249       0.05912514       1.32278232
26
Properties=species:S:1:pos:R:3 relative_energy_eV=1.5311988467001356 branch=right pbc="F F F"
O       -1.30307583       1.02276924       1.80127451
C       -0.73607046       0.65874436       0.67564807
O       -1.25307751      -0.13078212      -0.10140732
P       -3.45412545      -1.06253173      -0.42935906
O       -4.76097139      -0.42650505      -0.76747042
O       -3.00537217      -2.52643670       0.07869744
O       -2.64196798      -1.14265215      -1.84232095
C        0.64292728       1.16163340       0.37957748
O        0.85611829       1.29226286      -1.01913405
C        1.57207643       0.13871657       1.02941891
O        2.93636627       0.47748768       0.83024839
P        3.55806742       0.20340991      -0.64668166
O        2.91937923      -0.92997271      -1.36124720
O        3.55832188       1.62509591      -1.37652047
O        5.11227159       0.05208302      -0.28638607
O       -3.29651577      -0.37069958       1.19170875
H       -3.10935530      -2.57692365       1.03560267
H       -3.26687067      -0.80974680      -2.50259520
H        0.73423127       2.14153208       0.82456763
H        0.69206756       0.42394661      -1.42929636
H        1.40950176       0.11854974       2.10401050
H        1.35072485      -0.85493873       0.63067734
H        2.62288382       1.86851007      -1.52884266
H        5.38766218      -0.86896036      -0.36708357
H       -2.23579788       0.52197016       1.79840426
H       -4.14926798       0.08647378       1.30795667
26
Properties=species:S:1:pos:R:3 relative_energy_eV=0.9463659665925661 branch=right pbc="F F F"
O       -1.28968233       1.08335922       1.88510625
C       -0.62656290       0.70182233       0.76807035
O       -1.05296936      -0.16575383       0.02545783
P       -3.83610118      -1.22572985      -0.47348086
O       -5.22745800      -0.84165600      -0.85397508
O       -3.27980817      -2.66046680       0.03467479
O       -2.81265227      -1.04067670      -1.68568314
C        0.74618520       1.24897843       0.42803032
O        0.96215958       1.33909085      -0.98388295
C        1.67422481       0.18296114       1.04539396
O        3.05024208       0.44934864       0.85979510
P        3.60664878       0.20758011      -0.65786908
O        2.93258284      -0.91592320      -1.35521870
O        3.58683140       1.63179954      -1.37903444
O        5.16495827       0.04400050      -0.33435159
O       -3.39183225      -0.34852666       0.87263159
H       -3.10705755      -2.63628842       0.98709567
H       -3.23776413      -0.77259583      -2.50857702
H        0.87722337       2.24886609       0.84247307
H        0.69628519       0.48856674      -1.37233641
H        1.48401397       0.13677765       2.11068945
H        1.39011404      -0.78945384       0.63266576
H        2.64022678       1.85214160      -1.52034109
H        5.40489155      -0.89002518      -0.37589197
H       -2.11064007       0.59790938       1.76812296
H       -4.10392603       0.16693150       1.26988168
26
Properties=species:S:1:pos:R:3 relative_energy_eV=0.516561178410484 branch=right pbc="F F F"
O       -1.21898970       1.13542888       1.80145067
C       -0.56215373       0.66850338       0.72643418
O       -0.94078287      -0.24444899       0.02526103
P       -3.94825777      -1.26043190      -0.47277149
O       -5.37415275      -1.11576675      -0.82065035
O       -3.52985517      -2.72199616       0.05148482
O       -2.88915153      -0.97303096      -1.64716932
C        0.79372472       1.27418031       0.46520779
O        0.96176438       1.40185844      -0.94701093
C        1.72806518       0.21812231       1.08014416
O        3.09669811       0.49707659       0.84932206
P        3.64141103       0.20150144      -0.66156781
O        2.95504041      -0.91687225      -1.34892715
O        3.62677831       1.62925664      -1.37235220
O        5.20958845       0.02720283      -0.38667775
O       -3.47236159      -0.26990543       0.76522216
H       -3.09652545      -2.67677461       0.91402794
H       -3.32558365      -0.73691830      -2.47519751
H        0.94762784       2.25043540       0.91788439
H        0.69985715       0.52984926      -1.29391472
H        1.58742712       0.16170810       2.16321018
H        1.43317392      -0.73670104       0.63800316
H        2.68098549       1.85040647      -1.51073492
H        5.45078938      -0.90705734      -0.38478118
H       -2.05832614       0.64623733       1.82470524
H       -4.25665583       0.16117488       1.12884263
26
Properties=species:S:1:pos:R:3 relative_energy_eV=0.3566823949513491 branch=right pbc="F F F"
O       -1.18661463       1.17940936       1.76845288
C       -0.53132360       0.62748450       0.73539055
O       -0.92022729      -0.31594081       0.08292526
P       -4.07456000      -1.29561263      -0.46903952
O       -5.49580776      -1.19360100      -0.86719550
O       -3.60813016      -2.72292971       0.09275169
O       -3.01096371      -0.97145675      -1.63060295
C        0.82375068       1.24159494       0.50843132
O        1.03109787       1.42701713      -0.88474914
C        1.81040245       0.23127818       1.10541100
O        3.16676763       0.53988505       0.82744830
P        3.70596421       0.21259277      -0.67519450
O        2.97700785      -0.91049934      -1.31480977
O        3.70196151       1.61633698      -1.43435341
O        5.28003759       0.01696152      -0.42920884
O       -3.68964232      -0.25917513       0.73418567
H       -2.98939041      -2.72052249       0.83760322
H       -3.50655266      -0.73303492      -2.42293157
H        0.89401308       2.21909753       0.98423823
H        0.76383637       0.60180051      -1.32256226
H        1.70820679       0.23266624       2.18941194
H        1.57843429      -0.75178774       0.69604540
H        2.75979528       1.88189163      -1.49568425
H        5.50387481      -0.92280349      -0.40967858
H       -2.02221809       0.70386098       1.85958697
H       -4.52958328       0.15852598       0.96357207
26
Properties=species:S:1:pos:R:3 relative_energy_eV=0.25956661630334565 branch=right pbc="F F F"
O       -1.15939307       1.20021681       1.78309229
C       -0.48401657       0.59360015       0.79444914
O       -0.89137976      -0.38453493       0.20546553
P       -4.27309545      -1.36875004      -0.47629992
O       -5.68000304      -1.43569311      -0.91506424
O       -3.74146458      -2.74693964       0.14279486
O       -3.19701091      -0.98193782      -1.60969306
C        0.87929877       1.21962933       0.54984793
O        1.07868863       1.45765494      -0.83757628
C        1.92574761       0.26705415       1.13817022
O        3.26182096       0.62125115       0.80110886
P        3.77552275       0.22077859      -0.69346944
O        3.02576076      -0.90986577      -1.29373364
O        3.78928370       1.60522236      -1.48914318
O        5.35041607       0.00478490      -0.47524757
O       -3.97196445      -0.25826068       0.68702833
H       -2.90915363      -2.66976045       0.63603759
H       -3.65587713      -0.72634288      -2.41920229
H        0.93309826       2.19208464       1.03398644
H        0.86768005       0.64950143      -1.33177523
H        1.86248922       0.28236828       2.22152685
H        1.71324189      -0.74156886       0.79900041
H        2.86759233       1.93258107      -1.49439831
H        5.56467494      -0.93645925      -0.44490086
H       -2.01927194       0.75656422       1.84151001
H       -4.77254759       0.24986153       0.87592868
26
Properties=species:S:1:pos:R:3 relative_energy_eV=0.21035979603038868 branch=right pbc="F F F"
O       -1.17366236       1.19434203       1.77105850
C       -0.45803776       0.56768037       0.82374170
O       -0.82164124      -0.43328621       0.24520835
P       -4.37794319      -1.38509478      -0.46198666
O       -5.77194492      -1.52325190      -0.92123445
O       -3.75700438      -2.69126499       0.21889834
O       -3.31093412      -0.96668509      -1.59032393
C        0.89932332       1.19837690       0.57971781
O        1.08306156       1.42360768      -0.80963588
C        1.97248327       0.26724794       1.15853941
O        3.28781418       0.66328641       0.77801276
P        3.80306406       0.23569132      -0.70515914
O        3.05413802      -0.90070075      -1.29622592
O        3.84149140       1.61118823      -1.52335011
O        5.37335632       0.01113637      -0.46647184
O       -4.12084861      -0.26084664       0.68939987
H       -2.82088984      -2.56105644       0.44463251
H       -3.74842902      -0.75665347      -2.42177099
H        0.95687154       2.16856785       1.06283739
H        0.93777954       0.57661039      -1.26104342
H        1.95031761       0.34023517       2.24309551
H        1.77340100      -0.75608402       0.83528445
H        2.93838449       1.98015417      -1.51549824
H        5.59573228      -0.92820474      -0.47763115
H       -2.04135982       0.75867130       1.81759230
H       -4.92438496       0.25937337       0.81175541
26
Properties=species:S:1:pos:R:3 relative_energy_eV=0.16773875666694948 branch=right pbc="F F F"
O       -1.20273228       1.16851986       1.74129846
C       -0.44530223       0.54416105       0.83101116
O       -0.77513773      -0.47607367       0.26255886
P       -4.37659289      -1.34012961      -0.43957975
O       -5.77540057      -1.54739752      -0.85620516
O       -3.68702182      -2.61358819       0.23160650
O       -3.33285445      -0.90230108      -1.58792297
C        0.90040088       1.19893043       0.58886583
O        1.10024970       1.33650755      -0.81051800
C        1.97419540       0.27758627       1.18437679
O        3.28833772       0.66289285       0.79059497
P        3.80117893       0.25306666      -0.70530191
O        3.07294165      -0.88301720      -1.32598835
O        3.84434675       1.63520878      -1.51676036
O        5.36841171       0.03214591      -0.43778812
O       -4.16138002      -0.18461117       0.68723726
H       -2.72849855      -2.51265986       0.31996794
H       -3.78509601      -0.82008623      -2.43470821
H        0.94477202       2.19289773       1.03182021
H        0.94367560       0.45566326      -1.19315412
H        1.93995412       0.29759071       2.27316675
H        1.76027082      -0.73785994       0.85340543
H        2.93381315       1.98255324      -1.55033103
H        5.58880929      -0.90520865      -0.50317886
H       -2.05441275       0.69999236       1.75473266
H       -4.99679027       0.27825722       0.84023657
26
Properties=species:S:1:pos:R:3 relative_energy_eV=0.12828243552939966 branch=right pbc="F F F"
O       -1.24831914       1.12918546       1.70315345
C       -0.46177472       0.48785697       0.83190158
O       -0.77467795      -0.55065740       0.28379987
P       -4.34796360      -1.28432178      -0.41528986
O       -5.74350285      -1.58290893      -0.77997480
O       -3.58875022      -2.51449286       0.27240555
O       -3.38585023      -0.76911606      -1.60593011
C        0.88169055       1.15087580       0.57098148
O        1.07077780       1.28245254      -0.83170386
C        1.96789120       0.25713206       1.18952667
O        3.28419394       0.65953964       0.81836783
P        3.80871990       0.27065637      -0.67194195
O        3.08725830      -0.87110267      -1.29202465
O        3.82578901       1.66902141      -1.45370095
O        5.38195974       0.06161078      -0.42715359
O       -4.16054790      -0.08565298       0.66975075
H       -2.62536378      -2.46537549       0.21384782
H       -3.82258511      -0.87925140      -2.45735000
H        0.92972707       2.15631881       0.98407976
H        0.96237309       0.39669253      -1.21735335
H        1.93705178       0.32118861       2.27475587
H        1.78334981      -0.77166791       0.87637075
H        2.89966855       1.94511977      -1.57677643
H        5.59763859      -0.87414206      -0.52808071
H       -2.09987777       0.65942550       1.69593182
H       -5.01873821       0.29465405       0.90184961
26
Properties=species:S:1:pos:R:3 relative_energy_eV=0.0638531374570448 branch=right pbc="F F F"
O       -1.29523881       1.05824219       1.60249497
C       -0.50124853       0.36563011       0.78557387
O       -0.77797978      -0.71192458       0.29610571
P       -4.29153239      -1.18647511      -0.36300686
O       -5.67686619      -1.61141612      -0.62464998
O       -3.36234751      -2.30572868       0.29459885
O       -3.46683045      -0.61621444      -1.63341708
C        0.82657312       1.04300492       0.52115121
O        1.03779653       1.16174001      -0.87619325
C        1.92360157       0.22635314       1.20151174
O        3.24885313       0.66290901       0.87347878
P        3.79835044       0.29714296      -0.62181941
O        3.11988726      -0.85702905      -1.27092893
O        3.75761108       1.69430398      -1.41225829
O        5.37828698       0.12132852      -0.37199592
O       -4.10612973       0.06680147       0.67175584
H       -2.43975632      -2.21253287       0.01757307
H       -3.83786982      -0.95915220      -2.46281836
H        0.84382005       2.04711922       0.92932448
H        0.98958867       0.26788598      -1.25260641
H        1.83571064       0.32624721       2.27627857
H        1.80331054      -0.81839060       0.94378764
H        2.81647179       1.89939490      -1.58399047
H        5.64289283      -0.78986536      -0.55712622
H       -2.15532179       0.60956814       1.60646376
H       -4.97149645       0.31409771       1.04015556
26
Properties=species:S:1:pos:R:3 relative_energy_eV=-0.019346764143847395 branch=right pbc="F F F"
O       -1.33866946       0.97914806       1.53046633
C       -0.53340766       0.28917384       0.72938982
O       -0.76879552      -0.80479421       0.24798853
P       -4.21123541      -1.12261602      -0.32279703
O       -5.59256607      -1.60593111      -0.46363169
O       -3.19568325      -2.21014807       0.25664057
O       -3.47682488      -0.53003192      -1.63593930
C        0.78151919       0.99028049       0.48121630
O        1.02056021       1.07677561      -0.91564265
C        1.87228453       0.18552195       1.20346881
O        3.18951167       0.62644607       0.88377039
P        3.75953860       0.29771202      -0.60206308
O        3.13375202      -0.88494320      -1.24714932
O        3.69272514       1.69723456      -1.37945953
O        5.32869922       0.18782537      -0.31129523
O       -4.03639328       0.18220026       0.64659312
H       -2.29109748      -1.98391625      -0.01870842
H       -3.80010897      -0.95543712      -2.43580954
H        0.74957472       2.01313897       0.84642053
H        0.99758579       0.17389473      -1.27367074
H        1.77011365       0.29839700       2.28184114
H        1.75660737      -0.86583958       0.93998295
H        2.74714894       1.86202360      -1.54962747
H        5.64455356      -0.69175224      -0.54825226
H       -2.21540252       0.55101896       1.54019749
H       -4.84385400       0.33765818       1.14551366
26
Properties=species:S:1:pos:R:3 relative_energy_eV=-0.07322336805373197 branch=right pbc="F F F"
O       -1.34856133       0.92932090       1.54980062
C       -0.55062836       0.28711297       0.70617585
O       -0.79808111      -0.78422167       0.17617999
P       -4.18289256      -1.13107141      -0.32182242
O       -5.58368945      -1.57260081      -0.45565282
O       -3.17105702      -2.22197184       0.24268503
O       -3.46057106      -0.52348430      -1.63464973
C        0.76680045       0.98954216       0.47029410
O        1.00642932       1.09289100      -0.92548152
C        1.85763861       0.17990990       1.18349961
O        3.16884622       0.64002940       0.86181798
P        3.76297730       0.27922796      -0.60867121
O        3.15004772      -0.91629794      -1.24106945
O        3.67895076       1.65560802      -1.41888657
O        5.33526023       0.19779444      -0.30888291
O       -3.99814580       0.14557289       0.69014581
H       -2.23974737      -1.92189258       0.15643543
H       -3.82552480      -0.90261765      -2.44456379
H        0.73620509       2.00325215       0.86153163
H        1.02002130       0.19251073      -1.29250685
H        1.75447040       0.29128597       2.26105421
H        1.73861121      -0.87264672       0.92074930
H        2.73401227       1.88607008      -1.50624767
H        5.67090245      -0.68460240      -0.50917807
H       -2.23940123       0.52538079       1.49606785
H       -4.84273711       0.32893729       1.12061938
26
Properties=species:S:1:pos:R:3 relative_energy_eV=-0.09630975092295557 branch=right pbc="F F F"
O       -1.36636208       0.88206008       1.51391156
C       -0.53049099       0.25093379       0.70190919
O       -0.74226399      -0.82631254       0.16712665
P       -4.21504984      -1.13317875      -0.31027485
O       -5.57919033      -1.67696747      -0.44025461
O       -3.14123097      -2.15672937       0.25816212
O       -3.56500655      -0.47323558      -1.63399573
C        0.77871903       0.97591849       0.47717890
O        1.02267231       1.07125426      -0.91758142
C        1.88222649       0.18534292       1.18738045
O        3.18488516       0.65736669       0.85306520
P        3.79248946       0.28840070      -0.61072900
O        3.19027502      -0.91773605      -1.23259859
O        3.69891322       1.65773883      -1.43374020
O        5.36516623       0.21685427      -0.30459530
O       -4.08173825       0.15706647       0.69290628
H       -2.21439865      -1.83873922       0.18389532
H       -3.92935614      -0.85839882      -2.43966882
H        0.73322559       1.98786240       0.86827637
H        1.04022695       0.16125237      -1.26111571
H        1.77387625       0.29952889       2.26491077
H        1.78700310      -0.86684109       0.92269943
H        2.74975666       1.87522129      -1.51157597
H        5.70092871      -0.66875960      -0.49255495
H       -2.25734981       0.47748937       1.43987333
H       -4.93779000       0.36564716       1.08683323
26
Properties=species:S:1:pos:R:3 relative_energy_eV=-0.10602888644643826 branch=right pbc="F F F"
O       -1.36542132       0.87748701       1.49352415
C       -0.52211179       0.24385175       0.69104661
O       -0.73636406      -0.83330195       0.15711311
P       -4.22972226      -1.14669852      -0.30490509
O       -5.59103059      -1.69344539      -0.45444697
O       -3.14627309      -2.15146570       0.27361812
O       -3.56492864      -0.49719418      -1.62844765
C        0.78800876       0.97108124       0.47769783
O        1.03608863       1.08080210      -0.91656962
C        1.89878657       0.18487816       1.18857668
O        3.19747886       0.66540326       0.85458307
P        3.80417844       0.29180281      -0.60773886
O        3.20755333      -0.92239445      -1.21921130
O        3.71196365       1.65816224      -1.43621115
O        5.37546127       0.22800133      -0.29911507
O       -4.10881169       0.13367941       0.71136669
H       -2.23376178      -1.79591132       0.20494845
H       -4.00459748      -0.81354592      -2.42822267
H        0.72779304       1.98207628       0.86957310
H        1.03799581       0.17874553      -1.28025854
H        1.80181812       0.29183063       2.26781815
H        1.80753791      -0.86719657       0.92117450
H        2.76235931       1.86607089      -1.53065147
H        5.71148769      -0.66147266      -0.46647488
H       -2.24698618       0.45300599       1.43047713
H       -4.97836582       0.36878753       1.06017938
26
Properties=species:S:1:pos:R:3 relative_energy_eV=-0.11390049811598146 branch=right pbc="F F F"
O       -1.36732201       0.86236363       1.47298174
C       -0.51935622       0.23910646       0.66843220
O       -0.72579560      -0.83623605       0.12605858
P       -4.21892666      -1.14641708      -0.29434266
O       -5.58572894      -1.68042642      -0.43719284
O       -3.14174012      -2.14951752       0.29972810
O       -3.54604467      -0.53402998      -1.63018068
C        0.79086209       0.97122201       0.46179307
O        1.03917962       1.08173415      -0.93409936
C        1.88883266       0.17558968       1.17838114
O        3.19320303       0.66239383       0.87646625
P        3.81102074       0.30118525      -0.58807510
O        3.23534075      -0.91888132      -1.20754592
O        3.70890146       1.66519317      -1.41973020
O        5.38327445       0.25361928      -0.28270129
O       -4.09872453       0.13985710       0.71448367
H       -2.21965170      -1.81955094       0.21405979
H       -4.08550333      -0.73067635      -2.40242944
H        0.74079571       1.98163189       0.85978170
H        1.01267420       0.18243672      -1.30304148
H        1.77143102       0.27222149       2.25522483
H        1.80587702      -0.87414912       0.89917045
H        2.75722585       1.82821231      -1.56456194
H        5.72370009      -0.64044368      -0.41434597
H       -2.24812763       0.43342775       1.41243966
H       -4.96526067       0.37317295       1.06868938
26
Properties=species:S:1:pos:R:3 relative_energy_eV=-0.12011603085556999 branch=right pbc="F F F"
O       -1.35522087       0.85171493       1.47891634
C       -0.52047662       0.23314966       0.65616701
O       -0.73241138      -0.83653536       0.10584579
P       -4.21997720      -1.15131380      -0.28221084
O       -5.58563720      -1.69186647      -0.40674077
O       -3.13789951      -2.15421988       0.30557197
O       -3.55588291      -0.55457213      -1.62976630
C        0.78862244       0.96392502       0.44946889
O        1.03740308       1.07355004      -0.94583168
C        1.88415992       0.16925010       1.16467246
O        3.18455195       0.66311778       0.86666969
P        3.82272144       0.29894051      -0.58721757
O        3.26292810      -0.93318021      -1.19923172
O        3.71387544       1.66028029      -1.42368609
O        5.39115039       0.27887242      -0.25071764
O       -4.09013723       0.14641176       0.71388243
H       -2.21701835      -1.83363042       0.19377493
H       -4.14372385      -0.66792609      -2.38738342
H        0.73128962       1.97336829       0.84794095
H        1.01928131       0.17146931      -1.30834925
H        1.75899743       0.26323167       2.24047772
H        1.79928725      -0.88000936       0.88304617
H        2.76094461       1.82856140      -1.55977521
H        5.74438559      -0.61189015      -0.37017084
H       -2.24717108       0.45035049       1.39870050
H       -4.95390587       0.38198907       1.07539016
26
Properties=species:S:1:pos:R:3 relative_energy_eV=-0.1254060469509568 branch=right pbc="F F F"
O       -1.35620200       0.84395565       1.47077883
C       -0.52743759       0.23504889       0.63462586
O       -0.74421924      -0.82870592       0.07483065
P       -4.22947201      -1.16322647      -0.27081045
O       -5.60276525      -1.68978865      -0.37037833
O       -3.14005221      -2.16136061       0.30563386
O       -3.58842218      -0.57091545      -1.63151139
C        0.78594083       0.95718863       0.42910552
O        1.04915435       1.05795166      -0.96374652
C        1.88109823       0.16562896       1.15428931
O        3.18272719       0.66699388       0.86710862
P        3.84533295       0.30021518      -0.57622641
O        3.31683050      -0.94311692      -1.19167779
O        3.72420849       1.64815046      -1.42913348
O        5.40891997       0.31405719      -0.21852349
O       -4.08175210       0.13377217       0.72445477
H       -2.22375678      -1.83469353       0.18154310
H       -4.23306749      -0.59650931      -2.34938972
H        0.73138725       1.96919944       0.81717449
H        1.02728683       0.15748429      -1.32853097
H        1.74950660       0.24139458       2.23327682
H        1.80615703      -0.87910009       0.85577276
H        2.77112274       1.82029205      -1.55483798
H        5.77824242      -0.57407634      -0.30155014
H       -2.24599687       0.43679188       1.39303793
H       -4.94463525       0.38640690       1.07412810
26
Properties=species:S:1:pos:R:3 relative_energy_eV=-0.1335527867122437 branch=right pbc="F F F"
O       -1.34983037       0.83930015       1.44593576
C       -0.52972500       0.23272495       0.60119731
O       -0.76257795      -0.82136468       0.02883577
P       -4.26114470      -1.16839321      -0.24835173
O       -5.63916110      -1.68996489      -0.30366592
O       -3.14566807      -2.16771129       0.26592013
O       -3.66239840      -0.57826324      -1.62795804
C        0.78988467       0.94634622       0.39609312
O        1.06144334       1.02801520      -0.99523787
C        1.87987200       0.15611811       1.12848572
O        3.18124507       0.67436587       0.87120169
P        3.88188363       0.31110002      -0.55395237
O        3.39172645      -0.95114971      -1.16119410
O        3.74258104       1.65048047      -1.41610395
O        5.43857567       0.36561940      -0.17330100
O       -4.07653484       0.11926551       0.75729753
H       -2.23571263      -1.82568710       0.13292861
H       -4.34444587      -0.54205637      -2.31044598
H        0.74369871       1.96433191       0.77190649
H        1.04477229       0.11987962      -1.33923651
H        1.72752183       0.22667617       2.20277934
H        1.81839206      -0.89010192       0.82724421
H        2.78650967       1.79838911      -1.55334648
H        5.82527429      -0.51847261      -0.21059798
H       -2.23191038       0.41182485       1.39455382
H       -4.93413529       0.40176518       1.09845670
26
Properties=species:S:1:pos:R:3 relative_energy_eV=-0.15153231311705895 branch=right pbc="F F F"
O       -1.27906821       0.78810790       1.39400388
C       -0.51073047       0.20056263       0.48867261
O       -0.79027360      -0.82194194      -0.11919888
P       -4.34559562      -1.14950953      -0.18874707
O       -5.71561497      -1.68517993      -0.09127990
O       -3.17491261      -2.16386967       0.14411220
O       -3.92113205      -0.48579694      -1.60174798
C        0.81347827       0.89898174       0.28213800
O        1.11834672       0.92339839      -1.10655618
C        1.87174280       0.13388922       1.08730684
O        3.18039322       0.67275397       0.92945634
P        3.95999281       0.34725455      -0.46542051
O        3.57755316      -0.95168088      -1.07241269
O        3.76642544       1.66369762      -1.34771854
O        5.49200669       0.51878392      -0.02746358
O       -4.04258285       0.08829457       0.84990113
H       -2.27594995      -1.79642851      -0.01015978
H       -4.64546929      -0.48343119      -2.24057537
H        0.75041099       1.93094654       0.62380156
H        1.11328337       0.00619866      -1.42995826
H        1.64131638       0.18846451       2.15113866
H        1.85333135      -0.90734992       0.76326700
H        2.81792572       1.71257871      -1.58299496
H        5.93133238      -0.34023025       0.02443041
H       -2.17311710       0.38463733       1.35948762
H       -4.87295732       0.41990395       1.21596257
26
Properties=species:S:1:pos:R:3 relative_energy_eV=-0.16340556040086085 branch=right pbc="F F F"
O       -1.25880511       0.74945173       1.38021307
C       -0.51074053       0.18618075       0.44213587
O       -0.80410525      -0.81611554      -0.19108794
P       -4.38234219      -1.13181545      -0.16757707
O       -5.74226153      -1.68421581      -0.03464076
O       -3.19399133      -2.14670613       0.09207254
O       -4.03865142      -0.41694321      -1.57750869
C        0.82229114       0.87284036       0.24126163
O        1.15600557       0.87304136      -1.13758876
C        1.86958042       0.12388244       1.07476067
O        3.16913551       0.68873282       0.93253010
P        3.98901459       0.36654780      -0.43905326
O        3.64452492      -0.94208608      -1.04629517
O        3.79561857       1.66887502      -1.34451907
O        5.50234980       0.57189845       0.04599095
O       -4.04310766       0.08019659       0.88744319
H       -2.30335783      -1.77233844      -0.09013195
H       -4.77340467      -0.52153240      -2.19674337
H        0.77271678       1.91380919       0.55142577
H        1.17706524      -0.05113624      -1.43423654
H        1.62376346       0.18672844       2.13314435
H        1.87384744      -0.92577344       0.77372222
H        2.84918411       1.70036158      -1.58994051
H        5.96959524      -0.27140554       0.10048217
H       -2.16458011       0.37351061       1.34219721
H       -4.85921027       0.41704570       1.28138874
26
Properties=species:S:1:pos:R:3 relative_energy_eV=-0.16994841652194737 branch=right pbc="F F F"
O       -1.23519541       0.71769191       1.33406703
C       -0.50716828       0.16957547       0.37256544
O       -0.83624476      -0.79754430      -0.29606744
P       -4.41841755      -1.11585532      -0.13941686
O       -5.76953212      -1.67840930       0.03977445
O       -3.21834492      -2.13288998       0.04898205
O       -4.15662767      -0.37603530      -1.55363810
C        0.83326479       0.83970085       0.18922817
O        1.19470658       0.82471638      -1.18187936
C        1.86423429       0.11363849       1.05754803
O        3.15718929       0.69707537       0.94600643
P        4.02029837       0.38360363      -0.40061416
O        3.73057937      -0.94157889      -1.00104252
O        3.82210161       1.67030948      -1.32763457
O        5.50998570       0.64081192       0.13020073
O       -4.02552722       0.08302163       0.91171271
H       -2.33198137      -1.75696102      -0.15135687
H       -4.91893060      -0.50207833      -2.13331094
H        0.77324064       1.88124653       0.49416665
H        1.23780511      -0.10142075      -1.46992411
H        1.58800141       0.19101624       2.10683176
H        1.88855446      -0.93907105       0.76966787
H        2.88521000       1.67635627      -1.60693768
H        5.99790671      -0.18842872       0.20403978
H       -2.13605238       0.32967940       1.31051689
H       -4.80892148       0.40486264       1.37596033
26
Properties=species:S:1:pos:R:3 relative_energy_eV=-0.17493831819592742 branch=right pbc="F F F"
O       -1.21918681       0.67481789       1.30426370
C       -0.50676405       0.15238106       0.31635311
O       -0.85128504      -0.79043569      -0.37843329
P       -4.43726949      -1.10787034      -0.12088594
O       -5.78606669      -1.65808061       0.10748473
O       -3.23578300      -2.12868079       0.04196248
O       -4.19903939      -0.38509621      -1.54806963
C        0.83774488       0.82582594       0.15574839
O        1.23104357       0.81251724      -1.20563305
C        1.85696167       0.11361710       1.05309212
O        3.14644660       0.70907892       0.95808627
P        4.03144692       0.39645864      -0.37520999
O        3.75711684      -0.93538881      -0.96806187
O        3.84614048       1.67291705      -1.32033000
O        5.51266460       0.66501807       0.17657259
O       -4.01936053       0.09740113       0.91262323
H       -2.35479104      -1.75669308      -0.18666401
H       -4.98700779      -0.45752832      -2.09776534
H        0.76323913       1.86916624       0.45391642
H        1.28106474      -0.11343874      -1.49132009
H        1.56320815       0.20146788       2.09656052
H        1.89857176      -0.94451976       0.78594029
H        2.91778353       1.67268965      -1.62687746
H        6.00172069      -0.16253004       0.25884996
H       -2.13049985       0.31172699       1.27611451
H       -4.77796567       0.35821107       1.45112809
26
Properties=species:S:1:pos:R:3 relative_energy_eV=-0.1776229220777168 branch=right pbc="F F F"
O       -1.21990486       0.66398650       1.29497885
C       -0.50445197       0.14476903       0.30642804
O       -0.85097212      -0.79279486      -0.39500049
P       -4.44955871      -1.10499487      -0.11495069
O       -5.79211619      -1.66227813       0.13200722
O       -3.24140493      -2.12156000       0.03159189
O       -4.22325062      -0.37868222      -1.54027097
C        0.83953516       0.82162160       0.14691884
O        1.23893252       0.80222630      -1.21214558
C        1.86114523       0.12585913       1.05372843
O        3.14923521       0.72713223       0.95869059
P        4.04041150       0.40049239      -0.36716996
O        3.75788183      -0.93020862      -0.96002492
O        3.86223049       1.67959640      -1.30939061
O        5.52498849       0.65648492       0.18229641
O       -4.03625893       0.10833329       0.91200406
H       -2.36653069      -1.74657996      -0.21340058
H       -5.01037164      -0.46143240      -2.09229048
H        0.75831053       1.86627652       0.43709302
H        1.30287568      -0.12492432      -1.49169726
H        1.56201179       0.22295366       2.09521729
H        1.91133266      -0.93235848       0.79012451
H        2.93601804       1.67546179      -1.62024183
H        6.00810233      -0.17507824       0.26711559
H       -2.13021093       0.29843023       1.26065253
H       -4.78784569       0.33030056       1.47718197
26
Properties=species:S:1:pos:R:3 relative_energy_eV=-0.17945741947187344 branch=right pbc="F F F"
O       -1.21598200       0.65719408       1.27964447
C       -0.50425278       0.14497901       0.28495698
O       -0.84972096      -0.79126483      -0.41847754
P       -4.45097919      -1.10143375      -0.11178533
O       -5.79006547      -1.66248634       0.14448330
O       -3.24147793      -2.11964926       0.02367691
O       -4.24027281      -0.36951156      -1.53541205
C        0.83565252       0.82866528       0.12651655
O        1.24467356       0.80040842      -1.22875052
C        1.85157216       0.14230604       1.04867464
O        3.14248126       0.73775396       0.95929631
P        4.04133579       0.39856079      -0.35678244
O        3.75279885      -0.93117058      -0.94836986
O        3.87647076       1.67776727      -1.30147440
O        5.52363198       0.63697482       0.20532234
O       -4.02741989       0.11346606       0.91123750
H       -2.36842819      -1.74615969      -0.22792275
H       -5.02741878      -0.46090842      -2.08721501
H        0.74434548       1.87542915       0.40716226
H        1.31659555      -0.12885517      -1.49824518
H        1.54681311       0.24905193       2.08734452
H        1.90305184      -0.91884862       0.79847751
H        2.94663366       1.68660526      -1.60263558
H        5.99691632      -0.20131613       0.27902951
H       -2.12633826       0.29042007       1.25069070
H       -4.74048238       0.28505461       1.54000315
26
Properties=species:S:1:pos:R:3 relative_energy_eV=-0.18068032916926313 branch=right pbc="F F F"
O       -1.22204478       0.67852511       1.28600744
C       -0.50254098       0.15819396       0.30136001
O       -0.83744115      -0.79238255      -0.38796835
P       -4.44463229      -1.11306070      -0.12152584
O       -5.78667077      -1.67639968       0.11606755
O       -3.23326162      -2.12753539       0.02303169
O       -4.22212035      -0.37752682      -1.54244055
C        0.83377915       0.84684196       0.13787001
O        1.23960392       0.82260939      -1.21864004
C        1.85227771       0.15437212       1.05186487
O        3.14521034       0.74218837       0.94827584
P        4.03587920       0.38614104      -0.36865584
O        3.73016579      -0.94176599      -0.95629261
O        3.88546682       1.66812998      -1.31241405
O        5.52303430       0.60435418       0.18898237
O       -4.03467546       0.09444256       0.91537194
H       -2.35549018      -1.74916666      -0.20609491
H       -5.00865875      -0.46320537      -2.09677688
H        0.74552143       1.89253698       0.42322211
H        1.30225794      -0.10584270      -1.49414115
H        1.55765394       0.26449236       2.09352484
H        1.89381939      -0.90720491       0.80074068
H        2.94985936       1.70309112      -1.59487303
H        5.98579539      -0.24020286       0.25750097
H       -2.12769690       0.30091270       1.26132656
H       -4.76495691       0.27049443       1.52412212
26
Properties=species:S:1:pos:R:3 relative_energy_eV=-0.18399082447285764 branch=right pbc="F F F"
O       -1.22274981       0.69315699       1.24127481
C       -0.50045107       0.17807291       0.25665519
O       -0.83052656      -0.77716275      -0.42825478
P       -4.45306800      -1.12842364      -0.10585270
O       -5.77102182      -1.72733270       0.17439223
O       -3.22300946      -2.12886959      -0.05325067
O       -4.30227430      -0.33790744      -1.50722229
C        0.83682345       0.86821868       0.09947179
O        1.26422681       0.83315190      -1.24987721
C        1.83328172       0.18163404       1.04193831
O        3.13468209       0.75043614       0.95483043
P        4.04652292       0.37012570      -0.34064580
O        3.73833505      -0.95933728      -0.92268446
O        3.93842512       1.64053082      -1.30685214
O        5.52190153       0.58145607       0.25146163
O       -4.02520854       0.05602490       0.95033883
H       -2.34942111      -1.72998770      -0.26674779
H       -5.10529723      -0.42980849      -2.03684896
H        0.74898326       1.91655489       0.37463345
H        1.32297107      -0.09616001      -1.52300078
H        1.51576422       0.32198902       2.07265697
H        1.86407089      -0.88543238       0.81350134
H        3.01568887       1.68805337      -1.62188678
H        5.98478400      -0.26216750       0.32687423
H       -2.12093403       0.29737443       1.22712332
H       -4.72236416       0.17884139       1.60741759
26
Properties=species:S:1:pos:R:3 relative_energy_eV=-0.1883091404888546 branch=right pbc="F F F"
O       -1.23123563       0.73979083       1.18201856
C       -0.49980608       0.22282659       0.20565699
O       -0.82341488      -0.73286576      -0.48184494
P       -4.45452035      -1.16301559      -0.09121514
O       -5.74279825      -1.81041221       0.21604132
O       -3.19906990      -2.12909903      -0.15377022
O       -4.40593904      -0.28686217      -1.44805799
C        0.84055658       0.90767665       0.06417752
O        1.29782291       0.85118641      -1.27466615
C        1.81476125       0.22453389       1.03250642
O        3.12351074       0.77523552       0.95285407
P        4.05847053       0.34686745      -0.30989947
O        3.73304887      -0.98412138      -0.87809326
O        3.99846349       1.60318328      -1.29794369
O        5.52516739       0.53457825       0.31064853
O       -3.99696570      -0.03340189       1.01098756
H       -2.34098648      -1.69352612      -0.35393295
H       -5.22540018      -0.38993500      -1.94856026
H        0.74371832       1.95945601       0.32328694
H        1.33680383      -0.08221048      -1.53748696
H        1.48737277       0.38072961       2.05703697
H        1.83294423      -0.84737233       0.82721937
H        3.09188495       1.63771525      -1.65651579
H        5.97282495      -0.31442554       0.41302569
H       -2.11999532       0.32235955       1.17409936
H       -4.67708370       0.05413908       1.69187344
26
Properties=species:S:1:pos:R:3 relative_energy_eV=-0.1934283890586812 branch=right pbc="F F F"
O       -1.25766087       0.79861508       1.13938298
C       -0.51300054       0.27757226       0.17572141
O       -0.83303577      -0.66852782      -0.52696861
P       -4.42668375      -1.20809035      -0.08917617
O       -5.69980690      -1.88843464       0.21395927
O       -3.15598287      -2.14742906      -0.21963982
O       -4.41422445      -0.27770893      -1.41132722
C        0.83616285       0.95457756       0.05904902
O        1.31366460       0.88947987      -1.27228743
C        1.80030734       0.27224662       1.03815705
O        3.11968420       0.79929081       0.94801731
P        4.04657485       0.31303506      -0.30075370
O        3.68066035      -1.01851503      -0.84341012
O        4.03739992       1.54665756      -1.31832364
O        5.51580213       0.45492965       0.32561414
O       -3.96831852      -0.11275226       1.05045745
H       -2.31035705      -1.68339362      -0.40748684
H       -5.25983571      -0.33965392      -1.87339096
H        0.73953120       2.00699734       0.31504917
H        1.33620191      -0.04583354      -1.53162538
H        1.47733124       0.44644722       2.06174723
H        1.80461999      -0.79994528       0.83702196
H        3.12733337       1.62375152      -1.66511023
H        5.91781323      -0.41509932       0.44297050
H       -2.14833287       0.38308625       1.12466431
H       -4.62571204      -0.06827266       1.75713432
26
Properties=species:S:1:pos:R:3 relative_energy_eV=-0.19684016600513132 branch=right pbc="F F F"
O       -1.26080518       0.85124354       1.08492153
C       -0.51351264       0.32781793       0.12512020
O       -0.83965755      -0.60718801      -0.58968362
P       -4.41563813      -1.23375301      -0.07475016
O       -5.65590298      -1.96124803       0.25219957
O       -3.13485818      -2.13524943      -0.30844559
O       -4.48229817      -0.23830551      -1.34743608
C        0.84615119       0.98154907       0.02598757
O        1.33870387       0.89102941      -1.29792799
C        1.78385815       0.29818052       1.03259907
O        3.10997785       0.80955227       0.95523786
P        4.04269764       0.28661236      -0.27534858
O        3.66117890      -1.05162748      -0.79039391
O        4.05787505       1.50063766      -1.31561714
O        5.50735186       0.42538719       0.36225842
O       -3.93272474      -0.18222142       1.09470195
H       -2.30216313      -1.64884866      -0.49396184
H       -5.33694585      -0.31055260      -1.79024679
H        0.76603540       2.03931524       0.26637091
H        1.33455595      -0.04632836      -1.55086487
H        1.44480176       0.49243350       2.04783892
H        1.78323029      -0.77817629       0.85204537
H        3.14698693       1.59502833      -1.65657819
H        5.89809768      -0.44409188       0.51524683
H       -2.14023048       0.41339151       1.08149052
H       -4.56662952      -0.18155841       1.82468230
26
Properties=species:S:1:pos:R:3 relative_energy_eV=-0.1976255501722335 branch=right pbc="F F F"
O       -1.25871175       0.86801787       1.06716339
C       -0.51330882       0.34747208       0.10481340
O       -0.84278334      -0.58245487      -0.61512231
P       -4.40915663      -1.24339335      -0.07013529
O       -5.63956820      -1.98499241       0.26069338
O       -3.12470451      -2.13190951      -0.33619935
O       -4.50162255      -0.22697252      -1.32399034
C        0.84915265       0.99585899       0.01045886
O        1.34986990       0.89414373      -1.30929149
C        1.77340621       0.31169202       1.02906150
O        3.10581526       0.80777250       0.96010186
P        4.04201431       0.27616920      -0.26431562
O        3.65426447      -1.06284287      -0.77183642
O        4.06667445       1.48385739      -1.31096916
O        5.50674484       0.41096083       0.37357229
O       -3.91895965      -0.20782486       1.11038028
H       -2.29903555      -1.63504970      -0.52450271
H       -5.36276546      -0.29804154      -1.75505414
H        0.77452655       2.05527421       0.24404121
H        1.33453389      -0.04406104      -1.55815960
H        1.42965083       0.51841680       2.04027620
H        1.75814986      -0.76603855       0.85691516
H        3.15470457       1.57907265      -1.64897435
H        5.88278755      -0.46219254       0.54089120
H       -2.13788511       0.42959632       1.06480820
H       -4.53365781      -0.23950151       1.85482029
26
Properties=species:S:1:pos:R:3 relative_energy_eV=-0.19789312056673225 branch=right pbc="F F F"
O       -1.25789437       0.87102122       1.06077714
C       -0.51344374       0.35283376       0.09621621
O       -0.84431507      -0.57324014      -0.62781499
P       -4.40890825      -1.24640287      -0.06835346
O       -5.63415719      -1.99643185       0.26267092
O       -3.12153960      -2.12636466      -0.34619258
O       -4.51245398      -0.22387812      -1.31585903
C        0.85030954       0.99881854       0.00447262
O        1.35465125       0.89399960      -1.31354423
C        1.77062822       0.31552721       1.02743360
O        3.10457358       0.80602645       0.96028959
P        4.04319277       0.27114843      -0.26087094
O        3.65880563      -1.06921073      -0.76784409
O        4.06894828       1.47889976      -1.30737114
O        5.50624997       0.40803768       0.38051615
O       -3.91955616      -0.21429915       1.11563315
H       -2.29828334      -1.62506034      -0.53374046
H       -5.37863983      -0.29255088      -1.73681111
H        0.77595673       2.05897353       0.23487009
H        1.34019492      -0.04475523      -1.56018602
H        1.42414736       0.52792178       2.03638183
H        1.75323207      -0.76273277       0.86026384
H        3.15887735       1.57320050      -1.65118110
H        5.88318853      -0.46346327       0.55477888
H       -2.13746899       0.43345910       1.05905674
H       -4.52615967      -0.25844825       1.86585476
