26
Properties=species:S:1:pos:R:3 relative_energy_eV=5.366450695735693 branch=ts pbc="F F F"
O       -0.43159283       0.42092081       1.25642387
C       -1.33999049       0.22781934       0.33110610
O       -2.27501103       1.19181445       0.07189622
C       -0.88408945      -0.52792342      -0.91455685
O       -0.58295469      -1.87345646      -0.61955896
C        0.33598518       0.15998534      -1.50681861
O       -0.02381702       1.52066482      -1.80781356
P        1.05422578       2.69072195      -1.79525271
O        0.54721927       3.98210332      -2.29932541
O        1.59551111       2.68866526      -0.27987244
O        2.29622781       2.06149932      -2.61912788
O       -0.90899907      -0.95198200       2.35536258
P        0.02485181      -2.26156088       2.22273786
O        1.24009160      -2.11019585       1.35932086
O       -0.96430362      -3.45434442       1.78890388
O        0.27505040      -2.66893082       3.75452019
H       -2.37707240       1.72145407       0.87343008
H       -1.70438845      -0.52916121      -1.63261248
H        0.29861700      -1.90308648      -0.16137805
H        1.15036256       0.13202896      -0.78544266
H        0.65273585      -0.33673364      -2.42086614
H        1.51361822       3.56909744       0.10550745
H        2.54927387       2.65729328      -3.33581520
H       -1.94430773      -0.79557302       1.11194653
H       -1.19275865      -3.32173535       0.85018919
H        1.09551444      -2.28938718       4.09709732
