26
Properties=species:S:1:pos:R:3 relative_energy_eV=0.7615842672676081 branch=ts pbc="F F F"
O       -1.25473477       1.21547874      -2.79703680
C       -0.45259726       1.30901981      -1.89467167
O       -0.74463818       1.77287019      -0.67591213
C        1.03340819       1.01877315      -2.19239961
O        1.30333884       1.24944805      -3.55065963
C        1.36354652      -0.42897770      -1.84806125
O        0.95206861      -0.63147012      -0.47610724
P        0.78234172      -2.07603238       0.16732767
O        0.17367664      -1.98211944       1.52235037
O       -0.02846722      -2.96933922      -0.89468787
O        2.22514368      -2.77424778       0.07591247
O       -1.39131784       0.19485154       1.40910354
P       -1.58182132       1.21040759       2.64432035
O       -2.30256627       2.44608871       2.28405254
O       -0.08018575       1.39979523       3.22311004
O       -2.25682726       0.28424035       3.78501173
H       -0.96706284       1.10376903       0.01589234
H        1.65382839       1.67700081      -1.57931090
H        0.43727809       1.24775413      -3.99210969
H        0.81156043      -1.10128865      -2.49959182
H        2.42928248      -0.61947333      -1.94466586
H       -0.95142599      -3.07278685      -0.62704420
H        2.63771487      -2.85860069       0.94504806
H       -0.84642507      -0.61031977       1.60670850
H        0.15597964       2.33652428       3.22801516
H       -3.10109624       0.65860136       4.06537630
