26
Properties=species:S:1:pos:R:3 relative_energy_eV=0.0 branch=left pbc="F F F"
O       -1.42639859       0.51565490       1.14362981
C       -1.74362657       0.46482578      -0.02983823
O       -2.82856498       1.08312177      -0.51140914
C       -0.97051486      -0.28492039      -1.11160791
O       -0.87442753      -1.65244816      -0.81750924
C        0.39488542       0.36110728      -1.29087543
O        0.16220303       1.68358191      -1.81661379
P        1.32248577       2.77780111      -1.93126475
O        0.89391173       4.02276110      -2.59554625
O        1.84847826       2.93206244      -0.41042194
O        2.54625194       1.98633080      -2.63054652
O       -0.89892542      -1.32773032       3.13091680
P       -0.01294628      -2.45737750       2.46113788
O        0.81944411      -2.05028909       1.28720910
O       -1.03468641      -3.66553563       2.14621911
O        0.80310531      -3.01822317       3.72449898
H       -3.25845973       1.54054146       0.23087907
H       -1.51949436      -0.19131021      -2.04781717
H       -0.16720930      -1.78760156      -0.14805740
H        0.92395934       0.41585604      -0.34200400
H        0.97334916      -0.22933917      -1.99603134
H        1.75459031       3.84934091      -0.12367574
H        2.82275693       2.44830961      -3.43220717
H       -1.08768057      -0.59710898       2.50344726
H       -1.14890802      -3.77515322       1.19405212
H        1.74302873      -3.11546157       3.52840405
26
Properties=species:S:1:pos:R:3 relative_energy_eV=0.0003543800121406093 branch=left pbc="F F F"
O       -1.42697921       0.50338524       1.14376294
C       -1.74260004       0.46074786      -0.03059832
O       -2.82265340       1.08811367      -0.51112359
C       -0.97016821      -0.28417499      -1.11575139
O       -0.86967785      -1.65246246      -0.82617332
C        0.39332701       0.36490647      -1.29407636
O        0.15954534       1.68847567      -1.81633030
P        1.32225431       2.78021046      -1.93265895
O        0.89531479       4.02243482      -2.60289207
O        1.84473011       2.93962868      -0.41155870
O        2.54764047       1.98263206      -2.62235703
O       -0.89506726      -1.32851381       3.13846662
P       -0.01139547      -2.45725095       2.46495430
O        0.81845991      -2.04590907       1.29050990
O       -1.03471985      -3.66446356       2.14750447
O        0.80448270      -3.01892715       3.72838014
H       -3.25411359       1.54225411       0.23222748
H       -1.52063074      -0.18728192      -2.05059750
H       -0.16829381      -1.78649999      -0.15032506
H        0.92046093       0.41770910      -0.34425318
H        0.97222132      -0.22355250      -2.00048883
H        1.74755784       3.85615528      -0.12372210
H        2.82305233       2.43233858      -3.43085635
H       -1.09192867      -0.60165369       2.50929806
H       -1.14662870      -3.77024371       1.19428184
H        1.74241703      -3.12926205       3.52934554
26
Properties=species:S:1:pos:R:3 relative_energy_eV=0.000965801598795224 branch=left pbc="F F F"
O       -1.42969736       0.49323236       1.14376229
C       -1.74550545       0.45896881      -0.03026501
O       -2.82684173       1.08830690      -0.50527628
C       -0.97387781      -0.28076790      -1.11910945
O       -0.86638345      -1.64896799      -0.83002351
C        0.38901339       0.37002549      -1.30108381
O        0.15689244       1.69291709      -1.82486645
P        1.32391092       2.78077536      -1.93946247
O        0.90545724       4.02464875      -2.61244200
O        1.84354783       2.94119034      -0.41674597
O        2.54690817       1.97704937      -2.62687862
O       -0.89762944      -1.33371478       3.14868579
P       -0.00872621      -2.45675208       2.47158291
O        0.82107176      -2.04113267       1.29860271
O       -1.02543525      -3.66784321       2.14755813
O        0.80257263      -3.01733091       3.73831777
H       -3.25681274       1.53560905       0.24261730
H       -1.52877666      -0.18622023      -2.05176480
H       -0.16376138      -1.77898187      -0.15528298
H        0.92046752       0.42496820      -0.35361253
H        0.96655896      -0.21974694      -2.00726373
H        1.74784817       3.85920372      -0.13274851
H        2.84123751       2.44025289      -3.42182453
H       -1.09938734      -0.60807467       2.52015705
H       -1.14228429      -3.76435683       1.19440424
H        1.73623976      -3.15446222       3.53793072
26
Properties=species:S:1:pos:R:3 relative_energy_eV=0.0016642013215459883 branch=left pbc="F F F"
O       -1.40148311       0.46701902       1.13898970
C       -1.71318124       0.45974358      -0.03639453
O       -2.76796519       1.13616207      -0.50734011
C       -0.96083719      -0.29347206      -1.13048314
O       -0.84195689      -1.65671224      -0.82662403
C        0.39443942       0.36384940      -1.34439909
O        0.14423191       1.69555501      -1.83900429
P        1.30354571       2.79301897      -1.93982262
O        0.87769895       4.04445396      -2.59366529
O        1.82412731       2.93692729      -0.41582703
O        2.52928526       2.00608781      -2.64015845
O       -0.91628049      -1.34649955       3.16720058
P       -0.02441424      -2.46999535       2.49439188
O        0.81807825      -2.05773476       1.32945393
O       -1.04520427      -3.67414880       2.15922502
O        0.77469235      -3.03531983       3.76696960
H       -3.18051937       1.59176783       0.24572509
H       -1.53037857      -0.21371616      -2.05561816
H       -0.15135266      -1.77639844      -0.13743464
H        0.95274135       0.40171267      -0.41117881
H        0.95194308      -0.20964605      -2.07917760
H        1.71875328       3.85100617      -0.12364368
H        2.81803860       2.47901242      -3.43091184
H       -1.11557340      -0.62010369       2.53980270
H       -1.13504719      -3.78549232       1.20455908
H        1.71322493      -3.15828059       3.58033354
26
Properties=species:S:1:pos:R:3 relative_energy_eV=0.002673836534086149 branch=left pbc="F F F"
O       -1.36202337       0.47071565       1.14033450
C       -1.68499162       0.46307101      -0.03206766
O       -2.73242064       1.15376753      -0.49610710
C       -0.95224989      -0.30065180      -1.13184392
O       -0.81741458      -1.65876027      -0.81360815
C        0.39589324       0.35798122      -1.38525511
O        0.13617309       1.69535924      -1.85846382
P        1.28906076       2.80071151      -1.94408704
O        0.86233687       4.06141116      -2.57925404
O        1.80030492       2.92439918      -0.41608351
O        2.51693551       2.02640942      -2.65541553
O       -0.95407076      -1.36272212       3.17394159
P       -0.04118357      -2.47620542       2.51120886
O        0.82011050      -2.05089656       1.36518553
O       -1.04670304      -3.68638530       2.15098026
O        0.73832726      -3.04636854       3.79411798
H       -3.13070649       1.62037059       0.25838475
H       -1.54380351      -0.23568937      -2.04435334
H       -0.12988878      -1.76478531      -0.11899045
H        0.98577104       0.37789835      -0.47070434
H        0.92789443      -0.20734271      -2.14464896
H        1.71023684       3.83684726      -0.11259454
H        2.80454109       2.51284964      -3.43904165
H       -1.12052510      -0.62270460       2.55172447
H       -1.11494655      -3.79745298       1.19441884
H        1.67994835      -3.16302990       3.61718959
26
Properties=species:S:1:pos:R:3 relative_energy_eV=0.0035351378610357642 branch=left pbc="F F F"
O       -1.32547260       0.46922365       1.14147083
C       -1.65258065       0.46945704      -0.02949372
O       -2.68925637       1.17915062      -0.49060971
C       -0.94040149      -0.30886175      -1.13350371
O       -0.79708293      -1.66240943      -0.80283476
C        0.40101459       0.34862260      -1.42473914
O        0.12759362       1.69124292      -1.87388224
P        1.27058980       2.80748329      -1.94342665
O        0.83029630       4.07142433      -2.56271945
O        1.78500547       2.91338288      -0.41431111
O        2.50495409       2.05382960      -2.66546307
O       -0.98379994      -1.37616749       3.17651482
P       -0.05680568      -2.48536246       2.52692117
O        0.82046314      -2.05006441       1.39674853
O       -1.05716143      -3.69400590       2.14755864
O        0.70661963      -3.05920775       3.81848624
H       -3.07875270       1.65303157       0.26340395
H       -1.55295057      -0.25664529      -2.03266127
H       -0.12062253      -1.75563781      -0.09559178
H        1.02370150       0.36002596      -0.53157066
H        0.90464067      -0.20787211      -2.20988002
H        1.70356506       3.82419484      -0.10300262
H        2.78772792       2.54794612      -3.44546428
H       -1.13073515      -0.63057533       2.55698508
H       -1.09617192      -3.81033754       1.19014242
H        1.65222753      -3.16307086       3.65588913
26
Properties=species:S:1:pos:R:3 relative_energy_eV=0.003905837656930089 branch=left pbc="F F F"
O       -1.31908280       0.46689869       1.14306371
C       -1.64503088       0.46951995      -0.02806744
O       -2.67590624       1.18661210      -0.49078198
C       -0.93698191      -0.31196264      -1.13261275
O       -0.79085064      -1.66479717      -0.80059242
C        0.40056499       0.34851582      -1.43384087
O        0.12212646       1.69033863      -1.88174268
P        1.26370647       2.80780453      -1.94372448
O        0.82124600       4.07378223      -2.55742073
O        1.77631621       2.90723576      -0.41372924
O        2.49984183       2.05783235      -2.66729010
O       -0.99071047      -1.37784348       3.17677846
P       -0.06052939      -2.48685439       2.53090088
O        0.82114277      -2.05579589       1.40249266
O       -1.05909701      -3.69468012       2.14661282
O        0.69861079      -3.05947051       3.82540912
H       -3.06422585       1.66355178       0.26179954
H       -1.55248778      -0.26084594      -2.02968933
H       -0.11705205      -1.75818929      -0.09041165
H        1.03151648       0.36041141      -0.54688783
H        0.89987209      -0.20495082      -2.22301004
H        1.70846031       3.81891220      -0.10347684
H        2.78215528       2.56071033      -3.44227681
H       -1.13026667      -0.63122455       2.55672138
H       -1.09163111      -3.81159158       1.18908644
H        1.64489831      -3.16512206       3.66765653
26
Properties=species:S:1:pos:R:3 relative_energy_eV=0.0048115684621734545 branch=left pbc="F F F"
O       -1.31357230       0.45928034       1.14294481
C       -1.63424739       0.47085757      -0.02928494
O       -2.65583962       1.20052874      -0.49235058
C       -0.93219318      -0.31515749      -1.13434037
O       -0.78482578      -1.66625801      -0.79775419
C        0.40312614       0.34491198      -1.44953885
O        0.11757002       1.68436811      -1.90059966
P        1.24907122       2.81098183      -1.94965980
O        0.80946738       4.08441671      -2.54964781
O        1.74412782       2.89159206      -0.41308395
O        2.48821542       2.07564878      -2.68367563
O       -0.99675752      -1.38414662       3.18114716
P       -0.06365620      -2.49304086       2.53967626
O        0.82269904      -2.06239296       1.41480116
O       -1.05820043      -3.70401652       2.15263398
O        0.68695601      -3.05897243       3.84197911
H       -3.03793126       1.68163486       0.26075743
H       -1.55432408      -0.26787639      -2.02665290
H       -0.11849668      -1.75543828      -0.08034917
H        1.04249688       0.36120842      -0.56831952
H        0.89698513      -0.20975218      -2.24163042
H        1.73429457       3.80784111      -0.11082698
H        2.78790673       2.60356344      -3.43512922
H       -1.13654328      -0.63735916       2.56125035
H       -1.09131442      -3.81796746       1.19472135
H        1.63159072      -3.17565835       3.68789836
26
Properties=species:S:1:pos:R:3 relative_energy_eV=0.005680762151314411 branch=left pbc="F F F"
O       -1.28427777       0.45842066       1.13892095
C       -1.60900360       0.47896430      -0.03225421
O       -2.61781098       1.22897844      -0.49014654
C       -0.92494093      -0.31853171      -1.14067872
O       -0.77347536      -1.66542642      -0.79182956
C        0.40625213       0.33914063      -1.47627857
O        0.11423347       1.67616331      -1.92865381
P        1.23374797       2.81481470      -1.95292958
O        0.78152156       4.09363235      -2.53163875
O        1.72801080       2.87013256      -0.41508941
O        2.48033740       2.10577168      -2.69937218
O       -1.01066236      -1.39257578       3.17914200
P       -0.07322662      -2.50712685       2.55239681
O        0.82221361      -2.07534731       1.43577663
O       -1.06228260      -3.72058430       2.16127505
O        0.66112927      -3.08038597       3.86063651
H       -2.98461034       1.71693073       0.26645941
H       -1.55835812      -0.28066386      -2.02583525
H       -0.10780926      -1.74767120      -0.07329574
H        1.05440086       0.35502628      -0.60141293
H        0.89454847      -0.21944927      -2.26907521
H        1.71774889       3.78116671      -0.09493461
H        2.76855021       2.64937547      -3.44364158
H       -1.13488024      -0.64855546       2.55287647
H       -1.09949483      -3.82871240       1.20254000
H        1.61474306      -3.15469003       3.73200867
26
Properties=species:S:1:pos:R:3 relative_energy_eV=0.00625532801495865 branch=left pbc="F F F"
O       -1.27768986       0.46002002       1.13746166
C       -1.60740535       0.47997641      -0.03238470
O       -2.61400762       1.23452001      -0.48717474
C       -0.92614049      -0.32017692      -1.14035463
O       -0.76860239      -1.66528214      -0.78610353
C        0.40370219       0.33765403      -1.48244053
O        0.11329645       1.67320024      -1.93851300
P        1.23029445       2.81403734      -1.95784214
O        0.77406485       4.09577535      -2.52703516
O        1.72574141       2.86336944      -0.41950229
O        2.47595528       2.11003469      -2.71196007
O       -1.01904846      -1.39679382       3.17517809
P       -0.07387352      -2.50969643       2.55597427
O        0.82729548      -2.07722438       1.44398910
O       -1.06308348      -3.72255902       2.16288369
O        0.65684460      -3.08159221       3.86749120
H       -2.98123128       1.72050164       0.27038342
H       -1.56304850      -0.28634023      -2.02318001
H       -0.10013566      -1.74333639      -0.06951306
H        1.05308887       0.35854581      -0.60843084
H        0.88843784      -0.22196479      -2.27683936
H        1.72608901       3.77391634      -0.09866516
H        2.78118003       2.67373458      -3.43424308
H       -1.13560793      -0.65142144       2.54898049
H       -1.09968037      -3.83001079       1.20427158
H        1.61016908      -3.16009013       3.74253451
26
Properties=species:S:1:pos:R:3 relative_energy_eV=0.007290270892553963 branch=left pbc="F F F"
O       -1.25660336       0.46299192       1.14192957
C       -1.59052703       0.48129876      -0.02677088
O       -2.59205630       1.24160044      -0.48314025
C       -0.92123126      -0.32416623      -1.13815821
O       -0.75938376      -1.66843083      -0.78337189
C        0.40427360       0.33471471      -1.49769855
O        0.11225103       1.66981123      -1.95269350
P        1.22396028       2.81663408      -1.96193538
O        0.75392123       4.10166050      -2.51215661
O        1.73021279       2.85084043      -0.42627281
O        2.47257733       2.13009340      -2.72690680
O       -1.03040678      -1.40563920       3.17215272
P       -0.08066379      -2.51888179       2.55959568
O        0.82776696      -2.08964579       1.45220163
O       -1.06521475      -3.73496132       2.16582192
O        0.64108887      -3.08760732       3.87757791
H       -2.94485702       1.74857949       0.26713393
H       -1.57020418      -0.29354913      -2.01238699
H       -0.08941357      -1.74763620      -0.06842655
H        1.06388640       0.35599971      -0.63155546
H        0.88072842      -0.22423039      -2.29711791
H        1.69841628       3.75481207      -0.08812229
H        2.78194512       2.70365695      -3.44026340
H       -1.14181031      -0.65598620       2.55037219
H       -1.11082272      -3.83483152       1.20678846
H        1.59877095      -3.13833063       3.76836935
26
Properties=species:S:1:pos:R:3 relative_energy_eV=0.00882945802732138 branch=left pbc="F F F"
O       -1.25870789       0.44968915       1.14330022
C       -1.58043226       0.48112629      -0.02807657
O       -2.56744806       1.25936624      -0.48819970
C       -0.91434942      -0.32728026      -1.14017357
O       -0.75574701      -1.67272028      -0.79027691
C        0.41014305       0.33061574      -1.50505830
O        0.11327477       1.66544668      -1.95796218
P        1.21730984       2.81879890      -1.96640795
O        0.74169804       4.10717696      -2.50366698
O        1.73526029       2.85136088      -0.43502601
O        2.46019110       2.13875786      -2.74438501
O       -1.04512960      -1.41754238       3.18369987
P       -0.08923136      -2.52500319       2.56991838
O        0.81525481      -2.09186334       1.46093656
O       -1.06967424      -3.74594941       2.18081019
O        0.64738094      -3.08848196       3.88139373
H       -2.91400034       1.76749016       0.26429257
H       -1.56261640      -0.29430985      -2.01414754
H       -0.09168211      -1.75406425      -0.07061167
H        1.07524740       0.34890956      -0.64349731
H        0.88195039      -0.22868175      -2.30681885
H        1.67758476       3.74935923      -0.08594561
H        2.78629849       2.73375538      -3.43156682
H       -1.15019944      -0.66595069       2.56339482
H       -1.12909012      -3.83612375       1.22102079
H        1.60331879      -3.12508478       3.75801988
26
Properties=species:S:1:pos:R:3 relative_energy_eV=0.010238790069706738 branch=left pbc="F F F"
O       -1.23918652       0.44792487       1.14509766
C       -1.56249087       0.48535087      -0.02577310
O       -2.54100289       1.27550415      -0.48159431
C       -0.90594644      -0.32819398      -1.13877654
O       -0.74782852      -1.67140298      -0.78170559
C        0.41666207       0.32639155      -1.51939252
O        0.11552483       1.66355803      -1.96262297
P        1.21518415       2.82078693      -1.96736434
O        0.72880916       4.10910178      -2.49518488
O        1.74215192       2.84368103      -0.43811818
O        2.45534342       2.15176542      -2.75843373
O       -1.05257605      -1.41952479       3.17503281
P       -0.09687405      -2.53223500       2.57055270
O        0.81186205      -2.09700254       1.46662687
O       -1.07507662      -3.75285255       2.17889447
O        0.62717628      -3.10294015       3.88605358
H       -2.88579102       1.78125331       0.27344166
H       -1.56291844      -0.29633520      -2.00661432
H       -0.08390498      -1.74967553      -0.06113762
H        1.09563036       0.33724803      -0.66717811
H        0.87233394      -0.23150690      -2.33229911
H        1.63326403       3.72769024      -0.06361734
H        2.76677640       2.75223155      -3.44767282
H       -1.14564183      -0.66852516       2.55159197
H       -1.13328648      -3.84556947       1.21965482
H        1.58841055      -3.09792624       3.79550503
26
Properties=species:S:1:pos:R:3 relative_energy_eV=0.012793493981007487 branch=left pbc="F F F"
O       -1.21823325       0.43856854       1.14288584
C       -1.54500417       0.48526806      -0.02750587
O       -2.51120852       1.29449627      -0.47519168
C       -0.89962157      -0.33348683      -1.14589438
O       -0.74131251      -1.67637964      -0.79053472
C        0.42252984       0.31978445      -1.53121433
O        0.11418385       1.65635280      -1.97246699
P        1.20799733       2.81901423      -1.96367459
O        0.70955929       4.10696622      -2.48131241
O        1.73235096       2.83394848      -0.43343916
O        2.46277448       2.16952368      -2.75021294
O       -1.06990997      -1.42941592       3.17571518
P       -0.10212331      -2.53259381       2.57106032
O        0.80532791      -2.08494779       1.47154846
O       -1.07007429      -3.76088804       2.18155181
O        0.62392441      -3.10570651       3.88444093
H       -2.84435114       1.79921748       0.28584237
H       -1.56269929      -0.30021775      -2.00903863
H       -0.09077790      -1.75235735      -0.05811467
H        1.10068573       0.33280662      -0.67837936
H        0.88684897      -0.22901935      -2.34607253
H        1.61020291       3.71356807      -0.05664777
H        2.74339226       2.75677761      -3.46320058
H       -1.15581540      -0.67367768       2.55646697
H       -1.15593072      -3.84946470       1.22480090
H        1.58388843      -3.06933986       3.80355416
26
Properties=species:S:1:pos:R:3 relative_energy_eV=0.01633757689705817 branch=left pbc="F F F"
O       -1.19140406       0.43727694       1.13354751
C       -1.52626958       0.48920513      -0.03362777
O       -2.48543998       1.31027547      -0.47355540
C       -0.89560381      -0.33447731      -1.15405014
O       -0.73345246      -1.67466655      -0.78868814
C        0.42394713       0.31933376      -1.54769081
O        0.12244618       1.65463403      -1.99006885
P        1.20303697       2.82992309      -1.95869457
O        0.68678625       4.11424369      -2.46788078
O        1.73157681       2.82923829      -0.43086826
O        2.47008140       2.19846026      -2.73665361
O       -1.07009387      -1.43233317       3.16901082
P       -0.10843800      -2.54833917       2.57467370
O        0.81089037      -2.11028171       1.48058730
O       -1.08336801      -3.77127096       2.18141138
O        0.60598210      -3.13057940       3.89022691
H       -2.79909103       1.82731167       0.28741037
H       -1.56319426      -0.30674979      -2.01487845
H       -0.09084899      -1.74630144      -0.04809701
H        1.10461182       0.33146089      -0.69804713
H        0.88145321      -0.23408338      -2.36187557
H        1.57178578       3.68836255      -0.02051534
H        2.69841952       2.74174953      -3.50112981
H       -1.13879976      -0.67327638       2.55392399
H       -1.15293768      -3.85152370       1.22104038
H        1.56452827      -3.02879499       3.84945562
26
Properties=species:S:1:pos:R:3 relative_energy_eV=0.019551452787709422 branch=left pbc="F F F"
O       -1.15044743       0.46100002       1.13956915
C       -1.50806998       0.49494568      -0.02223640
O       -2.48705411       1.29798005      -0.45500254
C       -0.89087033      -0.33166171      -1.14619556
O       -0.72905881      -1.67097452      -0.77893489
C        0.42325937       0.31740335      -1.55967809
O        0.11707133       1.65079793      -2.00622274
P        1.20068997       2.82588051      -1.95771406
O        0.68878560       4.11528660      -2.45609378
O        1.72214403       2.81327386      -0.42816000
O        2.47398963       2.20724791      -2.73687091
O       -1.08481886      -1.43573126       3.14593201
P       -0.11100480      -2.55081423       2.56822217
O        0.82339377      -2.10648185       1.48819130
O       -1.07520038      -3.77672928       2.16180009
O        0.57689401      -3.14179752       3.89491935
H       -2.77747980       1.83299895       0.30262628
H       -1.56791847      -0.30275788      -1.99841509
H       -0.06465802      -1.73928825      -0.05774269
H        1.11809651       0.33302864      -0.72143212
H        0.86820624      -0.24380366      -2.37517973
H        1.54304964       3.65836862       0.00615040
H        2.66920440       2.73339357      -3.52322680
H       -1.12642395      -0.67102914       2.53337731
H       -1.14627823      -3.84796907       1.20074662
H        1.53110300      -2.99376984       3.89653698
26
Properties=species:S:1:pos:R:3 relative_energy_eV=0.023786311016010586 branch=left pbc="F F F"
O       -1.14100774       0.47946448       1.14809166
C       -1.49985190       0.50613348      -0.01188932
O       -2.48100365       1.30599573      -0.44902387
C       -0.88664380      -0.32664872      -1.14001296
O       -0.72304481      -1.67008172      -0.78217968
C        0.42778346       0.31633526      -1.56753754
O        0.12482688       1.64956469      -2.01485292
P        1.20419697       2.82666008      -1.95400215
O        0.68831851       4.11544272      -2.45025214
O        1.71262298       2.79874733      -0.42187410
O        2.48441895       2.22289796      -2.73124635
O       -1.08284456      -1.43711736       3.14026520
P       -0.11040216      -2.55562869       2.56805853
O        0.82889473      -2.11345887       1.49257465
O       -1.07872776      -3.77437147       2.15424864
O        0.56541777      -3.15158788       3.89810276
H       -2.78572706       1.84392991       0.30094875
H       -1.57386205      -0.29383051      -1.98434402
H       -0.04240999      -1.74979390      -0.07837803
H        1.12972643       0.32859323      -0.73390201
H        0.86012580      -0.25093474      -2.38731449
H        1.52275323       3.64079900       0.00785779
H        2.63938167       2.72562844      -3.54100016
H       -1.12149927      -0.67469369       2.52597513
H       -1.13830138      -3.85347855       1.19407948
H        1.51346313      -2.97976864       3.93257349
26
Properties=species:S:1:pos:R:3 relative_energy_eV=0.03143989546515513 branch=left pbc="F F F"
O       -1.12102819       0.52823678       1.14994406
C       -1.48916263       0.53330471      -0.00736540
O       -2.48806691       1.30545058      -0.44794682
C       -0.88495342      -0.31189658      -1.12698280
O       -0.71741539      -1.64950876      -0.75184950
C        0.41995562       0.32501588      -1.58008949
O        0.11674622       1.66259658      -2.01528740
P        1.20989377       2.83093372      -1.96245367
O        0.68977957       4.12137132      -2.45136931
O        1.74779558       2.79435169      -0.43838075
O        2.48525401       2.22192073      -2.74573120
O       -1.06546398      -1.42993210       3.11522411
P       -0.10653618      -2.57023024       2.56192308
O        0.86285984      -2.14228256       1.50879551
O       -1.08192041      -3.77591748       2.12918280
O        0.52162758      -3.18730295       3.90587464
H       -2.82663788       1.81022286       0.30974203
H       -1.58188493      -0.30516021      -1.96262460
H       -0.02581020      -1.73130582      -0.05929847
H        1.13632229       0.32612646      -0.75910095
H        0.82927925      -0.24036521      -2.41227951
H        1.48317504       3.59558545       0.03178657
H        2.63746005       2.71764795      -3.56131128
H       -1.07222165      -0.65493378       2.51246835
H       -1.09794202      -3.87481768       1.16872999
H        1.45549926      -2.97031353       4.00336610
26
Properties=species:S:1:pos:R:3 relative_energy_eV=0.043466208204336 branch=left pbc="F F F"
O       -1.06245002       0.58571573       1.14239114
C       -1.48031985       0.54801596       0.00013331
O       -2.51782122       1.27984102      -0.41769294
C       -0.88629575      -0.31353126      -1.11314681
O       -0.70519036      -1.63918672      -0.70328621
C        0.41446652       0.31697216      -1.58976063
O        0.10709422       1.66521381      -1.98868045
P        1.20304847       2.83330429      -1.96207640
O        0.67488250       4.12350089      -2.44330839
O        1.78865102       2.81097686      -0.45634452
O        2.46303468       2.20566139      -2.75261311
O       -1.04621564      -1.41158605       3.06827772
P       -0.10031045      -2.57681008       2.54454226
O        0.89724257      -2.17294476       1.50863992
O       -1.09267299      -3.75852872       2.08505283
O        0.47805930      -3.20193835       3.90857811
H       -2.83786080       1.79841438       0.33944631
H       -1.59240888      -0.31808999      -1.94320990
H       -0.00164884      -1.69946819      -0.01791945
H        1.15770258       0.30224407      -0.79367806
H        0.80147632      -0.23478476      -2.44263658
H        1.45144799       3.55563166       0.05726780
H        2.64313548       2.70286460      -3.56056839
H       -1.05390781      -0.66016877       2.43965242
H       -1.05665029      -3.87588325       1.12684978
H        1.39011547      -2.93663794       4.07905603
26
Properties=species:S:1:pos:R:3 relative_energy_eV=0.05176702159224078 branch=left pbc="F F F"
O       -1.02144683       0.61529848       1.14070215
C       -1.47186787       0.55155479       0.01350012
O       -2.55041394       1.23932996      -0.37901499
C       -0.88253619      -0.30666989      -1.10376751
O       -0.69142007      -1.62741819      -0.68240263
C        0.40886389       0.32613393      -1.59831387
O        0.10682197       1.67449778      -1.98805425
P        1.21450346       2.83000209      -1.96729726
O        0.68088499       4.11578743      -2.45120761
O        1.80562697       2.80031150      -0.46316506
O        2.45757273       2.19211462      -2.77398703
O       -1.06573749      -1.41101916       3.03124143
P       -0.10059122      -2.57509374       2.53379851
O        0.92078045      -2.15520277       1.52509089
O       -1.07868896      -3.76310971       2.06115940
O        0.44662297      -3.21688448       3.90212595
H       -2.84992375       1.78374809       0.36897184
H       -1.59130095      -0.32892225      -1.92782761
H        0.00120880      -1.66346948       0.01377657
H        1.16420758       0.29176177      -0.81453529
H        0.77385693      -0.22181539      -2.46079921
H        1.42464464       3.51187369       0.06700496
H        2.65280524       2.71050071      -3.56471555
H       -1.02524250      -0.65034314       2.41423833
H       -1.03211929      -3.87205292       1.10320789
H        1.33949259      -2.92211561       4.11523553
26
Properties=species:S:1:pos:R:3 relative_energy_eV=0.065507765080838 branch=left pbc="F F F"
O       -0.96791693       0.65495237       1.13122207
C       -1.45539768       0.55180589       0.02176609
O       -2.56301758       1.20603216      -0.35067859
C       -0.88649524      -0.31812854      -1.09843084
O       -0.67149332      -1.63522672      -0.66436311
C        0.39278828       0.33388849      -1.59782729
O        0.07708192       1.68700126      -1.97792458
P        1.21153886       2.82098169      -1.97509123
O        0.72595113       4.12219157      -2.46634807
O        1.80495033       2.77794965      -0.47461144
O        2.44313405       2.17200214      -2.78842015
O       -1.08046342      -1.40567085       2.98655268
P       -0.10400174      -2.57348029       2.52520534
O        0.93765198      -2.13363596       1.54950243
O       -1.05119164      -3.77375537       2.02989009
O        0.41423397      -3.21790500       3.90114783
H       -2.84607080       1.76452107       0.39318086
H       -1.61274702      -0.34676068      -1.91319594
H        0.02313995      -1.66307494       0.03507026
H        1.14333057       0.31200802      -0.80831729
H        0.76387811      -0.20302571      -2.46330285
H        1.40520452       3.46164613       0.07840346
H        2.65142371       2.72593195      -3.55307913
H       -0.98045628      -0.63171052       2.39002732
H       -1.03176716      -3.86129243       1.06837311
H        1.29331551      -2.89844723       4.13621469
26
Properties=species:S:1:pos:R:3 relative_energy_eV=0.0955068549956195 branch=left pbc="F F F"
O       -0.84159953       0.71108810       1.13493487
C       -1.40690287       0.56299999       0.06527971
O       -2.56858458       1.15084899      -0.24385132
C       -0.87901576      -0.31008430      -1.06602664
O       -0.66230327      -1.62494153      -0.62829736
C        0.38614029       0.32368579      -1.62603332
O        0.06965885       1.67137971      -2.03334952
P        1.20350710       2.80788427      -1.98428620
O        0.73890253       4.12718863      -2.45058638
O        1.79612867       2.72575170      -0.48396781
O        2.42105060       2.14368468      -2.80506829
O       -1.18308495      -1.43231366       2.87591066
P       -0.10819504      -2.54097337       2.48163372
O        0.96522230      -2.04265089       1.57251067
O       -0.96090422      -3.79486040       1.94923368
O        0.35561607      -3.15459187       3.89199771
H       -2.85111729       1.68230861       0.51828739
H       -1.63727138      -0.36930520      -1.84156913
H        0.07668689      -1.65147971       0.02049043
H        1.15466683       0.32634166      -0.85447248
H        0.74492365      -0.23833894      -2.48392924
H        1.38900315       3.37639557       0.10234371
H        2.67178654       2.72553406      -3.53332796
H       -1.00692367      -0.61527463       2.36269402
H       -1.04480914      -3.80379579       0.98767972
H        1.21402194      -2.82768313       4.18673534
26
Properties=species:S:1:pos:R:3 relative_energy_eV=0.11564880859077675 branch=left pbc="F F F"
O       -0.81281421       0.72848723       1.15246916
C       -1.38811869       0.57025946       0.09298616
O       -2.57325601       1.13291334      -0.16838433
C       -0.87415527      -0.29908310      -1.05213695
O       -0.62745529      -1.61418904      -0.62334855
C        0.38167961       0.31393841      -1.63994186
O        0.07372013       1.65382479      -2.06567498
P        1.20576688       2.78998965      -1.99364859
O        0.71617021       4.11121933      -2.42598920
O        1.79011148       2.67954341      -0.49055226
O        2.43661786       2.14754962      -2.81728511
O       -1.25225067      -1.45358265       2.79911544
P       -0.11474244      -2.52416863       2.46355770
O        0.97667165      -1.99756908       1.58944832
O       -0.89850129      -3.80974214       1.90272103
O        0.31317659      -3.11396692       3.89739089
H       -2.85176670       1.61066793       0.63090548
H       -1.64130428      -0.33886804      -1.82368386
H        0.11943822      -1.62177371       0.01925916
H        1.17174208       0.31552424      -0.89104647
H        0.70631261      -0.27064914      -2.49542952
H        1.37468638       3.32214145       0.09835841
H        2.70653933       2.72179337      -3.54544677
H       -1.03197021      -0.61057203       2.35487039
H       -1.03401663      -3.74210716       0.94960287
H        1.16432222      -2.77278209       4.19684973
26
Properties=species:S:1:pos:R:3 relative_energy_eV=0.13397483200242277 branch=left pbc="F F F"
O       -0.78115080       0.72190893       1.15645993
C       -1.37091289       0.57220019       0.10384374
O       -2.57923968       1.10470247      -0.12562058
C       -0.87020850      -0.28623422      -1.05095279
O       -0.64531185      -1.60164645      -0.60468396
C        0.39091877       0.30361397      -1.64970496
O        0.09276947       1.64132702      -2.07618966
P        1.21243109       2.78530764      -1.99659986
O        0.70098101       4.10093730      -2.42020085
O        1.79536077       2.66744295      -0.49774683
O        2.46559560       2.16817178      -2.80032654
O       -1.29093352      -1.47259230       2.78017936
P       -0.12344842      -2.51902874       2.46371739
O        0.98817526      -1.96633546       1.63203292
O       -0.87596698      -3.81245590       1.87089983
O        0.30583469      -3.09440580       3.90182904
H       -2.84085435       1.58189289       0.68192244
H       -1.64809399      -0.32429574      -1.81282620
H        0.11783951      -1.60267585       0.01854255
H        1.20049070       0.27922386      -0.91894402
H        0.67568109      -0.28797009      -2.51158103
H        1.37145130       3.31353865       0.07902891
H        2.70159975       2.73092830      -3.54725249
H       -1.07516715      -0.62627909       2.33101857
H       -1.03533682      -3.71967290       0.92213559
H        1.15409946      -2.72880488       4.18598584
26
Properties=species:S:1:pos:R:3 relative_energy_eV=0.1794899429223733 branch=left pbc="F F F"
O       -0.74769659       0.71448669       1.16620397
C       -1.35937856       0.57527569       0.12374540
O       -2.58971477       1.07904364      -0.06469005
C       -0.87348927      -0.27646107      -1.04561475
O       -0.66736663      -1.58990754      -0.57219363
C        0.39222146       0.27322744      -1.69702329
O        0.16072305       1.62588302      -2.10984968
P        1.26471991       2.79047002      -2.00292465
O        0.72744172       4.08538522      -2.45724002
O        1.82670753       2.70529517      -0.49219272
O        2.55793925       2.25010146      -2.80436746
O       -1.34870003      -1.51597749       2.78460608
P       -0.13675463      -2.51049830       2.46662995
O        0.96020324      -1.89864536       1.66052811
O       -0.82065618      -3.82455679       1.84403533
O        0.29437712      -3.08331778       3.89956076
H       -2.85945543       1.50939647       0.76684601
H       -1.66334375      -0.31547785      -1.79387271
H        0.06427751      -1.57715735       0.09103694
H        1.21839393       0.20522916      -0.99457796
H        0.62678156      -0.32990625      -2.57167546
H        1.35789825       3.31508076       0.09298187
H        2.68452061       2.78469251      -3.60089086
H       -1.15593770      -0.67172081       2.33604504
H       -1.01301201      -3.68561174       0.90725915
H        1.13590369      -2.70553051       4.18260079
26
Properties=species:S:1:pos:R:3 relative_energy_eV=0.24394453967397567 branch=left pbc="F F F"
O       -0.69446028       0.78430906       1.14966149
C       -1.32797447       0.57846219       0.13209195
O       -2.56565019       1.07435895      -0.03647844
C       -0.86606925      -0.29299767      -1.03066305
O       -0.63958215      -1.60948934      -0.59370523
C        0.39884545       0.25159301      -1.68918931
O        0.17063268       1.60778914      -2.09205731
P        1.25254986       2.79117367      -1.98782503
O        0.70837952       4.08083470      -2.45242359
O        1.81469574       2.71412200      -0.48065425
O        2.55351879       2.25656456      -2.77700946
O       -1.36312842      -1.51935882       2.75742973
P       -0.13363854      -2.49299972       2.44945824
O        0.93718408      -1.89394049       1.60225301
O       -0.79203979      -3.81016771       1.82411587
O        0.30557895      -3.05660279       3.88365356
H       -2.79601170       1.49812745       0.79720993
H       -1.68016558      -0.34368728      -1.75603876
H        0.05272228      -1.61031655       0.10165951
H        1.23385843       0.14582223      -0.99115497
H        0.59375358      -0.35211506      -2.57302777
H        1.37426644       3.34784742       0.09507618
H        2.66080353       2.78232884      -3.57964586
H       -1.27299911      -0.67964931       2.25972333
H       -1.02205341      -3.64580053       0.90271623
H        1.13358674      -2.67740950       4.19979015
26
Properties=species:S:1:pos:R:3 relative_energy_eV=0.44402418906247476 branch=left pbc="F F F"
O       -0.52197576       1.03359708       1.04014947
C       -1.22121543       0.64953293       0.12855778
O       -2.54084238       0.95350615       0.04772055
C       -0.81899211      -0.30504998      -0.99730500
O       -0.70939479      -1.63594855      -0.54936721
C        0.42836894       0.19372559      -1.70093632
O        0.15679419       1.55710290      -2.05357095
P        1.20199250       2.76270155      -1.93609277
O        0.57131541       4.02440764      -2.36939013
O        1.77408294       2.70878035      -0.42972344
O        2.49423556       2.21132882      -2.73438746
O       -1.39177980      -1.55754329       2.80579338
P       -0.12701720      -2.46103162       2.41461502
O        0.90017253      -1.76665937       1.58215813
O       -0.74975991      -3.79736604       1.79627481
O        0.32701301      -3.06438406       3.83009229
H       -2.72854469       1.59512064       0.75437282
H       -1.61354568      -0.26958950      -1.72937445
H        0.06903516      -1.65360796       0.06162740
H        1.31064084       0.10771778      -1.07528645
H        0.57474461      -0.37993019      -2.61210434
H        1.41344548       3.45046678       0.08147032
H        2.67161476       2.72296793      -3.53317226
H       -1.47065184      -0.77717227       2.20676356
H       -1.07850775      -3.72950833       0.89274616
H        1.11537448      -2.64436654       4.19333515
26
Properties=species:S:1:pos:R:3 relative_energy_eV=0.6131993117596721 branch=left pbc="F F F"
O       -0.39232994       0.98106132       0.99198483
C       -1.17022058       0.59683850       0.15518697
O       -2.46811642       0.97878831       0.13360746
C       -0.83855605      -0.38263375      -0.98078395
O       -0.70190474      -1.71798221      -0.52640928
C        0.41316730       0.15268585      -1.64972408
O        0.06005700       1.51248966      -1.96776862
P        1.10922401       2.71695762      -1.85438411
O        0.52353111       3.99142403      -2.30515061
O        1.68799691       2.71172703      -0.35157686
O        2.37278189       2.10977457      -2.65811170
O       -1.32361046      -1.38994960       2.67414703
P       -0.10786847      -2.41772654       2.34864210
O        1.05017113      -1.88746672       1.56461647
O       -0.81388334      -3.74485333       1.76233198
O        0.31414222      -2.92562705       3.80298031
H       -2.55093478       1.71596335       0.76304002
H       -1.66519221      -0.35737554      -1.68964356
H        0.17890818      -1.80921602      -0.09193326
H        1.26586073       0.10969308      -0.97383071
H        0.66879405      -0.37290281      -2.56347471
H        1.47997869       3.54031887       0.10163363
H        2.59984143       2.66969082      -3.40899097
H       -1.62105149      -0.89145530       1.89902886
H       -1.13291001      -3.53698384       0.87074272
H        1.09872683      -2.42444183       4.06880617
26
Properties=species:S:1:pos:R:3 relative_energy_eV=0.8525917752413079 branch=left pbc="F F F"
O       -0.33318025       0.94111240       0.96531170
C       -1.15783862       0.54215105       0.17621272
O       -2.40038267       1.05650756       0.12127882
C       -0.85388635      -0.45270724      -0.95806528
O       -0.64759675      -1.78898734      -0.55771224
C        0.38218690       0.14676319      -1.59714636
O        0.00558619       1.50955137      -1.87874224
P        1.06904805       2.69887527      -1.80831092
O        0.52953046       3.98448521      -2.29774282
O        1.62875101       2.70164276      -0.30140973
O        2.30917075       2.06773008      -2.62417931
O       -1.23802939      -1.30101245       2.59202683
P       -0.08278790      -2.38759893       2.30469911
O        1.07335863      -1.98376040       1.44749205
O       -0.88496848      -3.65531750       1.70854377
O        0.26480414      -2.73901481       3.83305136
H       -2.42639175       1.74180589       0.81056182
H       -1.68627567      -0.48657287      -1.65495859
H        0.25439971      -1.88098554      -0.16808977
H        1.17559605       0.12186451      -0.85179029
H        0.68854968      -0.36568458      -2.50626552
H        1.50994367       3.56700607       0.10849632
H        2.55651074       2.65366372      -3.34839706
H       -1.60466571      -1.04022140       1.74227320
H       -1.19839566      -3.41904396       0.81134896
H        1.10356628      -2.30345355       4.04647960
26
Properties=species:S:1:pos:R:3 relative_energy_eV=1.6275115271491813 branch=left pbc="F F F"
O       -0.39908274       0.63348377       1.09907644
C       -1.20050141       0.42456226       0.22535680
O       -2.33621230       1.14138252       0.08511133
C       -0.88381283      -0.52326192      -0.92756264
O       -0.58980183      -1.87169457      -0.60865826
C        0.34257231       0.15648003      -1.51799006
O       -0.02427648       1.51663512      -1.81267729
P        1.05818236       2.69286351      -1.79770610
O        0.54357643       3.98105123      -2.29906015
O        1.59901150       2.68943473      -0.28038274
O        2.29676485       2.06131798      -2.61908628
O       -1.16899879      -1.13809314       2.30448885
P       -0.03046916      -2.27794791       2.22157759
O        1.20383833      -2.09247905       1.38507419
O       -0.95794008      -3.50094866       1.77389267
O        0.27795707      -2.66841629       3.75155429
H       -2.36944808       1.73012165       0.86064386
H       -1.70908196      -0.52823896      -1.63307057
H        0.29482451      -1.90790484      -0.16100218
H        1.14981632       0.13102733      -0.78770519
H        0.64628788      -0.34243026      -2.42303463
H        1.51369605       3.56986979       0.10594448
H        2.54898632       2.65697909      -3.33624921
H       -1.67790739      -0.98361152       1.56751028
H       -1.19058410      -3.33621418       0.84321424
H        1.09920634      -2.28516921       4.09570647
26
Properties=species:S:1:pos:R:3 relative_energy_eV=5.366450695735693 branch=ts pbc="F F F"
O       -0.43159283       0.42092081       1.25642387
C       -1.33999049       0.22781934       0.33110610
O       -2.27501103       1.19181445       0.07189622
C       -0.88408945      -0.52792342      -0.91455685
O       -0.58295469      -1.87345646      -0.61955896
C        0.33598518       0.15998534      -1.50681861
O       -0.02381702       1.52066482      -1.80781356
P        1.05422578       2.69072195      -1.79525271
O        0.54721927       3.98210332      -2.29932541
O        1.59551111       2.68866526      -0.27987244
O        2.29622781       2.06149932      -2.61912788
O       -0.90899907      -0.95198200       2.35536258
P        0.02485181      -2.26156088       2.22273786
O        1.24009160      -2.11019585       1.35932086
O       -0.96430362      -3.45434442       1.78890388
O        0.27505040      -2.66893082       3.75452019
H       -2.37707240       1.72145407       0.87343008
H       -1.70438845      -0.52916121      -1.63261248
H        0.29861700      -1.90308648      -0.16137805
H        1.15036256       0.13202896      -0.78544266
H        0.65273585      -0.33673364      -2.42086614
H        1.51361822       3.56909744       0.10550745
H        2.54927387       2.65729328      -3.33581520
H       -1.94430773      -0.79557302       1.11194653
H       -1.19275865      -3.32173535       0.85018919
H        1.09551444      -2.28938718       4.09709732
26
Properties=species:S:1:pos:R:3 relative_energy_eV=4.769120265278616 branch=right pbc="F F F"
O       -0.43717467       0.29546986       1.37641622
C       -1.50250753       0.06456791       0.37242662
O       -2.24227310       1.23245940       0.06354203
C       -0.87829727      -0.52546857      -0.91923798
O       -0.57653370      -1.88727774      -0.62667433
C        0.33390072       0.16326131      -1.50391784
O       -0.01883792       1.51947158      -1.81051359
P        1.05322621       2.69254750      -1.79881907
O        0.54710536       3.98664032      -2.30002467
O        1.59711985       2.68562268      -0.27684241
O        2.29785129       2.06041733      -2.61963609
O       -0.83007902      -0.83811287       2.34065788
P        0.05045900      -2.26251900       2.21585331
O        1.25322983      -2.11517369       1.36285819
O       -0.96174976      -3.43271861       1.79515764
O        0.27366804      -2.67191532       3.75198104
H       -2.39418923       1.72575267       0.88524435
H       -1.70209376      -0.52659899      -1.63458818
H        0.29315596      -1.89908695      -0.16329742
H        1.15330099       0.13421358      -0.78644623
H        0.65555713      -0.33479970      -2.42064692
H        1.51219397       3.56814847       0.10586579
H        2.54908204       2.65705768      -3.33572632
H       -1.96680053      -0.61447925       0.86189151
H       -1.19141042      -3.31317181       0.85065969
H        1.09549248      -2.29311118       4.09885292
26
Properties=species:S:1:pos:R:3 relative_energy_eV=3.977620014702552 branch=right pbc="F F F"
O       -0.44014803       0.19408052       1.40316227
C       -1.47558077       0.07979337       0.38478376
O       -2.16623519       1.23891718       0.08699178
C       -0.89166460      -0.53202252      -0.90042011
O       -0.57165561      -1.90233563      -0.64664234
C        0.32462734       0.16954016      -1.49069877
O       -0.02082259       1.52353818      -1.82256823
P        1.05660162       2.69882714      -1.80367885
O        0.54877946       3.99009722      -2.29903031
O        1.59956088       2.68313739      -0.27873935
O        2.30190289       2.06104726      -2.61810981
O       -0.74228024      -0.78777928       2.40266840
P        0.08119387      -2.23987610       2.20402749
O        1.29267448      -2.11293401       1.35491138
O       -0.97419743      -3.38308904       1.80303870
O        0.26519851      -2.65367726       3.74094644
H       -2.40768309       1.71587644       0.88706847
H       -1.68855020      -0.53153117      -1.64731711
H        0.29665212      -1.90232484      -0.18180562
H        1.15340766       0.14114519      -0.78435860
H        0.64398189      -0.33523665      -2.40389787
H        1.50929846       3.56291830       0.10834821
H        2.55084880       2.65630895      -3.33657616
H       -2.18198655      -0.66733418       0.76675223
H       -1.18799249      -3.29958766       0.85389327
H        1.08746482      -2.29630227       4.10228696
26
Properties=species:S:1:pos:R:3 relative_energy_eV=3.8700496684614336 branch=right pbc="F F F"
O       -0.47380385       0.16069984       1.36063262
C       -1.51953547       0.03893176       0.36529961
O       -2.07531023       1.27583895       0.09887003
C       -0.89372505      -0.54311482      -0.90343996
O       -0.56312158      -1.90614100      -0.66639257
C        0.31875366       0.18070538      -1.47442073
O       -0.02798260       1.52638649      -1.82594191
P        1.05688405       2.69667296      -1.80678551
O        0.55200652       3.99496625      -2.29881542
O        1.60138345       2.67960810      -0.28506158
O        2.30665584       2.06504969      -2.61752075
O       -0.71343268      -0.79260924       2.43873086
P        0.10022037      -2.22728991       2.21809610
O        1.30493531      -2.11206467       1.35428068
O       -0.99017000      -3.32139985       1.79926852
O        0.27663691      -2.65572198       3.75049179
H       -2.40446451       1.67483498       0.91424700
H       -1.68585155      -0.53395799      -1.64601138
H        0.31397260      -1.92702569      -0.22060532
H        1.14536182       0.16210728      -0.76522043
H        0.62310923      -0.34627489      -2.37748857
H        1.50281333       3.55366020       0.11299897
H        2.55717067       2.65376421      -3.34125964
H       -2.25922571      -0.67350585       0.73372218
H       -1.18009480      -3.26168586       0.84307960
H        1.09021027      -2.29123770       4.12428205
26
Properties=species:S:1:pos:R:3 relative_energy_eV=3.8438804308025283 branch=right pbc="F F F"
O       -0.45904419       0.15198791       1.35901184
C       -1.50792133       0.03943982       0.36427854
O       -2.05929094       1.28113377       0.10707350
C       -0.90535300      -0.55181983      -0.91278032
O       -0.56125796      -1.92073958      -0.68747656
C        0.30936156       0.18268810      -1.46573823
O       -0.03103762       1.52780565      -1.83105431
P        1.05678454       2.69887712      -1.81067664
O        0.55280849       3.99571778      -2.30073429
O        1.60345667       2.67329075      -0.28780904
O        2.30700851       2.06331980      -2.61966129
O       -0.74088824      -0.79422234       2.42824842
P        0.09893029      -2.22481945       2.22403463
O        1.30633614      -2.11438070       1.36624094
O       -1.00783076      -3.30036498       1.79600054
O        0.29532371      -2.66080448       3.75067611
H       -2.39330812       1.63419877       0.94121610
H       -1.69224261      -0.54626627      -1.66971750
H        0.32514102      -1.94148730      -0.25947492
H        1.12420991       0.18102118      -0.74269977
H        0.62749843      -0.35192951      -2.35835824
H        1.49200992       3.54229667       0.11760224
H        2.56078761       2.64974838      -3.34386912
H       -2.26483209      -0.65598973       0.73757061
H       -1.16561872      -3.20327779       0.83462427
H        1.09236479      -2.28422711       4.14850867
26
Properties=species:S:1:pos:R:3 relative_energy_eV=3.831417252913525 branch=right pbc="F F F"
O       -0.44469212       0.12906312       1.35256848
C       -1.50110526       0.03128384       0.36251524
O       -2.05404162       1.27589230       0.13010009
C       -0.90192569      -0.55258552      -0.92165868
O       -0.56798900      -1.92086671      -0.70060303
C        0.30916888       0.18552385      -1.46843000
O       -0.03873376       1.52477235      -1.84210349
P        1.05365586       2.69329959      -1.81452390
O        0.55415113       3.99311134      -2.30175044
O        1.60193327       2.66700379      -0.29315273
O        2.30381372       2.05793776      -2.62261687
O       -0.73466230      -0.79521558       2.43983422
P        0.10271730      -2.21902757       2.23183440
O        1.30753576      -2.10535421       1.37045233
O       -1.00402244      -3.28066038       1.78414269
O        0.28923941      -2.66378003       3.75731069
H       -2.39263985       1.62514917       0.96498973
H       -1.68859611      -0.55655934      -1.67061228
H        0.32419272      -1.94866297      -0.29237346
H        1.09904577       0.18858459      -0.72086829
H        0.65613083      -0.35070025      -2.34913755
H        1.47746764       3.52861391       0.12469082
H        2.56169654       2.64504758      -3.34505769
H       -2.26320295      -0.64949474       0.73208154
H       -1.16892560      -3.15533286       0.82661676
H        1.08318394      -2.27584635       4.15078758
26
Properties=species:S:1:pos:R:3 relative_energy_eV=3.8219236946679302 branch=right pbc="F F F"
O       -0.42906802       0.12179715       1.34102016
C       -1.49732102       0.03161396       0.36753769
O       -2.05531036       1.27878577       0.14608782
C       -0.90708348      -0.55013450      -0.92708901
O       -0.57210989      -1.92233024      -0.71062983
C        0.31305162       0.18400986      -1.46654403
O       -0.04035899       1.51970986      -1.85307777
P        1.04986504       2.68991193      -1.82030664
O        0.55303924       3.99110449      -2.30540836
O        1.59533104       2.65460770      -0.29740251
O        2.29820617       2.04927585      -2.62729564
O       -0.72166423      -0.77959330       2.44706893
P        0.10384881      -2.21654718       2.23132105
O        1.31517186      -2.09295885       1.38159189
O       -1.00125056      -3.27496238       1.76567680
O        0.27924130      -2.66578242       3.75764313
H       -2.38551889       1.61578765       0.98907472
H       -1.69887713      -0.54994402      -1.67537531
H        0.32532305      -1.95753422      -0.31312749
H        1.08677412       0.20070011      -0.70102551
H        0.69280918      -0.34788300      -2.33938966
H        1.45598634       3.50902021       0.12984667
H        2.56084449       2.63901368      -3.34541039
H       -2.24328414      -0.67352249       0.74120857
H       -1.18254748      -3.11309562       0.81483017
H        1.06829805      -2.26985328       4.15421062
26
Properties=species:S:1:pos:R:3 relative_energy_eV=3.81348762907146 branch=right pbc="F F F"
O       -0.41519325       0.13222150       1.33355108
C       -1.48745145       0.01684836       0.36928210
O       -2.06037133       1.25766862       0.16477057
C       -0.90553843      -0.55024872      -0.93293767
O       -0.57658803      -1.92409103      -0.72624090
C        0.31596515       0.18762065      -1.45596480
O       -0.04397334       1.51289833      -1.86352985
P        1.04543484       2.68304318      -1.82781565
O        0.55233663       3.98682426      -2.31066532
O        1.58232830       2.63847662      -0.30381377
O        2.29391272       2.04398843      -2.63381978
O       -0.69387595      -0.75982270       2.44977587
P        0.10858604      -2.20299414       2.22445190
O        1.33253761      -2.08941823       1.39290628
O       -1.00269342      -3.24925678       1.74788568
O        0.26432563      -2.66725759       3.74592975
H       -2.36698114       1.59937930       1.01562841
H       -1.70177114      -0.52592836      -1.67744160
H        0.32033880      -1.95872061      -0.32967439
H        1.08459288       0.22084090      -0.68654359
H        0.71289878      -0.35400837      -2.31106817
H        1.42364689       3.48225815       0.13702853
H        2.56294512       2.63307249      -3.35011204
H       -2.22536380      -0.68956466       0.74761443
H       -1.19815808      -3.08105202       0.80140236
H        1.04150613      -2.27158084       4.16443647
26
Properties=species:S:1:pos:R:3 relative_energy_eV=3.80645233780524 branch=right pbc="F F F"
O       -0.40336080       0.14090301       1.33168756
C       -1.48389147       0.01499106       0.37563869
O       -2.08333638       1.24493473       0.16700567
C       -0.90058867      -0.54394665      -0.92648164
O       -0.57623610      -1.92171388      -0.74448049
C        0.32140326       0.18823880      -1.45111695
O       -0.04685663       1.50780729      -1.87439586
P        1.04171538       2.68009335      -1.83526697
O        0.55022370       3.98438167      -2.31790486
O        1.57528865       2.62914733      -0.30934149
O        2.29425469       2.04238790      -2.63710236
O       -0.66781529      -0.74242697       2.45895646
P        0.11627795      -2.19694902       2.22045432
O        1.34004060      -2.09525647       1.38531100
O       -1.01655306      -3.21674385       1.73933006
O        0.24799489      -2.67170451       3.74249459
H       -2.34320743       1.58382788       1.03335197
H       -1.69107880      -0.50889966      -1.67271191
H        0.31739118      -1.96239270      -0.34330426
H        1.08316942       0.23727263      -0.67533187
H        0.71966256      -0.36772148      -2.29962729
H        1.39086408       3.46021826       0.14504545
H        2.56357910       2.63048673      -3.35416236
H       -2.20622090      -0.70581805       0.76165349
H       -1.19577671      -3.06155328       0.78747505
H        1.01645289      -2.27836739       4.17785982
26
Properties=species:S:1:pos:R:3 relative_energy_eV=3.800963126348506 branch=right pbc="F F F"
O       -0.39520360       0.14918606       1.33166009
C       -1.47890322       0.00317320       0.38490863
O       -2.09720660       1.22484028       0.18367679
C       -0.89625122      -0.54386289      -0.92696004
O       -0.57275155      -1.92391386      -0.75397006
C        0.32562873       0.18971251      -1.45125069
O       -0.04245123       1.50326159      -1.89038471
P        1.04091241       2.68022410      -1.84274479
O        0.54593081       3.98214497      -2.32780414
O        1.57492821       2.62951932      -0.31762895
O        2.29803567       2.04542508      -2.63686769
O       -0.63278532      -0.71686411       2.47766796
P        0.11042674      -2.18896318       2.22176721
O        1.32764717      -2.11181258       1.37549608
O       -1.04263878      -3.17970248       1.73131915
O        0.23749035      -2.67931272       3.73829805
H       -2.32615746       1.58757981       1.04963589
H       -1.68904488      -0.50078656      -1.67170580
H        0.32585376      -1.97419810      -0.36439928
H        1.08361199       0.24736318      -0.67255605
H        0.72534875      -0.37391376      -2.29333678
H        1.35080542       3.44012022       0.15493958
H        2.56251526       2.63033911      -3.35777024
H       -2.19017222      -0.72448277       0.77672793
H       -1.17500425      -3.03569418       0.76890119
H        0.99283104      -2.28818565       4.19741653
26
Properties=species:S:1:pos:R:3 relative_energy_eV=3.7979837972306996 branch=right pbc="F F F"
O       -0.38516513       0.15131967       1.33245644
C       -1.47243324      -0.00117165       0.39157538
O       -2.09557353       1.21820548       0.18671196
C       -0.89723797      -0.54924004      -0.92408661
O       -0.57078229      -1.93006813      -0.75820963
C        0.32250775       0.18832099      -1.45201158
O       -0.04704330       1.50414627      -1.88792946
P        1.04128457       2.68028195      -1.84539574
O        0.54236643       3.97951013      -2.33308437
O        1.57853837       2.63697257      -0.32006104
O        2.30604199       2.05235184      -2.63624397
O       -0.62377976      -0.70453383       2.48640611
P        0.10630552      -2.18512682       2.22562122
O        1.32271659      -2.12113478       1.37658334
O       -1.05950232      -3.15419676       1.72706709
O        0.22859250      -2.68791514       3.74006023
H       -2.31714715       1.58685705       1.05188430
H       -1.69380396      -0.50682573      -1.66504945
H        0.33026556      -1.97450110      -0.37469961
H        1.08780248       0.24343869      -0.68054023
H        0.72928240      -0.37148513      -2.29310105
H        1.32766213       3.43688765       0.15805332
H        2.56469653       2.63325694      -3.36365457
H       -2.17528120      -0.73615657       0.78634940
H       -1.17042185      -3.02521326       0.75918189
H        0.98350478      -2.29278389       4.19715254
26
Properties=species:S:1:pos:R:3 relative_energy_eV=3.7947499093570514 branch=right pbc="F F F"
O       -0.36806878       0.14822004       1.33229395
C       -1.46004368      -0.00922759       0.39558448
O       -2.08892893       1.20581319       0.18995147
C       -0.89259235      -0.55213337      -0.92460945
O       -0.56433525      -1.93225499      -0.76675543
C        0.32477742       0.18712225      -1.45543302
O       -0.04218601       1.50416662      -1.87990305
P        1.04163561       2.68324099      -1.84703067
O        0.53428662       3.97640305      -2.34238830
O        1.58268653       2.64815116      -0.32404852
O        2.30967007       2.06061672      -2.63313191
O       -0.60559703      -0.69306671       2.49821784
P        0.09768023      -2.18072748       2.22661489
O        1.32260554      -2.12728202       1.38983653
O       -1.08539135      -3.12534637       1.72055385
O        0.21301308      -2.69044813       3.73652423
H       -2.30375592       1.57833118       1.05485752
H       -1.70116707      -0.51570199      -1.65208321
H        0.33581564      -1.97933608      -0.38407115
H        1.08952794       0.23706868      -0.68333243
H        0.72522257      -0.36885485      -2.30188741
H        1.29487724       3.43291630       0.15744976
H        2.56319912       2.63504201      -3.36722317
H       -2.15645872      -0.74405683       0.80070185
H       -1.17389905      -3.00471451       0.74930016
H        0.97082236      -2.30274515       4.19504719
26
Properties=species:S:1:pos:R:3 relative_energy_eV=3.7917064505600138 branch=right pbc="F F F"
O       -0.35192264       0.14944851       1.32725632
C       -1.44634404      -0.01401540       0.40066741
O       -2.08079884       1.19791601       0.19110051
C       -0.88563897      -0.55757946      -0.92183229
O       -0.55219899      -1.93876236      -0.76898393
C        0.32725459       0.18459325      -1.46139093
O       -0.03993351       1.50607072      -1.87623852
P        1.04105799       2.68861125      -1.84717615
O        0.52347006       3.97509450      -2.34967494
O        1.58756384       2.66767202      -0.32481618
O        2.31099386       2.06345017      -2.62951242
O       -0.59355953      -0.68001485       2.49870709
P        0.09179358      -2.17999222       2.23123239
O        1.31983970      -2.13785832       1.39788775
O       -1.09869499      -3.10959477       1.71564817
O        0.19136427      -2.69104474       3.74405470
H       -2.29567690       1.57227282       1.05496686
H       -1.69801566      -0.51612847      -1.64570810
H        0.34574255      -1.98637134      -0.37869686
H        1.09777292       0.22213128      -0.69190403
H        0.70915552      -0.36596438      -2.32078288
H        1.26989323       3.44028458       0.15891891
H        2.55624169       2.63676035      -3.36717186
H       -2.14197334      -0.74587760       0.81194663
H       -1.18837116      -2.98872618       0.74362864
H        0.96438053      -2.32117950       4.19290983
26
Properties=species:S:1:pos:R:3 relative_energy_eV=3.7872055969564826 branch=right pbc="F F F"
O       -0.32085322       0.14427349       1.31728387
C       -1.42644792      -0.01672954       0.40075327
O       -2.06637582       1.19403981       0.20139582
C       -0.87160232      -0.56345366      -0.92396901
O       -0.53719262      -1.94374985      -0.77354314
C        0.33143331       0.17971703      -1.47459674
O       -0.04343622       1.50355703      -1.86482153
P        1.03121410       2.69263092      -1.84665523
O        0.50750007       3.97062178      -2.36277847
O        1.58576155       2.70055500      -0.32801558
O        2.30567134       2.07141922      -2.62226619
O       -0.56484469      -0.66276095       2.50632962
P        0.08169301      -2.17640734       2.23813536
O        1.31687220      -2.16601671       1.41487402
O       -1.12329556      -3.08033855       1.71072806
O        0.15412457      -2.68370774       3.75103779
H       -2.28273635       1.55778494       1.06986047
H       -1.68296812      -0.52312007      -1.64709941
H        0.35749191      -1.99835079      -0.37669699
H        1.11777557       0.20684578      -0.72495596
H        0.69793223      -0.36423397      -2.34237068
H        1.22460586       3.44911667       0.16459741
H        2.54572468       2.63385764      -3.37031119
H       -2.11453041      -0.75069620       0.82245432
H       -1.20676030      -2.93713583       0.74078771
H        0.94663877      -2.36652251       4.20487879
26
Properties=species:S:1:pos:R:3 relative_energy_eV=3.784401137912937 branch=right pbc="F F F"
O       -0.30614397       0.14191871       1.30936978
C       -1.41705934      -0.01523611       0.39926995
O       -2.05826695       1.19604385       0.20812054
C       -0.86555939      -0.56251162      -0.92779536
O       -0.53590488      -1.94328698      -0.76964481
C        0.34032124       0.17912361      -1.48307467
O       -0.04337104       1.50552080      -1.86038893
P        1.02564716       2.69907981      -1.84692364
O        0.49441076       3.97158536      -2.37088530
O        1.57633855       2.70762610      -0.32623294
O        2.30139438       2.07297957      -2.61705899
O       -0.55265866      -0.65652975       2.50372763
P        0.08161971      -2.17874038       2.24594465
O        1.31891233      -2.18446503       1.42476259
O       -1.13545788      -3.06238506       1.71335796
O        0.13584511      -2.68557716       3.76174722
H       -2.27922881       1.55133869       1.07909061
H       -1.67855883      -0.53041657      -1.65135261
H        0.35817561      -1.99776701      -0.37289993
H        1.13772880       0.20391836      -0.74124227
H        0.69718071      -0.36218970      -2.35918611
H        1.20816022       3.45482472       0.16262894
H        2.53803727       2.62908594      -3.37034692
H       -2.10434618      -0.75182018       0.81751381
H       -1.21334992      -2.91637918       0.74290721
H        0.93952951      -2.39454525       4.21362805
26
Properties=species:S:1:pos:R:3 relative_energy_eV=3.7824032721255207 branch=right pbc="F F F"
O       -0.28597875       0.13286117       1.29867391
C       -1.40554911      -0.01351799       0.39538343
O       -2.04804888       1.19879433       0.21453995
C       -0.85817013      -0.56262352      -0.93138560
O       -0.52993891      -1.94321814      -0.76980460
C        0.34363726       0.17848366      -1.49218399
O       -0.04307863       1.50228639      -1.86734063
P        1.01831511       2.70084390      -1.84926495
O        0.48313105       3.97007707      -2.37603567
O        1.56058656       2.71505786      -0.32720825
O        2.30152059       2.08001019      -2.61040887
O       -0.53604095      -0.64760468       2.50610949
P        0.07645713      -2.17909881       2.25699591
O        1.31980319      -2.20654972       1.44682678
O       -1.15331256      -3.03872061       1.71576373
O        0.11980565      -2.69171056       3.77075049
H       -2.27287082       1.54207221       1.08949760
H       -1.67425234      -0.53013633      -1.64968569
H        0.36260676      -1.99818729      -0.37098359
H        1.14434304       0.20032668      -0.75487018
H        0.69579131      -0.35096942      -2.37468607
H        1.19125326       3.46139830       0.16095180
H        2.53148147       2.62464863      -3.37390319
H       -2.09367608      -0.75061728       0.81100462
H       -1.21591705      -2.89873073       0.74337370
H        0.93149718      -2.42397991       4.22292636
26
Properties=species:S:1:pos:R:3 relative_energy_eV=3.7806100846428308 branch=right pbc="F F F"
O       -0.27531358       0.12361923       1.29225348
C       -1.39715116      -0.01127519       0.39399311
O       -2.03472892       1.20441389       0.21723057
C       -0.85598765      -0.55873896      -0.93633810
O       -0.52397614      -1.93906460      -0.76990231
C        0.34231704       0.18109799      -1.50383677
O       -0.05025038       1.50514404      -1.87848016
P        1.01342603       2.70303180      -1.85060813
O        0.47820865       3.97209703      -2.37774644
O        1.54247743       2.70886455      -0.32285118
O        2.30482641       2.08754368      -2.60504128
O       -0.53238839      -0.64497155       2.50615084
P        0.07367967      -2.18328870       2.26523336
O        1.32292429      -2.22005596       1.46437247
O       -1.16004848      -3.03850654       1.72172470
O        0.10803998      -2.69218377       3.78076784
H       -2.27097982       1.53945562       1.09219367
H       -1.67478264      -0.52418463      -1.65304342
H        0.36566561      -1.99392335      -0.36341096
H        1.14090962       0.20310051      -0.76362992
H        0.69838396      -0.35336608      -2.38394706
H        1.19331443       3.47265299       0.15471686
H        2.52763346       2.62284087      -3.37776039
H       -2.08709126      -0.74568763       0.80792889
H       -1.21535191      -2.90320402       0.74836250
H        0.92963904      -2.44421586       4.22670442
26
Properties=species:S:1:pos:R:3 relative_energy_eV=3.778231323842192 branch=right pbc="F F F"
O       -0.24494377       0.11102887       1.28627844
C       -1.37892394      -0.01363355       0.39522069
O       -2.00945081       1.20602567       0.22766974
C       -0.85082886      -0.55839152      -0.94255328
O       -0.51327189      -1.93717743      -0.77814554
C        0.34129185       0.18344436      -1.51959819
O       -0.04998807       1.50385712      -1.90171083
P        1.00453614       2.70849107      -1.85593155
O        0.47106588       3.97756285      -2.38560597
O        1.51164667       2.70845590      -0.32268620
O        2.30873545       2.10342302      -2.59476913
O       -0.51438538      -0.63940493       2.51120305
P        0.06545767      -2.18567030       2.28032950
O        1.31824661      -2.24594718       1.48709257
O       -1.17609853      -3.02032272       1.72363146
O        0.07533651      -2.68708076       3.79957417
H       -2.25631892       1.53285310       1.10316079
H       -1.67476380      -0.52661805      -1.65314234
H        0.37329186      -1.98576212      -0.36614571
H        1.14032345       0.21575157      -0.78301326
H        0.69570633      -0.35867889      -2.39465640
H        1.17774571       3.48308998       0.14609063
H        2.51812099       2.62236892      -3.38189668
H       -2.06781388      -0.74664590       0.81792155
H       -1.21493209      -2.89528392       0.74874783
H        0.91360991      -2.48453993       4.23797147
26
Properties=species:S:1:pos:R:3 relative_energy_eV=3.7766860043411725 branch=right pbc="F F F"
O       -0.23204276       0.09964421       1.28026002
C       -1.36871665      -0.01166541       0.39645650
O       -1.99288689       1.21190546       0.23327926
C       -0.84808852      -0.55695348      -0.94199906
O       -0.50920121      -1.93555513      -0.77651442
C        0.34212118       0.18535930      -1.52589096
O       -0.05480755       1.50247237      -1.92188894
P        0.99734521       2.71023926      -1.86068049
O        0.46950411       3.98218734      -2.38916141
O        1.48953116       2.70652123      -0.32202260
O        2.31016976       2.11019745      -2.59130397
O       -0.51110649      -0.63778680       2.50961303
P        0.06166837      -2.18939132       2.28569042
O        1.32031474      -2.25951868       1.50298085
O       -1.18031383      -3.02337359       1.72510134
O        0.05691821      -2.67833385       3.80849566
H       -2.24384077       1.53085142       1.11007330
H       -1.67687597      -0.53276200      -1.64729630
H        0.37936897      -1.98276367      -0.37054587
H        1.14656943       0.22365442      -0.79232681
H        0.69289580      -0.35989906      -2.40041559
H        1.17484345       3.49386276       0.14026009
H        2.51371200       2.62656701      -3.38179473
H       -2.05912672      -0.74092747       0.81972480
H       -1.21710047      -2.89509286       0.75046565
H        0.90254048      -2.50824373       4.24447720
26
Properties=species:S:1:pos:R:3 relative_energy_eV=3.775609240925405 branch=right pbc="F F F"
O       -0.21960871       0.09562014       1.27811648
C       -1.35934361      -0.01047613       0.39934380
O       -1.98195103       1.21498586       0.24128036
C       -0.84359647      -0.55721609      -0.93941370
O       -0.50419594      -1.93606870      -0.77332935
C        0.34109795       0.18609097      -1.53250173
O       -0.05616995       1.50070379      -1.93245925
P        0.99142110       2.71165189      -1.86619039
O        0.46594850       3.98318054      -2.39762853
O        1.47006718       2.70521647      -0.32425716
O        2.30866510       2.11695604      -2.59178190
O       -0.50449582      -0.63638516       2.50886845
P        0.05764238      -2.19196996       2.29088162
O        1.32128097      -2.27239548       1.51772683
O       -1.18660631      -3.01610707       1.72203267
O        0.03727184      -2.67786261       3.81514019
H       -2.22145856       1.53432007       1.12145947
H       -1.67837606      -0.53681981      -1.63629450
H        0.39063106      -1.98916433      -0.38377183
H        1.14687659       0.23113851      -0.80311399
H        0.69290083      -0.36351498      -2.40342161
H        1.16211359       3.49746093       0.13336964
H        2.51511234       2.63634088      -3.37952353
H       -2.05371569      -0.73715653       0.82193714
H       -1.21443936      -2.89194882       0.74672326
H        0.88632305      -2.52538517       4.25184475
26
Properties=species:S:1:pos:R:3 relative_energy_eV=3.7742706451244885 branch=right pbc="F F F"
O       -0.20060102       0.08607673       1.27707153
C       -1.34250070      -0.00725861       0.40229641
O       -1.95627983       1.22463078       0.25434790
C       -0.83711530      -0.55911267      -0.94042933
O       -0.49385734      -1.93885847      -0.77739717
C        0.34289345       0.18277360      -1.54396749
O       -0.06361689       1.49623582      -1.94369052
P        0.97722229       2.71353741      -1.87471447
O        0.45105624       3.98214253      -2.41298472
O        1.44300716       2.71037493      -0.32806084
O        2.30267450       2.12457575      -2.59182191
O       -0.48775347      -0.63444107       2.51402148
P        0.05234402      -2.19897328       2.30289976
O        1.32579034      -2.29689587       1.54967037
O       -1.19723889      -3.00444212       1.71938893
O        0.00510441      -2.68046104       3.82748380
H       -2.18434755       1.54077822       1.13867526
H       -1.67582891      -0.53870766      -1.63377923
H        0.40284519      -1.99042814      -0.39334304
H        1.15368157       0.23328514      -0.81933020
H        0.68743357      -0.36657740      -2.41927335
H        1.13837827       3.50845108       0.12175282
H        2.51738315       2.65209046      -3.37206660
H       -2.04073243      -0.73032166       0.82083560
H       -1.21469352      -2.87878094       0.74394439
H        0.85814664      -2.55849826       4.26350812
26
Properties=species:S:1:pos:R:3 relative_energy_eV=3.7721447619551327 branch=right pbc="F F F"
O       -0.19083765       0.07944654       1.28426369
C       -1.33340440      -0.00513020       0.40594927
O       -1.93081493       1.23514657       0.26210533
C       -0.83559656      -0.55647065      -0.94024015
O       -0.49292940      -1.93529897      -0.77927846
C        0.34145907       0.18256975      -1.54869422
O       -0.06871612       1.48895730      -1.95996469
P        0.96345139       2.71020779      -1.88682913
O        0.43572714       3.97686222      -2.42731765
O        1.41942388       2.71073666      -0.33818714
O        2.29057719       2.12472806      -2.60159460
O       -0.49384178      -0.64403268       2.51836240
P        0.04941080      -2.20875281       2.31042187
O        1.33240705      -2.31156587       1.57374786
O       -1.19348160      -3.01453535       1.71228598
O       -0.01756480      -2.69108171       3.83468620
H       -2.12905384       1.56672901       1.14882258
H       -1.67725058      -0.53926840      -1.62880996
H        0.40735784      -1.98484030      -0.40774277
H        1.15280055       0.23495626      -0.82452067
H        0.68280472      -0.37130874      -2.42071856
H        1.12753023       3.51712067       0.10464289
H        2.53274201       2.68401458      -3.35100532
H       -2.03831416      -0.72350410       0.82661787
H       -1.20152604      -2.88655179       0.73747386
H        0.83103503      -2.56793840       4.28056135
26
Properties=species:S:1:pos:R:3 relative_energy_eV=3.7703674024814973 branch=right pbc="F F F"
O       -0.17319779       0.05189409       1.27847412
C       -1.31990093      -0.00595758       0.41005647
O       -1.89850071       1.24298292       0.27182187
C       -0.83459387      -0.55478726      -0.93939249
O       -0.49027683      -1.93421359      -0.78107809
C        0.33956861       0.18137919      -1.55758558
O       -0.07439085       1.48472519      -1.97557077
P        0.94874754       2.71261500      -1.89875661
O        0.41269587       3.97387562      -2.44387491
O        1.39578815       2.71754941      -0.34611124
O        2.27931852       2.12765576      -2.60918956
O       -0.48522116      -0.64776010       2.52222452
P        0.04588394      -2.21932747       2.32314110
O        1.33709079      -2.32906437       1.60331980
O       -1.19684267      -3.00920679       1.70478435
O       -0.04410317      -2.70157019       3.84684601
H       -2.07259340       1.57852279       1.16076753
H       -1.67903184      -0.53443318      -1.62460929
H        0.41172508      -1.98258753      -0.41481782
H        1.15410916       0.23981201      -0.83827999
H        0.68403632      -0.37700019      -2.42653068
H        1.10634471       3.52870477       0.08987898
H        2.54510510       2.70859410      -3.33346621
H       -2.03266872      -0.71584416       0.82740157
H       -1.19553693      -2.87507419       0.72989603
H        0.79984010      -2.59028872       4.30568909
26
Properties=species:S:1:pos:R:3 relative_energy_eV=3.769327640722622 branch=right pbc="F F F"
O       -0.15051246       0.03389665       1.27219176
C       -1.30474854      -0.00893716       0.41138773
O       -1.87461137       1.24500371       0.28069456
C       -0.82890977      -0.55617030      -0.94143042
O       -0.48515638      -1.93587363      -0.78174786
C        0.34119717       0.18072651      -1.56848800
O       -0.07814445       1.48094187      -1.99024408
P        0.93528706       2.71653101      -1.90877731
O        0.39599635       3.97483660      -2.45677093
O        1.37601570       2.73001839      -0.35490593
O        2.27323263       2.13997314      -2.61014264
O       -0.47302959      -0.64940007       2.52437469
P        0.04089088      -2.22722571       2.33378014
O        1.33678786      -2.35296655       1.62507051
O       -1.20511613      -3.00151913       1.70351433
O       -0.07287019      -2.70832060       3.85610031
H       -2.02652705       1.58915131       1.17102320
H       -1.68185318      -0.53405277      -1.61605069
H        0.41472150      -1.98339425      -0.41071949
H        1.16032998       0.24721371      -0.85506151
H        0.67845683      -0.38230572      -2.43680585
H        1.08317274       3.54157827       0.07795405
H        2.55314917       2.72629952      -3.32474493
H       -2.02241784      -0.71363916       0.83259834
H       -1.19021699      -2.86451402       0.72936915
H        0.76827102      -2.61665608       4.32286936
26
Properties=species:S:1:pos:R:3 relative_energy_eV=3.7689298772165785 branch=right pbc="F F F"
O       -0.14624801       0.02791819       1.27090266
C       -1.30107787      -0.00937303       0.41229509
O       -1.86636513       1.24662032       0.28556573
C       -0.82812405      -0.55683324      -0.94117267
O       -0.48426581      -1.93732132      -0.78316865
C        0.34051997       0.18137208      -1.57038298
O       -0.07972588       1.48141432      -1.99576719
P        0.93207875       2.71928601      -1.91346554
O        0.38904690       3.97661332      -2.46131081
O        1.37138058       2.73292481      -0.35830865
O        2.27294595       2.14367265      -2.61225676
O       -0.46726760      -0.65101479       2.52520867
P        0.04031247      -2.23102820       2.33596898
O        1.33787800      -2.36121187       1.63164471
O       -1.20642820      -3.00069355       1.70259751
O       -0.08115326      -2.71282587       3.85686801
H       -2.00741041       1.59151646       1.17713594
H       -1.68148121      -0.53643750      -1.61509197
H        0.41320433      -1.98737207      -0.40634693
H        1.15866125       0.24990950      -0.85597679
H        0.68005245      -0.38224393      -2.43784284
H        1.07398181       3.54403121       0.07244923
H        2.55682773       2.73301896      -3.32259689
H       -2.01929776      -0.71425975       0.83036503
H       -1.19159471      -2.85812731       0.72909502
H        0.75694464      -2.61835984       4.32863071
26
Properties=species:S:1:pos:R:3 relative_energy_eV=3.768625777120178 branch=right pbc="F F F"
O       -0.14373581       0.02728622       1.27255486
C       -1.29859389      -0.00963653       0.41255424
O       -1.86283137       1.24700085       0.28656685
C       -0.82644689      -0.55662234      -0.94123198
O       -0.48277495      -1.93674740      -0.77995502
C        0.34030680       0.18324119      -1.57206483
O       -0.07902114       1.48242081      -1.99924140
P        0.93118428       2.72105490      -1.91586761
O        0.38696899       3.97747743      -2.46372841
O        1.36818519       2.73642791      -0.36079036
O        2.27397652       2.14961792      -2.61293450
O       -0.46555295      -0.65488875       2.52534347
P        0.03850548      -2.23630135       2.33636924
O        1.33574331      -2.36981772       1.63190316
O       -1.20957140      -3.00405253       1.70246289
O       -0.08433842      -2.71437328       3.85875528
H       -1.99457909       1.59418877       1.17871785
H       -1.68014508      -0.54039902      -1.61493464
H        0.41286804      -1.98820065      -0.39878624
H        1.15901557       0.25140534      -0.85883335
H        0.67823895      -0.38119757      -2.43866745
H        1.07019087       3.54825029       0.06790443
H        2.55727212       2.73856078      -3.32379872
H       -2.01791553      -0.71371304       0.83115279
H       -1.19545616      -2.86302539       0.72869659
H        0.75190157      -2.61676130       4.33289146
26
Properties=species:S:1:pos:R:3 relative_energy_eV=3.768310304469196 branch=right pbc="F F F"
O       -0.14471966       0.02286805       1.27302459
C       -1.29920958      -0.01034340       0.41333113
O       -1.85959720       1.24791581       0.28990412
C       -0.82580847      -0.55693488      -0.94077350
O       -0.48085165      -1.93611139      -0.77870419
C        0.34240246       0.18273636      -1.57072869
O       -0.07930277       1.48148931      -1.99960719
P        0.93015888       2.72154588      -1.91853305
O        0.38666727       3.97812644      -2.46724021
O        1.36712840       2.73789282      -0.36277814
O        2.27428044       2.15295562      -2.61653464
O       -0.46650946      -0.65997457       2.52475412
P        0.03713433      -2.24155746       2.33464422
O        1.33321472      -2.37627136       1.62833407
O       -1.21254395      -3.00893293       1.70306559
O       -0.08270632      -2.71973220       3.85720675
H       -1.98282737       1.59675227       1.18265142
H       -1.67856290      -0.54024708      -1.61599289
H        0.41363723      -1.98573623      -0.39390078
H        1.15823184       0.25602238      -0.85426587
H        0.68444599      -0.38048060      -2.43766729
H        1.06740792       3.54936415       0.06565845
H        2.55596629       2.74366087      -3.32692440
H       -2.02073456      -0.71296367       0.83024324
H       -1.20259457      -2.86709161       0.72926727
H        0.74868771      -2.60375720       4.33660438
26
Properties=species:S:1:pos:R:3 relative_energy_eV=3.7679755744393333 branch=right pbc="F F F"
O       -0.13942698       0.01687667       1.27293857
C       -1.29463036      -0.01073415       0.41423194
O       -1.85174784       1.24991364       0.29468807
C       -0.82162368      -0.55668585      -0.94027392
O       -0.47552782      -1.93568571      -0.77902434
C        0.34492963       0.18489981      -1.57121036
O       -0.07788664       1.48153992      -2.00387625
P        0.92770958       2.72401489      -1.92241814
O        0.38163686       3.97800422      -2.47432255
O        1.36125969       2.74232971      -0.36613198
O        2.27289892       2.15731080      -2.61905547
O       -0.46414403      -0.66457235       2.52494459
P        0.03294458      -2.24834448       2.33511211
O        1.32810555      -2.38802258       1.62808096
O       -1.22074853      -3.01103477       1.70568973
O       -0.08897181      -2.72644683       3.85736202
H       -1.96526974       1.60000904       1.18834286
H       -1.67534911      -0.53988307      -1.61353809
H        0.41794944      -1.98329717      -0.39154798
H        1.16164629       0.25846666      -0.85619696
H        0.68800440      -0.38096680      -2.43522939
H        1.05881490       3.55282762       0.06201672
H        2.55072462       2.75007302      -3.32905670
H       -2.01811381      -0.71188201       0.83115103
H       -1.20821656      -2.87011591       0.73232435
H        0.73842737      -2.59739912       4.34003780
26
Properties=species:S:1:pos:R:3 relative_energy_eV=3.767757587695087 branch=right pbc="F F F"
O       -0.13049091       0.01090070       1.27376815
C       -1.28631966      -0.01029814       0.41572866
O       -1.83809947       1.25220180       0.29952819
C       -0.81712096      -0.55513864      -0.93954139
O       -0.47209051      -1.93415410      -0.77921276
C        0.34817433       0.18534443      -1.57238262
O       -0.07946440       1.48002135      -2.00765443
P        0.92207616       2.72606086      -1.92608885
O        0.37295322       3.97760316      -2.48073108
O        1.35607444       2.74850311      -0.36952301
O        2.27051352       2.16271440      -2.61963979
O       -0.45874490      -0.66652178       2.52680952
P        0.02847617      -2.25310728       2.33778296
O        1.32362815      -2.39910632       1.63272023
O       -1.22817020      -3.00883659       1.70610953
O       -0.09841425      -2.73260325       3.85907064
H       -1.94996166       1.59979316       1.19409814
H       -1.67206974      -0.53815361      -1.61214792
H        0.42165126      -1.98575434      -0.39286702
H        1.16587077       0.26270282      -0.85839632
H        0.69034715      -0.38233596      -2.43588040
H        1.04759884       3.55691045       0.05849467
H        2.54663757       2.75303225      -3.33239760
H       -2.01200687      -0.71074327       0.82907939
H       -1.21360425      -2.86932243       0.73270126
H        0.72595086      -2.59851772       4.34561055
26
Properties=species:S:1:pos:R:3 relative_energy_eV=3.767555129190441 branch=right pbc="F F F"
O       -0.12779566       0.01013061       1.27751995
C       -1.28130977      -0.00902464       0.41680871
O       -1.82994003       1.25530564       0.30027150
C       -0.81317607      -0.55500190      -0.93816857
O       -0.47276690      -1.93519193      -0.77812282
C        0.35117817       0.18638895      -1.57161500
O       -0.07812008       1.47966252      -2.00850839
P        0.92013454       2.72797985      -1.92802750
O        0.36586245       3.97713931      -2.48244132
O        1.35621139       2.75293879      -0.37265675
O        2.26907834       2.16613300      -2.62075644
O       -0.46147553      -0.67046444       2.52764667
P        0.02587555      -2.25762862       2.33688366
O        1.32052320      -2.40404529       1.63066276
O       -1.23139899      -3.01436162       1.70669967
O       -0.10082937      -2.73705878       3.85837050
H       -1.94489027       1.60187691       1.19500935
H       -1.66846602      -0.53484391      -1.60939994
H        0.42126769      -1.98831226      -0.39308888
H        1.16776564       0.26707363      -0.85735280
H        0.69418213      -0.38214465      -2.43395804
H        1.04483529       3.55973582       0.05591004
H        2.54268755       2.75264708      -3.33733812
H       -2.00896216      -0.70824399       0.82894547
H       -1.21669000      -2.87663656       0.73319815
H        0.71961345      -2.59285853       4.34854702
26
Properties=species:S:1:pos:R:3 relative_energy_eV=3.7674026236563805 branch=right pbc="F F F"
O       -0.12428477       0.00762771       1.27998206
C       -1.27739402      -0.00800029       0.41861106
O       -1.82131791       1.25815675       0.30261344
C       -0.81014071      -0.55415417      -0.93714067
O       -0.47191920      -1.93510306      -0.78047449
C        0.35474451       0.18688979      -1.57074249
O       -0.07746412       1.47856172      -2.01017088
P        0.91744595       2.72954087      -1.93057500
O        0.35813457       3.97653229      -2.48497988
O        1.35485161       2.75734193      -0.37532170
O        2.26805197       2.17002473      -2.62287974
O       -0.46001314      -0.67471096       2.52803688
P        0.02439809      -2.26236971       2.33716984
O        1.31937658      -2.40993739       1.63181835
O       -1.23405043      -3.01713229       1.70649190
O       -0.10578281      -2.74105021       3.85859294
H       -1.93946610       1.60336156       1.19751685
H       -1.66617942      -0.53160043      -1.60781336
H        0.42060502      -1.99252266      -0.39241546
H        1.17156176       0.27014575      -0.85679294
H        0.70057977      -0.38071011      -2.43269183
H        1.03957839       3.56274953       0.05328252
H        2.53898920       2.75259178      -3.34376703
H       -2.00798188      -0.70399092       0.83076509
H       -1.22008329      -2.87981192       0.73298225
H        0.71115483      -2.59123534       4.35294131
