26
Properties=species:S:1:pos:R:3 relative_energy_eV=0.0 branch=left pbc="F F F"
O       -1.60406889       0.65858642      -2.09811533
C       -0.54391718       0.60406509      -1.55013755
O        0.47580418       1.42257117      -2.02218670
P        1.67268245       2.18083892      -1.22510424
O        2.12273843       1.57309385       0.05973981
O        1.16156468       3.67872749      -1.11643234
O        2.84041213       2.17046221      -2.31338437
C       -0.18527072      -0.31068721      -0.38657144
O        1.07698615      -0.89359579      -0.57508809
C       -1.23141558      -1.39326015      -0.24203748
O       -1.01255387      -2.00800639       1.03807711
P       -1.71591280      -3.41298219       1.33871383
O       -1.46887481      -4.51716309       0.38707459
O       -1.22113122      -3.63429730       2.84868213
O       -3.27411914      -3.01836173       1.51693887
O        1.47386660       3.86878326       1.50453203
H        1.19449551       3.95109225      -0.15014451
H        2.62716282       2.65394940      -3.12235274
H       -0.21138630       0.31844835       0.51364693
H        1.71360448      -0.29680674      -0.14951596
H       -2.22909981      -0.96655352      -0.28098838
H       -1.11237970      -2.12025127      -1.04374961
H       -0.71426464      -4.45257439       2.91274983
H       -3.81054126      -3.58391313       0.94794728
H        1.85725411       2.97365156       1.42179468
H        2.19778082       4.42374019       1.81544234
26
Properties=species:S:1:pos:R:3 relative_energy_eV=0.001055218410328962 branch=left pbc="F F F"
O       -1.59555610       0.66942008      -2.12960075
C       -0.54072991       0.61041548      -1.57235560
O        0.49000552       1.42059926      -2.03784484
P        1.67938598       2.17538266      -1.22496265
O        2.12217787       1.55951221       0.05865712
O        1.16356280       3.67082009      -1.10723320
O        2.85650898       2.17432743      -2.30317974
C       -0.19853760      -0.30073035      -0.40191059
O        1.05887858      -0.89714679      -0.58021071
C       -1.25370838      -1.37398758      -0.25265203
O       -1.03860831      -1.97845885       1.03295896
P       -1.71285658      -3.39475620       1.34309617
O       -1.47108190      -4.49481523       0.38527033
O       -1.17620305      -3.61301820       2.83991842
O       -3.27243915      -3.02424355       1.55375358
O        1.47396452       3.84289467       1.51564148
H        1.19451084       3.93557831      -0.13853242
H        2.63684703       2.63033458      -3.12682110
H       -0.22353100       0.33442684       0.49443465
H        1.69813598      -0.30695292      -0.14971225
H       -2.24858027      -0.94087168      -0.29606210
H       -1.13795936      -2.10839235      -1.04790092
H       -0.66570051      -4.43047674       2.88753302
H       -3.81275542      -3.62891287       1.03226775
H        1.85237654       2.94640085       1.42664618
H        2.20130743       4.39220873       1.82833079
26
Properties=species:S:1:pos:R:3 relative_energy_eV=0.0018030013015959412 branch=left pbc="F F F"
O       -1.57903056       0.65912725      -2.16515942
C       -0.53341908       0.60263525      -1.59052011
O        0.51157786       1.39500478      -2.05424890
P        1.68553360       2.15822137      -1.22807795
O        2.12202418       1.54272297       0.05778603
O        1.15515918       3.64888859      -1.11228776
O        2.87353698       2.16889821      -2.29369659
C       -0.21353482      -0.29103725      -0.40095227
O        1.03311101      -0.91381178      -0.56503903
C       -1.29147834      -1.33923915      -0.23650345
O       -1.08514647      -1.93623734       1.05380865
P       -1.70169623      -3.38199566       1.34484199
O       -1.43534755      -4.45099265       0.35872655
O       -1.13464954      -3.61034970       2.82872412
O       -3.27101798      -3.07398200       1.58517032
O        1.46209725       3.82460677       1.50804656
H        1.18210459       3.91558224      -0.14404317
H        2.67069027       2.65043062      -3.10650300
H       -0.22717717       0.36077057       0.48300259
H        1.68104342      -0.32916769      -0.14039260
H       -2.27687928      -0.88386761      -0.27704576
H       -1.19919585      -2.08219260      -1.02671138
H       -0.58769671      -4.40486392       2.85321257
H       -3.79667899      -3.68504281       1.05435128
H        1.86038110       2.93651718       1.41629555
H        2.17510230       4.38893331       1.82674597
26
Properties=species:S:1:pos:R:3 relative_energy_eV=0.002602232350909617 branch=left pbc="F F F"
O       -1.55861475       0.63234157      -2.20181734
C       -0.52447516       0.59232427      -1.60565418
O        0.52657658       1.37924871      -2.06544803
P        1.69414532       2.14760587      -1.23470746
O        2.13630989       1.53125301       0.04876721
O        1.15318922       3.63372109      -1.11067671
O        2.88163637       2.17182642      -2.30029185
C       -0.22276971      -0.27656123      -0.39361920
O        1.01730129      -0.91606148      -0.53677975
C       -1.31298557      -1.30966695      -0.21582718
O       -1.09950026      -1.91364864       1.06981573
P       -1.69098726      -3.37315616       1.34213364
O       -1.41870020      -4.41937134       0.33315080
O       -1.10842770      -3.61988913       2.81677027
O       -3.26188033      -3.09079942       1.60405555
O        1.44706824       3.80019297       1.51345060
H        1.17544637       3.89326396      -0.14041521
H        2.66907490       2.64000791      -3.11815195
H       -0.23475400       0.39571768       0.47441923
H        1.67005545      -0.32606202      -0.12727825
H       -2.29230588      -0.83969205      -0.24077317
H       -1.24487737      -2.05114437      -1.00987935
H       -0.54672206      -4.40443789       2.82288332
H       -3.78586582      -3.69092263       1.05958161
H        1.85121037       2.91450218       1.42237235
H        2.16026447       4.36896653       1.82345044
26
Properties=species:S:1:pos:R:3 relative_energy_eV=0.0035257571944384836 branch=left pbc="F F F"
O       -1.55357786       0.63057679      -2.20347393
C       -0.52023507       0.59327897      -1.60619375
O        0.52852095       1.38392931      -2.06469192
P        1.69835454       2.15174347      -1.23517982
O        2.14809502       1.53088173       0.04350837
O        1.15441868       3.63617374      -1.10499319
O        2.88074788       2.18287195      -2.30625502
C       -0.21491894      -0.27646989      -0.39566206
O        1.02420928      -0.91669080      -0.54637854
C       -1.30491562      -1.30887132      -0.21350204
O       -1.07935215      -1.91795317       1.06794070
P       -1.69488876      -3.36732866       1.34359585
O       -1.45276317      -4.41619602       0.32942057
O       -1.10223441      -3.63067885       2.81109535
O       -3.25772407      -3.05721206       1.61960361
O        1.43943601       3.78594768       1.52160725
H        1.17295171       3.89316832      -0.13488394
H        2.63629354       2.58653107      -3.15022881
H       -0.22248553       0.39429260       0.47397096
H        1.67979521      -0.32920526      -0.13771514
H       -2.28367951      -0.83680246      -0.22839177
H       -1.24462523      -2.04854478      -1.01040992
H       -0.55147609      -4.42235240       2.80613221
H       -3.79500261      -3.64109833       1.07003518
H        1.85776455       2.90769075       1.42638516
H        2.13670427       4.36187605       1.85419274
26
Properties=species:S:1:pos:R:3 relative_energy_eV=0.005287398198561277 branch=left pbc="F F F"
O       -1.55849789       0.63392334      -2.18700630
C       -0.51660930       0.59387533      -1.60409666
O        0.52368172       1.39470870      -2.06674136
P        1.69488356       2.16204980      -1.23642614
O        2.14864688       1.53535734       0.03774584
O        1.15379267       3.64494144      -1.09226407
O        2.87282162       2.20619361      -2.31151418
C       -0.19392175      -0.28521826      -0.40572633
O        1.04703101      -0.91701061      -0.57593857
C       -1.27828204      -1.32313436      -0.22383178
O       -1.04776039      -1.94082527       1.05145527
P       -1.71070141      -3.36605931       1.34632007
O       -1.51872914      -4.43090990       0.33765253
O       -1.10730695      -3.63204902       2.80876981
O       -3.25696952      -3.00143140       1.64884037
O        1.43864290       3.77696607       1.53365096
H        1.17532115       3.88930841      -0.11830215
H        2.60031292       2.53104831      -3.17927270
H       -0.19405224       0.37762317       0.46964875
H        1.70248257      -0.32923629      -0.16578535
H       -2.25867856      -0.85513093      -0.23502280
H       -1.21498962      -2.05630047      -1.02581042
H       -0.58308849      -4.44428105       2.80384315
H       -3.82914416      -3.55412632       1.10163464
H        1.86293513       2.90250470       1.43983947
H        2.12759230       4.35677074       1.87786018
26
Properties=species:S:1:pos:R:3 relative_energy_eV=0.012567420046252664 branch=left pbc="F F F"
O       -1.58202850       0.67654225      -2.10508348
C       -0.51321989       0.60209923      -1.57714988
O        0.51615747       1.40752892      -2.06105045
P        1.68879424       2.18413062      -1.23957570
O        2.17024752       1.54491443       0.01870650
O        1.13223557       3.65578681      -1.06074277
O        2.84753904       2.26691204      -2.33252481
C       -0.14086855      -0.31903524      -0.42417793
O        1.10797311      -0.91936884      -0.64249495
C       -1.20272114      -1.38180392      -0.25174457
O       -0.96243939      -2.00886664       1.01837639
P       -1.76377224      -3.35257990       1.36142011
O       -1.71435722      -4.44255761       0.36419566
O       -1.15803094      -3.66813934       2.81330014
O       -3.25154419      -2.82459684       1.70526512
O        1.42842872       3.74989397       1.56261946
H        1.15539978       3.87976160      -0.08081745
H        2.53563975       2.41869418      -3.23170034
H       -0.13246823       0.31390305       0.47299507
H        1.76362679      -0.32082496      -0.24808689
H       -2.19045071      -0.93073137      -0.26374619
H       -1.12546080      -2.11067990      -1.05652792
H       -0.62316781      -4.47001545       2.78041631
H       -3.89009059      -3.30814920       1.16757995
H        1.86823454       2.88428593       1.45227529
H        2.11575712       4.34245081       1.88778046
26
Properties=species:S:1:pos:R:3 relative_energy_eV=0.016014269422157668 branch=left pbc="F F F"
O       -1.58232465       0.64484979      -2.14637974
C       -0.52255493       0.59690770      -1.59899750
O        0.47559040       1.46364801      -2.03934100
P        1.66808941       2.20571944      -1.21568065
O        2.14125834       1.54491216       0.03461954
O        1.14181594       3.68651500      -1.02217417
O        2.81561392       2.28562670      -2.32267024
C       -0.13117618      -0.34114657      -0.46826218
O        1.12932486      -0.90886229      -0.71314779
C       -1.16868606      -1.42860790      -0.30133610
O       -0.91663680      -2.04321672       0.97329013
P       -1.77557460      -3.33411240       1.37410073
O       -1.80741638      -4.45447610       0.40966827
O       -1.14355127      -3.63520862       2.81744872
O       -3.22377932      -2.71731899       1.74344838
O        1.46857336       3.75216598       1.60046646
H        1.17310495       3.90536043      -0.04251449
H        2.47957379       2.33741787      -3.22578683
H       -0.13032978       0.27263473       0.44260931
H        1.77354823      -0.32710951      -0.27862974
H       -2.16679617      -1.00071373      -0.32095468
H       -1.06790871      -2.16165984      -1.09994733
H       -0.70700770      -4.49499871       2.81487748
H       -3.90714537      -3.17765663       1.24136497
H        1.88094879       2.87555826       1.46986455
H        2.18285852       4.32332596       1.90356220
26
Properties=species:S:1:pos:R:3 relative_energy_eV=0.017911413793626707 branch=left pbc="F F F"
O       -1.58984261       0.63672199      -2.14393877
C       -0.52760226       0.59906356      -1.60054523
O        0.45822055       1.48038549      -2.03749028
P        1.65666406       2.21342614      -1.21268934
O        2.13725084       1.54930518       0.03354965
O        1.13640985       3.69376536      -1.00476252
O        2.79366475       2.29445866      -2.33022973
C       -0.12023756      -0.34510351      -0.48019978
O        1.14509626      -0.89829496      -0.73495804
C       -1.14806395      -1.44219280      -0.32184608
O       -0.88666055      -2.07002279       0.94363956
P       -1.77838800      -3.32692725       1.37385278
O       -1.85771967      -4.47045939       0.44000446
O       -1.13637672      -3.62055917       2.81431987
O       -3.20492822      -2.65734550       1.73649699
O        1.48145967       3.74527439       1.61387201
H        1.18413515       3.90619623      -0.02377799
H        2.45383829       2.30795449      -3.23268799
H       -0.11780974       0.26086072       0.43563935
H        1.78189195      -0.32506286      -0.27811487
H       -2.14891354      -1.02151567      -0.33447714
H       -1.04135629      -2.16293066      -1.13070108
H       -0.77319484      -4.51394247       2.83358053
H       -3.90524785      -3.13524266       1.27535123
H        1.88449378       2.86598262       1.47416341
H        2.20262859       4.30575839       1.92144393
26
Properties=species:S:1:pos:R:3 relative_energy_eV=0.019205663447792176 branch=left pbc="F F F"
O       -1.59105422       0.64419572      -2.11605778
C       -0.52171882       0.60173505      -1.58676003
O        0.45942049       1.48422248      -2.03352953
P        1.66106809       2.22349987      -1.21941736
O        2.14660482       1.55675460       0.02361069
O        1.14760776       3.70618591      -1.01020079
O        2.78597058       2.30473938      -2.34880483
C       -0.10526459      -0.34756850      -0.47403727
O        1.15939486      -0.89706913      -0.73722898
C       -1.13318816      -1.44517290      -0.31989450
O       -0.87367221      -2.08273366       0.94125354
P       -1.78185833      -3.32911552       1.36762621
O       -1.87480629      -4.47186804       0.43369671
O       -1.14359848      -3.62898300       2.80891715
O       -3.19956849      -2.63717086       1.72452915
O        1.47193868       3.73783838       1.61489120
H        1.17849447       3.91464824      -0.02790145
H        2.43286186       2.29338637      -3.24644054
H       -0.10219935       0.25180613       0.44624485
H        1.79923705      -0.31395046      -0.29589120
H       -2.13233497      -1.02030338      -0.32912557
H       -1.02989595      -2.16249565      -1.13254294
H       -0.83082990      -4.54054267       2.84614995
H       -3.91191371      -3.12929836       1.29887966
H        1.88008529       2.86226728       1.46222412
H        2.18863132       4.29454595       1.93930320
26
Properties=species:S:1:pos:R:3 relative_energy_eV=0.022411293881305028 branch=left pbc="F F F"
O       -1.59517273       0.65037916      -2.10366799
C       -0.52554219       0.61321143      -1.57472191
O        0.44824169       1.50286660      -2.02443494
P        1.66467284       2.23712635      -1.22918824
O        2.15759165       1.56734695       0.00857294
O        1.15760920       3.72081274      -1.01395083
O        2.78131806       2.31905684      -2.36721171
C       -0.09684764      -0.34279654      -0.46917990
O        1.16544111      -0.89027066      -0.75220224
C       -1.11977270      -1.44706066      -0.31611346
O       -0.87349859      -2.08081894       0.95146866
P       -1.78247128      -3.32870745       1.37146013
O       -1.88607240      -4.46822613       0.43495444
O       -1.12586485      -3.64643221       2.80065527
O       -3.20092252      -2.63832699       1.73594752
O        1.46872608       3.73507883       1.61091816
H        1.19111483       3.92586768      -0.03085638
H        2.43204341       2.27995495      -3.26514047
H       -0.08266145       0.25199817       0.45374930
H        1.81268581      -0.30583540      -0.32476686
H       -2.12169021      -1.03148618      -0.33824726
H       -1.00138451      -2.16661090      -1.12448876
H       -0.92974623      -4.58956431       2.86035840
H       -3.91476602      -3.13655552       1.31898678
H        1.87410115       2.85941114       1.45328621
H        2.18227891       4.27913439       1.96330563
26
Properties=species:S:1:pos:R:3 relative_energy_eV=0.02977913854556391 branch=left pbc="F F F"
O       -1.61488899       0.72026415      -2.00618559
C       -0.52204531       0.63626301      -1.53555274
O        0.47233480       1.48004775      -2.03304115
P        1.67831100       2.24456147      -1.24885561
O        2.19839135       1.58092207      -0.01730507
O        1.15393332       3.71849101      -1.01948942
O        2.77812599       2.35774676      -2.39928212
C       -0.08907752      -0.33671013      -0.44812691
O        1.17402519      -0.87875197      -0.73240081
C       -1.10747774      -1.44763770      -0.30799468
O       -0.85174855      -2.08048918       0.95912023
P       -1.77223502      -3.32537266       1.36159755
O       -1.89562308      -4.43237278       0.38851996
O       -1.11040734      -3.67239079       2.78109675
O       -3.18601873      -2.63561756       1.74662392
O        1.43593833       3.68606048       1.59378726
H        1.17992192       3.90257124      -0.02724971
H        2.41884614       2.27270549      -3.29051704
H       -0.08479068       0.23924319       0.48915735
H        1.81933697      -0.29384065      -0.30237706
H       -2.11346801      -1.04020143      -0.33343089
H       -0.98222821      -2.16547347      -1.11726791
H       -1.01743291      -4.62697931       2.88425779
H       -3.89165967      -3.10740000       1.28838308
H        1.87367873       2.83199998       1.39896147
H        2.13567015       4.24191340       1.95706456
26
Properties=species:S:1:pos:R:3 relative_energy_eV=0.06660601656039944 branch=left pbc="F F F"
O       -1.62283776       0.88502882      -1.78754070
C       -0.48871500       0.67304376      -1.46112625
O        0.53609492       1.40895740      -2.06084773
P        1.70880757       2.23683539      -1.28357517
O        2.24483433       1.57080757      -0.06223569
O        1.11294576       3.68598952      -1.04685229
O        2.78140865       2.39747456      -2.45042206
C       -0.03519169      -0.35926200      -0.43462817
O        1.20132258      -0.92698649      -0.76931384
C       -1.08649785      -1.43957102      -0.30119771
O       -0.82311173      -2.10731227       0.94329185
P       -1.75815241      -3.33951847       1.34493728
O       -1.90182432      -4.45038575       0.37941002
O       -1.05360973      -3.69950349       2.74105971
O       -3.15523307      -2.61198604       1.74588628
O        1.32263472       3.68824462       1.57712911
H        1.12502890       3.88184353      -0.05827408
H        2.41626131       2.28247863      -3.33479650
H        0.01448885       0.17682541       0.52299861
H        1.87559182      -0.38703823      -0.33101823
H       -2.07535297      -0.99248543      -0.29866132
H       -1.00455715      -2.14882942      -1.12280199
H       -1.11233909      -4.64731909       2.90268015
H       -3.88585086      -2.99584043       1.24132104
H        1.75889956       2.82342239       1.46221825
H        1.98436725       4.26463788       1.97185085
26
Properties=species:S:1:pos:R:3 relative_energy_eV=0.17880143525690073 branch=left pbc="F F F"
O       -1.42070646       1.32266767      -1.06745379
C       -0.33989872       0.81739538      -1.08200960
O        0.63553406       1.26416324      -1.98144934
P        1.81259422       2.27019291      -1.46045701
O        2.56809249       1.70114968      -0.30491266
O        1.11394518       3.67516665      -1.21867678
O        2.65481436       2.49984780      -2.79327129
C        0.11995340      -0.32082345      -0.17292276
O        1.34753867      -0.88122411      -0.54543485
C       -0.94725358      -1.40551534      -0.18932327
O       -0.76263204      -2.22931371       0.97120540
P       -1.84552058      -3.37652311       1.27070944
O       -2.06506379      -4.40451020       0.22876285
O       -1.27425228      -3.84963779       2.69336394
O       -3.19339795      -2.56411644       1.65495247
O        1.04086319       3.35204368       1.48369919
H        0.93441527       3.78182305      -0.24761352
H        2.20663887       2.22044492      -3.60020020
H        0.16440768       0.11384843       0.83649774
H        2.04043344      -0.24537236      -0.29795546
H       -1.94041007      -0.96348154      -0.17307058
H       -0.81553197      -1.99780351      -1.09633452
H       -1.26082108      -4.81426500       2.74241954
H       -3.89790122      -2.83255412       1.05117296
H        1.74661668       2.70307818       1.31447237
H        1.45696040       4.03286442       2.01332426
26
Properties=species:S:1:pos:R:3 relative_energy_eV=0.22102840013394598 branch=left pbc="F F F"
O       -1.33652300       1.40296741      -0.78561050
C       -0.28136178       0.85601141      -0.89625947
O        0.63228506       1.24037759      -1.89632886
P        1.82282227       2.30860547      -1.56158204
O        2.72403360       1.80199497      -0.48514149
O        1.11414949       3.69777934      -1.28119607
O        2.50939269       2.52963953      -2.98020281
C        0.18164984      -0.29193045      -0.00607791
O        1.45341375      -0.79234008      -0.30280536
C       -0.85757796      -1.39713753      -0.14558086
O       -0.79772182      -2.21667582       1.03120120
P       -1.90454219      -3.36404602       1.22322395
O       -2.07792973      -4.35444337       0.13844646
O       -1.43534985      -3.93219226       2.64864982
O       -3.23643219      -2.51605191       1.57413200
O        1.03895618       3.18108954       1.34000302
H        0.95416802       3.77324488      -0.30222942
H        2.01749269       2.13674456      -3.71275517
H        0.11170875       0.09975346       1.01930538
H        2.10304600      -0.07548883      -0.19711533
H       -1.84220489      -0.94496611      -0.24366211
H       -0.63060784      -1.99590116      -1.02708709
H       -1.30143293      -4.88637736       2.58833459
H       -3.95981869      -2.78828605       0.99604947
H        1.84527615       2.65379505       1.19734167
H        1.23252947       3.74337638       2.09644604
26
Properties=species:S:1:pos:R:3 relative_energy_eV=0.2600987402838655 branch=left pbc="F F F"
O       -1.33954876       1.44973490      -0.72108676
C       -0.28484067       0.90226852      -0.83680226
O        0.60437634       1.24402800      -1.86336793
P        1.82117459       2.31433244      -1.61874874
O        2.80759096       1.83819326      -0.60509169
O        1.11918581       3.70606354      -1.31498939
O        2.38115289       2.51532046      -3.09899253
C        0.18058332      -0.23729581       0.06221358
O        1.47048031      -0.71729925      -0.19097395
C       -0.79510807      -1.39470748      -0.11852119
O       -0.81503581      -2.16272210       1.09623330
P       -1.92454100      -3.31985171       1.18730440
O       -2.05098696      -4.23681760       0.03263487
O       -1.51404189      -3.96121336       2.59779426
O       -3.26539606      -2.48776126       1.53667289
O        1.11690902       3.12253655       1.32428659
H        0.98112494       3.77494643      -0.33670857
H        1.86385477       2.05492623      -3.77323209
H        0.07277468       0.14205867       1.08554962
H        2.10748189       0.00335266      -0.05806008
H       -1.79561283      -1.03618553      -0.34262308
H       -0.43696706      -2.01936293      -0.93275946
H       -1.30681642      -4.90025508       2.50741671
H       -3.99866575      -2.80716568       0.99601490
H        1.93255079       2.60950446       1.19684383
H        1.14774302       3.47291478       2.21849698
26
Properties=species:S:1:pos:R:3 relative_energy_eV=0.3121881527695223 branch=left pbc="F F F"
O       -1.36315851       1.40715614      -0.74402436
C       -0.28853299       0.89595629      -0.83515215
O        0.61333456       1.26693439      -1.83765813
P        1.83438301       2.34684107      -1.65295103
O        2.85361844       1.88930125      -0.67122048
O        1.15239760       3.75365100      -1.36715795
O        2.30778726       2.50470149      -3.16805941
C        0.17228199      -0.22979802       0.08257025
O        1.49202952      -0.65643957      -0.09523023
C       -0.76378852      -1.41265298      -0.14970739
O       -0.88455981      -2.10801734       1.10400714
P       -1.95776032      -3.29928400       1.20286829
O       -2.07664553      -4.21519794       0.04779170
O       -1.49342124      -3.94879223       2.59336896
O       -3.34073203      -2.54955820       1.57714427
O        1.20356732       3.06049932       1.38263077
H        0.97786428       3.83760998      -0.40316713
H        1.75125464       1.99644015      -3.77276335
H       -0.01990139       0.13067317       1.10238572
H        2.08851436       0.09403542       0.04320962
H       -1.74902196      -1.07630231      -0.46593908
H       -0.33612696      -2.06389484      -0.91269981
H       -1.31524503      -4.88739097       2.45884737
H       -4.02390029      -2.82894096       0.95474623
H        2.07103007       2.65803414       1.24317004
H        1.17415393       3.30397932       2.31249709
26
Properties=species:S:1:pos:R:3 relative_energy_eV=0.48718210068909684 branch=left pbc="F F F"
O       -1.27416579       1.41176978      -0.83804974
C       -0.20993525       0.86980164      -0.82809322
O        0.77491493       1.18361485      -1.75884380
P        1.84551794       2.40123218      -1.65087651
O        2.93378306       2.14656503      -0.67318036
O        1.01524173       3.74246267      -1.38993442
O        2.22687272       2.45709141      -3.19754843
C        0.20253436      -0.23396209       0.13589058
O        1.51842180      -0.70215497      -0.02358465
C       -0.76310819      -1.39344058      -0.09226007
O       -1.00400081      -2.04541709       1.17166436
P       -2.02303445      -3.29291608       1.17223278
O       -2.04206345      -4.13838070      -0.04212935
O       -1.62094706      -4.00677013       2.55788951
O       -3.42910274      -2.58215495       1.54019222
O        1.16907883       2.90621843       1.37353094
H        1.21456634       4.05407790      -0.48623697
H        1.53317118       2.00299170      -3.70551080
H        0.05000083       0.18666351       1.13796038
H        2.12522424       0.04808113       0.06537717
H       -1.70199390      -1.03941341      -0.50913919
H       -0.30938327      -2.08956590      -0.79647093
H       -1.26260272      -4.88735670       2.40675615
H       -4.16420860      -2.93869490       1.02613339
H        2.04099658       2.54059973       1.17164835
H        1.23364701       3.26860117       2.26209052
26
Properties=species:S:1:pos:R:3 relative_energy_eV=0.8207746946791303 branch=left pbc="F F F"
O       -1.19779692       1.36458013      -0.79998225
C       -0.10839456       0.89304393      -0.70892665
O        0.87572966       1.18669225      -1.63400499
P        1.88544346       2.45234165      -1.70437439
O        3.01268315       2.18653414      -0.78344984
O        1.13230240       3.83162619      -1.44712785
O        2.08390810       2.52825832      -3.28365940
C        0.26477554      -0.17865073       0.32174437
O        1.55216598      -0.73023744       0.25783410
C       -0.70800206      -1.31834484       0.06160831
O       -1.07635942      -2.00145258       1.27999116
P       -2.09016915      -3.24789801       1.11663853
O       -2.07999021      -3.99802164      -0.15720617
O       -1.72528700      -4.08082212       2.43894221
O       -3.52230535      -2.59606707       1.47182782
O        1.04217103       2.53883459       1.33679319
H        1.23768679       4.10993619      -0.51787295
H        1.37572315       2.08938791      -3.78844424
H        0.06757822       0.25860297       1.30302933
H        2.20294207      -0.06015269       0.08692022
H       -1.59880621      -0.92444875      -0.40211658
H       -0.19787819      -2.01449438      -0.58460505
H       -1.25492982      -4.88901712       2.19706177
H       -4.21676349      -3.09182864       1.02134663
H        1.92145952       2.30054100       0.99592639
H        1.20154138       3.26059888       1.95161658
26
Properties=species:S:1:pos:R:3 relative_energy_eV=2.027428601322754 branch=left pbc="F F F"
O       -1.08276558       1.55183836      -0.65320450
C       -0.02446684       1.02040056      -0.59319320
O        0.93486248       1.27663187      -1.54707830
P        1.93441132       2.49488908      -1.83169504
O        3.11453476       2.35640757      -0.99665363
O        1.09676885       3.78802196      -1.44633976
O        2.17581003       2.40299159      -3.39420979
C        0.39008489      -0.14817113       0.34931305
O        1.78502263      -0.49273300       0.22621120
C       -0.73499586      -1.23715593       0.09076029
O       -1.12649615      -1.94141465       1.31545902
P       -2.10931039      -3.21870714       1.11095646
O       -1.95171500      -3.85230540      -0.20551571
O       -1.85091939      -4.16550498       2.39487050
O       -3.57449011      -2.67327977       1.53094802
O        0.86420347       2.27080369       1.42788464
H        1.02243814       3.69881836      -0.46356234
H        1.43184942       2.12367693      -3.97664260
H        0.36724454       0.11403601       1.39395887
H        2.30040205       0.30664813       0.30859516
H       -1.65192924      -0.71061071      -0.19779493
H       -0.44859029      -1.98892040      -0.64425894
H       -1.33004092      -4.92754643       2.10334391
H       -4.21807331      -3.13181917       0.98184516
H        1.63791078       1.83253729       1.00801654
H        1.12768060       3.12000705       1.73750006
26
Properties=species:S:1:pos:R:3 relative_energy_eV=5.801429820952762 branch=left pbc="F F F"
O       -1.12029084       1.35191361      -0.84290966
C        0.00475079       0.93677514      -0.61535593
O        1.13181209       1.20879700      -1.35571141
P        1.93608958       2.68543579      -1.51203578
O        3.17762591       3.05494324      -0.78832116
O        0.77306140       3.78690075      -1.68750125
O        2.26829649       2.41030671      -3.07442985
C        0.21404104      -0.21796729       0.37900675
O        1.47978771      -0.81834326       0.21211712
C       -0.89184955      -1.21611302       0.08598066
O       -1.01594410      -2.08430584       1.21999401
P       -2.02504713      -3.32732324       1.17751337
O       -1.97536992      -4.20561960      -0.01184127
O       -1.66164950      -3.99394456       2.58255205
O       -3.46978670      -2.67604564       1.45092416
O        0.85832818       2.49435820       0.90053890
H        0.32350431       3.88575373      -0.80864368
H        1.72912333       3.05816716      -3.65599806
H        0.12059055       0.15181415       1.39834986
H        2.11583023      -0.19204202       0.61275443
H       -1.81358309      -0.67996089      -0.09692455
H       -0.65211772      -1.77306964      -0.82323137
H       -1.33262581      -4.89954824       2.45403305
H       -4.13225415      -2.96841102       0.79846965
H        2.26547265       0.96700932       0.91186429
H        1.77162850       2.93004988       1.11831433
26
Properties=species:S:1:pos:R:3 relative_energy_eV=6.5187127699828125 branch=left pbc="F F F"
O       -0.99657539       1.52257975      -0.71961327
C        0.04695438       0.93400754      -0.62314738
O        1.15779018       1.19059725      -1.36381349
P        1.76404279       2.72670613      -1.52854116
O        2.92880699       3.09082652      -0.64718913
O        0.54101984       3.69482573      -1.86631081
O        2.36256510       2.54663237      -3.00427216
C        0.20798046      -0.23684114       0.36041109
O        1.43183289      -0.89213928       0.26721427
C       -0.94367510      -1.20934801       0.09269506
O       -0.97682275      -2.12708309       1.19121647
P       -2.00895202      -3.35572369       1.15329901
O       -1.99286026      -4.22843351      -0.03947208
O       -1.63269289      -4.03923436       2.55145213
O       -3.42767248      -2.64314969       1.44085121
O        1.14300845       3.07631947       0.65970387
H        0.01493370       3.78776321      -1.05271909
H        1.83987240       2.99841394      -3.68286895
H        0.07987311       0.19893305       1.35993056
H        2.15928285      -0.27780601       0.68946099
H       -1.87599444      -0.65693079       0.02759036
H       -0.76102907      -1.73750041      -0.84285252
H       -1.36383412      -4.95693572       2.41675246
H       -4.05809680      -2.89025849       0.75235036
H        2.54768356       0.53431116       1.22200110
H        1.89198249       2.81899993       1.21538127
26
Properties=species:S:1:pos:R:3 relative_energy_eV=6.52913784183329 branch=left pbc="F F F"
O       -0.99145709       1.58083456      -0.60542868
C        0.03819116       0.96316273      -0.55859994
O        1.11111935       1.19074665      -1.36853743
P        1.72326386       2.71272947      -1.54093176
O        2.86507993       3.11088042      -0.63370000
O        0.50725787       3.67064892      -1.91722502
O        2.39320513       2.52444635      -2.97866809
C        0.23698473      -0.21350284       0.40092211
O        1.46189472      -0.85590565       0.26729505
C       -0.91619433      -1.18428488       0.12208927
O       -0.96126493      -2.12107141       1.20505713
P       -2.00598584      -3.33760298       1.11489641
O       -2.00104938      -4.15520782      -0.11664137
O       -1.63508317      -4.09084376       2.47872604
O       -3.41704160      -2.62390047       1.44072452
O        1.21148810       3.09099307       0.60234472
H       -0.07854638       3.76153023      -1.14547341
H        1.79604968       2.76148669      -3.70053568
H        0.11834227       0.20460724       1.40892165
H        2.20257453      -0.25705191       0.72534648
H       -1.85163764      -0.63408256       0.05551758
H       -0.71676379      -1.70007233      -0.81651685
H       -1.38482762      -5.00494821       2.29498815
H       -4.06475175      -2.86247075       0.76569505
H        2.54719066       0.53662789       1.30148727
H        1.89138774       2.80178222       1.22775775
26
Properties=species:S:1:pos:R:3 relative_energy_eV=6.531749836402014 branch=left pbc="F F F"
O       -0.98265448       1.59893183      -0.55913867
C        0.04186585       0.97252070      -0.53359957
O        1.10147001       1.19629134      -1.36632077
P        1.71403028       2.71584937      -1.54221436
O        2.84467702       3.13030359      -0.62791336
O        0.49879867       3.66746491      -1.93034569
O        2.40616648       2.52637201      -2.96854824
C        0.24808145      -0.21359988       0.41215739
O        1.47417571      -0.84530470       0.26512658
C       -0.90692148      -1.18198193       0.13088790
O       -0.96207922      -2.12617924       1.20782325
P       -2.01352426      -3.33573219       1.10220669
O       -2.01300326      -4.13479011      -0.14119344
O       -1.64813875      -4.11537602       2.45281399
O       -3.42113889      -2.62062077       1.43948590
O        1.21674454       3.08568648       0.60253343
H       -0.10225828       3.75973498      -1.17097697
H        1.79318514       2.63645160      -3.70798108
H        0.12987782       0.19265740       1.42449378
H        2.21277160      -0.23562484       0.72050853
H       -1.83737593      -0.62475644       0.07413868
H       -0.71579507      -1.69317532      -0.81179477
H       -1.38463336      -5.02257200       2.25320168
H       -4.07878754      -2.86384828       0.77559283
H        2.56370347       0.56086414       1.28612822
H        1.90018971       2.83996413       1.24243961
26
Properties=species:S:1:pos:R:3 relative_energy_eV=6.534505664043536 branch=left pbc="F F F"
O       -0.97997299       1.60455168      -0.54736349
C        0.04490072       0.97834356      -0.51799794
O        1.10776476       1.20276706      -1.34709353
P        1.71294921       2.72464852      -1.53755680
O        2.84307461       3.15961731      -0.63216027
O        0.49045085       3.66274948      -1.93249637
O        2.41180884       2.52998983      -2.95955050
C        0.24785974      -0.21169545       0.42464648
O        1.47184259      -0.84783703       0.27829291
C       -0.90958915      -1.17757467       0.13056240
O       -0.96312706      -2.13654440       1.19422953
P       -2.01885970      -3.34337052       1.09187325
O       -2.03048253      -4.14241847      -0.15200226
O       -1.64411515      -4.12235108       2.44093809
O       -3.42282507      -2.62536376       1.44115806
O        1.23602254       3.10578037       0.61433781
H       -0.13038813       3.74369296      -1.18862014
H        1.78989840       2.54811409      -3.69930264
H        0.12670971       0.19617502       1.43723507
H        2.21793407      -0.23090235       0.71896250
H       -1.84180505      -0.62208456       0.07760666
H       -0.71642719      -1.67403186      -0.82014356
H       -1.38647696      -5.03077066       2.23972746
H       -4.08114479      -2.85998496       0.77489108
H        2.58368883       0.58448740       1.24746153
H        1.91973661       2.85354301       1.25187662
26
Properties=species:S:1:pos:R:3 relative_energy_eV=6.542711746529676 branch=left pbc="F F F"
O       -0.97144557       1.60326796      -0.54206568
C        0.05323058       0.97540539      -0.50612884
O        1.12294744       1.20550976      -1.31511234
P        1.71544431       2.73479495      -1.52338947
O        2.84395277       3.19542954      -0.62985726
O        0.47920753       3.64816914      -1.93417160
O        2.41320114       2.51412877      -2.94449278
C        0.24404821      -0.21774982       0.42993970
O        1.46509358      -0.85960217       0.27568256
C       -0.91640668      -1.16926530       0.12473833
O       -0.96043723      -2.13525637       1.17532935
P       -2.01162052      -3.34048004       1.08388863
O       -2.03029205      -4.14160881      -0.15749866
O       -1.62069749      -4.11013380       2.43305497
O       -3.41038731      -2.61705459       1.43581832
O        1.23225900       3.11910355       0.62640000
H       -0.16230208       3.70973390      -1.20452223
H        1.78442615       2.50105688      -3.68079751
H        0.12900432       0.18223412       1.44683170
H        2.21110250      -0.23312903       0.69032026
H       -1.84766462      -0.61355782       0.07884129
H       -0.73447972      -1.65126198      -0.83447722
H       -1.39392207      -5.02797767       2.23794017
H       -4.07573873      -2.85132010       0.77718508
H        2.57099823       0.56668346       1.25208632
H        1.94990622       2.88241043       1.23396870
26
Properties=species:S:1:pos:R:3 relative_energy_eV=6.576648582042253 branch=left pbc="F F F"
O       -0.92259366       1.64202060      -0.50553122
C        0.09236306       0.99388599      -0.49404277
O        1.17947335       1.24878968      -1.27847192
P        1.71042767       2.79306282      -1.53762288
O        2.83936235       3.30530778      -0.66989824
O        0.44822681       3.66873346      -1.94060653
O        2.42669024       2.57503452      -2.95088882
C        0.26267684      -0.23775543       0.39421599
O        1.47256499      -0.88019663       0.20462352
C       -0.93281123      -1.15859883       0.12352963
O       -0.93126634      -2.16059870       1.14573082
P       -2.00147911      -3.35443885       1.07704338
O       -2.04373718      -4.17209526      -0.15424320
O       -1.60477476      -4.10695004       2.43378300
O       -3.39416186      -2.61772738       1.43546600
O        1.29836748       3.24165822       0.62432835
H       -0.26583490       3.57442608      -1.28602494
H        1.81593082       2.41143398      -3.68236851
H        0.18363713       0.12161917       1.42819741
H        2.19863748      -0.28000814       0.72714728
H       -1.84687548      -0.57162439       0.17000417
H       -0.83761903      -1.60835164      -0.86591419
H       -1.42248290      -5.03843078       2.25913680
H       -4.04853096      -2.83361714       0.75900443
H        2.45798709       0.48794346       1.39945034
H        1.94525051       2.82600782       1.21346302
26
Properties=species:S:1:pos:R:3 relative_energy_eV=6.668170272401767 branch=left pbc="F F F"
O       -0.90908774       1.63508365      -0.48924729
C        0.10662790       0.99141254      -0.47036436
O        1.19838528       1.26859210      -1.25144197
P        1.67242096       2.83077484      -1.54246390
O        2.78567662       3.43147114      -0.69541376
O        0.38604083       3.64397486      -2.00836750
O        2.45297685       2.66203302      -2.92702418
C        0.26248008      -0.25747603       0.37631756
O        1.48746655      -0.88399615       0.18866804
C       -0.94104115      -1.16569284       0.13002222
O       -0.89100190      -2.19720238       1.12232403
P       -1.98809149      -3.36847427       1.06661654
O       -2.03820647      -4.21271718      -0.14534874
O       -1.63970274      -4.11508458       2.43927738
O       -3.36493742      -2.59737289       1.41078436
O        1.38477650       3.22575027       0.63259539
H       -0.36131191       3.63820779      -1.38634385
H        1.87609748       2.39437315      -3.65111433
H        0.19996946       0.11312040       1.40961241
H        2.15619843      -0.35496735       0.82721038
H       -1.85108399      -0.58310891       0.23461408
H       -0.92289787      -1.59546231      -0.86947749
H       -1.43751827      -5.04304087       2.26747350
H       -4.03476871      -2.82134486       0.75360006
H        2.38915405       0.45596638       1.49599604
H        2.10080764       2.77470922       1.11100535
26
Properties=species:S:1:pos:R:3 relative_energy_eV=6.998651714922744 branch=left pbc="F F F"
O       -0.92071999       1.65484251      -0.52130148
C        0.08375653       0.99327047      -0.47314379
O        1.21503659       1.30957651      -1.19321985
P        1.66195090       2.83952076      -1.57703600
O        2.76991845       3.50572560      -0.75906889
O        0.38583084       3.67231289      -2.01417836
O        2.44216315       2.60206775      -2.95053745
C        0.25668664      -0.27948814       0.35582401
O        1.46206372      -0.94146606       0.13377803
C       -0.95744148      -1.17652023       0.11050796
O       -0.90423927      -2.20780096       1.11297909
P       -1.99754948      -3.37401425       1.07009671
O       -2.05227789      -4.21647711      -0.14363902
O       -1.65337085      -4.13063071       2.44114925
O       -3.37056164      -2.58989587       1.40888512
O        1.40401120       3.40312030       0.54882151
H       -0.34819970       3.67572526      -1.37560214
H        1.86485878       2.40153418      -3.69542036
H        0.20397043       0.08554528       1.39447843
H        2.14904712      -0.49713430       0.77409228
H       -1.87936724      -0.60553734       0.22385391
H       -0.92163817      -1.62851087      -0.88102628
H       -1.42853782      -5.05295656       2.26502161
H       -4.04403756      -2.82443968       0.75918979
H        2.67641042       0.32023181       1.84348799
H        1.98166576       2.93092725       1.17151387
26
Properties=species:S:1:pos:R:3 relative_energy_eV=7.014991548494436 branch=left pbc="F F F"
O       -0.89236712       1.64535382      -0.46068080
C        0.10808729       0.97609140      -0.46500183
O        1.20133147       1.27811927      -1.23172842
P        1.68839383       2.80578479      -1.56406662
O        2.78254944       3.36942378      -0.67023121
O        0.42354714       3.64088739      -2.03394995
O        2.43463647       2.55549907      -2.95097866
C        0.28147653      -0.30525743       0.34164673
O        1.44766108      -1.01653204       0.04797600
C       -0.94538761      -1.17182175       0.10652233
O       -0.95120716      -2.16488216       1.14362777
P       -2.02225428      -3.35033207       1.08154850
O       -2.07775053      -4.16269646      -0.15286717
O       -1.63098164      -4.12567889       2.42881066
O       -3.41074185      -2.61260813       1.45383066
O        1.28031036       3.46609751       0.52926519
H       -0.25169426       3.68896589      -1.33558522
H        1.83295378       2.45088340      -3.70037431
H        0.31338557       0.02166790       1.39036235
H        2.13987739      -0.63662540       0.65109408
H       -1.85341664      -0.57611311       0.15973686
H       -0.86560799      -1.64879087      -0.87051979
H       -1.40386181      -5.04230953       2.22991991
H       -4.08303993      -2.84785655       0.80246810
H        2.68383530       0.51319566       1.86677918
H        1.84969438       3.11906443       1.23189833
26
Properties=species:S:1:pos:R:3 relative_energy_eV=7.015998067006876 branch=ts pbc="F F F"
O       -0.88994362       1.64580338      -0.46017129
C        0.10923086       0.97452793      -0.46800413
O        1.20271641       1.27745928      -1.23332508
P        1.69044268       2.80494905      -1.56349289
O        2.78853189       3.36236113      -0.67084332
O        0.42386563       3.64023572      -2.02844016
O        2.42944787       2.55448531      -2.95463072
C        0.27929211      -0.30574553       0.33745173
O        1.44681762      -1.01918830       0.05028485
C       -0.94629216      -1.17357351       0.10249642
O       -0.95434565      -2.16319085       1.14293340
P       -2.02411994      -3.35037739       1.08206524
O       -2.08023986      -4.16222899      -0.15266868
O       -1.62906990      -4.12558048       2.42834289
O       -3.41343650      -2.61531162       1.45621599
O        1.28211647       3.47510909       0.52953306
H       -0.25079814       3.68480892      -1.32912365
H        1.82557047       2.45351055      -3.70287017
H        0.30871056       0.02643663       1.38492296
H        2.13462583      -0.61946140       0.63902842
H       -1.85498227      -0.57841021       0.15086901
H       -0.86526134      -1.65468267      -0.87252444
H       -1.40327384      -5.04262996       2.22991734
H       -4.08466273      -2.84744180       0.80259906
H        2.62135575       0.62735109       1.86822965
H        1.85370898       3.13076185       1.23120868
26
Properties=species:S:1:pos:R:3 relative_energy_eV=7.011783298527007 branch=right pbc="F F F"
O       -0.88895496       1.64735224      -0.46396173
C        0.11026757       0.97547697      -0.47165158
O        1.20519618       1.27699489      -1.23451886
P        1.69424511       2.80659552      -1.56294242
O        2.79294347       3.38267577      -0.68393605
O        0.42494668       3.64102304      -2.02154254
O        2.42453434       2.55243345      -2.95852487
C        0.27537871      -0.30503639       0.33409878
O        1.45129005      -1.01406622       0.06396319
C       -0.94696593      -1.17630709       0.09884307
O       -0.95261460      -2.16575393       1.14006056
P       -2.02389436      -3.35190376       1.08167448
O       -2.08077109      -4.16672361      -0.15152126
O       -1.63059059      -4.12509272       2.42917977
O       -3.41123756      -2.61395953       1.45467241
O        1.28411024       3.44046527       0.54104320
H       -0.25200197       3.68263627      -1.32448298
H        1.81700339       2.45572697      -3.70426759
H        0.29574667       0.03040096       1.38112458
H        2.12985960      -0.58589185       0.64268015
H       -1.85678684      -0.58269123       0.14819312
H       -0.86797998      -1.65883646      -0.87553753
H       -1.40442851      -5.04216124       2.23090872
H       -4.08350762      -2.84614477       0.80224494
H        2.52364891       0.74356933       1.84618954
H        1.89114837       3.12964253       1.22851654
26
Properties=species:S:1:pos:R:3 relative_energy_eV=7.009105203476793 branch=right pbc="F F F"
O       -0.88718474       1.64553763      -0.47318366
C        0.11181124       0.97301357      -0.47478634
O        1.20890990       1.27478171      -1.23446268
P        1.69075687       2.80623080      -1.56503668
O        2.78852877       3.39015225      -0.69294025
O        0.42145159       3.64402013      -2.01904756
O        2.42059397       2.55483977      -2.96219342
C        0.27129594      -0.30510693       0.33453300
O        1.44904946      -1.01400843       0.07442594
C       -0.94731908      -1.17973829       0.09465751
O       -0.94871413      -2.17132299       1.13365185
P       -2.02308702      -3.35463649       1.08032412
O       -2.08167523      -4.17356540      -0.14954718
O       -1.63152253      -4.12471496       2.43046974
O       -3.40819268      -2.61056736       1.45056361
O        1.29716278       3.41480857       0.56228852
H       -0.25365662       3.68026736      -1.32017784
H        1.81047020       2.45665903      -3.70518098
H        0.27890507       0.03455394       1.38018557
H        2.12329105      -0.57847537       0.65106540
H       -1.85816182      -0.58828705       0.14676332
H       -0.86747318      -1.65800591      -0.88196599
H       -1.40578391      -5.04247644       2.23464477
H       -4.08249277      -2.84494433       0.80093838
H        2.50840812       0.78130289       1.84416814
H        1.93521413       3.12010679       1.23034830
26
Properties=species:S:1:pos:R:3 relative_energy_eV=7.007415481748467 branch=right pbc="F F F"
O       -0.89110318       1.64036097      -0.48040188
C        0.11041427       0.97140384      -0.47670505
O        1.20944304       1.27591785      -1.23362812
P        1.69221464       2.80580623      -1.56031327
O        2.80356235       3.38381600      -0.69899647
O        0.42176823       3.64782629      -2.00006496
O        2.41150784       2.56014313      -2.96414821
C        0.26872632      -0.30368804       0.33633496
O        1.45110455      -1.00892062       0.08927749
C       -0.94745222      -1.18261514       0.08907619
O       -0.94834282      -2.17615128       1.12519436
P       -2.02353432      -3.35840265       1.07661291
O       -2.08677392      -4.18314716      -0.14927663
O       -1.63118248      -4.12229599       2.42965699
O       -3.40717440      -2.61197391       1.44784136
O        1.32177207       3.41779388       0.55986915
H       -0.26429165       3.67061178      -1.31158967
H        1.79691565       2.45743203      -3.70288808
H        0.26792027       0.03955374       1.38058703
H        2.12008306      -0.56700368       0.66717209
H       -1.86303276      -0.59687304       0.13680111
H       -0.86284335      -1.66083490      -0.88704311
H       -1.40846537      -5.04196769       2.24044757
H       -4.08168888      -2.84418215       0.79777531
H        2.49752276       0.81061957       1.84131302
H        1.96351580       3.10719561       1.21760158
26
Properties=species:S:1:pos:R:3 relative_energy_eV=7.0064144884599955 branch=right pbc="F F F"
O       -0.89362988       1.64152846      -0.48359101
C        0.10825675       0.97253097      -0.47820708
O        1.21041553       1.27921059      -1.23023832
P        1.69443265       2.80845173      -1.56159974
O        2.81393410       3.38148671      -0.70733471
O        0.42115455       3.65137262      -1.98985228
O        2.40039799       2.56323397      -2.97261472
C        0.26518942      -0.30165591       0.33905060
O        1.45175401      -1.00287285       0.10391993
C       -0.94371688      -1.18730493       0.08377584
O       -0.94782975      -2.18103767       1.11956583
P       -2.02503320      -3.36172930       1.07539867
O       -2.08998958      -4.18943640      -0.14832790
O       -1.63125751      -4.12159960       2.43065356
O       -3.40824741      -2.61269067       1.44400289
O        1.34232999       3.42837002       0.56209504
H       -0.26185742       3.65635756      -1.29796125
H        1.77926031       2.45728671      -3.70580707
H        0.25225740       0.04343351       1.38253608
H        2.11631601      -0.55398596       0.68175462
H       -1.85960354      -0.60253180       0.12720841
H       -0.84977692      -1.66282369      -0.89299256
H       -1.41139129      -5.04272988       2.24428690
H       -4.08273116      -2.84500976       0.79365274
H        2.48561279       0.82275768       1.84477472
H        1.98433863       3.08981269       1.20635650
26
Properties=species:S:1:pos:R:3 relative_energy_eV=7.005415059553343 branch=right pbc="F F F"
O       -0.88867794       1.64945248      -0.47747145
C        0.11027504       0.97583215      -0.47454728
O        1.21579195       1.27751214      -1.22534279
P        1.69274680       2.80760533      -1.56709651
O        2.82386089       3.37860683      -0.72531916
O        0.41399999       3.65253373      -1.97656855
O        2.38063036       2.55931555      -2.98685982
C        0.26153855      -0.29587850       0.34596980
O        1.45438533      -0.99052590       0.12216019
C       -0.93904622      -1.19078378       0.07487269
O       -0.94815614      -2.18247401       1.11249712
P       -2.02495785      -3.36324122       1.07047180
O       -2.09055761      -4.19719617      -0.14913103
O       -1.63600599      -4.11809472       2.42972906
O       -3.40691196      -2.61130413       1.43627786
O        1.37226268       3.43090536       0.56008353
H       -0.25874648       3.65269921      -1.27395167
H        1.74981144       2.45733526      -3.71241054
H        0.23243871       0.05134399       1.38896014
H        2.11419745      -0.53861688       0.70304838
H       -1.86279449      -0.61592978       0.10129960
H       -0.82536146      -1.66968913      -0.89817478
H       -1.41832666      -5.04012276       2.24625624
H       -4.08224755      -2.84958324       0.78936254
H        2.47307482       0.84612885       1.86482222
H        2.00736203       3.05459447       1.19156818
26
Properties=species:S:1:pos:R:3 relative_energy_eV=6.988240744853101 branch=right pbc="F F F"
O       -0.87095121       1.70285052      -0.39873279
C        0.11158107       1.00525306      -0.41907371
O        1.20279576       1.26602338      -1.21380367
P        1.67176850       2.79315696      -1.60188073
O        2.88256174       3.33463321      -0.84724438
O        0.39112469       3.67490784      -1.89863515
O        2.24880955       2.54470226      -3.06422129
C        0.25191797      -0.27439012       0.38993328
O        1.48015001      -0.93121864       0.26000722
C       -0.88341284      -1.21389715       0.02095028
O       -0.95340677      -2.17766384       1.08377158
P       -2.02938297      -3.35816274       1.04494171
O       -2.07497298      -4.21668062      -0.15780851
O       -1.65136201      -4.09632489       2.41901654
O       -3.41636965      -2.59143655       1.36914431
O        1.56387704       3.42002844       0.51845865
H       -0.22104672       3.67082619      -1.14187810
H        1.56229296       2.45976369      -3.73766982
H        0.13076904       0.06162370       1.42324770
H        2.08652684      -0.42398789       0.85936492
H       -1.82923397      -0.69003783      -0.06454690
H       -0.65220168      -1.70573198      -0.92187925
H       -1.46019547      -5.02836847       2.25540465
H       -4.10385273      -2.88340267       0.75786422
H        2.40435846       0.99221970       1.96678580
H        2.07844205       2.79574162       1.06899028
26
Properties=species:S:1:pos:R:3 relative_energy_eV=6.950980090427038 branch=right pbc="F F F"
O       -0.86772394       1.70489765      -0.31461344
C        0.10945037       1.00699153      -0.38653225
O        1.14674927       1.26741490      -1.25692851
P        1.65344039       2.78209779      -1.62097117
O        2.87064318       3.28790749      -0.84252657
O        0.39667043       3.69875442      -1.92270111
O        2.23854991       2.54093036      -3.08230090
C        0.27018927      -0.27499786       0.41812111
O        1.51587398      -0.89566908       0.28504725
C       -0.85870067      -1.21850943       0.02693079
O       -0.96124078      -2.16301828       1.10192264
P       -2.02920231      -3.34755071       1.03092265
O       -2.05479772      -4.19333489      -0.18218735
O       -1.66726928      -4.08309873       2.40865803
O       -3.41714831      -2.58649573       1.35106092
O        1.56155548       3.36538757       0.50465042
H       -0.19802619       3.75324596      -1.15631742
H        1.54868023       2.45758254      -3.75415825
H        0.10945259       0.03591246       1.45606301
H        2.11373599      -0.39379839       0.90418653
H       -1.79037342      -0.66284432      -0.07422688
H       -0.60648774      -1.73373287      -0.90048886
H       -1.46980347      -5.01196630       2.24115661
H       -4.10862009      -2.89646330       0.75480538
H        2.40768889       1.02329344       1.91366612
H        2.00730106       2.66749133       1.06726871
26
Properties=species:S:1:pos:R:3 relative_energy_eV=6.580123694649956 branch=right pbc="F F F"
O       -0.88087048       1.73455430      -0.26443750
C        0.08825902       1.02746403      -0.36632549
O        1.08943103       1.25921347      -1.30302843
P        1.62767358       2.76928743      -1.63943012
O        2.89287166       3.23070276      -0.88647494
O        0.40662628       3.75357487      -1.87271235
O        2.17667626       2.57155767      -3.11057062
C        0.29190294      -0.24468408       0.47692826
O        1.57417292      -0.75532043       0.47239112
C       -0.80024223      -1.24558959       0.02376376
O       -0.94963366      -2.19120867       1.08736522
P       -2.04159520      -3.36259068       1.01567621
O       -2.06084704      -4.21387545      -0.19332963
O       -1.70921374      -4.09331826       2.40381316
O       -3.42732483      -2.58669079       1.31163271
O        1.66200681       3.23332691       0.52819511
H       -0.19278824       3.78171640      -1.10889172
H        1.48515917       2.45709027      -3.77389362
H        0.00089474       0.05582368       1.49456502
H        2.15206175      -0.04335222       1.13872072
H       -1.73229141      -0.70539440      -0.12086510
H       -0.52883533      -1.74175476      -0.90933266
H       -1.48580785      -5.02050414       2.25641295
H       -4.11307704      -2.90253824       0.70989964
H        2.28231926       0.91564676       1.63889259
H        2.11305997       2.44729213       0.96154350
26
Properties=species:S:1:pos:R:3 relative_energy_eV=6.401260791928507 branch=right pbc="F F F"
O       -0.87372483       1.72567948      -0.23946063
C        0.08527783       1.01336686      -0.35977456
O        1.05495435       1.24229896      -1.32228909
P        1.61882659       2.75225092      -1.62595503
O        2.88729292       3.16436503      -0.87221656
O        0.39654808       3.73996515      -1.87163434
O        2.17839184       2.58343111      -3.11368532
C        0.27996098      -0.24701847       0.49302750
O        1.53263970      -0.76311770       0.51191231
C       -0.79443598      -1.25101754       0.02939678
O       -0.93850701      -2.20842390       1.07969539
P       -2.03439820      -3.36983106       1.00375513
O       -2.05648825      -4.21756470      -0.20739574
O       -1.72663763      -4.09551193       2.40124165
O       -3.41484270      -2.58245600       1.30057250
O        1.67566238       3.15557365       0.59154913
H       -0.21330335       3.81979542      -1.12094675
H        1.49976429       2.45801735      -3.79329365
H       -0.06857059       0.08467401       1.48940829
H        2.12467890       0.14621682       1.17050784
H       -1.72651289      -0.70513641      -0.10396590
H       -0.48643855      -1.74644353      -0.88996555
H       -1.48821318      -5.01839465       2.25480491
H       -4.10073603      -2.88873719       0.69595983
H        2.34596883       0.95263434       1.47575513
H        2.16343117       2.38581296       0.99350453
26
Properties=species:S:1:pos:R:3 relative_energy_eV=6.297550035145832 branch=right pbc="F F F"
O       -0.87984018       1.75089081      -0.26517807
C        0.07083052       1.02579903      -0.37868045
O        1.07158768       1.23630669      -1.31227854
P        1.62439787       2.74759376      -1.62574631
O        2.87138256       3.17565139      -0.85661140
O        0.39931868       3.72245510      -1.88143719
O        2.20102085       2.56801550      -3.10244567
C        0.25860161      -0.24088285       0.48583304
O        1.46945890      -0.79433150       0.48186319
C       -0.82569527      -1.24505585       0.03754166
O       -0.93085324      -2.20881944       1.08925769
P       -2.03222474      -3.37222615       1.01154405
O       -2.05681347      -4.21915122      -0.20037974
O       -1.72972456      -4.11152600       2.40152913
O       -3.40753468      -2.58255630       1.31187759
O        1.59702779       3.14114472       0.57922380
H       -0.20426389       3.78478810      -1.12159076
H        1.52506380       2.46051884      -3.78524897
H       -0.05178224       0.10430737       1.48750129
H        2.23869461       0.19257695       1.15214720
H       -1.77147423      -0.72745891      -0.09955670
H       -0.52144405      -1.73009506      -0.88875639
H       -1.47954483      -5.03007618       2.24639603
H       -4.08744714      -2.87189331       0.69149216
H        2.40226512       0.86713672       1.49109859
H        2.16958075       2.48731640       1.02111196
26
Properties=species:S:1:pos:R:3 relative_energy_eV=6.273750189349812 branch=right pbc="F F F"
O       -0.91827180       1.74611220      -0.26370441
C        0.04295152       1.03633411      -0.37016255
O        1.00747332       1.21439261      -1.35779954
P        1.60721584       2.70859131      -1.63031935
O        2.82098275       3.12063634      -0.80308059
O        0.41173964       3.71265171      -1.91550877
O        2.21443903       2.53774397      -3.09250696
C        0.27248102      -0.22509317       0.49414515
O        1.49075191      -0.75806631       0.45353243
C       -0.82497237      -1.22765879       0.05172850
O       -0.92898903      -2.18629636       1.10845786
P       -2.02295762      -3.35413905       1.01294807
O       -2.02177138      -4.18761708      -0.20780153
O       -1.71578497      -4.11216353       2.39246566
O       -3.40483125      -2.56816472       1.30067253
O        1.50568608       3.00853627       0.59091620
H       -0.18949287       3.82205777      -1.16004921
H        1.54476821       2.46854035      -3.78666489
H       -0.03167739       0.10229788       1.50567788
H        2.25041503       0.23070314       1.13187925
H       -1.77557433      -0.71097941      -0.06918539
H       -0.52438099      -1.70939841      -0.87982018
H       -1.47394512      -5.03129914       2.22135815
H       -4.08841797      -2.85024648       0.67935411
H        2.48779799       0.85576615       1.51436491
H        2.18495310       2.48718687       1.04960962
26
Properties=species:S:1:pos:R:3 relative_energy_eV=6.230060118956317 branch=right pbc="F F F"
O       -1.05368020       1.72843554      -0.34096901
C       -0.05821419       1.06246186      -0.40413375
O        0.85209808       1.19918308      -1.46821451
P        1.58635650       2.63762460      -1.64781939
O        2.77440919       2.99666715      -0.77690103
O        0.44528792       3.71085715      -1.91057822
O        2.22883116       2.47486651      -3.09359713
C        0.27466688      -0.15176527       0.51027908
O        1.50037360      -0.65847789       0.42035144
C       -0.80742983      -1.18051667       0.08928011
O       -0.89973487      -2.16361269       1.12074020
P       -1.99234501      -3.33420641       0.99690853
O       -1.99047329      -4.15889174      -0.23078998
O       -1.69673688      -4.10409946       2.36872196
O       -3.38389043      -2.57568851       1.30518512
O        1.44783138       2.75875703       0.61351818
H       -0.19529564       3.76513801      -1.18216290
H        1.55577956       2.49267718      -3.78751063
H        0.00517332       0.19684300       1.52645885
H        2.31564792       0.25029710       1.15796288
H       -1.75786033      -0.66264956      -0.03132899
H       -0.51825766      -1.65678235      -0.84651173
H       -1.47230189      -5.02366812       2.18499949
H       -4.04708607      -2.80118387       0.64123013
H        2.60169314       0.82076784       1.59125929
H        2.20574599       2.50739396       1.16412855
26
Properties=species:S:1:pos:R:3 relative_energy_eV=6.192525559577916 branch=right pbc="F F F"
O       -1.08609158       1.71852281      -0.37533541
C       -0.08194558       1.06605398      -0.44349600
O        0.81727902       1.19033657      -1.52123078
P        1.57199343       2.62243200      -1.66532495
O        2.77284805       2.91878826      -0.79023927
O        0.45566431       3.73683757      -1.86041048
O        2.19576382       2.48506054      -3.12185222
C        0.26398331      -0.10674566       0.49575428
O        1.49300225      -0.59974771       0.39988287
C       -0.80515602      -1.15722372       0.10374908
O       -0.87934750      -2.14768063       1.13227307
P       -1.97040423      -3.32058939       0.99953049
O       -1.97505964      -4.13001855      -0.23831955
O       -1.67891459      -4.11046614       2.36258552
O       -3.36386171      -2.55675043       1.29602645
O        1.47352104       2.60944564       0.61545310
H       -0.22719528       3.73298913      -1.16961955
H        1.54145535       2.50177278      -3.83325110
H       -0.00220368       0.28417168       1.49332086
H        2.28812494       0.20355419       1.27835590
H       -1.77173351      -0.67846282      -0.02154399
H       -0.49028826      -1.61206426      -0.83174671
H       -1.46544279      -5.03598332       2.18850857
H       -4.00893766      -2.79095570       0.61685843
H        2.60024726       0.77573109       1.67579533
H        2.25328770       2.53141943       1.18478233
26
Properties=species:S:1:pos:R:3 relative_energy_eV=6.151913895882899 branch=right pbc="F F F"
O       -1.09039530       1.75753117      -0.41607818
C       -0.10506186       1.07594081      -0.48111018
O        0.79033073       1.18952238      -1.56834763
P        1.58268997       2.61291260      -1.67278344
O        2.80692187       2.82015845      -0.79188014
O        0.47661433       3.74596168      -1.84030863
O        2.21384789       2.55627437      -3.13517635
C        0.23998055      -0.09436589       0.46336049
O        1.46907922      -0.58932046       0.34846869
C       -0.83408122      -1.14967466       0.10936542
O       -0.86358513      -2.13003862       1.15359990
P       -1.94484883      -3.30810963       1.02273971
O       -1.93601550      -4.08090368      -0.23825060
O       -1.64451751      -4.11663406       2.37669384
O       -3.34444365      -2.55491883       1.31604597
O        1.45412847       2.58371959       0.57561178
H       -0.23600446       3.69659462      -1.17978893
H        1.55487600       2.50656663      -3.84242457
H        0.01278224       0.30228181       1.46910537
H        2.27108383       0.15980096       1.29189762
H       -1.80949056      -0.67413787       0.02100614
H       -0.54083617      -1.63823921      -0.81833011
H       -1.44500477      -5.03893788       2.16782969
H       -3.97420763      -2.77643783       0.61739554
H        2.62039835       0.58069897       1.82588430
H        2.19634727       2.69418123       1.19597972
26
Properties=species:S:1:pos:R:3 relative_energy_eV=6.051747474739386 branch=right pbc="F F F"
O       -1.07655165       1.79860130      -0.45368873
C       -0.11691275       1.08194181      -0.54532635
O        0.77078226       1.21367558      -1.63707009
P        1.59146902       2.62379065      -1.69441629
O        2.84903048       2.72434004      -0.83203867
O        0.51039577       3.78199362      -1.78842016
O        2.21085971       2.63961517      -3.16398738
C        0.22618341      -0.07944281       0.40603367
O        1.46854021      -0.53821696       0.29712789
C       -0.85240420      -1.14576461       0.11520849
O       -0.84409412      -2.09458378       1.20044984
P       -1.90726272      -3.28787383       1.04626360
O       -1.88737877      -4.04550144      -0.22363491
O       -1.60340774      -4.12142086       2.37957264
O       -3.31988498      -2.56601986       1.35303549
O        1.48732098       2.57175541       0.52255467
H       -0.23260538       3.66183749      -1.17207838
H        1.55895606       2.51097638      -3.86554563
H       -0.01105894       0.32645293       1.40561736
H        2.21430729       0.05020294       1.38872933
H       -1.83341111      -0.67773502       0.05369007
H       -0.62196484      -1.65295156      -0.82102180
H       -1.41288078      -5.04169142       2.15910303
H       -3.92999052      -2.77064933       0.63201576
H        2.54526799       0.27705530       2.02614207
H        2.13728291       2.89003899       1.18218766
26
Properties=species:S:1:pos:R:3 relative_energy_eV=5.97809550115926 branch=right pbc="F F F"
O       -1.07516115       1.79393383      -0.47246647
C       -0.09575132       1.10614920      -0.56442515
O        0.79126848       1.24496333      -1.64799467
P        1.60013195       2.66440284      -1.72338006
O        2.85199183       2.82237909      -0.86780160
O        0.50903506       3.82050592      -1.82418854
O        2.19724151       2.58351544      -3.20020674
C        0.23877628      -0.05655054       0.37599883
O        1.48720495      -0.48305494       0.26149898
C       -0.84625205      -1.12351754       0.09235135
O       -0.83113764      -2.07272774       1.17568087
P       -1.88360938      -3.28040175       1.05505877
O       -1.85186258      -4.05742099      -0.20277534
O       -1.55319031      -4.10056608       2.39063419
O       -3.30829065      -2.58950604       1.39018726
O        1.50423035       2.55677564       0.51918352
H       -0.17506492       3.71121934      -1.13588403
H        1.53425140       2.51595659      -3.89992680
H        0.00722449       0.34909042       1.37674511
H        2.09674197      -0.15227576       1.50982703
H       -1.81113260      -0.62155542       0.05272684
H       -0.64522160      -1.64693262      -0.84083452
H       -1.37546135      -5.02226153       2.16399808
H       -3.92768838      -2.78487214       0.67507578
H        2.35765284      -0.07188717       2.19644576
H        2.12465959       3.02506495       1.11497187
26
Properties=species:S:1:pos:R:3 relative_energy_eV=5.927441843428824 branch=right pbc="F F F"
O       -1.06024515       1.77790046      -0.47799744
C       -0.07084604       1.10568995      -0.56958680
O        0.83381644       1.27006430      -1.60822155
P        1.61988176       2.69597532      -1.70789693
O        2.85707999       2.89366145      -0.84036249
O        0.51170427       3.81574932      -1.94770346
O        2.25590294       2.59621732      -3.16728652
C        0.26868915      -0.08741914       0.33890615
O        1.49042556      -0.59259989       0.19052897
C       -0.87694805      -1.08959250       0.09430994
O       -0.85503203      -2.04494648       1.16200293
P       -1.86501282      -3.28513995       1.06379136
O       -1.86554822      -4.06410091      -0.19322629
O       -1.47043194      -4.06806384       2.40807432
O       -3.28290223      -2.61822943       1.44328365
O        1.42838613       2.72654569       0.51078543
H       -0.13669753       3.88098662      -1.21931219
H        1.62395774       2.51211511      -3.89254853
H        0.11560512       0.30649037       1.35302773
H        2.02685628      -0.49656067       1.52271948
H       -1.82723433      -0.56817673       0.09356328
H       -0.74438444      -1.58193396      -0.86910536
H       -1.28994111      -4.99197076       2.19959441
H       -3.93725994      -2.81114023       0.76164012
H        2.19963541      -0.45370002       2.23324506
H        1.97112886       3.30260442       1.08827271
26
Properties=species:S:1:pos:R:3 relative_energy_eV=5.880572709211265 branch=right pbc="F F F"
O       -0.98543711       1.79845380      -0.53769338
C       -0.00643329       1.10484073      -0.59613938
O        0.97083368       1.29517136      -1.55205983
P        1.66441449       2.76775923      -1.71423029
O        2.88467164       3.05833104      -0.85465337
O        0.50906820       3.82428177      -1.97725948
O        2.28173800       2.63460263      -3.17803458
C        0.25146913      -0.10875608       0.31454969
O        1.45201925      -0.65635771       0.18762526
C       -0.91549348      -1.08928105       0.06228487
O       -0.82448746      -2.07215722       1.10028991
P       -1.85649747      -3.29737382       1.08423121
O       -1.89893566      -4.11887116      -0.14382229
O       -1.40657293      -4.04707352       2.42862239
O       -3.27103739      -2.62677745       1.49341169
O        1.45920509       2.91849910       0.49098481
H       -0.08876197       3.91188040      -1.21338343
H        1.62516104       2.51091450      -3.87629649
H        0.09353426       0.28329101       1.33111681
H        1.85588895      -0.77751535       1.55711507
H       -1.86415311      -0.56067861       0.11755869
H       -0.81185679      -1.56512570      -0.91274969
H       -1.21372758      -4.97512459       2.25236949
H       -3.93514012      -2.85622213       0.83035209
H        1.96147937      -0.79071996       2.28250156
H        1.98963633       3.56443469       0.99380419
26
Properties=species:S:1:pos:R:3 relative_energy_eV=5.864288743396173 branch=right pbc="F F F"
O       -1.00900755       1.81067358      -0.53585548
C       -0.02850510       1.12078643      -0.59042626
O        0.92980978       1.28714535      -1.58068360
P        1.65832690       2.74624594      -1.72233794
O        2.86509225       3.02583513      -0.84162772
O        0.52836180       3.83283957      -1.98422545
O        2.29806990       2.60100619      -3.17563541
C        0.25111311      -0.07772598       0.33988047
O        1.46147295      -0.60557892       0.19920676
C       -0.90743723      -1.06755811       0.08674837
O       -0.81630033      -2.05825048       1.11923362
P       -1.84485904      -3.28773949       1.08287881
O       -1.89865190      -4.10975334      -0.14555729
O       -1.41243747      -4.04943292       2.42603025
O       -3.25519479      -2.60880909       1.48179870
O        1.41725184       2.88993598       0.48050672
H       -0.08313739       3.90544018      -1.23203180
H        1.64524438       2.52478381      -3.88549793
H        0.10382623       0.32720974       1.35220479
H        1.85226979      -0.82217038       1.54575581
H       -1.86592192      -0.55324775       0.14063893
H       -0.77886687      -1.53034913      -0.89450912
H       -1.18699779      -4.96652537       2.23009787
H       -3.91758738      -2.86095851       0.82711411
H        1.98948758      -0.89636728       2.26139109
H        1.92516300       3.55299066       0.98539672
26
Properties=species:S:1:pos:R:3 relative_energy_eV=5.854089894644858 branch=right pbc="F F F"
O       -1.05038199       1.80864657      -0.54343882
C       -0.05681993       1.13864642      -0.57964772
O        0.89937585       1.29181744      -1.57692939
P        1.65727095       2.72967254      -1.71418125
O        2.85812912       2.98192150      -0.81691271
O        0.53521285       3.81973182      -2.00455137
O        2.32519088       2.57108072      -3.15300379
C        0.24843701      -0.04671747       0.35737695
O        1.46883102      -0.54542208       0.18113042
C       -0.89581884      -1.05060557       0.11664509
O       -0.79609304      -2.05475404       1.13505795
P       -1.83564373      -3.27734305       1.08564778
O       -1.88008982      -4.09321991      -0.14717219
O       -1.42049494      -4.05548086       2.42542744
O       -3.24594903      -2.59282894       1.47379688
O        1.38133479       2.86133788       0.47687180
H       -0.10486703       3.89184279      -1.27638981
H        1.69120100       2.54441492      -3.88247971
H        0.10771610       0.35324556       1.37402390
H        1.87085033      -0.85098646       1.50299730
H       -1.85099843      -0.53753330       0.18082043
H       -0.78217716      -1.50431737      -0.86645344
H       -1.15810911      -4.95746987       2.20421578
H       -3.91451416      -2.85157904       0.82730011
H        1.99517326      -0.98131784       2.21126475
H        1.87381855       3.53764324       0.97907835
26
Properties=species:S:1:pos:R:3 relative_energy_eV=5.851092564465944 branch=right pbc="F F F"
O       -1.06549004       1.82869054      -0.53287335
C       -0.07711443       1.15184023      -0.57123121
O        0.86476714       1.28167871      -1.59100147
P        1.64733809       2.70493005      -1.72346702
O        2.85822057       2.95265797      -0.83705084
O        0.53785296       3.81187027      -1.99845802
O        2.30566792       2.54713538      -3.16633521
C        0.24348912      -0.01842154       0.37339362
O        1.47778397      -0.48531153       0.20247715
C       -0.88039281      -1.04120500       0.11992063
O       -0.78690418      -2.04171168       1.14038368
P       -1.82270879      -3.26542432       1.07757759
O       -1.84610402      -4.07073951      -0.16267821
O       -1.42401079      -4.05002057       2.41809729
O       -3.23364441      -2.58014937       1.46224317
O        1.40894483       2.79085413       0.47624754
H       -0.11226286       3.86912650      -1.27836096
H        1.66677872       2.56331416      -3.89153288
H        0.08810835       0.37384264       1.39054970
H        1.86133246      -0.84428032       1.51840260
H       -1.84409983      -0.54319332       0.17294378
H       -0.73813199      -1.49675454      -0.85745484
H       -1.15547757      -4.95054490       2.19872345
H       -3.90268199      -2.84100544       0.81780954
H        1.96863693      -0.99267663       2.22546656
H        1.88068739       3.47592384       0.98670246
26
Properties=species:S:1:pos:R:3 relative_energy_eV=5.847646869959135 branch=right pbc="F F F"
O       -1.06720234       1.84717848      -0.50731376
C       -0.08212581       1.16537398      -0.55552992
O        0.83985815       1.27364265      -1.59929440
P        1.64295195       2.68660138      -1.73672696
O        2.87000163       2.89997161      -0.86520961
O        0.54919564       3.81791534      -1.97866517
O        2.26759175       2.53802960      -3.19628949
C        0.23900823      -0.00111593       0.39101399
O        1.48277436      -0.44696604       0.24442853
C       -0.86508266      -1.03967769       0.10461925
O       -0.78585581      -2.03103228       1.13485184
P       -1.81229073      -3.26158395       1.07058811
O       -1.82968315      -4.06337050      -0.17192215
O       -1.40371286      -4.03793807       2.41361067
O       -3.22856028      -2.58558243       1.45365860
O        1.43898623       2.75716463       0.47243043
H       -0.11001744       3.85305701      -1.26482401
H        1.60958187       2.57878525      -3.90359178
H        0.04759325       0.38430181       1.40609900
H        1.84246755      -0.83365108       1.56002943
H       -1.83567357      -0.55055136       0.12178559
H       -0.69153807      -1.49912585      -0.86616873
H       -1.15464016      -4.94674526       2.20564474
H       -3.89371820      -2.83091222       0.79905662
H        1.92584918      -0.98624467       2.27009371
H        1.92482674       3.44290182       0.96812010
26
Properties=species:S:1:pos:R:3 relative_energy_eV=5.844590642431285 branch=right pbc="F F F"
O       -1.06477782       1.87472717      -0.47227231
C       -0.08979642       1.17952363      -0.53546718
O        0.81623630       1.26999053      -1.59220462
P        1.63307875       2.67176753      -1.74786095
O        2.88046273       2.86196102      -0.89909896
O        0.54433626       3.81269908      -1.97505216
O        2.22584602       2.50781438      -3.21807782
C        0.23352928       0.01043330       0.40465737
O        1.48790200      -0.41177277       0.27975994
C       -0.84618411      -1.04397637       0.08957543
O       -0.78862955      -2.02775612       1.12824658
P       -1.81288508      -3.26192268       1.06425977
O       -1.83478946      -4.07799902      -0.16925218
O       -1.39883613      -4.03061838       2.40908528
O       -3.23305837      -2.59153634       1.44207161
O        1.46807615       2.75457031       0.46003417
H       -0.09146138       3.86404158      -1.24011173
H        1.56064504       2.59233864      -3.91425942
H        0.01650391       0.38110359       1.41907024
H        1.82265810      -0.80747590       1.59818654
H       -1.82403152      -0.56769679       0.07098903
H       -0.62208872      -1.50480121      -0.86952938
H       -1.15043524      -4.93917882       2.19902600
H       -3.88743921      -2.83599425       0.77587046
H        1.89344860      -0.96914704       2.30713357
H        1.98227621       3.41933178       0.95571579
26
Properties=species:S:1:pos:R:3 relative_energy_eV=5.840610647705034 branch=right pbc="F F F"
O       -1.06686899       1.90309126      -0.40485760
C       -0.10493546       1.19423825      -0.50004525
O        0.76798180       1.27180046      -1.58838374
P        1.61541800       2.65295277      -1.76800042
O        2.88395144       2.83225682      -0.94823369
O        0.54788898       3.81657377      -1.97766764
O        2.17444754       2.47096850      -3.25036533
C        0.22976009       0.01866045       0.42728607
O        1.49548576      -0.37505072       0.31774303
C       -0.81603793      -1.06168506       0.07912943
O       -0.78626817      -2.03435697       1.13054261
P       -1.81793486      -3.26243023       1.05364105
O       -1.82976009      -4.07672004      -0.18102446
O       -1.42130815      -4.03537229       2.40104347
O       -3.23986200      -2.58423127       1.41408584
O        1.50139902       2.75673694       0.44190445
H       -0.06028417       3.89534425      -1.22288786
H        1.50760096       2.60928036      -3.93721709
H       -0.01092164       0.37011705       1.44470529
H        1.80671119      -0.76155088       1.64578276
H       -1.80503694      -0.61390889       0.00325085
H       -0.54231539      -1.52908269      -0.86394857
H       -1.14587981      -4.93713109       2.19498310
H       -3.88914519      -2.84946901       0.75051196
H        1.85817573      -0.90910095       2.35905834
H        2.06832565       3.36849684       0.94945948
26
Properties=species:S:1:pos:R:3 relative_energy_eV=5.838990538584767 branch=right pbc="F F F"
O       -1.06619040       1.91860708      -0.38457332
C       -0.11056216       1.20244164      -0.48939303
O        0.74986855       1.27477546      -1.58625410
P        1.60610037       2.64827379      -1.77614417
O        2.88361148       2.81155749      -0.96893820
O        0.54836700       3.82168968      -1.98091473
O        2.14941025       2.45296049      -3.26222138
C        0.22729850       0.02266371       0.43578039
O        1.49631156      -0.36221554       0.34245149
C       -0.80484898      -1.06707428       0.07384598
O       -0.78374141      -2.03515390       1.13101114
P       -1.81377562      -3.26366315       1.04662375
O       -1.81284140      -4.06995611      -0.19309122
O       -1.43800006      -4.04117753       2.39840415
O       -3.23433834      -2.58153057       1.40101914
O        1.51301592       2.76036715       0.43209799
H       -0.04951909       3.91234405      -1.21959265
H        1.48328889       2.61631299      -3.94298644
H       -0.03000756       0.36812489       1.45060565
H        1.79878849      -0.74707222       1.67270900
H       -1.79617923      -0.62710839      -0.01875496
H       -0.51030215      -1.54075157      -0.85929221
H       -1.14378690      -4.93745304       2.19457960
H       -3.89234795      -2.85100404       0.74837020
H        1.84560943      -0.90105731       2.38492952
H        2.10535863       3.34552718       0.94022472
26
Properties=species:S:1:pos:R:3 relative_energy_eV=5.838136483580456 branch=right pbc="F F F"
O       -1.06957497       1.91627862      -0.39003306
C       -0.11247179       1.20124558      -0.48796242
O        0.75212006       1.26726295      -1.58230199
P        1.60388524       2.64254627      -1.77885492
O        2.88204540       2.80868394      -0.97325972
O        0.54583940       3.81525781      -1.98411710
O        2.13922647       2.44769950      -3.26760680
C        0.22535308       0.02699988       0.44293329
O        1.49479939      -0.35577222       0.34868492
C       -0.80205271      -1.06512868       0.07778344
O       -0.78247857      -2.03462951       1.13342353
P       -1.81148792      -3.26345105       1.04055952
O       -1.80256038      -4.06652044      -0.20114594
O       -1.44410650      -4.04353330       2.39304460
O       -3.23125138      -2.57943580       1.39326830
O        1.51273790       2.76245087       0.42816258
H       -0.04854220       3.91180181      -1.22089028
H        1.46751671       2.61645370      -3.94169154
H       -0.03404652       0.37505707       1.45652879
H        1.80074197      -0.73855859       1.67932225
H       -1.79429081      -0.62857634      -0.01950194
H       -0.50013081      -1.53413043      -0.85545743
H       -1.14976799      -4.93984645       2.19049532
H       -3.89579227      -2.84835604       0.74731642
H        1.85602141      -0.88630074       2.39275028
H        2.11885574       3.32292968       0.94904639
26
Properties=species:S:1:pos:R:3 relative_energy_eV=5.836786267267598 branch=right pbc="F F F"
O       -1.06864722       1.91164188      -0.40146707
C       -0.10857024       1.19937542      -0.49111113
O        0.75722403       1.26191299      -1.58549118
P        1.59992373       2.64253407      -1.78761541
O        2.87761902       2.81486593      -0.98232768
O        0.53537966       3.80994977      -1.99148382
O        2.13229282       2.45159360      -3.27803486
C        0.22938286       0.03238106       0.45002230
O        1.49997152      -0.34789050       0.36479476
C       -0.79958266      -1.06024413       0.08928985
O       -0.77876774      -2.03056236       1.14428773
P       -1.80714661      -3.25855150       1.03913438
O       -1.79485517      -4.05491554      -0.20684807
O       -1.44077527      -4.04979536       2.38504570
O       -3.23005832      -2.57699246       1.38539679
O        1.51130108       2.76341063       0.41958314
H       -0.05658358       3.90608710      -1.22558936
H        1.45542613       2.61028666      -3.94982143
H       -0.03459911       0.38803658       1.46003644
H        1.80160162      -0.72498541       1.69815127
H       -1.79146542      -0.62179100      -0.00060001
H       -0.50885960      -1.53168826      -0.84651099
H       -1.16183571      -4.94861513       2.17175978
H       -3.88766457      -2.85109690       0.73417598
H        1.85055274      -0.87872194       2.41050308
H        2.13932417       3.27420311       0.96521678
26
Properties=species:S:1:pos:R:3 relative_energy_eV=5.836118410654308 branch=right pbc="F F F"
O       -1.06916312       1.91307209      -0.39497871
C       -0.10982554       1.20008721      -0.48717156
O        0.75125850       1.25932576      -1.58555872
P        1.59467932       2.63862449      -1.79276277
O        2.87581066       2.81336410      -0.99401468
O        0.53099096       3.80708041      -1.99344723
O        2.12135995       2.44433082      -3.28408321
C        0.22922211       0.03710377       0.45684855
O        1.50032761      -0.34161723       0.37512931
C       -0.79596418      -1.05699806       0.09398776
O       -0.77756527      -2.02835278       1.14785545
P       -1.80357462      -3.25823942       1.03561608
O       -1.78976609      -4.04793765      -0.21466296
O       -1.43857507      -4.05415472       2.37921689
O       -3.22881896      -2.58170500       1.38144224
O        1.51710833       2.76793329       0.41390630
H       -0.06405819       3.90105284      -1.22963764
H        1.44420421       2.60869964      -3.95358925
H       -0.03837878       0.39394923       1.46526539
H        1.79747658      -0.70875958       1.71250697
H       -1.78777811      -0.61962472      -0.00193918
H       -0.49676984      -1.52535282      -0.83997143
H       -1.16789581      -4.95521209       2.16488184
H       -3.87975177      -2.84959299       0.72105576
H        1.83511417      -0.85939201       2.42640120
H        2.17092146       3.23274420       0.96820099
26
Properties=species:S:1:pos:R:3 relative_energy_eV=5.835752394719748 branch=right pbc="F F F"
O       -1.06898206       1.91839273      -0.39475955
C       -0.11122778       1.20315207      -0.48717678
O        0.75071729       1.26024296      -1.58547775
P        1.59536127       2.63862023      -1.79188569
O        2.87350487       2.81582422      -0.98887473
O        0.53078245       3.80530043      -1.99709750
O        2.12894660       2.44181482      -3.28027524
C        0.22740425       0.03909130       0.45520092
O        1.49715929      -0.34402614       0.36883811
C       -0.80077567      -1.05374676       0.09692441
O       -0.77703760      -2.02659980       1.15029700
P       -1.80041253      -3.25908557       1.03615727
O       -1.78450863      -4.04450471      -0.21691561
O       -1.43218641      -4.05716468       2.37756076
O       -3.22806141      -2.58957781       1.38718724
O        1.51033957       2.77147976       0.41458437
H       -0.07174766       3.89284357      -1.23837163
H        1.45513848       2.60289593      -3.95411930
H       -0.03315507       0.39669592       1.46515924
H        1.79655579      -0.70685094       1.70772956
H       -1.79284380      -0.61480248       0.00844021
H       -0.50921651      -1.52226011      -0.84008221
H       -1.16810737      -4.95976382       2.16146714
H       -3.87607664      -2.84264798       0.71822640
H        1.83949231      -0.85501686       2.42162520
H        2.16952572       3.22012286       0.97613542
26
Properties=species:S:1:pos:R:3 relative_energy_eV=5.835440204362385 branch=right pbc="F F F"
O       -1.07268820       1.92399477      -0.39453879
C       -0.11636067       1.20676342      -0.48562547
O        0.74659042       1.26205650      -1.58433932
P        1.59500285       2.63720118      -1.79235960
O        2.87092513       2.81820030      -0.98626853
O        0.53314739       3.80530348      -2.00423682
O        2.13492067       2.43389324      -3.27790264
C        0.22113887       0.04249163       0.45697266
O        1.49029168      -0.34234775       0.36950621
C       -0.80843490      -1.04898851       0.10092965
O       -0.77619452      -2.02558165       1.14985724
P       -1.79566401      -3.26054216       1.03505445
O       -1.77979829      -4.04554753      -0.21826085
O       -1.41964484      -4.05951402       2.37346624
O       -3.22412803      -2.59375814       1.38878432
O        1.50861131       2.77422272       0.41551139
H       -0.07506508       3.89580307      -1.25066008
H        1.46459544       2.59254790      -3.95579337
H       -0.04000079       0.40134823       1.46627326
H        1.79463758      -0.70579705       1.70704108
H       -1.80134827      -0.61028240       0.01967773
H       -0.52188809      -1.51375175      -0.83899710
H       -1.16079268      -4.96288975       2.15412810
H       -3.86955148      -2.83934804       0.71460761
H        1.84547296      -0.85164678       2.42144573
H        2.17681455       3.19659889       0.98622363
