26
Properties=species:S:1:pos:R:3 relative_energy_eV=0.0 branch=left pbc="F F F"
O       -0.33822451       1.73153772      -1.85421972
C       -0.78324126       1.33497734      -0.80101948
O       -1.76131807       1.99238822      -0.13730701
C       -0.32457151       0.14709071       0.01750870
O        0.40363712       0.67030962       1.09713355
C        0.55379313      -0.78500878      -0.78686037
O       -0.22145129      -1.26700780      -1.88597213
P        0.37028124      -1.38322725      -3.39122938
O       -0.57895936      -2.05160144      -4.29766817
O        0.86725559       0.08721003      -3.77086593
O        1.78957012      -2.14910453      -3.20345573
O       -0.19740355      -1.19926628       2.44643206
P       -0.00742028       0.38756605       2.79324290
O       -1.31328704       1.36904885       2.70759368
O        1.47289810       0.95435343       3.10914124
O       -0.26334163       0.15249782       4.42543582
H       -2.00963915       2.77704661      -0.65205058
H       -1.21090015      -0.40066217       0.35282499
H       -1.46261407       1.76458320       1.83410568
H        1.45332080      -0.26703920      -1.11115604
H        0.83674420      -1.62291588      -0.15887583
H        0.45118585       0.76435959      -3.20225448
H        1.75125870      -3.00255589      -3.65288522
H       -0.35804689      -1.66845340       3.27590389
H        1.87926357       1.16484339       2.25883231
H       -1.10565014       0.51892563       4.71985809
26
Properties=species:S:1:pos:R:3 relative_energy_eV=0.0003917257781722583 branch=left pbc="F F F"
O       -0.33341618       1.73151517      -1.85003614
C       -0.78421753       1.32887431      -0.80156166
O       -1.77110497       1.97816987      -0.14352412
C       -0.32212248       0.14287298       0.01751501
O        0.40390216       0.66975706       1.09656552
C        0.55962858      -0.78432774      -0.78798377
O       -0.21778691      -1.26678199      -1.88542268
P        0.36949914      -1.37599720      -3.39282635
O       -0.58730073      -2.02937481      -4.30244345
O        0.87946315       0.09235742      -3.76181735
O        1.78366701      -2.15198332      -3.21098460
O       -0.19629455      -1.19795014       2.45001229
P       -0.00651394       0.38954932       2.79278493
O       -1.31447498       1.36771526       2.70510170
O        1.47336673       0.95751495       3.10713253
O       -0.26058474       0.15859893       4.42605163
H       -2.01629771       2.76549449      -0.65585780
H       -1.20578492      -0.40938715       0.35233742
H       -1.46849482       1.75837616       1.83038518
H        1.45614805      -0.26167684      -1.11355015
H        0.84784191      -1.62176884      -0.16160644
H        0.46023854       0.77027843      -3.19591231
H        1.73225595      -3.01594979      -3.63826244
H       -0.36334182      -1.66299430       3.28053167
H        1.87993525       1.16641644       2.25651629
H       -1.10507088       0.52059703       4.71904827
26
Properties=species:S:1:pos:R:3 relative_energy_eV=0.0007552089227829129 branch=left pbc="F F F"
O       -0.32249126       1.73295552      -1.84496022
C       -0.77983726       1.32800910      -0.79989370
O       -1.77036928       1.97639962      -0.14729571
C       -0.32143510       0.14025214       0.01871764
O        0.40667828       0.66538198       1.09712936
C        0.55746540      -0.78779408      -0.78892878
O       -0.21987939      -1.26737437      -1.88732290
P        0.37035244      -1.37025876      -3.39419426
O       -0.58939489      -2.01492072      -4.30660852
O        0.88764323       0.09714749      -3.75552090
O        1.78003154      -2.15578333      -3.21620800
O       -0.18909106      -1.19870605       2.45842168
P       -0.00613246       0.39120641       2.79437273
O       -1.32055267       1.36004652       2.69973277
O        1.47024539       0.96939900       3.10696161
O       -0.25951693       0.16585177       4.42876713
H       -2.01698836       2.75983794      -0.66524606
H       -1.20479283      -0.41167906       0.35511356
H       -1.47450849       1.74773208       1.82367971
H        1.45432103      -0.26656636      -1.11524235
H        0.84473932      -1.62623175      -0.16357008
H        0.46377323       0.77414003      -3.19196224
H        1.71580277      -3.02157751      -3.63920790
H       -0.34850892      -1.66170397       3.29180718
H        1.87528244       1.17672560       2.25516749
H       -1.10969702       0.51740649       4.71848401
26
Properties=species:S:1:pos:R:3 relative_energy_eV=0.0013688279068446718 branch=left pbc="F F F"
O       -0.31077187       1.73748472      -1.83613353
C       -0.77476175       1.32885970      -0.79605793
O       -1.77519806       1.97043246      -0.15125483
C       -0.31739205       0.14012487       0.02147020
O        0.41339782       0.66191543       1.09957833
C        0.55874214      -0.78855118      -0.78868303
O       -0.22166264      -1.26732933      -1.88612635
P        0.36634580      -1.36966644      -3.39437055
O       -0.59525734      -2.00347154      -4.31250419
O        0.89531144       0.09484420      -3.74918274
O        1.77166066      -2.16327365      -3.22226174
O       -0.17631592      -1.19885268       2.46407208
P       -0.00385512       0.39332614       2.79665961
O       -1.32169799       1.35670646       2.69504731
O        1.46863383       0.97955669       3.11219285
O       -0.26266134       0.17597183       4.43097578
H       -2.03199446       2.74600272      -0.67583933
H       -1.20283760      -0.40885462       0.35778090
H       -1.47347593       1.74457325       1.81890335
H        1.45431614      -0.26715863      -1.11743027
H        0.84817660      -1.62721825      -0.16436059
H        0.47413679       0.77724213      -3.19065076
H        1.70018562      -3.02670897      -3.64826688
H       -0.34243535      -1.65996247       3.29692648
H        1.87647344       1.18447924       2.26110308
H       -1.12392376       0.50942358       4.71060587
26
Properties=species:S:1:pos:R:3 relative_energy_eV=0.0031729638794786297 branch=left pbc="F F F"
O       -0.30273203       1.73652282      -1.83549117
C       -0.77055182       1.32478424      -0.79865655
O       -1.78300501       1.95557910      -0.16188637
C       -0.30982012       0.14176485       0.02528447
O        0.41786999       0.66798247       1.10408353
C        0.56440049      -0.78910847      -0.78417278
O       -0.21826614      -1.26559739      -1.88119202
P        0.36115843      -1.36316635      -3.39357625
O       -0.62458095      -1.95798232      -4.31278873
O        0.93160066       0.09243288      -3.73090882
O        1.74485059      -2.19616432      -3.23339614
O       -0.14649548      -1.19682357       2.47346943
P       -0.00496750       0.39879903       2.80050031
O       -1.33549732       1.34444374       2.68778331
O        1.45925808       0.99991115       3.12422294
O       -0.27517362       0.19008950       4.43255863
H       -2.03904035       2.73140863      -0.68482467
H       -1.19631162      -0.40651826       0.36036151
H       -1.48622551       1.73041503       1.81070081
H        1.46119377      -0.27093993      -1.11336474
H        0.85098594      -1.63007326      -0.16258919
H        0.50154999       0.77812080      -3.18426508
H        1.66575985      -3.04597592      -3.68438959
H       -0.28919722      -1.66518613       3.30652982
H        1.86756658       1.21606925       2.27600857
H       -1.15119077       0.49910808       4.69219169
26
Properties=species:S:1:pos:R:3 relative_energy_eV=0.005197650898480788 branch=left pbc="F F F"
O       -0.30400259       1.73302634      -1.84195155
C       -0.76976086       1.31956942      -0.80359377
O       -1.78086981       1.95009032      -0.16436586
C       -0.30632224       0.14031906       0.02537624
O        0.41726749       0.67814222       1.10067462
C        0.57012158      -0.79598658      -0.77475887
O       -0.21247783      -1.27324349      -1.87131520
P        0.35952363      -1.35851550      -3.38580088
O       -0.64520703      -1.91136481      -4.31112755
O        0.96685170       0.08670560      -3.69793937
O        1.72087631      -2.23041543      -3.24405151
O       -0.11022465      -1.19346407       2.47432739
P       -0.00632382       0.40713933       2.79525681
O       -1.35499803       1.32465209       2.67354525
O        1.44334433       1.04079431       3.12495843
O       -0.28095654       0.19558664       4.42719313
H       -2.03683706       2.73058829      -0.68219795
H       -1.19055342      -0.41067766       0.36390043
H       -1.50206667       1.71165068       1.79591923
H        1.47146870      -0.28485789      -1.10442790
H        0.84590482      -1.63254926      -0.14147940
H        0.53125017       0.77578120      -3.15738993
H        1.62432196      -3.05181260      -3.74176752
H       -0.24792887      -1.65406189       3.31254373
H        1.85884844       1.24696724       2.27796791
H       -1.16811090       0.47583209       4.68269659
26
Properties=species:S:1:pos:R:3 relative_energy_eV=0.0072319274477194995 branch=left pbc="F F F"
O       -0.28148654       1.73639003      -1.83092715
C       -0.76377293       1.31786501      -0.80245857
O       -1.78598168       1.94382805      -0.17734720
C       -0.30738446       0.13838221       0.02703961
O        0.41398622       0.68308601       1.10024701
C        0.56848107      -0.80351120      -0.76802725
O       -0.21015977      -1.28601561      -1.86440527
P        0.35732259      -1.35898751      -3.38091472
O       -0.64905162      -1.89924671      -4.31162731
O        0.97057201       0.08549691      -3.68297684
O        1.70785767      -2.24883974      -3.25319713
O       -0.10676110      -1.18448356       2.47522830
P       -0.00802663       0.41599778       2.79417749
O       -1.36925200       1.31417111       2.66916302
O        1.43375521       1.06916923       3.11917533
O       -0.26982632       0.20261753       4.42826038
H       -2.02286017       2.73449693      -0.68932081
H       -1.19234844      -0.40996712       0.36527843
H       -1.52353996       1.70233774       1.79294019
H        1.47238871      -0.29508120      -1.09298650
H        0.84456030      -1.63865518      -0.13403701
H        0.55129251       0.77593072      -3.13132890
H        1.60849961      -3.04583131      -3.78921869
H       -0.22310937      -1.64789224       3.31512084
H        1.84588004       1.27370806       2.27023553
H       -1.16789626       0.44492971       4.68409946
26
Properties=species:S:1:pos:R:3 relative_energy_eV=0.009520508610876277 branch=left pbc="F F F"
O       -0.27836018       1.73605583      -1.82983415
C       -0.76543375       1.31542797      -0.80461928
O       -1.78754566       1.94432872      -0.18320835
C       -0.30905140       0.13752885       0.02805453
O        0.40623757       0.69252528       1.10133584
C        0.57561735      -0.80333946      -0.76188113
O       -0.19714871      -1.29910247      -1.85665700
P        0.36030604      -1.36199809      -3.37755455
O       -0.66264450      -1.87908356      -4.30362186
O        0.99066279       0.07714414      -3.67256959
O        1.70221280      -2.26875265      -3.27251539
O       -0.10409277      -1.17871527       2.47003971
P       -0.01079468       0.41997942       2.79661946
O       -1.37891409       1.30666906       2.67818032
O        1.42861061       1.07716419       3.11723589
O       -0.26407823       0.20439152       4.43235433
H       -2.02133290       2.73006394      -0.70381042
H       -1.19112302      -0.41454932       0.36960340
H       -1.52560334       1.70756615       1.80764235
H        1.47436487      -0.28953042      -1.09572558
H        0.85502691      -1.63266573      -0.12007082
H        0.56841000       0.76889448      -3.12753767
H        1.59073273      -3.05066914      -3.82813107
H       -0.22787804      -1.64972005       3.30435317
H        1.83010503       1.30371805       2.26855421
H       -1.16514670       0.42656415       4.69595578
26
Properties=species:S:1:pos:R:3 relative_energy_eV=0.012943342306243721 branch=left pbc="F F F"
O       -0.28938469       1.71860066      -1.85070927
C       -0.76278677       1.31630386      -0.81189341
O       -1.77154915       1.95936727      -0.18337417
C       -0.30738012       0.14229010       0.02697621
O        0.39951145       0.69793207       1.10484059
C        0.58184058      -0.80206471      -0.75390383
O       -0.18297994      -1.30919195      -1.84886985
P        0.36263549      -1.36329482      -3.37424696
O       -0.68158178      -1.84108475      -4.29744960
O        1.02940335       0.06343978      -3.64421518
O        1.68770996      -2.29497534      -3.30070267
O       -0.08702645      -1.18499061       2.47480855
P       -0.01073667       0.41665168       2.79903174
O       -1.39206158       1.28608774       2.68655886
O        1.41590450       1.10600548       3.11752170
O       -0.25141098       0.19182333       4.43435953
H       -2.02131106       2.73120090      -0.71560840
H       -1.19116884      -0.41058243       0.36170329
H       -1.54112362       1.70023784       1.82214139
H        1.48577876      -0.29503286      -1.08128460
H        0.85623790      -1.62730001      -0.10644512
H        0.58303043       0.76390492      -3.13245716
H        1.56912623      -3.06136360      -3.87487327
H       -0.23421962      -1.64990255       3.30909546
H        1.79810331       1.35801545       2.26710025
H       -1.15142176       0.40781812       4.70408797
26
Properties=species:S:1:pos:R:3 relative_energy_eV=0.016941039168159477 branch=left pbc="F F F"
O       -0.33076383       1.69735217      -1.87639903
C       -0.77438948       1.31135077      -0.81859881
O       -1.76854647       1.96174911      -0.17158244
C       -0.30294414       0.14696965       0.02851733
O        0.39537466       0.71180656       1.10731936
C        0.60216651      -0.78964723      -0.74347070
O       -0.15213349      -1.32052590      -1.83368132
P        0.37421710      -1.36151806      -3.36418341
O       -0.69849858      -1.78297782      -4.28471963
O        1.09450099       0.04540065      -3.62290436
O        1.66327569      -2.34524190      -3.31778350
O       -0.08152435      -1.18494557       2.45683610
P       -0.01391416       0.41350383       2.79724695
O       -1.39553238       1.28036104       2.69370600
O        1.39871283       1.12630281       3.12950213
O       -0.25869287       0.15699371       4.42829651
H       -2.03505305       2.72655432      -0.70514318
H       -1.18627491      -0.40915273       0.36131593
H       -1.55211978       1.68121546       1.82443806
H        1.49204853      -0.26397559      -1.07698306
H        0.90002464      -1.60591332      -0.09349562
H        0.61606996       0.76899522      -3.17074381
H        1.50260000      -3.09902246      -3.90065734
H       -0.23184725      -1.65546324       3.28814057
H        1.78180170       1.39755727       2.28526074
H       -1.14541888       0.41216687       4.71195816
26
Properties=species:S:1:pos:R:3 relative_energy_eV=0.02727383661112981 branch=left pbc="F F F"
O       -0.41067253       1.64766367      -1.92320883
C       -0.79297706       1.29739713      -0.82950043
O       -1.74883108       1.97514514      -0.15071124
C       -0.29014561       0.15327271       0.02737129
O        0.39083188       0.73653860       1.10709493
C        0.62437094      -0.77820120      -0.73940553
O       -0.12853388      -1.34074565      -1.81661627
P        0.38476278      -1.35648566      -3.35107779
O       -0.69844211      -1.71238586      -4.28733109
O        1.15340157       0.03028454      -3.56777599
O        1.64206700      -2.37868018      -3.33936940
O       -0.06526889      -1.17556835       2.43308181
P       -0.02754955       0.41612200       2.79636498
O       -1.41683565       1.27415221       2.69133192
O        1.38152996       1.12644115       3.14520945
O       -0.27694358       0.13474413       4.42229290
H       -2.02780702       2.73299163      -0.68651872
H       -1.15910726      -0.42305394       0.36283256
H       -1.56556235       1.66880684       1.81716670
H        1.50976910      -0.25040291      -1.08323623
H        0.92015090      -1.58779843      -0.08342408
H        0.63490527       0.77144133      -3.19611919
H        1.42976390      -3.12977247      -3.90793882
H       -0.20158604      -1.67168276       3.25083680
H        1.76879030       1.41696684       2.31005463
H       -1.13694197       0.44270513       4.73078709
26
Properties=species:S:1:pos:R:3 relative_energy_eV=0.038135061418870464 branch=left pbc="F F F"
O       -0.48172337       1.60153834      -1.94346058
C       -0.82476241       1.28738941      -0.82799615
O       -1.73833623       2.00307404      -0.12836666
C       -0.30773678       0.14834674       0.02736779
O        0.35958171       0.74808132       1.10853359
C        0.63748084      -0.76115104      -0.73223390
O       -0.09438095      -1.35224184      -1.80641896
P        0.40492494      -1.35016741      -3.34666821
O       -0.70375995      -1.64965106      -4.26990112
O        1.22981306       0.00943884      -3.53616083
O        1.62366832      -2.41319234      -3.38499626
O       -0.03761620      -1.18556006       2.41443547
P       -0.03697732       0.40626702       2.79077241
O       -1.42970387       1.26002064       2.70442787
O        1.36026367       1.14134718       3.14542381
O       -0.30789982       0.09652469       4.40982836
H       -2.01042558       2.76258306      -0.66992836
H       -1.16502180      -0.44694721       0.36055845
H       -1.58536766       1.67646819       1.84086683
H        1.50209809      -0.20175081      -1.08014823
H        0.96911061      -1.54456612      -0.05941640
H        0.69041796       0.76167672      -3.23321358
H        1.35997751      -3.17985968      -3.90973968
H       -0.13940398      -1.69217710       3.23058625
H        1.75030045       1.40754201       2.30304545
H       -1.13138236       0.48686219       4.72499394
26
Properties=species:S:1:pos:R:3 relative_energy_eV=0.05349072998797055 branch=left pbc="F F F"
O       -0.51128240       1.61416711      -1.94645076
C       -0.84447615       1.29983835      -0.82957417
O       -1.74188329       2.01999819      -0.11229350
C       -0.33585304       0.14996899       0.02017580
O        0.33742096       0.73545318       1.10695727
C        0.62251650      -0.75124053      -0.73391301
O       -0.07645244      -1.37448482      -1.80873992
P        0.41977154      -1.35709286      -3.34873099
O       -0.70256922      -1.59284872      -4.27439154
O        1.28714084      -0.02350337      -3.52825664
O        1.61862441      -2.44476630      -3.40518152
O        0.04424475      -1.20375057       2.43764104
P       -0.04373109       0.39046221       2.79020554
O       -1.46574337       1.20176607       2.69301526
O        1.33274255       1.16585065       3.13510397
O       -0.31421042       0.08289505       4.40900199
H       -1.97960057       2.81529918      -0.61779690
H       -1.20220330      -0.43209192       0.35169930
H       -1.61516883       1.63579156       1.83534997
H        1.47467757      -0.17057198      -1.07675152
H        0.97179050      -1.52031703      -0.05559342
H        0.76556254       0.75848197      -3.28159688
H        1.31795191      -3.21893384      -3.89753962
H       -0.09183105      -1.71615092       3.24488895
H        1.72583279       1.41643338       2.29056373
H       -1.10013294       0.53924285       4.73439898
26
Properties=species:S:1:pos:R:3 relative_energy_eV=0.0970033046323806 branch=left pbc="F F F"
O       -0.45613047       1.67088332      -1.88919865
C       -0.84146652       1.31360920      -0.80178215
O       -1.79032683       1.98522438      -0.09514564
C       -0.32670244       0.16064742       0.03118394
O        0.35485123       0.74169628       1.11959708
C        0.62823455      -0.71654004      -0.74351241
O       -0.07813535      -1.33071765      -1.82116336
P        0.42102453      -1.35882510      -3.35916404
O       -0.72189740      -1.52645193      -4.27784225
O        1.39441559      -0.08900726      -3.53188793
O        1.54562111      -2.52560937      -3.42352107
O        0.10989814      -1.20359729       2.44365013
P       -0.04592619       0.38132626       2.79089311
O       -1.51034429       1.10349912       2.65629236
O        1.27621840       1.23640250       3.17401684
O       -0.34338763       0.04241644       4.40575858
H       -2.01193918       2.80411446      -0.56601927
H       -1.17941233      -0.44758673       0.35093817
H       -1.64315294       1.56779692       1.81762475
H        1.46668501      -0.12138892      -1.08765270
H        0.98885177      -1.48024152      -0.06423849
H        0.89601632       0.74907282      -3.45323391
H        1.19912456      -3.29975128      -3.88892300
H       -0.04791932      -1.70418576       3.25396358
H        1.68815144       1.50012141       2.34288675
H       -1.07921335       0.56698845       4.74867104
26
Properties=species:S:1:pos:R:3 relative_energy_eV=0.14532237881212495 branch=left pbc="F F F"
O       -0.42310595       1.75767205      -1.83024645
C       -0.84393216       1.34515496      -0.77812143
O       -1.88730087       1.92047724      -0.12066761
C       -0.27453095       0.20476052       0.04440507
O        0.34153490       0.78041779       1.16670456
C        0.74152279      -0.58643424      -0.75063820
O        0.02094950      -1.25926035      -1.78236393
P        0.42588526      -1.36677163      -3.32949315
O       -0.75862074      -1.38129744      -4.21003976
O        1.54555096      -0.24040366      -3.59124589
O        1.37739826      -2.66933149      -3.40873908
O        0.07474100      -1.21444681       2.42676143
P       -0.07864857       0.36481260       2.81396093
O       -1.53927598       1.10161274       2.70655081
O        1.23336650       1.21911418       3.23993547
O       -0.37587807      -0.03616265       4.40761070
H       -2.19083953       2.67915928      -0.64563972
H       -1.08720974      -0.46881755       0.33702230
H       -1.71290526       1.52710280       1.84748498
H        1.51252734       0.06785653      -1.14607224
H        1.19226358      -1.34026516      -0.11373980
H        1.13664924       0.62541234      -3.71541415
H        0.91860727      -3.36246774      -3.89867061
H       -0.03025816      -1.72822625       3.23941910
H        1.62667966       1.55472758       2.42413140
H       -1.05203322       0.52550062       4.79929643
26
Properties=species:S:1:pos:R:3 relative_energy_eV=0.1635436971555464 branch=left pbc="F F F"
O       -0.44136806       1.78397159      -1.81473730
C       -0.84645105       1.34966365      -0.76546060
O       -1.93011988       1.86232356      -0.12219624
C       -0.23417174       0.23334114       0.05665249
O        0.36841675       0.80515657       1.18765246
C        0.79119758      -0.52571771      -0.75510582
O        0.06995033      -1.23934288      -1.75792556
P        0.43049068      -1.36968191      -3.31504772
O       -0.76755547      -1.32567114      -4.17589999
O        1.60284571      -0.30306331      -3.60899224
O        1.29426439      -2.73005242      -3.39783893
O        0.05081201      -1.20946436       2.40089955
P       -0.08513124       0.36161982       2.82987375
O       -1.52255043       1.13403340       2.71456139
O        1.22753992       1.19616762       3.27215892
O       -0.40830402      -0.06898767       4.40910919
H       -2.29325340       2.57472042      -0.67255713
H       -1.02927901      -0.45948731       0.34814508
H       -1.67979657       1.54384339       1.84952766
H        1.51816294       0.15644783      -1.18288874
H        1.29387861      -1.23328625      -0.10696498
H        1.22965041       0.56556675      -3.81108475
H        0.80053013      -3.38486887      -3.90719673
H       -0.09539969      -1.75201296       3.18534028
H        1.60552283       1.54146519       2.45228892
H       -1.05674509       0.51321218       4.81987790
26
Properties=species:S:1:pos:R:3 relative_energy_eV=0.178709927968157 branch=left pbc="F F F"
O       -0.44412526       1.80283971      -1.81989228
C       -0.83640460       1.35804995      -0.76973011
O       -1.92880112       1.83979731      -0.11860852
C       -0.21435713       0.24831079       0.05301187
O        0.37714143       0.81764234       1.19362765
C        0.81356606      -0.49770293      -0.76435522
O        0.09869648      -1.23697640      -1.75320145
P        0.43556369      -1.37023714      -3.31422719
O       -0.76229548      -1.29486145      -4.17379254
O        1.63346894      -0.33330656      -3.61326156
O        1.25156590      -2.75660499      -3.39205360
O        0.03972559      -1.19895959       2.39676961
P       -0.08935860       0.36996105       2.83075935
O       -1.53482982       1.12901033       2.72362811
O        1.21087326       1.21140313       3.30622458
O       -0.40899837      -0.08692546       4.40897556
H       -2.35504659       2.50105931      -0.68412599
H       -1.00707201      -0.44844029       0.33675415
H       -1.69973749       1.56039700       1.86896588
H        1.52266491       0.19526788      -1.20376141
H        1.32964646      -1.18922410      -0.11313233
H        1.26189890       0.51975171      -3.87354792
H        0.74150064      -3.38934298      -3.91138307
H       -0.12846964      -1.73922756       3.18176071
H        1.64102614       1.52480845       2.50137450
H       -1.05470594       0.48340678       4.83541196
26
Properties=species:S:1:pos:R:3 relative_energy_eV=0.19566839406616054 branch=left pbc="F F F"
O       -0.39403608       1.88133541      -1.76154550
C       -0.82190791       1.37899376      -0.75274814
O       -1.95428101       1.80533710      -0.12276131
C       -0.20059037       0.25187140       0.05424270
O        0.38873996       0.82237462       1.19286220
C        0.81510134      -0.50702508      -0.76881192
O        0.06322099      -1.20877563      -1.76232105
P        0.42991430      -1.36522371      -3.31441922
O       -0.74506714      -1.24991895      -4.20022343
O        1.65262051      -0.34982600      -3.59658919
O        1.20720462      -2.77883604      -3.37510173
O        0.10287307      -1.19742233       2.41019053
P       -0.08680952       0.36967548       2.82981611
O       -1.54886400       1.09073226       2.70920881
O        1.16725503       1.26753509       3.32367352
O       -0.40795793      -0.09396152       4.41231558
H       -2.35187944       2.51029518      -0.65593658
H       -0.98778286      -0.45461724       0.32973786
H       -1.74068719       1.46329676       1.83462546
H        1.53275866       0.16987018      -1.21782543
H        1.32827730      -1.22763211      -0.14241918
H        1.30972668       0.47281867      -3.97231944
H        0.68450522      -3.40551531      -3.89162786
H       -0.11716877      -1.73201439       3.18612144
H        1.60401528       1.61270464       2.53722249
H       -1.03604462       0.49382411       4.84682442
26
Properties=species:S:1:pos:R:3 relative_energy_eV=0.22843736871436704 branch=left pbc="F F F"
O       -0.29375106       1.96090086      -1.66666071
C       -0.78154802       1.39569663      -0.72111110
O       -1.96167634       1.77458240      -0.15106487
C       -0.19810818       0.23744236       0.06257379
O        0.41401574       0.79062296       1.20511393
C        0.78248111      -0.54372061      -0.78789490
O       -0.00278609      -1.15283377      -1.81832439
P        0.40821220      -1.34618684      -3.35249273
O       -0.74031583      -1.20988286      -4.27223163
O        1.66259858      -0.36707315      -3.60443741
O        1.17025933      -2.77062075      -3.35427026
O        0.18265333      -1.20018095       2.45344648
P       -0.08502415       0.36194260       2.84270404
O       -1.59261664       0.97428297       2.67525525
O        1.07764640       1.38406162       3.34351786
O       -0.40828944      -0.09251152       4.42516434
H       -2.24070679       2.57813315      -0.61798155
H       -1.00749403      -0.44715815       0.33680663
H       -1.80643999       1.31828493       1.79529262
H        1.55053413       0.10675393      -1.19624886
H        1.24275710      -1.32130302      -0.18400793
H        1.37066825       0.42249860      -4.07873050
H        0.63775429      -3.40502975      -3.84803673
H        0.03944442      -1.74048985       3.24245285
H        1.46609678       1.76882564       2.54815572
H       -0.99322946       0.54285898       4.85520211
26
Properties=species:S:1:pos:R:3 relative_energy_eV=0.26560312306537526 branch=left pbc="F F F"
O       -0.16198185       1.98973946      -1.59061630
C       -0.72255451       1.40057817      -0.70408460
O       -1.92144995       1.78724893      -0.17826581
C       -0.20798436       0.20530548       0.07662924
O        0.40694254       0.74821165       1.22500103
C        0.74892627      -0.58922376      -0.79181831
O       -0.04600762      -1.06753251      -1.88087444
P        0.39853611      -1.32010775      -3.39555858
O       -0.73243585      -1.19270611      -4.33708324
O        1.67606452      -0.37065303      -3.65785702
O        1.12821458      -2.76183557      -3.36147960
O        0.31575729      -1.18477811       2.52142026
P       -0.11256955       0.35028258       2.86154517
O       -1.64548860       0.86804096       2.64241044
O        0.97120285       1.46085867       3.33805802
O       -0.44401828      -0.09674921       4.44180292
H       -2.17081354       2.62983991      -0.58992201
H       -1.04811331      -0.44799485       0.34371375
H       -1.82764990       1.25618840       1.76609221
H        1.55156272       0.04397247      -1.15133836
H        1.15655653      -1.42561952      -0.23160141
H        1.41256150       0.40227451      -4.17451390
H        0.58457782      -3.41594477      -3.81957175
H        0.23845169      -1.71819508       3.32156150
H        1.30527422       1.90366620       2.54535097
H       -0.96042638       0.56502920       4.91319241
26
Properties=species:S:1:pos:R:3 relative_energy_eV=0.3142831681034295 branch=left pbc="F F F"
O       -0.09191447       2.00331026      -1.52515811
C       -0.68115718       1.40393431      -0.66623836
O       -1.86078197       1.82547439      -0.13193276
C       -0.19900715       0.18152677       0.09127325
O        0.45236556       0.71227009       1.22027093
C        0.71454731      -0.63437313      -0.79815738
O       -0.09356677      -1.00076176      -1.92631392
P        0.38303931      -1.29648088      -3.42615104
O       -0.72711069      -1.17927253      -4.39359231
O        1.67858961      -0.37534574      -3.70203643
O        1.10001635      -2.74436278      -3.34675085
O        0.45966685      -1.16679562       2.57978578
P       -0.10968436       0.33340933       2.84801218
O       -1.66829361       0.73892808       2.55960392
O        0.81028661       1.56595233       3.35517072
O       -0.49774611      -0.12042531       4.41284141
H       -2.13198467       2.63879999      -0.58674621
H       -1.04666134      -0.44550922       0.38961958
H       -1.80312056       1.23659826       1.73747151
H        1.57831845      -0.04727193      -1.09143738
H        1.03892050      -1.53633981      -0.29051246
H        1.43829121       0.39490247      -4.23514825
H        0.53663162      -3.39174964      -3.78979386
H        0.37119299      -1.65146913       3.40968538
H        1.16720495       1.97156912       2.55495516
H       -0.92490774       0.60337830       4.88347237
26
Properties=species:S:1:pos:R:3 relative_energy_eV=0.35973068891325966 branch=left pbc="F F F"
O       -0.08280503       2.01614927      -1.52837938
C       -0.64832268       1.43247533      -0.64398724
O       -1.81031783       1.89055588      -0.09728841
C       -0.19815426       0.18566443       0.08640391
O        0.45740288       0.66271065       1.22934982
C        0.67960282      -0.66192807      -0.81021545
O       -0.11831659      -0.91296129      -1.97696648
P        0.38081924      -1.27590002      -3.45305737
O       -0.70943914      -1.17460647      -4.44550560
O        1.69211047      -0.36912755      -3.70366847
O        1.07422676      -2.73154404      -3.31513809
O        0.53827077      -1.17117116       2.66090895
P       -0.12078767       0.30582122       2.85180518
O       -1.70308796       0.59029665       2.51934778
O        0.69630452       1.62660030       3.32569975
O       -0.48122521      -0.10729698       4.43540241
H       -2.05630540       2.67915107      -0.60533503
H       -1.08718559      -0.40099850       0.34103336
H       -1.85694851       1.13760773       1.73301678
H        1.58586699      -0.13454852      -1.08422441
H        0.91642513      -1.60056489      -0.31143701
H        1.46702286       0.38366762      -4.26568381
H        0.53447825      -3.38718480      -3.77520756
H        0.51122464      -1.61700747       3.52085686
H        1.10244769       2.01731507       2.54071624
H       -0.87017275       0.63672075       4.90374664
26
Properties=species:S:1:pos:R:3 relative_energy_eV=0.4316843285705545 branch=left pbc="F F F"
O       -0.03662285       2.03324094      -1.57825204
C       -0.60659996       1.49667720      -0.66695493
O       -1.73824051       2.00200152      -0.09386093
C       -0.22596606       0.20546862       0.04739574
O        0.44658124       0.59237083       1.21836079
C        0.61108431      -0.67847119      -0.85169688
O       -0.18199744      -0.87161429      -2.03745776
P        0.38424548      -1.26078940      -3.48234209
O       -0.65804174      -1.17177371      -4.52501635
O        1.71504989      -0.37072386      -3.69949352
O        1.05680566      -2.71496342      -3.24732290
O        0.58703881      -1.17784232       2.73980318
P       -0.13755236       0.27027685       2.87863726
O       -1.72567724       0.35260164       2.53959621
O        0.59369299       1.66701706       3.28459798
O       -0.44952590      -0.05497546       4.50588422
H       -1.99315630       2.80129917      -0.58213104
H       -1.14610159      -0.34312281       0.27826831
H       -1.95378352       0.91514452       1.78119844
H        1.57621552      -0.22335975      -1.06502558
H        0.76499854      -1.63785583      -0.36605859
H        1.52705765       0.37008981      -4.28929681
H        0.56630455      -3.37010854      -3.75741434
H        0.67537960      -1.54921899       3.62969122
H        1.01928469       2.02219524       2.49447334
H       -0.77733936       0.71633261       4.97661129
26
Properties=species:S:1:pos:R:3 relative_energy_eV=0.5139480501820799 branch=left pbc="F F F"
O        0.02813214       2.10010225      -1.52848327
C       -0.59397315       1.55912513      -0.65365671
O       -1.65088323       2.13464484      -0.01886723
C       -0.29914879       0.22445958       0.01428956
O        0.39172963       0.51937795       1.19946179
C        0.47765230      -0.71066879      -0.88113841
O       -0.28384043      -0.80046113      -2.10353792
P        0.39401467      -1.24634009      -3.48924126
O       -0.53588898      -1.19713099      -4.63478340
O        1.73990531      -0.36181483      -3.62225806
O        1.04135230      -2.69011724      -3.14322594
O        0.75250532      -1.11130594       2.83205790
P       -0.14056965       0.24497025       2.88038293
O       -1.73341542       0.09906395       2.55568807
O        0.53284296       1.70773354       3.17846951
O       -0.44411033       0.00217146       4.52018476
H       -1.81654804       2.98134820      -0.45488562
H       -1.25329659      -0.25647757       0.22498639
H       -2.04520165       0.47473134       1.72679651
H        1.46397654      -0.30719127      -1.08388535
H        0.55096915      -1.69382787      -0.40877520
H        1.62593759       0.33617345      -4.27975043
H        0.65155973      -3.36248611      -3.71532508
H        0.73598304      -1.48687453       3.72562160
H        0.83234385       2.02494853       2.31265103
H       -0.52889395       0.83574274       4.97941946
26
Properties=species:S:1:pos:R:3 relative_energy_eV=0.5700266319254297 branch=left pbc="F F F"
O        0.09060236       2.12613333      -1.45322391
C       -0.59026263       1.60847516      -0.60475488
O       -1.60963027       2.24344302       0.02739693
C       -0.40519564       0.22250725      -0.00908301
O        0.32353148       0.37509169       1.17496600
C        0.35902416      -0.70030464      -0.92524899
O       -0.33898775      -0.76607948      -2.17582781
P        0.41853279      -1.24883751      -3.50115327
O       -0.43348952      -1.23195888      -4.70486910
O        1.75212038      -0.34460373      -3.53660171
O        1.03347553      -2.68019102      -3.07271222
O        0.83598133      -1.07834822       2.86933881
P       -0.14903384       0.21440945       2.86705063
O       -1.73071658      -0.05406867       2.59901390
O        0.41791153       1.73591897       3.06631793
O       -0.43808775       0.09617719       4.51235479
H       -1.64055514       3.14639899      -0.32600047
H       -1.40076118      -0.21775078       0.15377748
H       -2.03067060       0.13221687       1.70415335
H        1.37246212      -0.35014786      -1.07719142
H        0.40083881      -1.67975735      -0.46032806
H        1.70800745       0.29858102      -4.25439400
H        0.73200258      -3.36897334      -3.67752790
H        0.80114704      -1.45072557       3.75998324
H        0.68920521       2.06646922       2.19906160
H       -0.27431735       0.92582204       4.97769892
26
Properties=species:S:1:pos:R:3 relative_energy_eV=0.5959467913708067 branch=left pbc="F F F"
O        0.12343415       2.13791758      -1.42694468
C       -0.58398350       1.62691117      -0.59517329
O       -1.58138846       2.28843179       0.03925388
C       -0.45045578       0.22028478      -0.02204199
O        0.28189458       0.34908157       1.16684653
C        0.31402519      -0.70193945      -0.93651639
O       -0.36997875      -0.76456785      -2.20047201
P        0.42694660      -1.25249453      -3.50777046
O       -0.38557909      -1.25034031      -4.73755095
O        1.76402601      -0.35241094      -3.52964211
O        1.04500525      -2.67788092      -3.06114953
O        0.81736552      -1.08241326       2.88015109
P       -0.17004040       0.20822830       2.87375352
O       -1.74144461      -0.11665356       2.63353269
O        0.34510246       1.75654372       3.03536241
O       -0.41066584       0.12840607       4.52221976
H       -1.56781843       3.20305818      -0.28614502
H       -1.45383012      -0.21478623       0.12581241
H       -2.03221133       0.01583853       1.72316981
H        1.31727539      -0.31584199      -1.07394193
H        0.34777786      -1.68925835      -0.48171579
H        1.74688811       0.28996482      -4.24971940
H        0.76232165      -3.37343380      -3.66771575
H        0.85459128      -1.43006645       3.78269657
H        0.65339783       2.06343145       2.17295569
H       -0.15952113       0.95388702       4.95294209
26
Properties=species:S:1:pos:R:3 relative_energy_eV=0.6333770205528708 branch=left pbc="F F F"
O        0.15031009       2.10851086      -1.40327198
C       -0.59020593       1.62617822      -0.58423306
O       -1.55904774       2.32612295       0.05251802
C       -0.48966350       0.22078553      -0.03516732
O        0.23117222       0.32885400       1.16113722
C        0.28986627      -0.69024422      -0.95648155
O       -0.37238173      -0.75663967      -2.23197937
P        0.44738493      -1.25933651      -3.52197576
O       -0.36288648      -1.26413065      -4.75320947
O        1.78673349      -0.36014984      -3.53325716
O        1.06185285      -2.68365681      -3.06377862
O        0.80018372      -1.07590502       2.86862965
P       -0.19949533       0.19984407       2.87797197
O       -1.77461084      -0.13697996       2.69194430
O        0.31259719       1.74542843       3.02107183
O       -0.38174655       0.13548348       4.53737686
H       -1.50851938       3.23469526      -0.28746664
H       -1.50421745      -0.16947752       0.12806636
H       -2.07708130      -0.06879121       1.77774974
H        1.29192770      -0.29287831      -1.08218424
H        0.35191332      -1.67138480      -0.49072179
H        1.76526608       0.28361542      -4.25214842
H        0.77936851      -3.37944223      -3.67081951
H        0.89849667      -1.36283741       3.78670967
H        0.62917559       2.02250231       2.15483064
H       -0.08325795       0.95973108       4.94088589
26
Properties=species:S:1:pos:R:3 relative_energy_eV=0.7033928477103473 branch=left pbc="F F F"
O        0.17032818       2.12065844      -1.41797614
C       -0.58349575       1.65096222      -0.60072212
O       -1.52662428       2.37958931       0.03565999
C       -0.53904075       0.22470228      -0.05098378
O        0.14221110       0.25847761       1.16970419
C        0.27606779      -0.66933343      -0.95763205
O       -0.35656246      -0.76464647      -2.24801611
P        0.46750248      -1.26931699      -3.53437530
O       -0.34105201      -1.27608728      -4.76684885
O        1.80856179      -0.36935203      -3.54648373
O        1.07940704      -2.69508705      -3.07108978
O        0.82920098      -1.07268218       2.89192058
P       -0.21035097       0.18431550       2.88351460
O       -1.80494376      -0.08503993       2.76351631
O        0.32383572       1.72793378       2.97746719
O       -0.37502018       0.12091516       4.56053859
H       -1.45576319       3.28531482      -0.30951794
H       -1.55552641      -0.17409230       0.06362955
H       -2.18603079      -0.16112546       1.88457220
H        1.26510732      -0.23653096      -1.05818364
H        0.35174555      -1.64947778      -0.49490456
H        1.77673716       0.28128070      -4.25901572
H        0.79142086      -3.38482656      -3.68213147
H        0.98080366      -1.31468212       3.81777106
H        0.60061483       1.99305998       2.09022411
H       -0.03599950       0.91496810       4.99156021
26
Properties=species:S:1:pos:R:3 relative_energy_eV=0.8771003004731028 branch=left pbc="F F F"
O        0.14400268       2.10723249      -1.44962960
C       -0.60512671       1.65930427      -0.61605444
O       -1.50577333       2.43437757       0.03330643
C       -0.61024731       0.21813407      -0.10793410
O        0.01879526       0.18792462       1.14070332
C        0.26611153      -0.65306953      -0.96865196
O       -0.33586480      -0.76797975      -2.27218337
P        0.48311382      -1.27787048      -3.54682591
O       -0.32384186      -1.28622832      -4.78182678
O        1.82195559      -0.37649573      -3.55769161
O        1.08733047      -2.70546964      -3.08107457
O        0.84439433      -1.02608751       2.93860771
P       -0.21917870       0.19114446       2.99888746
O       -1.80947201      -0.08402131       2.84156033
O        0.39645382       1.69565134       3.00015991
O       -0.37220315       0.11894573       4.66285687
H       -1.42068127       3.32001076      -0.36079565
H       -1.65435075      -0.16713649      -0.16006171
H       -2.00235526      -0.15689481       1.89142219
H        1.25449269      -0.21436522      -1.05109701
H        0.34743379      -1.62993152      -0.50609779
H        1.77574523       0.27847609      -4.26531136
H        0.79498976      -3.38880005      -3.69690081
H        1.01730489      -1.30017666       3.85358958
H        0.52604091       1.94633068       2.07350854
H       -0.02593553       0.89689214       5.11973183
26
Properties=species:S:1:pos:R:3 relative_energy_eV=1.2098419643662055 branch=left pbc="F F F"
O        0.10405114       2.10308367      -1.54060548
C       -0.61490047       1.67944527      -0.66789489
O       -1.49079966       2.46561971       0.00064938
C       -0.65379457       0.23021507      -0.17802808
O       -0.24554845       0.17145036       1.16954089
C        0.24617388      -0.64801759      -1.02337378
O       -0.34801730      -0.77684766      -2.33417944
P        0.49560844      -1.29131174      -3.59287156
O       -0.28006385      -1.31490118      -4.84922641
O        1.84154932      -0.39811119      -3.59976061
O        1.10349346      -2.71605914      -3.12009369
O        0.84086152      -0.99483207       3.03149480
P       -0.23884716       0.18455865       3.21819484
O       -1.76323257      -0.11528638       2.88696076
O        0.38642668       1.65845144       3.09529885
O       -0.39342916       0.18693597       4.82388912
H       -1.40651978       3.35181607      -0.38828709
H       -1.68910381      -0.12097842      -0.32376982
H       -1.66290278      -0.09197328       1.88506424
H        1.23376257      -0.20774277      -1.11289355
H        0.31378859      -1.62934512      -0.56383221
H        1.79325102       0.28738539      -4.27815918
H        0.80021875      -3.41381705      -3.71498578
H        1.08601759      -1.36196907       3.89365324
H        0.43693570       1.83513128       2.14240846
H       -0.00184454       0.94699666       5.27300447
26
Properties=species:S:1:pos:R:3 relative_energy_eV=1.2559465486265253 branch=ts pbc="F F F"
O        0.10436388       2.12688381      -1.57415101
C       -0.61962900       1.69091720      -0.71175734
O       -1.47654213       2.46644944      -0.01227253
C       -0.67409252       0.23626312      -0.22404238
O       -0.31723813       0.17227741       1.13504336
C        0.23608769      -0.64787427      -1.05632858
O       -0.34882431      -0.78147106      -2.36663237
P        0.50317191      -1.29832047      -3.61673416
O       -0.27363461      -1.32258641      -4.87215298
O        1.84730603      -0.40186219      -3.60765167
O        1.10721597      -2.71915628      -3.12721917
O        0.83003524      -0.97392432       3.07177227
P       -0.25822999       0.17608728       3.33251782
O       -1.72191022      -0.11978092       2.88842015
O        0.36957488       1.62909947       3.10808346
O       -0.39086816       0.19876619       4.92680133
H       -1.40598999       3.35902400      -0.38914055
H       -1.70686061      -0.11490008      -0.36588414
H       -1.48883501      -0.06710013       1.81628424
H        1.22723735      -0.21088681      -1.13126063
H        0.30726371      -1.62255398      -0.57956585
H        1.80027093       0.28486233      -4.28464530
H        0.80312447      -3.41802621      -3.71978761
H        1.11482355      -1.39794603       3.89195017
H        0.41103872       1.77857963       2.14484858
H        0.02113526       0.97719890       5.32350914
26
Properties=species:S:1:pos:R:3 relative_energy_eV=0.31413110154971946 branch=right pbc="F F F"
O        0.12474591       2.16585377      -1.60720650
C       -0.63108529       1.71279153      -0.78197036
O       -1.46910301       2.45962941      -0.03621752
C       -0.72815030       0.24916327      -0.36480614
O       -0.41237843       0.16935753       0.98243216
C        0.22926149      -0.64545241      -1.11133448
O       -0.33872918      -0.79583094      -2.41177387
P        0.51751283      -1.30993480      -3.64559424
O       -0.26578145      -1.33023460      -4.89503019
O        1.85208847      -0.40619103      -3.62049114
O        1.11229818      -2.72245911      -3.13601706
O        0.79084994      -0.91663728       3.14604557
P       -0.32817699       0.15550467       3.56462524
O       -1.70912014      -0.14127279       3.08746316
O        0.35098876       1.55650788       3.13846394
O       -0.32051187       0.20148560       5.18801345
H       -1.40164600       3.36382320      -0.38430098
H       -1.75012920      -0.11613171      -0.47332305
H       -1.21191989      -0.01926039       1.51249112
H        1.22454235      -0.20445081      -1.14244293
H        0.28861592      -1.60266426      -0.59420013
H        1.80378319       0.28505755      -4.29264128
H        0.80555697      -3.42624956      -3.72055697
H        1.13486499      -1.42534349       3.88377911
H        0.36714101       1.66825481       2.15880821
H        0.07133725       1.05482629       5.42359557
26
Properties=species:S:1:pos:R:3 relative_energy_eV=-0.047174039369565435 branch=right pbc="F F F"
O        0.10892593       2.20037333      -1.69246129
C       -0.63588796       1.73810545      -0.86219536
O       -1.50293409       2.46470293      -0.12761388
C       -0.73785347       0.27932488      -0.45154931
O       -0.42328310       0.19195890       0.91513005
C        0.19753028      -0.62990173      -1.19500284
O       -0.34995359      -0.80891875      -2.50984396
P        0.54486412      -1.33606912      -3.72364845
O       -0.21312024      -1.37069735      -4.98878307
O        1.87767502      -0.42870261      -3.67603577
O        1.14703708      -2.73762283      -3.18848035
O        0.72755542      -0.97186952       3.28491376
P       -0.33332377       0.14911952       3.76758404
O       -1.69823979      -0.15749865       3.27308715
O        0.26835968       1.55504830       3.26619378
O       -0.14986250       0.27284702       5.36857612
H       -1.38815881       3.39411069      -0.37820879
H       -1.75167609      -0.06452755      -0.65749527
H       -1.20553644      -0.02978075       1.46853818
H        1.18927731      -0.19182045      -1.23432204
H        0.22995786      -1.57962182      -0.66516665
H        1.82202994       0.29786353      -4.30968888
H        0.81533996      -3.46698557      -3.72690627
H        1.15865463      -1.47553971       3.98180907
H        0.27083834       1.53065437       2.28812755
H        0.13863978       1.15558969       5.64125290
26
Properties=species:S:1:pos:R:3 relative_energy_eV=-0.10490350687905448 branch=right pbc="F F F"
O        0.09185487       2.19610087      -1.71976141
C       -0.65317645       1.75154213      -0.88134688
O       -1.50608283       2.50452344      -0.15607850
C       -0.75990229       0.28995463      -0.46539723
O       -0.46412849       0.20751491       0.91229408
C        0.18397831      -0.61498280      -1.23340371
O       -0.34599333      -0.77877064      -2.56263819
P        0.55934055      -1.34355361      -3.76236088
O       -0.17603370      -1.40597166      -5.03956986
O        1.89868003      -0.44513164      -3.71762385
O        1.16062354      -2.74035856      -3.21248613
O        0.74673861      -1.00984997       3.38712265
P       -0.31752860       0.12946661       3.82441242
O       -1.69744267      -0.16439844       3.37009434
O        0.31756234       1.50897865       3.28724620
O       -0.10725059       0.27300184       5.41904351
H       -1.37941561       3.42546802      -0.43643559
H       -1.78240485      -0.04226085      -0.64212788
H       -1.24831151      -0.04642291       1.44372931
H        1.18326469      -0.19272024      -1.27652723
H        0.23050260      -1.57838550      -0.72965997
H        1.83078900       0.29950308      -4.32870170
H        0.82304873      -3.47651959      -3.73928988
H        1.15938975      -1.47155828       4.12478762
H        0.20975374       1.53998522       2.31644051
H        0.14899965       1.16498746       5.68604862
26
Properties=species:S:1:pos:R:3 relative_energy_eV=-0.13277141523576574 branch=right pbc="F F F"
O        0.08506917       2.17105495      -1.74311244
C       -0.66255680       1.75023404      -0.89415806
O       -1.49128653       2.53168494      -0.17329027
C       -0.79097553       0.29010641      -0.47622929
O       -0.47907160       0.19109509       0.89853677
C        0.16443477      -0.59579972      -1.24400932
O       -0.33901047      -0.73799256      -2.58310471
P        0.56228808      -1.33225806      -3.76803328
O       -0.16424404      -1.41837966      -5.04797627
O        1.91152014      -0.44911868      -3.74844233
O        1.14005366      -2.72786191      -3.19476180
O        0.76029513      -1.07219074       3.49822385
P       -0.28160834       0.11048208       3.83829534
O       -1.64637138      -0.17972842       3.33903961
O        0.38755748       1.46551953       3.27891342
O       -0.10699331       0.27626750       5.43475128
H       -1.37958323       3.43219655      -0.51882514
H       -1.81284513      -0.04870764      -0.66394473
H       -1.25011405      -0.06016023       1.44794677
H        1.15189694      -0.14358235      -1.25057365
H        0.19555461      -1.57010144      -0.76394918
H        1.84460465       0.29808977      -4.35668408
H        0.83467824      -3.45685153      -3.75048964
H        1.16727765      -1.45635299       4.28218307
H        0.16092331       1.54301615       2.33152595
H        0.14536226       1.16948096       5.69597856
26
Properties=species:S:1:pos:R:3 relative_energy_eV=-0.16385061531764222 branch=right pbc="F F F"
O        0.06518939       2.16691804      -1.80000533
C       -0.68779428       1.76169713      -0.94927875
O       -1.53084032       2.54453151      -0.24540192
C       -0.81313183       0.31251052      -0.50219767
O       -0.48630150       0.25835454       0.87734148
C        0.13732160      -0.58949467      -1.25963036
O       -0.35067478      -0.69108841      -2.60281168
P        0.55060830      -1.29796045      -3.77391128
O       -0.16809044      -1.38769086      -5.05670607
O        1.91060350      -0.43315899      -3.75406759
O        1.09549736      -2.68658115      -3.16186888
O        0.78887646      -1.17469665       3.68949052
P       -0.23836694       0.05660195       3.86969381
O       -1.57185476      -0.24388242       3.29996314
O        0.47566156       1.36192904       3.25867185
O       -0.20031037       0.33686167       5.46343341
H       -1.38545326       3.44861968      -0.56465590
H       -1.84268190      -0.02517010      -0.67807424
H       -1.22363501      -0.07883306       1.42732376
H        1.14342798      -0.18458608      -1.25114992
H        0.15421680      -1.56645319      -0.78626167
H        1.88096441       0.28032739      -4.40385918
H        0.85984535      -3.42622728      -3.73575268
H        1.23657023      -1.43654877       4.50237542
H        0.19454184       1.45000893       2.32548479
H        0.11266670       1.22415352       5.67966552
26
Properties=species:S:1:pos:R:3 relative_energy_eV=-0.2344869438384194 branch=right pbc="F F F"
O        0.02544986       2.21775890      -1.91170448
C       -0.73515132       1.81340418      -1.06647113
O       -1.61681086       2.60073325      -0.41811174
C       -0.83481039       0.37788789      -0.52366548
O       -0.45958839       0.40040132       0.85330266
C        0.06989227      -0.57479869      -1.27678424
O       -0.39269782      -0.63408870      -2.63329442
P        0.52571892      -1.23777654      -3.79106521
O       -0.15023207      -1.31263258      -5.10006562
O        1.87108018      -0.35442669      -3.72988794
O        1.04378627      -2.61947202      -3.13334077
O        0.85510599      -1.32335940       4.14135304
P       -0.18373623      -0.09867638       3.93492682
O       -1.41583471      -0.50440985       3.20993629
O        0.69072191       1.04197722       3.22459558
O       -0.41368821       0.48128492       5.43937373
H       -1.43904831       3.50949532      -0.70941297
H       -1.86483921       0.01340236      -0.61047370
H       -1.11629174      -0.06354958       1.42543800
H        1.09708566      -0.22007777      -1.23573468
H       -0.02285262      -1.56094183      -0.82735470
H        1.94907477       0.20878015      -4.51171155
H        0.89042363      -3.36793015      -3.72164536
H        1.34034829      -1.27874774       4.98272763
H        0.40888883       1.11356806       2.28371826
H       -0.01513771       1.35233577       5.57316327
26
Properties=species:S:1:pos:R:3 relative_energy_eV=-0.2980532065703301 branch=right pbc="F F F"
O        0.02558826       2.19946764      -1.90495728
C       -0.75235926       1.82427252      -1.06388422
O       -1.64525004       2.62895121      -0.45231962
C       -0.84552733       0.40688304      -0.50659955
O       -0.41528877       0.45946078       0.85033378
C        0.03793160      -0.56422978      -1.26418313
O       -0.41851920      -0.62265808      -2.62391243
P        0.51825256      -1.21429509      -3.77625837
O       -0.14165057      -1.29789725      -5.09242748
O        1.84635658      -0.30573061      -3.70915245
O        1.04273698      -2.60478000      -3.13684018
O        0.83895727      -1.36843650       4.31336086
P       -0.14464797      -0.15420591       3.92946119
O       -1.31810275      -0.62413585       3.15347709
O        0.75892944       0.94656694       3.19558816
O       -0.49088497       0.51136507       5.36032281
H       -1.49199470       3.52086239      -0.80328619
H       -1.88661698       0.07187020      -0.56137260
H       -1.02838615      -0.02178484       1.45541396
H        1.07307770      -0.23637253      -1.22381733
H       -0.05338345      -1.54535038      -0.80522867
H        1.96337442       0.17556959      -4.53788310
H        0.87681891      -3.33698833      -3.74354519
H        1.34914808      -1.19657090       5.11376434
H        0.51487034       0.93912029       2.23264414
H       -0.10657269       1.38918778       5.46911305
26
Properties=species:S:1:pos:R:3 relative_energy_eV=-0.3195769074227428 branch=right pbc="F F F"
O        0.06847489       2.22350026      -1.88994517
C       -0.73342648       1.83634671      -1.07632541
O       -1.67167806       2.61981915      -0.50885314
C       -0.82991835       0.42768309      -0.48933205
O       -0.38083561       0.49897355       0.86198386
C        0.02831561      -0.55942001      -1.24758011
O       -0.45972770      -0.64041746      -2.59706146
P        0.49481591      -1.20007302      -3.75582037
O       -0.16785926      -1.29806513      -5.06847786
O        1.81458989      -0.27718632      -3.68165700
O        1.04326499      -2.59510526      -3.14816459
O        0.80778663      -1.41951480       4.40275257
P       -0.12443479      -0.19982346       3.92867311
O       -1.26431490      -0.69141994       3.11550663
O        0.83785193       0.84706904       3.19223713
O       -0.52220050       0.54756023       5.30519288
H       -1.54699427       3.50987049      -0.87335577
H       -1.87599988       0.10460013      -0.50884489
H       -0.95701650      -0.03443685       1.46312410
H        1.06071457      -0.22756097      -1.23911690
H       -0.03269125      -1.53275473      -0.76816171
H        1.96522730       0.18616714      -4.51599582
H        0.85040524      -3.31280266      -3.76544305
H        1.37080749      -1.19960202       5.15593303
H        0.55287421       0.90207574       2.24079593
H       -0.22117368       1.46465862       5.33574791
26
Properties=species:S:1:pos:R:3 relative_energy_eV=-0.33373443216260057 branch=right pbc="F F F"
O        0.10012743       2.22585409      -1.85683041
C       -0.73425462       1.84439350      -1.07464879
O       -1.71055731       2.62537544      -0.57059207
C       -0.81422489       0.44408612      -0.47662537
O       -0.35466014       0.52972285       0.86953029
C        0.04255621      -0.54590400      -1.23464217
O       -0.46983071      -0.64917006      -2.57350010
P        0.47077359      -1.19564703      -3.74761132
O       -0.19610145      -1.27793649      -5.05986407
O        1.77603745      -0.25579394      -3.65223469
O        1.03342397      -2.59505093      -3.16182292
O        0.77296959      -1.45331531       4.49232184
P       -0.11024612      -0.23609043       3.93300412
O       -1.22795694      -0.73219472       3.09021823
O        0.89891481       0.77205021       3.20285296
O       -0.53136533       0.56479586       5.27176661
H       -1.58048090       3.50878003      -0.95187516
H       -1.85590508       0.11141613      -0.49156644
H       -0.90205947      -0.03924752       1.46391374
H        1.07597981      -0.21235062      -1.24693315
H       -0.02442855      -1.51502864      -0.74802485
H        1.93696388       0.20151441      -4.48686717
H        0.83374357      -3.31488334      -3.77418915
H        1.38989619      -1.19497540       5.18951197
H        0.61539171       0.86456233       2.25549880
H       -0.32784911       1.50517898       5.20702133
26
Properties=species:S:1:pos:R:3 relative_energy_eV=-0.3419048236028175 branch=right pbc="F F F"
O        0.13973628       2.23691467      -1.82362792
C       -0.72557573       1.84314119      -1.08140334
O       -1.73719599       2.61285456      -0.63619337
C       -0.80344506       0.44592062      -0.46592769
O       -0.34655491       0.54707188       0.88083026
C        0.06251696      -0.53982806      -1.21985618
O       -0.46205441      -0.64153966      -2.55324746
P        0.45584997      -1.19003950      -3.74219943
O       -0.23103907      -1.24444368      -5.04574807
O        1.78412666      -0.28039469      -3.66633818
O        0.99706506      -2.59555352      -3.15641920
O        0.74854135      -1.47030194       4.54233978
P       -0.09657201      -0.25301574       3.93529913
O       -1.20637701      -0.74932186       3.08224455
O        0.94999088       0.71924050       3.20783161
O       -0.53109685       0.57024341       5.25363651
H       -1.60057737       3.48930744      -1.03149834
H       -1.84182802       0.10187546      -0.47825106
H       -0.89381404      -0.01875414       1.48029896
H        1.08829614      -0.18733360      -1.24582208
H        0.02198709      -1.50965694      -0.72793914
H        1.87905921       0.24971610      -4.46750251
H        0.81702056      -3.31142179      -3.77788355
H        1.39436545      -1.18411481       5.19941869
H        0.67158553       0.81757156       2.26002316
H       -0.42715300       1.52200410       5.14574722
26
Properties=species:S:1:pos:R:3 relative_energy_eV=-0.34774609973828774 branch=right pbc="F F F"
O        0.17913594       2.23372691      -1.79512692
C       -0.70778831       1.83949912      -1.07910225
O       -1.75213271       2.59124280      -0.68309788
C       -0.78535515       0.44910542      -0.45858366
O       -0.34334072       0.55510019       0.89232628
C        0.08742893      -0.52577080      -1.21783371
O       -0.44650452      -0.63498575      -2.54749865
P        0.45203002      -1.19956987      -3.74629365
O       -0.26062159      -1.24123357      -5.03638429
O        1.79845803      -0.31427797      -3.69710082
O        0.99232725      -2.61061832      -3.17223570
O        0.73631908      -1.47625688       4.55310061
P       -0.09996350      -0.25228489       3.94828538
O       -1.22340861      -0.73284031       3.10182268
O        0.95705022       0.69763215       3.20747484
O       -0.50379920       0.57361003       5.27710663
H       -1.62487789       3.46830682      -1.07905135
H       -1.82149032       0.10239523      -0.48104242
H       -0.90753222       0.00639226       1.49245751
H        1.10855163      -0.16188479      -1.24826253
H        0.06136217      -1.49494383      -0.72801483
H        1.82841735       0.30345690      -4.43914374
H        0.78977076      -3.32298504      -3.79173126
H        1.40502288      -1.20369456       5.19471075
H        0.67146712       0.80312116       2.26201829
H       -0.48366906       1.52789912       5.13901319
26
Properties=species:S:1:pos:R:3 relative_energy_eV=-0.3507831137467292 branch=right pbc="F F F"
O        0.20122843       2.25395352      -1.76909320
C       -0.69526788       1.84031377      -1.07532044
O       -1.76275945       2.57460444      -0.70965805
C       -0.76906144       0.44507188      -0.45842561
O       -0.33826753       0.55332300       0.89381137
C        0.11389413      -0.52522305      -1.21275712
O       -0.42768978      -0.64036901      -2.53844067
P        0.45013688      -1.20824615      -3.75157712
O       -0.28976589      -1.24657664      -5.02670497
O        1.80624145      -0.33614592      -3.72014005
O        1.00060278      -2.62154613      -3.19364202
O        0.72501594      -1.48228177       4.53654360
P       -0.10599759      -0.24244817       3.95506623
O       -1.24735048      -0.69584484       3.11736355
O        0.94674814       0.70676487       3.20965840
O       -0.48012299       0.57251902       5.29794352
H       -1.63853660       3.45392261      -1.10304463
H       -1.80334205       0.09180919      -0.48730062
H       -0.91986920       0.02685133       1.49621213
H        1.13258402      -0.15311432      -1.24751730
H        0.09495761      -1.49509285      -0.72303504
H        1.79441033       0.34294566      -4.40663732
H        0.75782286      -3.33433328      -3.79844776
H        1.41108796      -1.22531933       5.16734748
H        0.66470853       0.79810363       2.26144325
H       -0.51455074       1.52649999       5.15416500
26
Properties=species:S:1:pos:R:3 relative_energy_eV=-0.3527182696852833 branch=right pbc="F F F"
O        0.21614723       2.26016162      -1.75108331
C       -0.69097178       1.83720570      -1.07732215
O       -1.77348921       2.55982721      -0.73282721
C       -0.75896417       0.44126435      -0.46137168
O       -0.33039839       0.55196410       0.89176399
C        0.12936861      -0.52513808      -1.21474481
O       -0.41753481      -0.64824091      -2.53757666
P        0.45260068      -1.21368423      -3.75913909
O       -0.30650887      -1.25231578      -5.02290316
O        1.81140680      -0.34522404      -3.73688653
O        1.01952114      -2.62771661      -3.22008604
O        0.70331267      -1.48604548       4.52976973
P       -0.10935684      -0.22913811       3.96047639
O       -1.25984494      -0.66011776       3.12328155
O        0.95608043       0.70801599       3.21665135
O       -0.45928158       0.57025486       5.32011871
H       -1.65453709       3.44175462      -1.12248823
H       -1.79124671       0.08163134      -0.49328732
H       -0.92114139       0.03752366       1.49481829
H        1.14645347      -0.14925419      -1.25656531
H        0.11469980      -1.49092037      -0.71633109
H        1.77377988       0.37382788      -4.38071667
H        0.71813075      -3.34253897      -3.79582338
H        1.40244264      -1.23932892       5.14954270
H        0.67499167       0.80399624       2.26933066
H       -0.53880288       1.52237723       5.19121197
26
Properties=species:S:1:pos:R:3 relative_energy_eV=-0.35440309358091326 branch=right pbc="F F F"
O        0.22539308       2.25947834      -1.74592630
C       -0.68668717       1.82551110      -1.08552019
O       -1.78517514       2.53338682      -0.76119874
C       -0.74552683       0.43321814      -0.46036656
O       -0.30514062       0.55430865       0.88946473
C        0.14340429      -0.52867559      -1.21848663
O       -0.41150766      -0.65360040      -2.53846247
P        0.45268024      -1.21411533      -3.76828935
O       -0.31619393      -1.24225828      -5.02650405
O        1.81318303      -0.34974215      -3.75132838
O        1.03043783      -2.62842159      -3.24195271
O        0.68007948      -1.49092236       4.51826420
P       -0.11227882      -0.21390579       3.96659067
O       -1.27770772      -0.60650966       3.13015763
O        0.96683014       0.70890924       3.22560943
O       -0.43885725       0.56666008       5.34220498
H       -1.66908614       3.41656920      -1.14841571
H       -1.77875130       0.07517865      -0.48203798
H       -0.90080629       0.05592910       1.50186819
H        1.15538473      -0.13853767      -1.26056412
H        0.14352498      -1.49675820      -0.72444168
H        1.74381301       0.40657975      -4.34850462
H        0.67601925      -3.35071433      -3.77789769
H        1.38769474      -1.26356139       5.13655692
H        0.69031241       0.80812105       2.27729840
H       -0.57418154       1.51401374       5.21969470
26
Properties=species:S:1:pos:R:3 relative_energy_eV=-0.35704886430175975 branch=right pbc="F F F"
O        0.21947174       2.23111927      -1.76615352
C       -0.68751216       1.78847006      -1.10311437
O       -1.80805239       2.47421921      -0.80925378
C       -0.70113842       0.40939039      -0.44710604
O       -0.20485265       0.55013661       0.88086944
C        0.17409665      -0.54340117      -1.22914522
O       -0.40722779      -0.66400902      -2.53690087
P        0.44913025      -1.20176242      -3.78440350
O       -0.33955019      -1.21038657      -5.02980887
O        1.81035400      -0.34044996      -3.77347036
O        1.04449011      -2.61861283      -3.28492031
O        0.60813817      -1.50419834       4.46997048
P       -0.11815874      -0.16669559       3.97093801
O       -1.30914015      -0.46790049       3.12879181
O        0.99243888       0.73018243       3.24757629
O       -0.37934089       0.57382176       5.38187343
H       -1.71245062       3.34902338      -1.22178898
H       -1.72454065       0.02670071      -0.40871059
H       -0.83087985       0.11949661       1.51683640
H        1.18247236      -0.14880940      -1.29593526
H        0.18819181      -1.51161205      -0.73690701
H        1.68945126       0.49257296      -4.25390618
H        0.57985306      -3.34725414      -3.72260814
H        1.32379574      -1.34599437       5.10143222
H        0.74871269       0.81733833       2.28868154
H       -0.68089648       1.48875482       5.28497595
26
Properties=species:S:1:pos:R:3 relative_energy_eV=-0.3721043072437169 branch=right pbc="F F F"
O        0.18578457       2.18765967      -1.86146108
C       -0.67740307       1.76332776      -1.13095874
O       -1.78881607       2.44798932      -0.80557954
C       -0.66078215       0.40386228      -0.43608714
O       -0.17049409       0.56339959       0.88931585
C        0.19893581      -0.56103516      -1.21929686
O       -0.40521397      -0.64750371      -2.52048730
P        0.41766932      -1.18110482      -3.78898275
O       -0.39533761      -1.20368754      -5.01791111
O        1.78610162      -0.33564975      -3.79650732
O        1.03006383      -2.59302110      -3.29833210
O        0.57686369      -1.50623933       4.45697694
P       -0.10020063      -0.13730598       3.98079125
O       -1.31325643      -0.37329979       3.14997743
O        1.05744865       0.69188145       3.25344623
O       -0.34395335       0.61072577       5.39142668
H       -1.75366816       3.28785098      -1.29119990
H       -1.68194308       0.01595781      -0.41296117
H       -0.81569512       0.19137222       1.54201813
H        1.22014733      -0.20535426      -1.29470565
H        0.19238371      -1.53794484      -0.74673768
H        1.66004350       0.56279863      -4.12965374
H        0.59922668      -3.32100939      -3.76433564
H        1.26907329      -1.39514590       5.12061645
H        0.81673071       0.79434723       2.29623505
H       -0.79685435       1.45726771       5.30220537
26
Properties=species:S:1:pos:R:3 relative_energy_eV=-0.4049603793755523 branch=right pbc="F F F"
O        0.17571055       2.15052220      -1.93024527
C       -0.66177245       1.74361192      -1.15847418
O       -1.77046385       2.42498913      -0.81907813
C       -0.62682421       0.40275715      -0.42919110
O       -0.10520758       0.59953722       0.87859608
C        0.21001374      -0.58954763      -1.20443104
O       -0.40954148      -0.70665777      -2.49509237
P        0.41074751      -1.17711775      -3.79297939
O       -0.43885191      -1.19160300      -4.99744065
O        1.75592509      -0.29263790      -3.78775145
O        1.06119812      -2.59479826      -3.37405938
O        0.48859689      -1.51781263       4.47788847
P       -0.09019570      -0.11058014       3.97537937
O       -1.30795138      -0.25820705       3.13114509
O        1.12877987       0.64246630       3.26284490
O       -0.28410067       0.66784450       5.37499277
H       -1.79780885       3.23104567      -1.36041221
H       -1.65088373       0.02509099      -0.35786723
H       -0.76407486       0.26372855       1.53765633
H        1.23329463      -0.23377586      -1.28423477
H        0.19924889      -1.55797825      -0.71155882
H        1.56282346       0.63833294      -3.96947336
H        0.59138600      -3.30500106      -3.82955855
H        1.19825847      -1.41478302       5.12612349
H        0.91848500       0.74676739       2.30031052
H       -0.91993853       1.39394323       5.30472150
26
Properties=species:S:1:pos:R:3 relative_energy_eV=-0.4387331902544247 branch=right pbc="F F F"
O        0.18401771       2.13666010      -1.95633062
C       -0.65592989       1.74657507      -1.17670450
O       -1.75251879       2.45061942      -0.84677785
C       -0.62849838       0.42141275      -0.42225309
O       -0.10061800       0.65398075       0.87875504
C        0.20327582      -0.61173636      -1.15299397
O       -0.42729969      -0.81790750      -2.42770978
P        0.38350694      -1.19929470      -3.76607409
O       -0.47729999      -1.16613157      -4.96215354
O        1.68636405      -0.25654854      -3.75976892
O        1.09192212      -2.61445772      -3.43308506
O        0.43509806      -1.50903498       4.57209542
P       -0.06363683      -0.11901787       3.95594945
O       -1.27984735      -0.27322460       3.11071164
O        1.20235591       0.48830480       3.20139892
O       -0.25136937       0.80859393       5.26165400
H       -1.72728294       3.27414906      -1.36068192
H       -1.65699941       0.05737593      -0.33973432
H       -0.75426970       0.31923036       1.54704546
H        1.22661016      -0.26326486      -1.26495145
H        0.19001372      -1.53811725      -0.58085853
H        1.42777103       0.67532929      -3.80756020
H        0.73636360      -3.30103492      -4.01044245
H        1.20822350      -1.42501208       5.14450653
H        0.94717992       0.68067601       2.26239657
H       -1.04028006       1.36201076       5.20137649
26
Properties=species:S:1:pos:R:3 relative_energy_eV=-0.4786617233767174 branch=right pbc="F F F"
O        0.11238012       2.01217650      -2.08422539
C       -0.66909766       1.68211206      -1.21786497
O       -1.68035630       2.45207722      -0.78585670
C       -0.63093308       0.38250621      -0.43115469
O       -0.05832872       0.67247847       0.84173183
C        0.17700019      -0.68358142      -1.13703112
O       -0.44664114      -0.96337010      -2.39418604
P        0.38281369      -1.19575391      -3.76055747
O       -0.49507823      -1.17682591      -4.94462528
O        1.62493690      -0.17798216      -3.68721030
O        1.17668102      -2.58487575      -3.51778209
O        0.31809409      -1.47765187       4.49882121
P       -0.06330514      -0.03193634       3.91621672
O       -1.31175912      -0.08960573       3.09954987
O        1.23435829       0.50776493       3.16692083
O       -0.15473128       0.92019375       5.21689044
H       -1.63197131       3.29067650      -1.27134456
H       -1.65577360       0.02981750      -0.29280409
H       -0.71232089       0.41396361       1.54322427
H        1.19741392      -0.34194378      -1.26309126
H        0.17443647      -1.58110878      -0.52628368
H        1.32802056       0.74483957      -3.58406952
H        0.83661363      -3.25986914      -4.11346292
H        1.09982398      -1.48446621       5.06485053
H        1.01864114       0.67961594       2.21406592
H       -1.06406806       1.24088076       5.31708495
26
Properties=species:S:1:pos:R:3 relative_energy_eV=-0.5080885377246886 branch=right pbc="F F F"
O        0.08014858       1.92933039      -2.15955974
C       -0.66905064       1.65894628      -1.24632113
O       -1.59693028       2.49788768      -0.76676753
C       -0.66188912       0.36111787      -0.45027607
O       -0.11879041       0.64802005       0.83540543
C        0.16296953      -0.71035409      -1.13263060
O       -0.44858446      -1.00570049      -2.39248397
P        0.39005117      -1.20205227      -3.75915054
O       -0.49167853      -1.19390165      -4.94083432
O        1.59054427      -0.14168020      -3.67363524
O        1.22601534      -2.57126446      -3.53428351
O        0.30573412      -1.45960324       4.49077764
P       -0.06285236       0.00007819       3.92212689
O       -1.32982473      -0.03492441       3.13834725
O        1.22708254       0.50319293       3.13635745
O       -0.08661785       0.97717834       5.20825850
H       -1.51885894       3.33986331      -1.24526522
H       -1.68910571       0.00797104      -0.33986621
H       -0.79758201       0.45809199       1.52829531
H        1.18684108      -0.36922551      -1.24884153
H        0.15592887      -1.60762523      -0.51761686
H        1.24286706       0.74981998      -3.48879753
H        0.95493228      -3.21765594      -4.19922283
H        1.07933448      -1.46779519       5.07199290
H        0.97705838       0.63214347       2.18594505
H       -1.00089397       1.19827122       5.44585144
26
Properties=species:S:1:pos:R:3 relative_energy_eV=-0.5276056235088618 branch=right pbc="F F F"
O        0.15332154       1.91950602      -2.14883420
C       -0.62407481       1.64967613      -1.25614970
O       -1.55708435       2.49959591      -0.81764713
C       -0.65658822       0.34856267      -0.46353871
O       -0.16322548       0.62028212       0.84240437
C        0.18106318      -0.72243332      -1.13062524
O       -0.44720782      -1.05345589      -2.37242566
P        0.37527701      -1.19204493      -3.75674425
O       -0.51384684      -1.21079209      -4.93231701
O        1.52539537      -0.08254285      -3.68479322
O        1.25539327      -2.53476784      -3.54628592
O        0.28429875      -1.45574438       4.49801303
P       -0.08138657       0.00892945       3.94225302
O       -1.36352253      -0.00652976       3.18688237
O        1.19323019       0.50060283       3.12732530
O       -0.05244515       0.96768369       5.24140459
H       -1.47386363       3.31877621      -1.33469462
H       -1.69080269       0.00113907      -0.40048017
H       -0.85152960       0.40776592       1.52167369
H        1.20080868      -0.37326052      -1.26852296
H        0.19581621      -1.60292027      -0.49473722
H        1.16727861       0.77826979      -3.40232730
H        0.96845409      -3.19654431      -4.19084689
H        1.09795026      -1.47057271       5.01968982
H        0.92992775       0.63968797       2.18143412
H       -0.94578863       1.22126060       5.50769504
26
Properties=species:S:1:pos:R:3 relative_energy_eV=-0.5366095814533764 branch=right pbc="F F F"
O        0.22655250       1.92275807      -2.11168517
C       -0.59432789       1.64690662      -1.25991128
O       -1.57334371       2.48106467      -0.90107500
C       -0.64120269       0.35624914      -0.45031731
O       -0.15207954       0.63618007       0.85371182
C        0.18164434      -0.72584964      -1.11686570
O       -0.45639241      -1.02575535      -2.35828587
P        0.35067686      -1.17006491      -3.75024511
O       -0.58210172      -1.21651414      -4.88944924
O        1.48117155      -0.04025394      -3.71380749
O        1.27407792      -2.48706521      -3.54922589
O        0.28641554      -1.46280834       4.55225363
P       -0.08251806      -0.01946088       3.94721755
O       -1.35745235      -0.06858544       3.17749537
O        1.20042440       0.45272141       3.13092617
O       -0.07416554       0.97708310       5.21872850
H       -1.47960900       3.28517643      -1.43993919
H       -1.68036933       0.02588877      -0.38420770
H       -0.83506236       0.38992004       1.52626924
H        1.20590755      -0.38723425      -1.25092923
H        0.18128633      -1.61490086      -0.49232984
H        1.13668924       0.79808956      -3.34833648
H        0.98817928      -3.17751196      -4.16304263
H        1.12800812      -1.47753515       5.02624875
H        0.94139417       0.59834791       2.18357722
H       -0.96695415       1.28328378       5.43103100
26
Properties=species:S:1:pos:R:3 relative_energy_eV=-0.5456166868898435 branch=right pbc="F F F"
O        0.27635911       1.92153295      -2.07401909
C       -0.58000769       1.63668176      -1.25993474
O       -1.58274373       2.45961156      -0.94427914
C       -0.63973413       0.35185587      -0.44429374
O       -0.13339497       0.64692307       0.85155932
C        0.16344107      -0.75194411      -1.10414900
O       -0.45557356      -1.03066110      -2.35942494
P        0.34581607      -1.15442156      -3.76104858
O       -0.59424451      -1.25874779      -4.89017473
O        1.42587330       0.02053433      -3.75726720
O        1.31714053      -2.43518740      -3.56452965
O        0.27902986      -1.46661696       4.54838835
P       -0.08116604      -0.02274778       3.94211526
O       -1.35027614      -0.05824071       3.16236538
O        1.21361203       0.43660223       3.13639827
O       -0.07794041       0.97777296       5.20760963
H       -1.47307457       3.27137466      -1.46930087
H       -1.68208594       0.03220392      -0.36632336
H       -0.81368712       0.41943160       1.53428467
H        1.20394942      -0.45417865      -1.21057417
H        0.11347611      -1.63857392      -0.47820372
H        1.09749464       0.80829177      -3.28132704
H        1.01314509      -3.14898441      -4.14150421
H        1.12613012      -1.48555888       5.01271353
H        0.95843332       0.58429875       2.18949555
H       -0.96312270       1.31887684       5.38923096
26
Properties=species:S:1:pos:R:3 relative_energy_eV=-0.5510078827501275 branch=right pbc="F F F"
O        0.31324110       1.91972758      -2.03531357
C       -0.57046289       1.62639278      -1.25415097
O       -1.59183415       2.43886373      -0.97168886
C       -0.64531594       0.33768378      -0.44347596
O       -0.12592763       0.61825529       0.84989686
C        0.13771282      -0.76819609      -1.12408921
O       -0.47988713      -0.97905336      -2.39577890
P        0.34628005      -1.14016955      -3.78163663
O       -0.56669188      -1.29353770      -4.92820265
O        1.40139759       0.05896293      -3.80563570
O        1.32371730      -2.40745535      -3.50961652
O        0.28068620      -1.47443998       4.52836323
P       -0.07698823      -0.01813859       3.95379460
O       -1.34838160      -0.03389995       3.17852384
O        1.21078068       0.46741845       3.14888446
O       -0.06500502       0.94432150       5.24903606
H       -1.47057346       3.25856806      -1.48218416
H       -1.69099353       0.02999420      -0.36272651
H       -0.81281730       0.41892338       1.53442912
H        1.18357407      -0.48718354      -1.21690786
H        0.06870915      -1.67724587      -0.52928501
H        1.09165135       0.81910438      -3.27001509
H        1.04736298      -3.14394192      -4.07373428
H        1.11618613      -1.50902882       5.01081619
H        0.95802421       0.62089743       2.20242818
H       -0.92759544       1.35330627       5.39607663
26
Properties=species:S:1:pos:R:3 relative_energy_eV=-0.5598315313036437 branch=right pbc="F F F"
O        0.33586330       1.92576468      -1.99318813
C       -0.56642453       1.63080662      -1.23461947
O       -1.57151730       2.45832410      -0.94318284
C       -0.67710565       0.32880202      -0.45526731
O       -0.13941561       0.57564642       0.83740150
C        0.08104940      -0.78072187      -1.15451582
O       -0.53113449      -0.96725017      -2.43315639
P        0.34385994      -1.15174132      -3.78497449
O       -0.51171308      -1.36005004      -4.96544583
O        1.36471010       0.07621935      -3.80120428
O        1.32974804      -2.38955768      -3.42366242
O        0.28644196      -1.46690714       4.51239582
P       -0.06420714      -0.00475773       3.94647406
O       -1.34493276      -0.00871631       3.18561018
O        1.21985821       0.46776033       3.12802459
O       -0.03076562       0.95515204       5.24334808
H       -1.42217765       3.28640351      -1.43090278
H       -1.72943512       0.04567397      -0.37202342
H       -0.82739776       0.39981306       1.52805023
H        1.13366825      -0.52270287      -1.23763646
H       -0.00984224      -1.69667813      -0.57820700
H        1.05771319       0.81470562      -3.23676705
H        1.19681131      -3.09991559      -4.06073842
H        1.11256352      -1.50150033       5.01066250
H        0.95818255       0.59307597       2.18031029
H       -0.88755156       1.37248025       5.40102158
26
Properties=species:S:1:pos:R:3 relative_energy_eV=-0.5625335999575327 branch=right pbc="F F F"
O        0.33610647       1.92564365      -1.98892449
C       -0.56798928       1.63188179      -1.23203000
O       -1.57480702       2.46048711      -0.94712865
C       -0.68155726       0.32750927      -0.45496928
O       -0.12879764       0.55360076       0.83452043
C        0.06248459      -0.78615608      -1.16254130
O       -0.53895671      -0.95069922      -2.44869903
P        0.35051531      -1.14544190      -3.79071723
O       -0.49413396      -1.38202419      -4.97374081
O        1.35566946       0.09408039      -3.81749321
O        1.35049428      -2.36673105      -3.40976583
O        0.28130251      -1.46539596       4.51287984
P       -0.06189947      -0.00118397       3.94806789
O       -1.34253363       0.00960888       3.18708245
O        1.22536291       0.45959221       3.12901628
O       -0.02166103       0.95393798       5.24801244
H       -1.42262969       3.28803613      -1.43549673
H       -1.73609808       0.05686112      -0.36396304
H       -0.81358960       0.37618429       1.52850497
H        1.11936118      -0.54330860      -1.23627549
H       -0.04714604      -1.70578208      -0.59406993
H        1.05377412       0.82314355      -3.23815495
H        1.20715531      -3.09500041      -4.02827830
H        1.10342618      -1.49592693       5.01932706
H        0.96651231       0.57651451       2.17952190
H       -0.87351597       1.38069741       5.40312166
26
Properties=species:S:1:pos:R:3 relative_energy_eV=-0.5648660532388021 branch=right pbc="F F F"
O        0.33348422       1.92320245      -1.98881680
C       -0.56832461       1.63635375      -1.22647545
O       -1.56052799       2.47676420      -0.92312756
C       -0.70019332       0.32509938      -0.46230207
O       -0.15327254       0.53328532       0.83305016
C        0.03978932      -0.79203434      -1.16923739
O       -0.53957926      -0.93568916      -2.46720876
P        0.36157708      -1.14458259      -3.79947702
O       -0.47192236      -1.41116291      -4.98393634
O        1.35360394       0.10649970      -3.84315763
O        1.37517758      -2.34480259      -3.39111582
O        0.27777144      -1.45624065       4.52994934
P       -0.05341858       0.00402737       3.94847236
O       -1.34354075       0.00537975       3.20179455
O        1.22751339       0.44453118       3.11009452
O        0.01001978       0.97731528       5.23463808
H       -1.40352428       3.30666990      -1.40585871
H       -1.75891616       0.06629823      -0.38068666
H       -0.83602487       0.34512161       1.52584239
H        1.10133911      -0.56289666      -1.21535415
H       -0.09401979      -1.71553474      -0.61229320
H        1.04782638       0.83388545      -3.26370547
H        1.24723856      -3.08928053      -3.99223339
H        1.10068694      -1.49641199       5.03486785
H        0.95867344       0.55550860       2.16208849
H       -0.84458750       1.38882271       5.41199512
26
Properties=species:S:1:pos:R:3 relative_energy_eV=-0.5662958566899761 branch=right pbc="F F F"
O        0.33956610       1.92155904      -1.97621668
C       -0.56766797       1.63425603      -1.22075743
O       -1.55706413       2.47788412      -0.91893236
C       -0.70591505       0.32128536      -0.46226313
O       -0.15995625       0.52782612       0.83354631
C        0.03375643      -0.79281562      -1.17454965
O       -0.54411036      -0.92617758      -2.47496565
P        0.36513414      -1.13769231      -3.80163155
O       -0.46129382      -1.42078626      -4.98709998
O        1.34614685       0.12034045      -3.85423849
O        1.39125408      -2.32311161      -3.37881309
O        0.27178320      -1.45521716       4.55201520
P       -0.05242910      -0.00214739       3.94811106
O       -1.34515054      -0.00229475       3.20626501
O        1.23108120       0.41391206       3.10159793
O        0.02151469       0.99789015       5.21357612
H       -1.39424232       3.30471982      -1.40437503
H       -1.76472601       0.06121899      -0.38434378
H       -0.84265421       0.34745156       1.52827198
H        1.09628954      -0.56686896      -1.21943713
H       -0.10442602      -1.72070973      -0.62599725
H        1.03984891       0.84956454      -3.27712485
H        1.24408541      -3.08857202      -3.94882114
H        1.10447582      -1.49018278       5.04124690
H        0.95844206       0.53009103       2.15552508
H       -0.83689345       1.39870562       5.39721803
26
Properties=species:S:1:pos:R:3 relative_energy_eV=-0.5668470410382724 branch=right pbc="F F F"
O        0.33934462       1.92484733      -1.97690201
C       -0.56734862       1.63546858      -1.22153463
O       -1.55705953       2.47750982      -0.91563366
C       -0.70706912       0.32043851      -0.46636361
O       -0.16311136       0.52034590       0.83118785
C        0.03275157      -0.79328172      -1.17789355
O       -0.54527375      -0.92713799      -2.47804975
P        0.36696414      -1.13708502      -3.80278981
O       -0.45570117      -1.42725005      -4.98903606
O        1.34062512       0.12588972      -3.85510964
O        1.39760972      -2.31658829      -3.37498610
O        0.26626039      -1.45023895       4.56883540
P       -0.05154522      -0.00308144       3.94833071
O       -1.34483515      -0.00289694       3.20777324
O        1.23184021       0.39878054       3.09510947
O        0.02797943       1.00796611       5.20424463
H       -1.39070790       3.31082129      -1.38825015
H       -1.76649578       0.06293523      -0.39112476
H       -0.85002509       0.35174809       1.52438365
H        1.09526479      -0.56688633      -1.22295528
H       -0.10384111      -1.72105051      -0.62841535
H        1.03547610       0.85223402      -3.27404042
H        1.24574693      -3.08957126      -3.93338897
H        1.10767871      -1.48943070       5.04170787
H        0.95448944       0.51257242       2.14987622
H       -0.83216823       1.40307027       5.39283108
26
Properties=species:S:1:pos:R:3 relative_energy_eV=-0.5673744100204203 branch=right pbc="F F F"
O        0.32331011       1.92781158      -1.98533055
C       -0.57368938       1.63823152      -1.21853089
O       -1.55622188       2.48209616      -0.89455322
C       -0.70702226       0.32018238      -0.46745324
O       -0.16170199       0.51722614       0.82977343
C        0.03625305      -0.78816525      -1.18317461
O       -0.54412758      -0.92340453      -2.48217118
P        0.37028217      -1.13843844      -3.80494625
O       -0.44975393      -1.42786170      -4.99314546
O        1.34530199       0.12380553      -3.85426123
O        1.39756463      -2.31888069      -3.37123342
O        0.25493741      -1.44768270       4.57882773
P       -0.05346698      -0.00333916       3.94642562
O       -1.34632682      -0.00113364       3.20530984
O        1.23413394       0.38143515       3.09188298
O        0.03174391       1.02019310       5.19185809
H       -1.39721378       3.31554467      -1.36940882
H       -1.76523639       0.05830018      -0.39161938
H       -0.84853692       0.34796993       1.52324969
H        1.09691965      -0.55429506      -1.23164262
H       -0.09155266      -1.71771842      -0.63456831
H        1.03730851       0.84537746      -3.26838292
H        1.24055844      -3.09814816      -3.91921084
H        1.10359977      -1.49166600       5.03873761
H        0.95844166       0.49998793       2.14681383
H       -0.82865550       1.41270027       5.38456053
