26
Properties=species:S:1:pos:R:3 relative_energy_eV=2.4961082299705595 branch=ts pbc="F F F"
O        2.38008980      -1.77957543      -0.02968761
C        1.63771285      -1.05841310       0.57076806
O        0.94705134      -1.40845635       1.71528345
P        1.36338216      -2.74528362       2.60550328
O        2.74418207      -2.80297021       3.09137691
O        0.92816702      -3.98386043       1.69485190
O        0.19630527      -2.57701508       3.70609502
C        1.27042161       0.35705619       0.15320623
O        0.81928654       1.19913159       1.18109792
C        0.21543868       0.25996439      -0.94859384
O       -0.07183679       1.61398584      -1.37358319
P       -1.67077637       1.80418384      -2.28193529
O       -2.72857026       0.83998783      -1.87185696
O       -1.71923673       3.29900747      -2.84905695
O       -0.99957180       1.18787118      -3.65157291
O       -1.81343381       2.82815752      -0.44648277
H       -0.02430929      -4.04435588       1.54280336
H        0.55800483      -2.68326521       4.59570288
H        2.16583301       0.80519756      -0.27158489
H        0.27169793       0.67190394       1.77831267
H        0.58335365      -0.27935541      -1.81496654
H       -0.70742169      -0.19639150      -0.58826905
H       -1.91709541       3.86060099      -2.07990061
H       -1.43155941       0.34289258      -3.81553900
H       -0.48155802       2.18541433      -0.56906066
H       -2.51554034       2.30373893      -0.04277073
