16
Properties=species:S:1:pos:R:3 pbc="F F F"
O        3.05771350       0.23992585       0.24028287
C        1.94722471       0.61256570       0.55823584
C        0.76796077      -0.32537982       0.47920589
O        1.19957728      -1.60495867       0.09587631
C       -0.28084080       0.20015664      -0.50920648
O       -0.56463381       1.55982091      -0.14960901
C       -1.56520841      -0.61596633      -0.46846733
O       -2.22901170      -0.49315526       0.77447386
H        1.75691021       1.63724550       0.91044687
H        0.29170273      -0.35158256       1.46836548
H        2.16470162      -1.52862632      -0.00712971
H        0.16082501       0.14878263      -1.50950057
H       -0.87019729       2.02612603      -0.93412904
H       -1.33754187      -1.66930055      -0.61037285
H       -2.20905301      -0.29003732      -1.29479003
H       -2.29012814       0.45438252       0.95631791
