12
Properties=species:S:1:pos:R:3 pbc="F F F"
C        0.03549624       0.04038930      -0.65632279
O       -0.50060386       1.11074806      -0.86222192
O       -1.26602964       0.64785310       1.90877635
C        0.38810653      -0.96518560      -1.70591496
C        0.08909220       0.52090325       1.65645071
O        0.38064206      -0.39689735       0.57688689
H        1.42449883      -1.27855273      -1.60757905
H        0.56230198       1.47429660       1.41945783
H       -1.64076901       1.16395557       1.17952176
H       -0.23300089      -1.85122087      -1.58477845
H        0.54800283       0.05957452       2.52447619
H        0.21437685      -0.53716173      -2.68593394
