12
Properties=species:S:1:pos:R:3 pbc="F F F"
C        0.03940393       0.48906286      -1.07639234
O       -1.04808885       0.85069672      -0.66123856
O       -1.10665037       0.77333551       2.09200599
C        0.26894633      -0.75520005      -1.85271526
C        0.03758048       0.13697394       2.32303477
O        0.83447162      -0.24299978       1.49019101
H        0.83326461      -1.45047839      -1.22806373
H        0.93897914       1.10049478      -0.89132119
H       -1.19768756       0.88133006       1.11318347
H       -0.66809780      -1.21589081      -2.15041386
H        0.17823517      -0.00636134       3.40554762
H        0.88750511      -0.54970361      -2.72662408
