16
Properties=species:S:1:pos:R:3 relative_energy_eV=0.0 branch=left pbc="F F F"
C       -0.69377834       1.11820208      -1.85781833
C       -0.09890877       0.39317685      -0.77574972
C        0.02135320      -1.04525033      -0.69757045
C        0.47403956      -1.41789159       0.66448403
C       -0.10091726       0.93627588       0.67224343
C       -0.08699664      -0.31940120       1.55955594
H       -0.76172139       0.65823793      -2.83379993
H       -0.70962306       2.19654445      -1.81709025
H        0.95572880       0.54220806      -1.17323023
H        0.11301101      -1.64139837      -1.59468880
H        1.57465105      -1.41892679       0.72149430
H        0.16752451      -2.41913340       0.96032092
H       -0.96961705       1.56701115       0.86912706
H        0.78017678       1.55188148       0.85609581
H       -1.10642499      -0.57361274       1.85184411
H        0.48727313      -0.17748282       2.47338905
16
Properties=species:S:1:pos:R:3 relative_energy_eV=7.052976798149757e-06 branch=left pbc="F F F"
C       -0.69352585       1.11850688      -1.85806549
C       -0.09903469       0.39322748      -0.77592389
C        0.02115807      -1.04520614      -0.69768484
C        0.47392098      -1.41790425       0.66446411
C       -0.10132639       0.93616355       0.67216882
C       -0.08654046      -0.31931591       1.55975833
H       -0.76149989       0.65870437      -2.83422433
H       -0.70886469       2.19679308      -1.81695900
H        0.95586843       0.54156569      -1.17278927
H        0.11284313      -1.64171505      -1.59460972
H        1.57451959      -1.41927796       0.72133010
H        0.16711501      -2.41909078       0.96029190
H       -0.97047521       1.56616390       0.86902813
H        0.77903605       1.55278181       0.85589666
H       -1.10571503      -0.57375220       1.85266638
H        0.48829151      -0.17720383       2.47325903
16
Properties=species:S:1:pos:R:3 relative_energy_eV=2.3384801352221984e-05 branch=left pbc="F F F"
C       -0.69453260       1.11863008      -1.85790880
C       -0.09865235       0.39368393      -0.77628705
C        0.02236881      -1.04476906      -0.69811271
C        0.47399567      -1.41775872       0.66453255
C       -0.10079352       0.93623414       0.67202039
C       -0.08660874      -0.31917653       1.55975836
H       -0.76347421       0.65805482      -2.83355036
H       -0.70894942       2.19688376      -1.81705724
H        0.95646421       0.54166169      -1.17233304
H        0.11350260      -1.64213943      -1.59450692
H        1.57457660      -1.41973455       0.72212399
H        0.16659084      -2.41906356       0.95976242
H       -0.96968265       1.56629519       0.86914852
H        0.77964922       1.55260280       0.85563830
H       -1.10600965      -0.57381012       1.85141917
H        0.48732577      -0.17715381       2.47395932
16
Properties=species:S:1:pos:R:3 relative_energy_eV=8.605410585005302e-05 branch=left pbc="F F F"
C       -0.69672453       1.11855037      -1.85723530
C       -0.09806573       0.39421303      -0.77663942
C        0.02450902      -1.04433948      -0.69851243
C        0.47424745      -1.41758660       0.66494298
C       -0.09885443       0.93648664       0.67174095
C       -0.08741750      -0.31903803       1.55951349
H       -0.76619823       0.65766966      -2.83287053
H       -0.71129995       2.19689684      -1.81603603
H        0.95679138       0.54244552      -1.17336476
H        0.11541219      -1.64358189      -1.59390523
H        1.57491466      -1.41969078       0.72338460
H        0.16664682      -2.41930232       0.95948626
H       -0.96697545       1.56751959       0.86955603
H        0.78308467       1.55116759       0.85511794
H       -1.10805016      -0.57360441       1.84758911
H        0.48375036      -0.17736512       2.47583925
16
Properties=species:S:1:pos:R:3 relative_energy_eV=0.00021042353728262242 branch=left pbc="F F F"
C       -0.69967504       1.11788943      -1.85564258
C       -0.09665997       0.39456634      -0.77669739
C        0.02729629      -1.04410574      -0.69846160
C        0.47469320      -1.41737888       0.66563287
C       -0.09527683       0.93690724       0.67155632
C       -0.08953993      -0.31912241       1.55884465
H       -0.77104173       0.65649943      -2.83084661
H       -0.71571733       2.19639207      -1.81480652
H        0.95706601       0.54489025      -1.17597673
H        0.11863254      -1.64481120      -1.59295581
H        1.57539552      -1.41840709       0.72489880
H        0.16775794      -2.41968105       0.95938313
H       -0.96156742       1.57067951       0.86951320
H        0.78986009       1.54740288       0.85512132
H       -1.11235763      -0.57302948       1.84056191
H        0.47690491      -0.17825070       2.47848196
16
Properties=species:S:1:pos:R:3 relative_energy_eV=0.00035826166458718944 branch=left pbc="F F F"
C       -0.70113578       1.11727542      -1.85415565
C       -0.09549208       0.39415317      -0.77644216
C        0.02847077      -1.04462602      -0.69774605
C        0.47502217      -1.41736386       0.66639916
C       -0.09218708       0.93707519       0.67147772
C       -0.09167394      -0.31939787       1.55823297
H       -0.77484806       0.65684650      -2.82972694
H       -0.71975873       2.19583062      -1.81271025
H        0.95677907       0.54655899      -1.17953423
H        0.12202984      -1.64582152      -1.59183501
H        1.57570610      -1.41609604       0.72526326
H        0.16945646      -2.42006032       0.96003818
H       -0.95699278       1.57355544       0.86877887
H        0.79585787       1.54391097       0.85549886
H       -1.11653396      -0.57236794       1.83471590
H        0.47107078      -0.17903214       2.48035227
16
Properties=species:S:1:pos:R:3 relative_energy_eV=0.0005578674972639419 branch=left pbc="F F F"
C       -0.70146057       1.11675432      -1.85272863
C       -0.09418619       0.39329523      -0.77614393
C        0.02875856      -1.04555080      -0.69680468
C        0.47530094      -1.41735533       0.66708815
C       -0.08975608       0.93701487       0.67148408
C       -0.09378783      -0.31975545       1.55764834
H       -0.77993658       0.65742350      -2.82831467
H       -0.72235761       2.19510602      -1.81059007
H        0.95662540       0.54731593      -1.18289677
H        0.12616268      -1.64588113      -1.59093204
H        1.57584159      -1.41329927       0.72516806
H        0.17094619      -2.42015797       0.96070469
H       -0.95290787       1.57636697       0.86728871
H        0.80056411       1.54045134       0.85641019
H       -1.12017880      -0.57162993       1.82989838
H        0.46614275      -0.17965773       2.48132708
16
Properties=species:S:1:pos:R:3 relative_energy_eV=0.0007959954118632595 branch=left pbc="F F F"
C       -0.70023189       1.11692259      -1.85191469
C       -0.09343673       0.39212340      -0.77614172
C        0.02781879      -1.04691144      -0.69617500
C        0.47532803      -1.41739705       0.66752394
C       -0.08892685       0.93668696       0.67130742
C       -0.09498225      -0.31989633       1.55722680
H       -0.78572736       0.65921753      -2.82750635
H       -0.72248349       2.19483139      -1.80787652
H        0.95670873       0.54522964      -1.18514478
H        0.13180596      -1.64563070      -1.59039988
H        1.57579159      -1.41129370       0.72447615
H        0.17111316      -2.41985627       0.96143010
H       -0.95111988       1.57786229       0.86544255
H        0.80204546       1.53887114       0.85722415
H       -1.12197058      -0.57078300       1.82804434
H        0.46403803      -0.17953592       2.48109038
16
Properties=species:S:1:pos:R:3 relative_energy_eV=0.001094639596885827 branch=left pbc="F F F"
C       -0.69957568       1.11736965      -1.85102529
C       -0.09268963       0.39140516      -0.77663363
C        0.02816255      -1.04789341      -0.69656366
C        0.47534274      -1.41725618       0.66769789
C       -0.08848003       0.93639581       0.67078405
C       -0.09583920      -0.31959683       1.55657465
H       -0.79412687       0.66008164      -2.82561402
H       -0.72190933       2.19471626      -1.80520975
H        0.95727394       0.54195231      -1.18619894
H        0.13984440      -1.64491483      -1.59051918
H        1.57578606      -1.41124062       0.72514998
H        0.16938321      -2.41904537       0.96142079
H       -0.94912142       1.57943106       0.86386688
H        0.80247212       1.53751813       0.85771626
H       -1.12283606      -0.56937596       1.82661316
H        0.46208394      -0.17910631       2.48054767
16
Properties=species:S:1:pos:R:3 relative_energy_eV=0.0013903568169553182 branch=left pbc="F F F"
C       -0.69916237       1.11861129      -1.85051359
C       -0.09288560       0.39114086      -0.77746803
C        0.02820407      -1.04870856      -0.69784092
C        0.47524314      -1.41700916       0.66740386
C       -0.08901722       0.93624928       0.66988984
C       -0.09578068      -0.31891963       1.55587743
H       -0.80145602       0.66076036      -2.82365939
H       -0.72014237       2.19567054      -1.80315042
H        0.95833451       0.53693460      -1.18509132
H        0.14770191      -1.64473092      -1.59128550
H        1.57596992      -1.41292456       0.72581527
H        0.16726990      -2.41812597       0.96149615
H       -0.94894938       1.57996551       0.86309700
H        0.80124626       1.53796830       0.85709820
H       -1.12240120      -0.56810572       1.82690818
H        0.46159591      -0.17833573       2.48003014
16
Properties=species:S:1:pos:R:3 relative_energy_eV=0.0016295394452754408 branch=left pbc="F F F"
C       -0.70155396       1.11872866      -1.84906610
C       -0.09255593       0.39156951      -0.77814762
C        0.03161321      -1.04845381      -0.69936499
C        0.47554480      -1.41668320       0.66744642
C       -0.08748524       0.93633740       0.66897411
C       -0.09678075      -0.31822339       1.55473626
H       -0.80735317       0.65986653      -2.82122453
H       -0.72282858       2.19580955      -1.80097896
H        0.95840341       0.53571857      -1.18599567
H        0.15426975      -1.64474741      -1.59217588
H        1.57635663      -1.41526915       0.72928020
H        0.16571995      -2.41748297       0.96133715
H       -0.94492898       1.58243867       0.86315342
H        0.80385461       1.53567229       0.85613843
H       -1.12378244      -0.56632812       1.82369676
H        0.45727748      -0.17851263       2.48079790
16
Properties=species:S:1:pos:R:3 relative_energy_eV=0.0018208456776847015 branch=left pbc="F F F"
C       -0.70296134       1.11968858      -1.84811071
C       -0.09313252       0.39178907      -0.77866283
C        0.03225575      -1.04877776      -0.70058492
C        0.47586412      -1.41629674       0.66718426
C       -0.08696258       0.93645421       0.66807471
C       -0.09731215      -0.31777898       1.55382811
H       -0.81095976       0.65949559      -2.81903254
H       -0.72325129       2.19706581      -1.80002476
H        0.95915643       0.53311816      -1.18494735
H        0.15778202      -1.64509380      -1.59338818
H        1.57696938      -1.41639023       0.73068027
H        0.16676550      -2.41713945       0.96230615
H       -0.94337828       1.58390030       0.86313681
H        0.80536279       1.53488510       0.85451152
H       -1.12478806      -0.56574259       1.82193090
H        0.45436080      -0.17873676       2.48170546
16
Properties=species:S:1:pos:R:3 relative_energy_eV=0.0020418924732439336 branch=left pbc="F F F"
C       -0.70690904       1.11912551      -1.84592240
C       -0.09262976       0.39223623      -0.77895940
C        0.03667086      -1.04831367      -0.70153015
C        0.47673230      -1.41598932       0.66772807
C       -0.08362338       0.93657003       0.66715386
C       -0.09969506      -0.31758994       1.55238748
H       -0.81460132       0.65854311      -2.81658178
H       -0.72917129       2.19687485      -1.79750254
H        0.95848562       0.53469718      -1.18788030
H        0.16080576      -1.64522507      -1.59463644
H        1.57768763      -1.41697433       0.73560661
H        0.16894327      -2.41712750       0.96360465
H       -0.93649107       1.58827058       0.86297840
H        0.81197754       1.53006278       0.85293483
H       -1.12878020      -0.56451554       1.81535998
H        0.44636899      -0.18020441       2.48386603
16
Properties=species:S:1:pos:R:3 relative_energy_eV=0.0023851033556638868 branch=left pbc="F F F"
C       -0.71040868       1.11882839      -1.84380351
C       -0.09214555       0.39223872      -0.77914221
C        0.03964953      -1.04836883      -0.70175985
C        0.47815098      -1.41558353       0.66856552
C       -0.08009210       0.93647836       0.66628348
C       -0.10302769      -0.31809505       1.55103365
H       -0.81919727       0.65822959      -2.81392786
H       -0.73369439       2.19690773      -1.79523197
H        0.95836585       0.53570890      -1.19070841
H        0.16083719      -1.64471048      -1.59641627
H        1.57875463      -1.41419346       0.74038567
H        0.17509396      -2.41751416       0.96634689
H       -0.92915688       1.59367658       0.86187059
H        0.81992472       1.52408396       0.85112383
H       -1.13439461      -0.56477111       1.80740959
H        0.43711119      -0.18247510       2.48657779
16
Properties=species:S:1:pos:R:3 relative_energy_eV=0.00286360175232403 branch=left pbc="F F F"
C       -0.71420323       1.11751614      -1.84180372
C       -0.09062158       0.39207777      -0.77927872
C        0.04426731      -1.04799259      -0.70126584
C        0.48007010      -1.41526683       0.67014958
C       -0.07550765       0.93616244       0.66579744
C       -0.10768052      -0.31921063       1.54991425
H       -0.82598168       0.65809626      -2.81195704
H       -0.73891612       2.19555837      -1.79241828
H        0.95782648       0.53845611      -1.19569419
H        0.15932947      -1.64312695      -1.59807152
H        1.57978244      -1.40872884       0.74728737
H        0.18217123      -2.41824846       0.96882237
H       -0.91926282       1.60082198       0.86026106
H        0.82996149       1.51569287       0.85024688
H       -1.14176312      -0.56580238       1.79711003
H        0.42629914      -0.18556476       2.48950723
16
Properties=species:S:1:pos:R:3 relative_energy_eV=0.0034006898267762153 branch=left pbc="F F F"
C       -0.71596251       1.11655962      -1.84130017
C       -0.08914401       0.39186757      -0.77948590
C        0.04706248      -1.04763513      -0.70056019
C        0.48174634      -1.41491539       0.67146376
C       -0.07282089       0.93583410       0.66595431
C       -0.11139720      -0.32048760       1.54961610
H       -0.83441444       0.65782540      -2.81088414
H       -0.73933216       2.19426668      -1.79175639
H        0.95836382       0.53938478      -1.19812581
H        0.15686837      -1.64085843      -1.59932116
H        1.58060586      -1.40200727       0.75255606
H        0.18783309      -2.41898339       0.96990626
H       -0.91254669       1.60634100       0.85905577
H        0.83654906       1.50952062       0.85045831
H       -1.14725703      -0.56808303       1.78975572
H        0.41961690      -0.18818902       2.49127435
16
Properties=species:S:1:pos:R:3 relative_energy_eV=0.003878548704960849 branch=left pbc="F F F"
C       -0.71688249       1.11563457      -1.84169386
C       -0.08769660       0.39213575      -0.77978214
C        0.04979760      -1.04680281      -0.70035771
C        0.48268823      -1.41464878       0.67227700
C       -0.07142654       0.93580957       0.66656642
C       -0.11376313      -0.32131301       1.54973585
H       -0.84346862       0.65651227      -2.81024678
H       -0.73766767       2.19296840      -1.79311348
H        0.95944566       0.53972335      -1.19847051
H        0.15630548      -1.63854609      -1.60008117
H        1.58093621      -1.39722786       0.75693711
H        0.18945565      -2.41947592       0.96894325
H       -0.90836649       1.61000970       0.85906861
H        0.84008243       1.50591446       0.85152099
H       -1.15034798      -0.57004904       1.78546248
H        0.41667927      -0.19020404       2.49184079
16
Properties=species:S:1:pos:R:3 relative_energy_eV=0.004339172774052713 branch=left pbc="F F F"
C       -0.71756064       1.11506101      -1.84260667
C       -0.08654185       0.39302212      -0.78012285
C        0.05222576      -1.04563036      -0.70092458
C        0.48293372      -1.41433929       0.67241692
C       -0.07100873       0.93622203       0.66752390
C       -0.11510591      -0.32166369       1.54992285
H       -0.85384233       0.65351842      -2.80909544
H       -0.73401131       2.19227290      -1.79728003
H        0.96148395       0.53901770      -1.19598949
H        0.15810857      -1.63626106      -1.60070849
H        1.58096510      -1.39402432       0.76045253
H        0.18813083      -2.41977174       0.96633656
H       -0.90618012       1.61237386       0.86056139
H        0.84157217       1.50441522       0.85299430
H       -1.15167328      -0.57161493       1.78353970
H        0.41627506      -0.19215730       2.49158623
16
Properties=species:S:1:pos:R:3 relative_energy_eV=0.004982051956176292 branch=left pbc="F F F"
C       -0.72031350       1.11412516      -1.84292488
C       -0.08523201       0.39501725      -0.78039182
C        0.05677374      -1.04355526      -0.70255675
C        0.48267405      -1.41383947       0.67201775
C       -0.06956661       0.93720577       0.66889134
C       -0.11683480      -0.32157087       1.54943018
H       -0.86728666       0.64725870      -2.80624266
H       -0.73153961       2.19179798      -1.80475845
H        0.96401822       0.53914779      -1.19209593
H        0.16400461      -1.63388788      -1.60139269
H        1.58078168      -1.39172143       0.76539150
H        0.18435941      -2.42003356       0.96178702
H       -0.90202059       1.61572591       0.86427799
H        0.84496615       1.50202659       0.85496262
H       -1.15342943      -0.57183167       1.78084727
H        0.41441635      -0.19542441       2.49136431
16
Properties=species:S:1:pos:R:3 relative_energy_eV=0.005810920709336642 branch=left pbc="F F F"
C       -0.72588284       1.11286944      -1.84158942
C       -0.08436646       0.39761773      -0.78016782
C        0.06228894      -1.04121438      -0.70457999
C        0.48265186      -1.41280469       0.67130679
C       -0.06607143       0.93827001       0.67042657
C       -0.11983336      -0.32145323       1.54782118
H       -0.88030997       0.63864097      -2.80158763
H       -0.73236035       2.19180186      -1.81378355
H        0.96575551       0.54078456      -1.18877438
H        0.17164512      -1.63221089      -1.60198604
H        1.58103021      -1.38819271       0.77070804
H        0.18226863      -2.42027292       0.95705564
H       -0.89379990       1.62109725       0.86952382
H        0.85276357       1.49607597       0.85675424
H       -1.15735983      -0.57048327       1.77509278
H        0.40735132      -0.20008504       2.49238652
16
Properties=species:S:1:pos:R:3 relative_energy_eV=0.0067960983878947445 branch=left pbc="F F F"
C       -0.73418901       1.11076058      -1.83817378
C       -0.08376638       0.40012660      -0.77927247
C        0.06881091      -1.03888422      -0.70602854
C        0.48363733      -1.41120377       0.67095108
C       -0.05979646       0.93880096       0.67182127
C       -0.12461690      -0.32180914       1.54529815
H       -0.88973018       0.62965635      -2.79592476
H       -0.73846413       2.19134238      -1.82102983
H        0.96514036       0.54544959      -1.18918867
H        0.17794777      -1.63150387      -1.60227185
H        1.58200185      -1.38253752       0.77620277
H        0.18430524      -2.42029260       0.95351571
H       -0.88009872       1.62896029       0.87465219
H        0.86610574       1.48467258       0.85815305
H       -1.16451911      -0.56775534       1.76448920
H        0.39300277      -0.20534219       2.49541321
16
Properties=species:S:1:pos:R:3 relative_energy_eV=0.00791102959192358 branch=left pbc="F F F"
C       -0.74352057       1.10812059      -1.83360651
C       -0.08354324       0.40185045      -0.77788634
C        0.07483094      -1.03699207      -0.70632953
C        0.48594759      -1.40909245       0.67116970
C       -0.05199653       0.93843202       0.67287228
C       -0.13070623      -0.32299372       1.54269640
H       -0.89449841       0.62226195      -2.79028648
H       -0.74728740       2.19017185      -1.82503235
H        0.96227356       0.55185472      -1.19332627
H        0.18001799      -1.63166560      -1.60212618
H        1.58379383      -1.37385986       0.78052128
H        0.19151857      -2.41987761       0.95160413
H       -0.86310907       1.63818923       0.87846210
H        0.88266765       1.46889998       0.85924171
H       -1.17408649      -0.56488378       1.75041746
H        0.37346889      -0.20997499       2.50021533
16
Properties=species:S:1:pos:R:3 relative_energy_eV=0.009021353764183004 branch=left pbc="F F F"
C       -0.75138660       1.10562794      -1.82967488
C       -0.08371746       0.40227285      -0.77671517
C        0.07921379      -1.03585312      -0.70555483
C        0.48914958      -1.40685955       0.67189916
C       -0.04507285       0.93720713       0.67340332
C       -0.13669195      -0.32475746       1.54099592
H       -0.89478197       0.61866783      -2.78659370
H       -0.75516360       2.18831909      -1.82487171
H        0.95813077       0.55747471      -1.19990313
H        0.17696009      -1.63273073      -1.60133861
H        1.58603785      -1.36332789       0.78298647
H        0.20190041      -2.41913882       0.95089340
H       -0.84737169       1.64653252       0.88047771
H        0.89781815       1.45278709       0.86021174
H       -1.18357938      -0.56307350       1.73682436
H        0.35432604      -0.21270737       2.50556666
16
Properties=species:S:1:pos:R:3 relative_energy_eV=0.0099641956448977 branch=left pbc="F F F"
C       -0.75603296       1.10415731      -1.82780052
C       -0.08466692       0.40161932      -0.77609167
C        0.08038440      -1.03559237      -0.70428057
C        0.49241011      -1.40469793       0.67263966
C       -0.04118467       0.93563839       0.67362021
C       -0.14120941      -0.32648778       1.54063944
H       -0.89284125       0.61851518      -2.78536584
H       -0.75802713       2.18654230      -1.82252443
H        0.95449203       0.55977568      -1.20555236
H        0.17039920      -1.63420858      -1.60018235
H        1.58840169      -1.35255368       0.78268720
H        0.21287232      -2.41823339       0.95074816
H       -0.83680354       1.65239503       0.88161934
H        0.90770420       1.44019461       0.86109346
H       -1.19055026      -0.56332494       1.72712864
H        0.34042340      -0.21329844       2.51022835
16
Properties=species:S:1:pos:R:3 relative_energy_eV=0.010709972990298411 branch=left pbc="F F F"
C       -0.75844851       1.10319992      -1.82749214
C       -0.08552387       0.40063769      -0.77613332
C        0.08088674      -1.03547261      -0.70320995
C        0.49519919      -1.40283381       0.67331244
C       -0.03958919       0.93425670       0.67374640
C       -0.14428582      -0.32760254       1.54107802
H       -0.89098991       0.62002212      -2.78584951
H       -0.75790370       2.18456947      -1.81908911
H        0.95171655       0.56030048      -1.21009850
H        0.16321454      -1.63573269      -1.59870913
H        1.59049453      -1.34403234       0.78188962
H        0.22146012      -2.41740811       0.95011796
H       -0.83026891       1.65634478       0.88255435
H        0.91317186       1.43147053       0.86202585
H       -1.19495944      -0.56478033       1.72068480
H        0.33159703      -0.21249854       2.51377890
16
Properties=species:S:1:pos:R:3 relative_energy_eV=0.011210834605662967 branch=left pbc="F F F"
C       -0.75895915       1.10290600      -1.82852319
C       -0.08668657       0.40006181      -0.77625891
C        0.07961806      -1.03541090      -0.70257257
C        0.49677612      -1.40133127       0.67356095
C       -0.04006444       0.93357757       0.67416575
C       -0.14581162      -0.32789263       1.54193957
H       -0.89076580       0.62083447      -2.78671582
H       -0.75461581       2.18318763      -1.81759530
H        0.95047443       0.55918214      -1.21161524
H        0.15880134      -1.63637768      -1.59785907
H        1.59193662      -1.33870101       0.77982778
H        0.22685190      -2.41667740       0.94960615
H       -0.82767427       1.65874483       0.88441792
H        0.91464012       1.42691468       0.86274182
H       -1.19669924      -0.56708423       1.71760968
H        0.32794957      -0.21149326       2.51587715
16
Properties=species:S:1:pos:R:3 relative_energy_eV=0.011605898781454016 branch=left pbc="F F F"
C       -0.75970428       1.10187135      -1.82888819
C       -0.08618664       0.40010664      -0.77647893
C        0.08187863      -1.03461505      -0.70258709
C        0.49790559      -1.40040064       0.67401462
C       -0.04001959       0.93356290       0.67473571
C       -0.14720359      -0.32739394       1.54227266
H       -0.89200285       0.62042272      -2.78693621
H       -0.75424337       2.18115372      -1.81579314
H        0.94944391       0.56060802      -1.21377611
H        0.15566033      -1.63679738      -1.59644958
H        1.59306121      -1.33751858       0.78034873
H        0.22877806      -2.41641833       0.94813532
H       -0.82420426       1.66164364       0.88602143
H        0.91599387       1.42361248       0.86333039
H       -1.19815316      -0.56892748       1.71338887
H        0.32476741      -0.21046935       2.51726819
16
Properties=species:S:1:pos:R:3 relative_energy_eV=0.012079251285285864 branch=left pbc="F F F"
C       -0.76027652       1.10075379      -1.83009433
C       -0.08665554       0.40115343      -0.77570490
C        0.08105791      -1.03372231      -0.70248589
C        0.49768708      -1.39942288       0.67412313
C       -0.04051683       0.93456195       0.67634186
C       -0.14843699      -0.32640551       1.54274043
H       -0.89550954       0.61623416      -2.78589372
H       -0.75235526       2.17941490      -1.81835585
H        0.94903711       0.56264284      -1.21355851
H        0.15862038      -1.63507794      -1.59691203
H        1.59345214      -1.33832638       0.77801236
H        0.22958852      -2.41598516       0.94843649
H       -0.82058789       1.66629367       0.89072873
H        0.91723517       1.42072374       0.86372059
H       -1.19911788      -0.57148855       1.70908307
H        0.32254943      -0.21090899       2.51842523
16
Properties=species:S:1:pos:R:3 relative_energy_eV=0.012742391228130145 branch=left pbc="F F F"
C       -0.76239453       1.09812391      -1.82867273
C       -0.08423875       0.40283311      -0.77445123
C        0.08628698      -1.03208217      -0.70285697
C        0.49749101      -1.39962406       0.67489083
C       -0.03807228       0.93613502       0.67781306
C       -0.15040015      -0.32526696       1.54179231
H       -0.89926314       0.61036444      -2.78296137
H       -0.75863277       2.17679033      -1.81974497
H        0.94783121       0.57073730      -1.21634311
H        0.16200661      -1.63336875      -1.59654334
H        1.59369531      -1.34369082       0.78019301
H        0.22734878      -2.41657160       0.94837303
H       -0.81266913       1.67282309       0.89353752
H        0.92162699       1.41744766       0.86368209
H       -1.20174046      -0.57220758       1.70045044
H        0.31689563      -0.21200218       2.51944811
16
Properties=species:S:1:pos:R:3 relative_energy_eV=0.013472446820742334 branch=left pbc="F F F"
C       -0.76469496       1.09577185      -1.82675819
C       -0.08226350       0.40443121      -0.77265652
C        0.08948144      -1.03102618      -0.70280504
C        0.49667610      -1.40043058       0.67546976
C       -0.03483601       0.93772558       0.67907946
C       -0.15195774      -0.32489261       1.54060922
H       -0.90222739       0.60369938      -2.77930085
H       -0.76615227       2.17504036      -1.82284326
H        0.94678317       0.57943920      -1.21835387
H        0.16831195      -1.63087333      -1.59776019
H        1.59319217      -1.34922451       0.78144628
H        0.22473839      -2.41730589       0.94994947
H       -0.80508123       1.67916059       0.89573817
H        0.92695028       1.41494270       0.86345630
H       -1.20434791      -0.57176029       1.69298225
H        0.31119883      -0.21425673       2.52035367
16
Properties=species:S:1:pos:R:3 relative_energy_eV=0.014160909555357648 branch=left pbc="F F F"
C       -0.76671810       1.09381608      -1.82396228
C       -0.07993567       0.40513327      -0.77123904
C        0.09350528      -1.03059532      -0.70260216
C        0.49660336      -1.40186829       0.67613088
C       -0.03080071       0.93861235       0.67935531
C       -0.15315251      -0.32543016       1.53912720
H       -0.90280391       0.59973828      -2.77630030
H       -0.77543269       2.17385320      -1.82370562
H        0.94553047       0.58786633      -1.22130354
H        0.17109131      -1.62989238      -1.59830251
H        1.59296267      -1.35341868       0.78419275
H        0.22277506      -2.41851291       0.95120979
H       -0.79818934       1.68391263       0.89504573
H        0.93239405       1.41356367       0.86316454
H       -1.20701837      -0.57028637       1.68650471
H        0.30496043      -0.21605097       2.52129122
16
Properties=species:S:1:pos:R:3 relative_energy_eV=0.014654292229351995 branch=left pbc="F F F"
C       -0.76759074       1.09300552      -1.82235893
C       -0.07887216       0.40496260      -0.77054135
C        0.09462471      -1.03090227      -0.70218321
C        0.49686952      -1.40302837       0.67637454
C       -0.02816533       0.93886352       0.67912862
C       -0.15355857      -0.32642727       1.53827565
H       -0.90222180       0.59809324      -2.77472828
H       -0.78082200       2.17351206      -1.82393308
H        0.94495419       0.59267065      -1.22272333
H        0.17151250      -1.62970830      -1.59881633
H        1.59296599      -1.35457346       0.78537865
H        0.22249222      -2.41944182       0.95226596
H       -0.79447619       1.68644057       0.89365498
H        0.93575309       1.41349941       0.86322601
H       -1.20840892      -0.56934638       1.68337686
H        0.30071484      -0.21717899       2.52220991
16
Properties=species:S:1:pos:R:3 relative_energy_eV=0.015319344733143225 branch=left pbc="F F F"
C       -0.76810699       1.09220803      -1.82125030
C       -0.07788644       0.40405840      -0.77061253
C        0.09605575      -1.03153211      -0.70159590
C        0.49809004      -1.40466873       0.67642012
C       -0.02470558       0.93876622       0.67818651
C       -0.15358707      -0.32807069       1.53731680
H       -0.90100158       0.59807425      -2.77436999
H       -0.78685291       2.17268411      -1.82207125
H        0.94441761       0.59802824      -1.22466926
H        0.16869149      -1.63078955      -1.59853108
H        1.59343841      -1.35438689       0.78771946
H        0.22266710      -2.42058598       0.95255143
H       -0.79043668       1.68864099       0.89087102
H        0.93952981       1.41473252       0.86415521
H       -1.20933248      -0.56867986       1.68063757
H        0.29479087      -0.21803826       2.52384891
16
Properties=species:S:1:pos:R:3 relative_energy_eV=0.016350442038856272 branch=left pbc="F F F"
C       -0.76816595       1.09163563      -1.82244627
C       -0.07758434       0.40277350      -0.77163630
C        0.09568299      -1.03231704      -0.70109303
C        0.49981732      -1.40596161       0.67633679
C       -0.02108686       0.93847646       0.67727808
C       -0.15300750      -0.32937924       1.53666925
H       -0.89992543       0.59882657      -2.77603717
H       -0.79152960       2.17115638      -1.81912255
H        0.94368162       0.60359383      -1.22649795
H        0.16407732      -1.63142454      -1.59771563
H        1.59500572      -1.35274726       0.78986772
H        0.22315993      -2.42124363       0.95379753
H       -0.78662603       1.68944880       0.88823481
H        0.94349991       1.41600940       0.86623218
H       -1.20905933      -0.56889728       1.67820033
H        0.28783159      -0.21950929       2.52653894
16
Properties=species:S:1:pos:R:3 relative_energy_eV=0.017579424296854995 branch=left pbc="F F F"
C       -0.77300212       1.08700837      -1.82311608
C       -0.07359325       0.40457301      -0.77345515
C        0.10802288      -1.02846877      -0.70188116
C        0.50021492      -1.40704773       0.67664491
C       -0.01450156       0.93950853       0.67659914
C       -0.15244344      -0.32805702       1.53498198
H       -0.90903101       0.59178741      -2.77491505
H       -0.80271053       2.16510364      -1.81663448
H        0.94379113       0.61722499      -1.23027306
H        0.17155494      -1.62642569      -1.59831071
H        1.59268892      -1.36418434       0.80100036
H        0.20976568      -2.41765428       0.94995903
H       -0.77950323       1.69029075       0.88691135
H        0.95127453       1.41441261       0.86992069
H       -1.20870581      -0.56650584       1.67344308
H        0.28194933      -0.22112496       2.52773191
16
Properties=species:S:1:pos:R:3 relative_energy_eV=0.018930942327642697 branch=left pbc="F F F"
C       -0.77646282       1.08477838      -1.82517845
C       -0.07276848       0.40486767      -0.77371927
C        0.11040299      -1.02739672      -0.70238746
C        0.50000591      -1.40680157       0.67866195
C       -0.00917864       0.93880879       0.67701972
C       -0.15288658      -0.32662667       1.53498848
H       -0.90653855       0.59315559      -2.77922056
H       -0.81359483       2.16139093      -1.81278599
H        0.93814024       0.62631770      -1.23933421
H        0.17634160      -1.62297461      -1.59860891
H        1.59468431      -1.36612304       0.80685193
H        0.20531204      -2.41701182       0.95581370
H       -0.77278329       1.68876851       0.88687886
H        0.95897060       1.40754800       0.87147287
H       -1.20999130      -0.56280627       1.66749749
H        0.27611821      -0.22545419       2.53065665
16
Properties=species:S:1:pos:R:3 relative_energy_eV=0.0203488656979971 branch=left pbc="F F F"
C       -0.78317715       1.07990245      -1.82369257
C       -0.06833955       0.40771403      -0.77377780
C        0.12406586      -1.02275488      -0.70365262
C        0.49842250      -1.40670350       0.68045257
C       -0.00353480       0.93941161       0.67738805
C       -0.15353578      -0.32400451       1.53393140
H       -0.91344008       0.58657044      -2.77719298
H       -0.82696647       2.15609671      -1.81209995
H        0.93575010       0.63887024      -1.24638317
H        0.19071992      -1.61584570      -1.60084009
H        1.59188462      -1.37967856       0.81819837
H        0.19032039      -2.41326755       0.95467183
H       -0.76601097       1.68841257       0.88702601
H        0.96687804       1.40054911       0.87267446
H       -1.21171095      -0.55718770       1.66139022
H        0.27444576      -0.22764412       2.53051312
16
Properties=species:S:1:pos:R:3 relative_energy_eV=0.02190860850168974 branch=left pbc="F F F"
C       -0.78895544       1.07665114      -1.82067088
C       -0.06532320       0.40936336      -0.77236927
C        0.13340227      -1.02006072      -0.70445748
C        0.49679111      -1.40645662       0.68291973
C        0.00078168       0.93883694       0.67784070
C       -0.15478380      -0.32245396       1.53371348
H       -0.91392092       0.58471595      -2.77586697
H       -0.83973969       2.15315593      -1.81163663
H        0.93156545       0.64774840      -1.25504788
H        0.20240549      -1.61106039      -1.60336522
H        1.59069348      -1.38812514       0.82651178
H        0.18077825      -2.41179152       0.95670041
H       -0.76040971       1.68786114       0.88657781
H        0.97349519       1.39238475       0.87179536
H       -1.21481280      -0.55052387       1.65526713
H        0.27380407      -0.22980476       2.53069484
16
Properties=species:S:1:pos:R:3 relative_energy_eV=0.023579366182275407 branch=left pbc="F F F"
C       -0.79498064       1.07332490      -1.81532178
C       -0.06132158       0.41046972      -0.77092055
C        0.14543250      -1.01752705      -0.70511401
C        0.49562568      -1.40686993       0.68527410
C        0.00462335       0.93813660       0.67783336
C       -0.15597048      -0.32179927       1.53339169
H       -0.91529134       0.58250714      -2.77195891
H       -0.85286755       2.15090974      -1.81174055
H        0.92907246       0.65642931      -1.26264396
H        0.21289004      -1.60749611      -1.60627561
H        1.58859314      -1.39783591       0.83596304
H        0.17047820      -2.41052312       0.95558513
H       -0.75553849       1.68836061       0.88447535
H        0.97924477       1.38587532       0.87033779
H       -1.21824978      -0.54326665       1.64932826
H        0.27403116      -0.23025470       2.53039362
16
Properties=species:S:1:pos:R:3 relative_energy_eV=0.025777736420423025 branch=left pbc="F F F"
C       -0.80090183       1.07036626      -1.80843255
C       -0.05713200       0.40988031      -0.76946682
C        0.15738017      -1.01667236      -0.70561220
C        0.49540511      -1.40836111       0.68776834
C        0.00837373       0.93674172       0.67712405
C       -0.15722911      -0.32248897       1.53361670
H       -0.91370560       0.58427234      -2.76813501
H       -0.86728056       2.14931737      -1.81053892
H        0.92716711       0.66450102      -1.27176562
H        0.21896734      -1.60768421      -1.60891685
H        1.58700989      -1.40464088       0.84616478
H        0.16290442      -2.41095904       0.95291752
H       -0.75073835       1.69028945       0.88061348
H        0.98450968       1.38084665       0.86867151
H       -1.22213770      -0.53508180       1.64351838
H        0.27317916      -0.22988624       2.53108026
16
Properties=species:S:1:pos:R:3 relative_energy_eV=0.028679179483333428 branch=left pbc="F F F"
C       -0.80722170       1.06679885      -1.80168259
C       -0.05110526       0.40816159      -0.76997265
C        0.17179921      -1.01673737      -0.70674759
C        0.49591181      -1.41104884       0.68946936
C        0.01233655       0.93593673       0.67589903
C       -0.15833941      -0.32336929       1.53387716
H       -0.91267512       0.58882007      -2.76523748
H       -0.88313453       2.14660735      -1.80681635
H        0.92767277       0.67338072      -1.28204989
H        0.22060304      -1.61218727      -1.61002416
H        1.58487579      -1.41053993       0.85900844
H        0.15638818      -2.41249593       0.94616140
H       -0.74557332       1.69423655       0.87612583
H        0.98956479       1.37887156       0.86869604
H       -1.22543595      -0.52687670       1.63920274
H        0.27010463      -0.22911762       2.53269782
16
Properties=species:S:1:pos:R:3 relative_energy_eV=0.03242915536247892 branch=left pbc="F F F"
C       -0.81471172       1.06181154      -1.79620183
C       -0.04169448       0.40711703      -0.77273869
C        0.19112596      -1.01660425      -0.70939620
C        0.49604728      -1.41441760       0.68967912
C        0.01747239       0.93650598       0.67390473
C       -0.15980899      -0.32299565       1.53318230
H       -0.91389806       0.59540905      -2.76483320
H       -0.90157781       2.14076616      -1.79849805
H        0.93071018       0.68418629      -1.29501229
H        0.21901279      -1.62098138      -1.60790824
H        1.58113050      -1.41692350       0.87622986
H        0.14981955      -2.41537689       0.93473506
H       -0.73863538       1.70022096       0.87201795
H        0.99477894       1.37956542       0.87165033
H       -1.22808158      -0.51907708       1.63760526
H        0.26408192      -0.22876568       2.53419111
16
Properties=species:S:1:pos:R:3 relative_energy_eV=0.036065349868295016 branch=left pbc="F F F"
C       -0.82159247       1.05623213      -1.79265508
C       -0.03038728       0.40853666      -0.77695650
C        0.21354101      -1.01413547      -0.71283383
C        0.49510195      -1.41685010       0.68840317
C        0.02264390       0.93882685       0.67197030
C       -0.16138796      -0.32079747       1.53070007
H       -0.92060901       0.59688326      -2.76398512
H       -0.91785303       2.13337952      -1.78916731
H        0.93533862       0.69529851      -1.30507840
H        0.21829200      -1.62790678      -1.60346975
H        1.57571464      -1.42679906       0.89414502
H        0.14058579      -2.41739654       0.92087361
H       -0.73158317       1.70545177       0.86859173
H        0.99902532       1.38180698       0.87645089
H       -1.22978766      -0.51386499       1.63828835
H        0.25872888      -0.22822493       2.53333018
16
Properties=species:S:1:pos:R:3 relative_energy_eV=0.04069335202802904 branch=left pbc="F F F"
C       -0.83050488       1.04876722      -1.78955999
C       -0.01681656       0.41389511      -0.78160253
C        0.24348031      -1.00752813      -0.71720106
C        0.49127810      -1.41854842       0.68621029
C        0.02977932       0.94298559       0.66949551
C       -0.16444097      -0.31662966       1.52575541
H       -0.93297579       0.59110601      -2.76240845
H       -0.93716055       2.12304969      -1.77724928
H        0.93984748       0.70889504      -1.31599776
H        0.22674265      -1.63140790      -1.59778057
H        1.56617740      -1.44347424       0.91573670
H        0.12424628      -2.41869460       0.90393575
H       -0.72117038       1.71153399       0.86627912
H        1.00470986       1.38313232       0.88313094
H       -1.23230795      -0.50893007       1.64145413
H        0.25488723      -0.22771170       2.52840918
16
Properties=species:S:1:pos:R:3 relative_energy_eV=0.04444837593109696 branch=left pbc="F F F"
C       -0.83708392       1.04349231      -1.78783400
C       -0.00813072       0.42012251      -0.78455490
C        0.26665181      -0.99956077      -0.72020898
C        0.48679851      -1.41912031       0.68446065
C        0.03454000       0.94672041       0.66857047
C       -0.16673298      -0.31362566       1.52145937
H       -0.94756840       0.57897177      -2.75679780
H       -0.94831675       2.11573933      -1.77405120
H        0.94311884       0.71885658      -1.31944287
H        0.24186695      -1.62839182      -1.59552864
H        1.55755263      -1.46077590       0.92974704
H        0.10658706      -2.41802543       0.89191349
H       -0.71405185       1.71500648       0.86619489
H        1.00880200       1.38407466       0.88792024
H       -1.23435816      -0.50571751       1.64464787
H        0.25609655      -0.22732641       2.52211182
16
Properties=species:S:1:pos:R:3 relative_energy_eV=0.04730855135676393 branch=left pbc="F F F"
C       -0.84302357       1.04081316      -1.78541200
C       -0.00593879       0.42508164      -0.78480328
C        0.28425471      -0.99231789      -0.72117286
C        0.48309172      -1.41958380       0.68521706
C        0.03883264       0.94784878       0.66744477
C       -0.16980168      -0.31284223       1.51806782
H       -0.95333891       0.56922599      -2.75395432
H       -0.95967200       2.11164617      -1.76859693
H        0.94092675       0.72481458      -1.32530699
H        0.25858820      -1.62469528      -1.59434971
H        1.55169514      -1.47350330       0.94017019
H        0.09184170      -2.41815823       0.88554418
H       -0.70579585       1.71851808       0.86639697
H        1.01363696       1.38184858       0.88908341
H       -1.23773213      -0.50242961       1.64493038
H        0.25820670      -0.22582644       2.51534884
16
Properties=species:S:1:pos:R:3 relative_energy_eV=0.04930318446986348 branch=left pbc="F F F"
C       -0.84552039       1.03827209      -1.78511850
C       -0.00271320       0.43089171      -0.78487864
C        0.29750690      -0.98436059      -0.72238711
C        0.47958221      -1.42018822       0.68409566
C        0.03967271       0.94963708       0.66821139
C       -0.16946512      -0.31294052       1.51619302
H       -0.97387053       0.55033398      -2.73911993
H       -0.95684401       2.10851086      -1.78121406
H        0.94679955       0.73192654      -1.31612269
H        0.27553258      -1.61501492      -1.59741273
H        1.54574416      -1.49014802       0.94502324
H        0.07299746      -2.41487516       0.87641843
H       -0.70561311       1.71873294       0.86641842
H        1.01331740       1.38546122       0.89238951
H       -1.23719502      -0.50103588       1.64689091
H        0.26583998      -0.22476287       2.50922060
16
Properties=species:S:1:pos:R:3 relative_energy_eV=0.05202134963747085 branch=left pbc="F F F"
C       -0.84842245       1.03721686      -1.78165871
C       -0.00394388       0.43353130      -0.78392044
C        0.30904042      -0.97833271      -0.72133203
C        0.47877648      -1.42125665       0.68607594
C        0.04099540       0.94876542       0.66785396
C       -0.16983509      -0.31436362       1.51493552
H       -0.98207139       0.53740786      -2.73073389
H       -0.96026588       2.10736959      -1.78143016
H        0.94664251       0.73728341      -1.31459696
H        0.28706318      -1.60897714      -1.59906885
H        1.54334433      -1.50199683       0.95344050
H        0.05781364      -2.41279094       0.86726832
H       -0.70173675       1.72107758       0.86249360
H        1.01541384       1.38493028       0.89257610
H       -1.23793116      -0.49940114       1.64306925
H        0.27088836      -0.22002304       2.50363541
16
Properties=species:S:1:pos:R:3 relative_energy_eV=0.05840834261562122 branch=left pbc="F F F"
C       -0.84812751       1.03176309      -1.77912969
C       -0.00052083       0.43830155      -0.78225950
C        0.32120807      -0.97003707      -0.72022790
C        0.47837813      -1.42272973       0.68518898
C        0.04061770       0.94953662       0.66796132
C       -0.16594790      -0.31491759       1.51458276
H       -1.01362503       0.50908239      -2.70832057
H       -0.95090731       2.10408393      -1.79580299
H        0.95870089       0.74973644      -1.29696520
H        0.29958831      -1.59548631      -1.60535220
H        1.53805307      -1.52373304       0.96420005
H        0.03123891      -2.40421712       0.84430277
H       -0.70494498       1.72233316       0.85402818
H        1.01214115       1.39045118       0.89844431
H       -1.23236758      -0.50083551       1.63999169
H        0.28228646      -0.21289170       2.49796553
16
Properties=species:S:1:pos:R:3 relative_energy_eV=0.06490676839348453 branch=left pbc="F F F"
C       -0.84780751       1.02452481      -1.77709461
C        0.00497524       0.43878634      -0.78264070
C        0.32688510      -0.96747712      -0.71990050
C        0.47862768      -1.42212700       0.68371925
C        0.04109814       0.95155695       0.66702026
C       -0.16336935      -0.31253256       1.51441529
H       -1.02850681       0.49299791      -2.70140197
H       -0.95245678       2.10232933      -1.79121875
H        0.96637708       0.75892557      -1.29087562
H        0.30399966      -1.58899865      -1.60851805
H        1.53385925      -1.53600391       0.97515599
H        0.01702874      -2.39725808       0.82661355
H       -0.70574913       1.72556762       0.84536606
H        1.01350436       1.39017805       0.90355920
H       -1.22881532      -0.50266303       1.63716448
H        0.28612123      -0.20736592       2.49724367
16
Properties=species:S:1:pos:R:3 relative_energy_eV=0.0697118640100598 branch=left pbc="F F F"
C       -0.84533854       1.02330770      -1.77479655
C        0.01460223       0.44493693      -0.78192796
C        0.32523532      -0.96391643      -0.72468222
C        0.47745706      -1.42015030       0.67634302
C        0.03702963       0.95658448       0.66852585
C       -0.15726299      -0.30910897       1.51492487
H       -1.06856218       0.46927120      -2.67622980
H       -0.92145025       2.09333520      -1.82491452
H        0.98457421       0.76667513      -1.26089752
H        0.30769106      -1.57407721      -1.61713589
H        1.52826240      -1.55160127       0.97251189
H        0.00423427      -2.39034272       0.81162467
H       -0.72219474       1.71976293       0.84120692
H        1.00383833       1.39965035       0.91155873
H       -1.22024755      -0.50798750       1.64545139
H        0.29790324      -0.20589906       2.49704453
16
Properties=species:S:1:pos:R:3 relative_energy_eV=0.07406978490871552 branch=left pbc="F F F"
C       -0.84718746       1.01724100      -1.77351008
C        0.02121642       0.44665887      -0.78255102
C        0.33208781      -0.96302715      -0.72775864
C        0.47709246      -1.41728943       0.67269513
C        0.03890475       0.96109814       0.66738511
C       -0.15594744      -0.30449510       1.51404765
H       -1.08133017       0.45849612      -2.67544630
H       -0.92362559       2.09099147      -1.82300461
H        0.99084227       0.77153774      -1.25554126
H        0.31540711      -1.56777014      -1.62000739
H        1.52253462      -1.56455889       0.97698546
H       -0.00549008      -2.38340010       0.80480340
H       -0.72484675       1.72072395       0.84196810
H        1.00614295       1.39896980       0.91312133
H       -1.21834070      -0.51035287       1.64679705
H        0.29831129      -0.20438295       2.49862349
16
Properties=species:S:1:pos:R:3 relative_energy_eV=0.07740727104737744 branch=left pbc="F F F"
C       -0.84349402       1.01362102      -1.78026811
C        0.02717627       0.45181971      -0.78359108
C        0.33406593      -0.95978194      -0.73089881
C        0.47480926      -1.41576626       0.66729462
C        0.03722061       0.96595209       0.67046328
C       -0.15258941      -0.30298832       1.51440330
H       -1.10944364       0.44571163      -2.66000049
H       -0.90618157       2.08832736      -1.85195841
H        1.00287749       0.77475416      -1.23524530
H        0.32285115      -1.55980769      -1.62418218
H        1.51800786      -1.57594683       0.97002324
H       -0.01509473      -2.37834408       0.80138000
H       -0.73528065       1.71578368       0.84949337
H        0.99955047       1.40960548       0.91862620
H       -1.21399363      -0.51316032       1.65435370
H        0.30529008      -0.20933914       2.49871399
16
Properties=species:S:1:pos:R:3 relative_energy_eV=0.0851751778018297 branch=left pbc="F F F"
C       -0.85411201       1.01252792      -1.78110894
C        0.03053061       0.45924977      -0.78532141
C        0.35809491      -0.94938590      -0.73643480
C        0.46972760      -1.41798979       0.66235665
C        0.03357119       0.97058235       0.67274668
C       -0.14850936      -0.30144360       1.51374967
H       -1.14817861       0.41977701      -2.64279092
H       -0.89306569       2.08442036      -1.88719639
H        1.01679807       0.77977634      -1.21310738
H        0.35928929      -1.53767490      -1.63635324
H        1.50924197      -1.60901423       0.96264461
H       -0.04624037      -2.36555829       0.80680872
H       -0.74157821       1.71210383       0.87074657
H        0.99724629       1.41654969       0.91400000
H       -1.20938368      -0.51305816       1.66018985
H        0.31233939      -0.21042178       2.49767758
16
Properties=species:S:1:pos:R:3 relative_energy_eV=0.09839251165976748 branch=left pbc="F F F"
C       -0.85060873       1.01871348      -1.79054597
C        0.03269498       0.47131669      -0.78646603
C        0.36023591      -0.93848455      -0.74056049
C        0.46446949      -1.42284587       0.65566897
C        0.02261414       0.97167453       0.68039285
C       -0.13945544      -0.30675665       1.51619256
H       -1.20644671       0.39579140      -2.59833371
H       -0.83718141       2.07722659      -1.96981114
H        1.03989923       0.78229860      -1.16604976
H        0.37458366      -1.51721075      -1.64892085
H        1.50777012      -1.62449878       0.93828896
H       -0.06687123      -2.36284654       0.81058035
H       -0.76286078       1.69827495       0.88769763
H        0.97366973       1.44117253       0.91996826
H       -1.19858140      -0.51530733       1.67523078
H        0.33183970      -0.21807739       2.49527460
16
Properties=species:S:1:pos:R:3 relative_energy_eV=0.10995602567436435 branch=left pbc="F F F"
C       -0.85322987       1.02125650      -1.79169557
C        0.03167145       0.47751892      -0.78799005
C        0.36544773      -0.93220525      -0.74192575
C        0.46064517      -1.42806673       0.65448640
C        0.01801256       0.96912185       0.68213292
C       -0.13481938      -0.31097466       1.51732582
H       -1.23112444       0.37956825      -2.57765099
H       -0.81746566       2.07640911      -2.00330864
H        1.05135523       0.78539352      -1.14719378
H        0.39045940      -1.50428775      -1.65802865
H        1.50621012      -1.63253379       0.92822396
H       -0.08416251      -2.36293967       0.81379220
H       -0.76708705       1.69529151       0.89412649
H        0.96305523       1.44927899       0.92089411
H       -1.19371236      -0.51300426       1.68093372
H        0.34051560      -0.21938553       2.49448472
16
Properties=species:S:1:pos:R:3 relative_energy_eV=0.11731698965195392 branch=left pbc="F F F"
C       -0.85717116       1.01686078      -1.78961964
C        0.03230335       0.47765098      -0.79055587
C        0.37650546      -0.93015712      -0.74185958
C        0.45965721      -1.43196514       0.65627365
C        0.01997927       0.96659031       0.67905791
C       -0.13454648      -0.31244164       1.51654748
H       -1.22881179       0.37183902      -2.57835955
H       -0.83127821       2.08304960      -1.99293310
H        1.05432245       0.78911590      -1.15109483
H        0.39824562      -1.50000562      -1.65911899
H        1.50445369      -1.63663083       0.93134160
H       -0.09635878      -2.36258078       0.81506595
H       -0.75926641       1.69920621       0.89234878
H        0.96377864       1.44601389       0.91863671
H       -1.19451149      -0.50947114       1.67754350
H        0.33846987      -0.21663344       2.49533294
16
Properties=species:S:1:pos:R:3 relative_energy_eV=0.11971945180448529 branch=left pbc="F F F"
C       -0.83852017       1.02923701      -1.79749782
C        0.03382561       0.48383556      -0.78731664
C        0.34695712      -0.92987830      -0.74288921
C        0.46082580      -1.43136863       0.65039441
C        0.00877773       0.96610574       0.68659775
C       -0.12892363      -0.31755304       1.52006347
H       -1.25974267       0.37770489      -2.54382350
H       -0.76485990       2.07006229      -2.05891835
H        1.06618799       0.78378057      -1.11469744
H        0.36420802      -1.50004957      -1.65887026
H        1.51264675      -1.61780318       0.90732650
H       -0.07492299      -2.37109870       0.81346493
H       -0.78680301       1.68076187       0.88815282
H        0.93716328       1.46863549       0.93109906
H       -1.18588096      -0.51784680       1.69247756
H        0.35483217      -0.22408401       2.49304339
16
Properties=species:S:1:pos:R:3 relative_energy_eV=0.1262015953898299 branch=left pbc="F F F"
C       -0.83149581       1.03866878      -1.80111122
C        0.03740417       0.49158823      -0.78347177
C        0.33198726      -0.92770335      -0.74431074
C        0.45919627      -1.42759156       0.64460006
C        0.00615200       0.97177338       0.69421929
C       -0.12492240      -0.31698914       1.51880003
H       -1.29097316       0.36287374      -2.51439388
H       -0.73395350       2.07052056      -2.11194798
H        1.08054438       0.78115944      -1.07701485
H        0.36322122      -1.50216301      -1.66168305
H        1.51124685      -1.62909800       0.89819993
H       -0.06921705      -2.37058323       0.80404268
H       -0.80748798       1.66918254       0.88945326
H        0.92912125       1.49175062       0.93584760
H       -1.17976818      -0.51804473       1.70134231
H        0.36471572      -0.23490290       2.48603485
16
Properties=species:S:1:pos:R:3 relative_energy_eV=0.1333061443265251 branch=left pbc="F F F"
C       -0.81111244       1.04979453      -1.81432387
C        0.03887583       0.49784767      -0.77924333
C        0.29624169      -0.92864034      -0.74524978
C        0.45946303      -1.42292332       0.63690104
C       -0.00471389       0.97549057       0.70469302
C       -0.12018842      -0.31977841       1.52270899
H       -1.32426405       0.37325482      -2.48357035
H       -0.66488315       2.05337739      -2.18220037
H        1.09063097       0.77418767      -1.04026286
H        0.33302793      -1.50587943      -1.66143440
H        1.51712240      -1.61139357       0.87315239
H       -0.04199245      -2.37634972       0.80100442
H       -0.83895678       1.65028751       0.89195733
H        0.90628852       1.51660675       0.95116709
H       -1.17127398      -0.52824173       1.71989691
H        0.38150575      -0.24719877       2.48340995
16
Properties=species:S:1:pos:R:3 relative_energy_eV=0.1376601231550012 branch=left pbc="F F F"
C       -0.80579573       1.05312933      -1.81722166
C        0.04051165       0.49940300      -0.77802388
C        0.28959227      -0.92900763      -0.74576830
C        0.46041788      -1.42071298       0.63427798
C       -0.00699794       0.97774459       0.70748532
C       -0.11913278      -0.31939295       1.52271726
H       -1.33390520       0.37445542      -2.47592743
H       -0.64968221       2.05049547      -2.19982787
H        1.09453821       0.77225018      -1.02932963
H        0.32379905      -1.50764378      -1.65927252
H        1.51792657      -1.61111221       0.86818810
H       -0.03445501      -2.37584769       0.79940479
H       -0.84846500       1.64437882       0.89315073
H        0.90218585       1.52429263       0.95384120
H       -1.16945741      -0.53114653       1.72330182
H        0.38469073      -0.25084400       2.48161021
16
Properties=species:S:1:pos:R:3 relative_energy_eV=0.14114866296404216 branch=left pbc="F F F"
C       -0.80377808       1.04741872      -1.82043012
C        0.04384713       0.49714202      -0.77975209
C        0.30156973      -0.92855080      -0.74251944
C        0.46544350      -1.41879291       0.63384932
C       -0.00503756       0.97844770       0.70876256
C       -0.11948528      -0.31792746       1.51983535
H       -1.33330141       0.37975023      -2.48523793
H       -0.66064498       2.05432382      -2.18980465
H        1.09688622       0.77286642      -1.03324800
H        0.31332275      -1.51153938      -1.65069486
H        1.51625672      -1.61824236       0.87185416
H       -0.03396497      -2.36848697       0.79957225
H       -0.84809739       1.64283394       0.89827950
H        0.90447175       1.52634696       0.95058927
H       -1.16929161      -0.53429751       1.71732275
H        0.37757445      -0.25085080       2.48022814
16
Properties=species:S:1:pos:R:3 relative_energy_eV=0.14787397410236736 branch=left pbc="F F F"
C       -0.80204164       1.05805278      -1.82197944
C        0.03690424       0.49904645      -0.77603632
C        0.28870033      -0.92820280      -0.74087983
C        0.46510719      -1.41584538       0.63314476
C       -0.01097900       0.97828152       0.71298488
C       -0.11875929      -0.31811530       1.52241759
H       -1.34301654       0.39138375      -2.48525602
H       -0.63087278       2.03405000      -2.21178693
H        1.09182957       0.76796917      -1.03013689
H        0.31632797      -1.50891435      -1.65680395
H        1.51613732      -1.61238232       0.86079703
H       -0.02282427      -2.36702700       0.80546666
H       -0.85784839       1.63819396       0.90988029
H        0.90040575       1.52651933       0.95169559
H       -1.16606488      -0.53976668       1.72606688
H        0.38276535      -0.25280148       2.47903177
16
Properties=species:S:1:pos:R:3 relative_energy_eV=0.14758060634358117 branch=left pbc="F F F"
C       -0.79337632       1.05845908      -1.82857604
C        0.03944947       0.50404677      -0.77660848
C        0.26092605      -0.93146093      -0.74867390
C        0.45553778      -1.41685101       0.62829518
C       -0.01280641       0.98418747       0.71290834
C       -0.11870865      -0.31946969       1.52705246
H       -1.35315410       0.37667261      -2.45700853
H       -0.60976493       2.03901885      -2.24483179
H        1.09868755       0.76889146      -1.01023150
H        0.32167695      -1.50716602      -1.66196791
H        1.51784568      -1.59874328       0.85121726
H       -0.01884368      -2.38085002       0.79846414
H       -0.86746016       1.63624534       0.89869892
H        0.89311005       1.53616095       0.96870239
H       -1.16776343      -0.53497689       1.74025852
H        0.40041502      -0.26372289       2.48090690
16
Properties=species:S:1:pos:R:3 relative_energy_eV=0.15090818344924628 branch=left pbc="F F F"
C       -0.77682744       1.07032137      -1.83669780
C        0.03675545       0.50725102      -0.77384608
C        0.22886439      -0.93323444      -0.75021419
C        0.45694466      -1.41593909       0.62456073
C       -0.02507046       0.98248870       0.71774070
C       -0.11515801      -0.32432691       1.53273371
H       -1.36931641       0.39695181      -2.43670960
H       -0.54642577       2.01680424      -2.29162765
H        1.09989215       0.76202157      -0.99125622
H        0.28674212      -1.50796113      -1.66221703
H        1.52841873      -1.56924327       0.82856341
H        0.00751214      -2.39117907       0.80197559
H       -0.88950927       1.62183088       0.89649206
H        0.86958606       1.54762043       0.98111336
H       -1.16140819      -0.54560351       1.75476860
H        0.41477059      -0.26736061       2.48322604
16
Properties=species:S:1:pos:R:3 relative_energy_eV=0.1550279539605981 branch=left pbc="F F F"
C       -0.76431638       1.08150278      -1.84128018
C        0.03383632       0.50957915      -0.77062251
C        0.19974791      -0.93445014      -0.75002152
C        0.45786853      -1.41696407       0.62226778
C       -0.03531856       0.97869107       0.72223828
C       -0.11092726      -0.32943654       1.53791083
H       -1.38313649       0.41153208      -2.41808547
H       -0.49179459       1.99933528      -2.33205790
H        1.10034934       0.75656147      -0.97409083
H        0.26010740      -1.50818655      -1.66619015
H        1.53769840      -1.54185844       0.80940165
H        0.02735877      -2.40226820       0.80364198
H       -0.90556573       1.61121913       0.89145440
H        0.84770279       1.55692579       0.99125967
H       -1.15473052      -0.55294148       1.76736895
H        0.42689075      -0.26879918       2.48541043
16
Properties=species:S:1:pos:R:3 relative_energy_eV=0.1590626640509072 branch=left pbc="F F F"
C       -0.74703647       1.09533447      -1.84807477
C        0.03099083       0.51085419      -0.76699826
C        0.17085961      -0.93559272      -0.74740779
C        0.46426054      -1.41701618       0.61968492
C       -0.04915324       0.97254307       0.72859713
C       -0.10536219      -0.33562322       1.54279854
H       -1.39918415       0.43970342      -2.40257903
H       -0.42339904       1.97435994      -2.37622773
H        1.10069864       0.74856150      -0.95668824
H        0.21211524      -1.51088287      -1.66445262
H        1.55081607      -1.50921603       0.78636493
H        0.05659673      -2.41129336       0.80847524
H       -0.92729785       1.59500461       0.88918855
H        0.81912632       1.56852065       1.00001663
H       -1.14500789      -0.56669961       1.77830818
H        0.43674743      -0.26811553       2.48759943
16
Properties=species:S:1:pos:R:3 relative_energy_eV=0.16198382496259 branch=left pbc="F F F"
C       -0.73552357       1.10544312      -1.85289516
C        0.02879314       0.51101604      -0.76413296
C        0.15272505      -0.93636723      -0.74435215
C        0.46952729      -1.41673120       0.61814076
C       -0.05889969       0.96767048       0.73381474
C       -0.10146475      -0.33970660       1.54588130
H       -1.41050227       0.46078343      -2.39499838
H       -0.37662497       1.95618068      -2.40522614
H        1.10031853       0.74282094      -0.94646024
H        0.17868537      -1.51288460      -1.66269593
H        1.55951314      -1.48782593       0.77080257
H        0.07714515      -2.41570168       0.81264702
H       -0.94220043       1.58395346       0.88987419
H        0.79991005       1.57582111       1.00474695
H       -1.13768534      -0.57684330       1.78488003
H        0.44205383      -0.26718629       2.48857829
16
Properties=species:S:1:pos:R:3 relative_energy_eV=0.16411880399937218 branch=left pbc="F F F"
C       -0.72719511       1.11137160      -1.85619076
C        0.02811587       0.51018774      -0.76187318
C        0.14204343      -0.93738116      -0.74181649
C        0.47329320      -1.41629978       0.61706539
C       -0.06527267       0.96394828       0.73807674
C       -0.09924159      -0.34250790       1.54787066
H       -1.41825704       0.47537268      -2.39122893
H       -0.34577231       1.94485025      -2.42384370
H        1.10028669       0.73916095      -0.94049054
H        0.15440026      -1.51398873      -1.66066699
H        1.56493027      -1.47337534       0.75985622
H        0.09156623      -2.41760824       0.81590202
H       -0.95236649       1.57633309       0.89034133
H        0.78732265       1.58087056       1.00776967
H       -1.13285310      -0.58413235       1.78918109
H        0.44477018      -0.26635915       2.48865222
16
Properties=species:S:1:pos:R:3 relative_energy_eV=0.16623548468123772 branch=left pbc="F F F"
C       -0.71958479       1.11581385      -1.85921484
C        0.02713982       0.50897037      -0.75927382
C        0.13295821      -0.93860849      -0.73967936
C        0.47546557      -1.41515596       0.61621615
C       -0.07076256       0.96080334       0.74256206
C       -0.09839139      -0.34490648       1.55016311
H       -1.42549343       0.48919394      -2.38941617
H       -0.31771665       1.93293957      -2.44058037
H        1.09939477       0.73590310      -0.93681680
H        0.13542393      -1.51336753      -1.66026077
H        1.56811360      -1.46006435       0.74787878
H        0.10515803      -2.41804517       0.82044305
H       -0.96160202       1.56949030       0.89216104
H        0.77769103       1.58467315       1.01092779
H       -1.12935946      -0.59126965       1.79534185
H        0.44733578      -0.26592743       2.48815292
16
Properties=species:S:1:pos:R:3 relative_energy_eV=0.1683747042034156 branch=left pbc="F F F"
C       -0.71197259       1.11948870      -1.86231440
C        0.02555602       0.50817357      -0.75680420
C        0.12473909      -0.93959779      -0.73871050
C        0.47681441      -1.41313560       0.61539850
C       -0.07605331       0.95868280       0.74646647
C       -0.09866295      -0.34694470       1.55268212
H       -1.43201205       0.50434643      -2.38850493
H       -0.29004968       1.91868791      -2.45626651
H        1.09775103       0.73242905      -0.93446673
H        0.11813184      -1.51171149      -1.66039745
H        1.57037735      -1.44721082       0.73466211
H        0.11941148      -2.41765129       0.82656984
H       -0.97113009       1.56209398       0.89523457
H        0.76981035       1.58774171       1.01423024
H       -1.12712870      -0.59924080       1.80310778
H        0.45018818      -0.26570899       2.48771759
16
Properties=species:S:1:pos:R:3 relative_energy_eV=0.1702326966005785 branch=left pbc="F F F"
C       -0.70655705       1.12267710      -1.86480585
C        0.02300724       0.50837635      -0.75501155
C        0.11797419      -0.93973672      -0.73882287
C        0.47722503      -1.41088727       0.61488795
C       -0.08035726       0.95796465       0.74883687
C       -0.09938219      -0.34818564       1.55490084
H       -1.43677875       0.51764126      -2.38837506
H       -0.26754509       1.90445229      -2.46856665
H        1.09540800       0.72921958      -0.93338908
H        0.10724966      -1.50978370      -1.66167773
H        1.57175054      -1.43759351       0.72349966
H        0.13094297      -2.41706983       0.83263804
H       -0.97882403       1.55595306       0.89946442
H        0.76470817       1.58927929       1.01674774
H       -1.12603433      -0.60611047       1.81053369
H        0.45298325      -0.26575373       2.48774395
16
Properties=species:S:1:pos:R:3 relative_energy_eV=0.17152385742247134 branch=left pbc="F F F"
C       -0.70350743       1.12491708      -1.86607053
C        0.02097594       0.50918570      -0.75422930
C        0.11395371      -0.93924719      -0.73964458
C        0.47754652      -1.40920826       0.61453308
C       -0.08314870       0.95810823       0.74942537
C       -0.09995423      -0.34871546       1.55611145
H       -1.43907683       0.52663182      -2.38816178
H       -0.25358172       1.89443210      -2.47554325
H        1.09375929       0.72691753      -0.93278580
H        0.10033703      -1.50862790      -1.66229316
H        1.57295556      -1.43216253       0.71679958
H        0.13836679      -2.41690140       0.83692541
H       -0.98379751       1.55164632       0.90238137
H        0.76180075       1.58983071       1.01793617
H       -1.12572355      -0.61072985       1.81511214
H        0.45486467      -0.26563420       2.48810812
16
Properties=species:S:1:pos:R:3 relative_energy_eV=0.17229281548952713 branch=left pbc="F F F"
C       -0.70267266       1.12656931      -1.86649487
C        0.01928927       0.51021629      -0.75404119
C        0.11155349      -0.93839374      -0.74033887
C        0.47761798      -1.40819502       0.61436345
C       -0.08474445       0.95856583       0.74912985
C       -0.10014889      -0.34875298       1.55660918
H       -1.43994712       0.53160937      -2.38814883
H       -0.24628084       1.88810734      -2.47889890
H        1.09263315       0.72548948      -0.93259684
H        0.09809079      -1.50804416      -1.66303428
H        1.57368286      -1.42995735       0.71369410
H        0.14204268      -2.41698938       0.83947876
H       -0.98626767       1.54941735       0.90461962
H        0.76050312       1.58949263       1.01817791
H       -1.12556371      -0.61311323       1.81750842
H        0.45598225      -0.26557903       2.48857673
16
Properties=species:S:1:pos:R:3 relative_energy_eV=0.17281820487914956 branch=left pbc="F F F"
C       -0.70234774       1.12813082      -1.86640409
C        0.01834995       0.51129827      -0.75421433
C        0.11012745      -0.93743792      -0.74092735
C        0.47830870      -1.40758109       0.61403679
C       -0.08610043       0.95890384       0.74837542
C       -0.09993525      -0.34868528       1.55648222
H       -1.44012455       0.53521074      -2.38788889
H       -0.24148987       1.88407780      -2.48056855
H        1.09235744       0.72437409      -0.93215985
H        0.09475484      -1.50819785      -1.66241892
H        1.57488044      -1.42902268       0.71257815
H        0.14478797      -2.41728720       0.84112995
H       -0.98819853       1.54757465       0.90582209
H        0.75911109       1.58910647       1.01773565
H       -1.12519349      -0.61473786       1.81800168
H        0.45648224      -0.26528407       2.48902427
16
Properties=species:S:1:pos:R:3 relative_energy_eV=0.1733991646578943 branch=left pbc="F F F"
C       -0.70289060       1.13067006      -1.86644365
C        0.01697993       0.51279023      -0.75456700
C        0.10791782      -0.93602822      -0.74086098
C        0.47952351      -1.40706007       0.61356865
C       -0.08803337       0.95913632       0.74764980
C       -0.09897448      -0.34851429       1.55598980
H       -1.44062915       0.53916255      -2.38823379
H       -0.23612553       1.87969000      -2.48274431
H        1.09213779       0.72302494      -0.93181384
H        0.09217617      -1.50899383      -1.66136633
H        1.57644491      -1.42896863       0.71264710
H        0.14740364      -2.41744581       0.84266302
H       -0.99030111       1.54612169       0.90853583
H        0.75721922       1.58812470       1.01667258
H       -1.12393115      -0.61603396       1.81737197
H        0.45685266      -0.26523295       2.48953534
16
Properties=species:S:1:pos:R:3 relative_energy_eV=0.17423371307722846 branch=left pbc="F F F"
C       -0.70270349       1.13421185      -1.86670539
C        0.01608158       0.51430336      -0.75496966
C        0.10548404      -0.93476026      -0.74013978
C        0.48237073      -1.40668108       0.61270473
C       -0.09098864       0.95880732       0.74736748
C       -0.09716932      -0.34866240       1.55496593
H       -1.44162264       0.54438968      -2.38869357
H       -0.22895869       1.87611295      -2.48607497
H        1.09250402       0.72128128      -0.93107839
H        0.08486832      -1.51096764      -1.65740436
H        1.57937415      -1.42903993       0.71381502
H        0.15141934      -2.41734447       0.84400347
H       -0.99384447       1.54403380       0.91171603
H        0.75372549       1.58752743       1.01494240
H       -1.12172521      -0.61764293       1.81443253
H        0.45695507      -0.26512624       2.48972269
16
Properties=species:S:1:pos:R:3 relative_energy_eV=0.17521459522140503 branch=left pbc="F F F"
C       -0.70244082       1.13747086      -1.86806167
C        0.01465289       0.51521533      -0.75504554
C        0.10269480      -0.93412724      -0.73842991
C        0.48496964      -1.40641755       0.61223304
C       -0.09375212       0.95826254       0.74845857
C       -0.09521679      -0.34908144       1.55434683
H       -1.44341850       0.54893553      -2.39010828
H       -0.22231847       1.87358928      -2.49084320
H        1.09190064       0.71974468      -0.93110300
H        0.08086041      -1.51301927      -1.65387177
H        1.58167929      -1.42943991       0.71516082
H        0.15428460      -2.41656814       0.84471997
H       -0.99695612       1.54319812       0.91674171
H        0.75080407       1.58710943       1.01368342
H       -1.11937641      -0.61857829       1.81125300
H        0.45740316      -0.26585125       2.48947016
16
Properties=species:S:1:pos:R:3 relative_energy_eV=0.17612375463431817 branch=left pbc="F F F"
C       -0.70101237       1.13970077      -1.86948370
C        0.01343499       0.51534761      -0.75471665
C        0.10124383      -0.93444584      -0.73689095
C        0.48738292      -1.40624816       0.61223763
C       -0.09574898       0.95763551       0.75010894
C       -0.09387967      -0.34981383       1.55412347
H       -1.44490041       0.55243653      -2.39101244
H       -0.21726743       1.87309502      -2.49557644
H        1.09063289       0.71852891      -0.93123659
H        0.07653696      -1.51480045      -1.65012063
H        1.58380055      -1.42957314       0.71611485
H        0.15648041      -2.41570620       0.84481488
H       -0.99961515       1.54247715       0.92058088
H        0.74862607       1.58768872       1.01291215
H       -1.11804860      -0.61938489       1.80800416
H        0.45810427      -0.26649502       2.48874460
16
Properties=species:S:1:pos:R:3 relative_energy_eV=0.1770895161826047 branch=left pbc="F F F"
C       -0.69924946       1.14102452      -1.87196430
C        0.01096546       0.51491038      -0.75416771
C        0.10026573      -0.93524075      -0.73504948
C        0.48903741      -1.40591551       0.61316862
C       -0.09686072       0.95745026       0.75240072
C       -0.09301927      -0.35056265       1.55461004
H       -1.44642285       0.55544749      -2.39226090
H       -0.21360243       1.87292520      -2.50103596
H        1.08756331       0.71748447      -0.93193635
H        0.07634299      -1.51644425      -1.64804984
H        1.58525841      -1.42988632       0.71657361
H        0.15696734      -2.41462796       0.84421959
H       -1.00110691       1.54263162       0.92566816
H        0.74775490       1.58894478       1.01291998
H       -1.11754456      -0.61999532       1.80546633
H        0.45942094      -0.26770325       2.48804163
16
Properties=species:S:1:pos:R:3 relative_energy_eV=0.17823193563981476 branch=left pbc="F F F"
C       -0.69626964       1.14201368      -1.87402911
C        0.00796576       0.51411830      -0.75350732
C        0.10116718      -0.93640379      -0.73372105
C        0.49125828      -1.40542456       0.61478727
C       -0.09737688       0.95767539       0.75397759
C       -0.09253930      -0.35117913       1.55522932
H       -1.44719619       0.55906352      -2.39250419
H       -0.21049478       1.87332185      -2.50605145
H        1.08368101       0.71622707      -0.93180920
H        0.07313495      -1.51864019      -1.64563859
H        1.58769904      -1.43013970       0.71693502
H        0.15742275      -2.41395775       0.84289145
H       -1.00233562       1.54170884       0.92930211
H        0.74695992       1.59172385       1.01278092
H       -1.11798944      -0.62153838       1.80234997
H        0.46068324      -0.26812630       2.48761139
16
Properties=species:S:1:pos:R:3 relative_energy_eV=0.17980314099168027 branch=left pbc="F F F"
C       -0.69277502       1.14237173      -1.87692334
C        0.00432893       0.51292739      -0.75354922
C        0.10335884      -0.93738735      -0.73240361
C        0.49397968      -1.40459543       0.61704299
C       -0.09721641       0.95877161       0.75450319
C       -0.09198468      -0.35109545       1.55586713
H       -1.44777989       0.56416711      -2.39269960
H       -0.20791343       1.87296877      -2.51004208
H        1.07955474       0.71486964      -0.93060791
H        0.06800846      -1.52218814      -1.64392609
H        1.59092340      -1.43044588       0.71742693
H        0.15742930      -2.41360835       0.84037975
H       -1.00284018       1.54005295       0.93288885
H        0.74588350       1.59616532       1.01291163
H       -1.11845298      -0.62432137       1.79919125
H        0.46126607      -0.26820984       2.48854427
16
Properties=species:S:1:pos:R:3 relative_energy_eV=0.1820149523919099 branch=left pbc="F F F"
C       -0.68937777       1.14317431      -1.87754178
C        0.00226774       0.51172353      -0.75423975
C        0.10791962      -0.93830426      -0.73203223
C        0.49854044      -1.40377640       0.61917763
C       -0.09688718       0.96008028       0.75240212
C       -0.09087260      -0.35006644       1.55559177
H       -1.44791383       0.57071159      -2.39182686
H       -0.20474945       1.87248992      -2.51074641
H        1.07801478       0.71330195      -0.92654666
H        0.05304512      -1.52735193      -1.64109563
H        1.59606909      -1.43082602       0.71888514
H        0.15919310      -2.41390047       0.83674173
H       -1.00387018       1.53595558       0.93242073
H        0.74295771       1.60220988       1.01167922
H       -1.11796967      -0.62897757       1.79478297
H        0.45940340      -0.26600123       2.49095214
16
Properties=species:S:1:pos:R:3 relative_energy_eV=0.18442709458486206 branch=left pbc="F F F"
C       -0.68559948       1.14268427      -1.87902099
C        0.00469090       0.51022899      -0.75639910
C        0.11267483      -0.93913414      -0.73234066
C        0.50412081      -1.40314038       0.61971429
C       -0.09661053       0.96104298       0.74956390
C       -0.08891345      -0.34881316       1.55454073
H       -1.44889840       0.57798215      -2.39145221
H       -0.20179220       1.87266130      -2.50752235
H        1.08167592       0.71254553      -0.92079972
H        0.02895960      -1.53393037      -1.63597569
H        1.60161340      -1.42985485       0.72077065
H        0.16313539      -2.41411957       0.83261480
H       -1.00619669       1.53091657       0.92886886
H        0.73760370       1.60912197       1.01094203
H       -1.11543576      -0.63448724       1.79040456
H        0.45474227      -0.26326135       2.49469502
16
Properties=species:S:1:pos:R:3 relative_energy_eV=0.18762832859010814 branch=left pbc="F F F"
C       -0.68051653       1.14168976      -1.87759017
C        0.01206018       0.50930390      -0.75830498
C        0.11869893      -0.94022539      -0.73500798
C        0.51189654      -1.40332479       0.61750771
C       -0.09705381       0.96054430       0.74644600
C       -0.08650348      -0.34839822       1.55266305
H       -1.44983025       0.58523498      -2.38976145
H       -0.19787896       1.87544853      -2.50103830
H        1.09005569       0.71192147      -0.91300864
H       -0.00910266      -1.54119029      -1.62607707
H        1.60900415      -1.42764327       0.72347930
H        0.17075571      -2.41468831       0.82901172
H       -1.01131973       1.52355696       0.91865665
H        0.72992972       1.61691755       1.00881083
H       -1.11221101      -0.64073021       1.78436179
H        0.44778586      -0.25797427       2.49845567
16
Properties=species:S:1:pos:R:3 relative_energy_eV=0.1941744508812917 branch=left pbc="F F F"
C       -0.67547488       1.13778772      -1.87838273
C        0.02220230       0.50897186      -0.75978259
C        0.12335421      -0.93994189      -0.73904272
C        0.52086438      -1.40437400       0.61127091
C       -0.09725713       0.95924131       0.74727523
C       -0.08252264      -0.34932169       1.55194724
H       -1.45436148       0.59382441      -2.39188923
H       -0.19351854       1.87784679      -2.49317417
H        1.10094230       0.71148752      -0.90460277
H       -0.04867321      -1.55178051      -1.61726888
H        1.61676043      -1.42515567       0.72752789
H        0.17788380      -2.41408232       0.82456256
H       -1.01775410       1.51788435       0.90926233
H        0.72207479       1.62684192       1.00684084
H       -1.10690691      -0.64699095       1.77911049
H        0.43815705      -0.25179613       2.50494974
16
Properties=species:S:1:pos:R:3 relative_energy_eV=0.200818453346983 branch=left pbc="F F F"
C       -0.67534733       1.13584736      -1.87609644
C        0.02490269       0.51031696      -0.75797812
C        0.12500992      -0.93815150      -0.74202646
C        0.52498416      -1.40570534       0.60604931
C       -0.09710290       0.95791178       0.75053636
C       -0.08034592      -0.35084765       1.55282941
H       -1.45791387       0.59703484      -2.39463832
H       -0.19075236       1.87782459      -2.49092819
H        1.10337771       0.71034646      -0.90110905
H       -0.05987425      -1.55741980      -1.61747137
H        1.62051771      -1.42599884       0.73067078
H        0.17884776      -2.41338883       0.82273035
H       -1.02046839       1.51705640       0.90603547
H        0.72104801       1.63138486       1.00380980
H       -1.10479734      -0.64881753       1.77725049
H        0.43368479      -0.24695102       2.50894010
16
Properties=species:S:1:pos:R:3 relative_energy_eV=0.21032606627977657 branch=left pbc="F F F"
C       -0.68217561       1.13487908      -1.87527492
C        0.01622409       0.51274041      -0.75355255
C        0.12206055      -0.93292599      -0.74231817
C        0.52328469      -1.40700242       0.60156641
C       -0.09527207       0.95791539       0.75829670
C       -0.07916841      -0.35164260       1.55687621
H       -1.46287215       0.59681145      -2.40213304
H       -0.19026480       1.87094905      -2.49589651
H        1.09375925       0.70818430      -0.90328872
H       -0.02943731      -1.56047051      -1.63329434
H        1.61917697      -1.43185577       0.73346856
H        0.16900393      -2.41182989       0.82169003
H       -1.01690888       1.52426208       0.91677844
H        0.72897318       1.63171581       1.00095657
H       -1.10488389      -0.64631378       1.78107854
H        0.43427081      -0.24497390       2.51365092
16
Properties=species:S:1:pos:R:3 relative_energy_eV=0.21474960663545062 branch=left pbc="F F F"
C       -0.66402399       1.12816706      -1.88596840
C        0.04230684       0.50993761      -0.76272173
C        0.12578679      -0.94502895      -0.74588041
C        0.53113208      -1.40408027       0.60651998
C       -0.09949339       0.95666790       0.74914394
C       -0.07652453      -0.35458807       1.54933649
H       -1.46230671       0.60399387      -2.39628211
H       -0.18934485       1.88601726      -2.48125305
H        1.12459406       0.71417814      -0.89571801
H       -0.10937966      -1.56438903      -1.59707413
H        1.62387721      -1.41643041       0.73026193
H        0.19116338      -2.41195345       0.81939144
H       -1.02748999       1.51069955       0.89585030
H        0.70805882       1.63983131       1.00947071
H       -1.09714364      -0.65398474       1.77315073
H        0.42455802      -0.24859508       2.51037644
16
Properties=species:S:1:pos:R:3 relative_energy_eV=0.22271691051264497 branch=left pbc="F F F"
C       -0.67889497       1.13794520      -1.87459997
C        0.03968937       0.50799509      -0.76245672
C        0.13058035      -0.94692058      -0.74259005
C        0.53215543      -1.40071347       0.61587099
C       -0.09955562       0.95728309       0.74199981
C       -0.07217290      -0.35156304       1.54692494
H       -1.46517774       0.60380987      -2.39780876
H       -0.18299967       1.88041873      -2.47773353
H        1.12772601       0.71304248      -0.88820309
H       -0.11012834      -1.56682831      -1.61031473
H        1.62463904      -1.42438310       0.73433452
H        0.19079001      -2.41040758       0.81340815
H       -1.02620417       1.51015532       0.89462939
H        0.70766983       1.63844687       1.00150640
H       -1.08863785      -0.65564744       1.77094037
H        0.41629165      -0.24219043       2.51269638
16
Properties=species:S:1:pos:R:3 relative_energy_eV=0.24402380075480323 branch=left pbc="F F F"
C       -0.67585566       1.14614128      -1.86882948
C        0.05542814       0.50008045      -0.77196762
C        0.13970793      -0.95354769      -0.73978404
C        0.53762264      -1.39734160       0.62388970
C       -0.10186538       0.95724132       0.72643739
C       -0.07212916      -0.34678470       1.53931865
H       -1.45774118       0.60530219      -2.38493660
H       -0.17978570       1.88799359      -2.46599343
H        1.14353623       0.71491923      -0.87826292
H       -0.16658987      -1.56456971      -1.59149301
H        1.62994657      -1.42001642       0.73309169
H        0.20761253      -2.41290187       0.81178016
H       -1.03391017       1.49702673       0.87386105
H        0.69430782       1.63825662       1.00053312
H       -1.08470861      -0.66193390       1.76236843
H        0.41019432      -0.23942285       2.50859101
16
Properties=species:S:1:pos:R:3 relative_energy_eV=0.2678699464067904 branch=left pbc="F F F"
C       -0.66794655       1.15556882      -1.85604597
C        0.07230268       0.49243509      -0.77868744
C        0.15148346      -0.95701451      -0.74068684
C        0.54565444      -1.39756049       0.62392595
C       -0.10494913       0.95478106       0.71337591
C       -0.07576551      -0.34273994       1.53266532
H       -1.44490836       0.60425706      -2.36502665
H       -0.17688764       1.90006570      -2.45511748
H        1.15505635       0.71481867      -0.86914870
H       -0.23227164      -1.55912362      -1.56590682
H        1.63918732      -1.41506207       0.73185303
H        0.22737492      -2.41795064       0.81508139
H       -1.04561132       1.48041158       0.84335261
H        0.68279973       1.63729622       0.99621955
H       -1.08839496      -0.66754954       1.75091208
H        0.40864667      -0.23219070       2.50183815
16
Properties=species:S:1:pos:R:3 relative_energy_eV=0.2893377158243311 branch=left pbc="F F F"
C       -0.64477531       1.15663170      -1.84824753
C        0.09518895       0.48836485      -0.78339438
C        0.16132091      -0.96086363      -0.74778456
C        0.55635322      -1.40148941       0.61545160
C       -0.10998771       0.94997925       0.70608365
C       -0.08232791      -0.34371567       1.52712626
H       -1.42984233       0.60357427      -2.34178563
H       -0.17716134       1.92096877      -2.44425157
H        1.17026383       0.71573459      -0.86396408
H       -0.31653423      -1.55300182      -1.52324185
H        1.65058317      -1.40211060       0.72824154
H        0.25262111      -2.42424898       0.82352342
H       -1.06181035       1.46048217       0.80499378
H        0.66896120       1.63951449       0.99605434
H       -1.09832285      -0.67278938       1.73791399
H        0.41124014      -0.22658792       2.49188513
16
Properties=species:S:1:pos:R:3 relative_energy_eV=0.3054102090354718 branch=left pbc="F F F"
C       -0.61626787       1.14864060      -1.85343121
C        0.11688725       0.48791383      -0.78731268
C        0.16475439      -0.96490194      -0.75568282
C        0.56482449      -1.40567764       0.60554524
C       -0.11468667       0.94579465       0.70577617
C       -0.08794571      -0.34853165       1.52390519
H       -1.41942653       0.60513757      -2.32568750
H       -0.18090886       1.94125593      -2.43595489
H        1.18637160       0.71852692      -0.86397475
H       -0.38803562      -1.55001803      -1.48101628
H        1.65834821      -1.38534351       0.72303151
H        0.27387944      -2.42858246       0.83182030
H       -1.07565924       1.44551233       0.77636393
H        0.65612331       1.64449868       1.00257552
H       -1.10753232      -0.67644631       1.72924097
H        0.41504471      -0.22733633       2.48340542
16
Properties=species:S:1:pos:R:3 relative_energy_eV=0.31621761243150104 branch=left pbc="F F F"
C       -0.59354687       1.13914872      -1.86271094
C        0.13201760       0.48973549      -0.78880635
C        0.16493609      -0.96762659      -0.76145185
C        0.57002070      -1.40869282       0.59826293
C       -0.11790132       0.94267043       0.70883099
C       -0.09125440      -0.35471997       1.52232972
H       -1.41395505       0.60722170      -2.31713196
H       -0.18497734       1.95574125      -2.43093073
H        1.19888604       0.72130435      -0.86620661
H       -0.43527575      -1.54990697      -1.45120291
H        1.66240184      -1.37150980       0.71866653
H        0.28767824      -2.43074101       0.83774923
H       -1.08486647       1.43684225       0.75927118
H        0.64725623       1.64946604       1.00976254
H       -1.11371540      -0.67824957       1.72461402
H        0.41806646      -0.23024088       2.47755832
16
Properties=species:S:1:pos:R:3 relative_energy_eV=0.32292161039458733 branch=left pbc="F F F"
C       -0.57806128       1.13100650      -1.87186469
C        0.14129827       0.49248050      -0.78835232
C        0.16399618      -0.96945764      -0.76454995
C        0.57241733      -1.41021020       0.59432434
C       -0.11967430       0.94059834       0.71180570
C       -0.09263185      -0.36068969       1.52116252
H       -1.41183488       0.60915942      -2.31370421
H       -0.18826591       1.96496219      -2.42829108
H        1.20793688       0.72364870      -0.86884610
H       -0.46331843      -1.55125531      -1.43255858
H        1.66383888      -1.36147760       0.71547879
H        0.29565646      -2.43154077       0.84133931
H       -1.08986758       1.43249917       0.75058772
H        0.64130525       1.65337760       1.01577607
H       -1.11694377      -0.67896446       1.72257243
H        0.41991939      -0.23369413       2.47372418
16
Properties=species:S:1:pos:R:3 relative_energy_eV=0.3294381234945831 branch=left pbc="F F F"
C       -0.56225834       1.12104914      -1.88461176
C        0.15015028       0.49630074      -0.78696639
C        0.16185403      -0.97200056      -0.76598068
C        0.57317929      -1.41065365       0.59221373
C       -0.12077735       0.93902441       0.71356936
C       -0.09312696      -0.36764835       1.51905623
H       -1.41125663       0.61194045      -2.31275392
H       -0.19224088       1.97375974      -2.42618904
H        1.21841169       0.72685069      -0.87239699
H       -0.48842555      -1.55365263      -1.41413278
H        1.66359052      -1.35010370       0.71171608
H        0.30269078      -2.43189215       0.84424800
H       -1.09287741       1.42925317       0.74541478
H        0.63404863       1.65763269       1.02378639
H       -1.11861330      -0.67966860       1.72171361
H        0.42142187      -0.23974883       2.46991754
16
Properties=species:S:1:pos:R:3 relative_energy_eV=0.334695288542207 branch=left pbc="F F F"
C       -0.55057711       1.11276069      -1.89621069
C        0.15671391       0.49888098      -0.78648528
C        0.15941596      -0.97451800      -0.76546855
C        0.57253971      -1.41010107       0.59201449
C       -0.12095466       0.93866548       0.71254955
C       -0.09315741      -0.37193955       1.51665296
H       -1.41157179       0.61466924      -2.31347885
H       -0.19561708       1.97987063      -2.42486524
H        1.22697601       0.72986847      -0.87523970
H       -0.50515672      -1.55554185      -1.40012998
H        1.66224732      -1.34078756       0.70844994
H        0.30744773      -2.43214189       0.84577428
H       -1.09339538       1.42721648       0.74434500
H        0.62719810       1.66065686       1.03144023
H       -1.11861849      -0.68064197       1.72190729
H        0.42228061      -0.24647437       2.46734870
16
Properties=species:S:1:pos:R:3 relative_energy_eV=0.3451693793049344 branch=left pbc="F F F"
C       -0.53192562       1.09838313      -1.91840684
C        0.16860812       0.49975000      -0.79050844
C        0.15383831      -0.97924350      -0.76200741
C        0.57001937      -1.40810113       0.59322130
C       -0.12006297       0.94027992       0.70630260
C       -0.09342280      -0.37410777       1.51230600
H       -1.41277163       0.62032838      -2.31641848
H       -0.20177840       1.98871993      -2.42280082
H        1.24111407       0.73581741      -0.87938728
H       -0.52924657      -1.55783315      -1.37646081
H        1.65850610      -1.32462719       0.70223400
H        0.31466443      -2.43280290       0.84690486
H       -1.09195816       1.42422296       0.74776599
H        0.61358143       1.66497634       1.04758682
H       -1.11667217      -0.68369369       1.72374869
H        0.42327725      -0.26162615       2.46452400
16
Properties=species:S:1:pos:R:3 relative_energy_eV=0.3509005143887407 branch=left pbc="F F F"
C       -0.52392836       1.09189103      -1.92854350
C        0.17447958       0.49822750      -0.79558009
C        0.15109799      -0.98122885      -0.76017699
C        0.56894810      -1.40710303       0.59351414
C       -0.11978496       0.94172244       0.70380616
C       -0.09377846      -0.37310923       1.51104673
H       -1.41352301       0.62299184      -2.31797739
H       -0.20445828       1.99229135      -2.42192742
H        1.24683142       0.73858151      -0.88079722
H       -0.53892027      -1.55852680      -1.36644309
H        1.65690031      -1.31784413       0.69932967
H        0.31764587      -2.43306445       0.84692803
H       -1.09160448       1.42315995       0.75044805
H        0.60781948       1.66682402       1.05569319
H       -1.11556814      -0.68540326       1.72501150
H        0.42361402      -0.26896732       2.46427238
16
Properties=species:S:1:pos:R:3 relative_energy_eV=0.35972388522804977 branch=left pbc="F F F"
C       -0.51236443       1.08197452      -1.94408012
C        0.18507607       0.49128482      -0.81212437
C        0.14679673      -0.98361129      -0.75798870
C        0.56856209      -1.40597669       0.59211659
C       -0.12049879       0.94508829       0.70452274
C       -0.09505251      -0.36799385       1.51207664
H       -1.41513634       0.62701367      -2.32037622
H       -0.20811634       1.99701972      -2.42052692
H        1.25379325       0.74271743      -0.88188937
H       -0.55213470      -1.55913319      -1.35334217
H        1.65540589      -1.30929707       0.69479652
H        0.32173375      -2.43290396       0.84601714
H       -1.09374580       1.42249382       0.75562111
H        0.60158906       1.66995492       1.06942496
H       -1.11407471      -0.68823749       1.72769848
H        0.42393760      -0.27995109       2.46665784
16
Properties=species:S:1:pos:R:3 relative_energy_eV=0.3648559755874885 branch=left pbc="F F F"
C       -0.50838417       1.07843362      -1.94936799
C        0.18919995       0.48795633      -0.81987636
C        0.14527682      -0.98420295      -0.75740179
C        0.56884020      -1.40591534       0.59102475
C       -0.12100294       0.94616456       0.70573540
C       -0.09575176      -0.36537729       1.51340531
H       -1.41583237       0.62837578      -2.32120718
H       -0.20927894       1.99861301      -2.42006022
H        1.25576444       0.74411508      -0.88202749
H       -0.55651009      -1.55926989      -1.34924120
H        1.65511332      -1.30671844       0.69320872
H        0.32309522      -2.43262132       0.84552695
H       -1.09530142       1.42252727       0.75756214
H        0.60017118       1.67127071       1.07454275
H       -1.11362128      -0.68923833       1.72875061
H        0.42399267      -0.28367025       2.46802977
16
Properties=species:S:1:pos:R:3 relative_energy_eV=0.39661319583865406 branch=left pbc="F F F"
C       -0.52014221       1.08979329      -1.92827127
C        0.17542183       0.50275967      -0.78124529
C        0.14773190      -0.97947270      -0.75213353
C        0.56506196      -1.40886366       0.59624413
C       -0.11134955       0.93588088       0.66963208
C       -0.09621738      -0.36434760       1.50560171
H       -1.41250339       0.62501461      -2.31987603
H       -0.20701207       1.99433978      -2.42321084
H        1.24835632       0.74070325      -0.88130927
H       -0.54033611      -1.55688896      -1.35476364
H        1.65158667      -1.30958411       0.69818571
H        0.31939594      -2.43683362       0.84871334
H       -1.08163531       1.42026542       0.75715389
H        0.59561831       1.66635261       1.06114737
H       -1.11257922      -0.68959075       1.72464934
H        0.42437312      -0.27908555       2.45808644
16
Properties=species:S:1:pos:R:3 relative_energy_eV=0.4031354903236206 branch=left pbc="F F F"
C       -0.49575988       1.06670115      -1.96800467
C        0.20535785       0.47324033      -0.85509728
C        0.14073127      -0.98520088      -0.75761528
C        0.57239962      -1.40692005       0.58449090
C       -0.12417725       0.94721410       0.71910415
C       -0.09937330      -0.35585778       1.52345669
H       -1.41858642       0.63259240      -2.32351683
H       -0.21253751       2.00343288      -2.41807680
H        1.26023986       0.74810152      -0.88160847
H       -0.57109475      -1.55999563      -1.33872130
H        1.65570477      -1.30068560       0.68792653
H        0.32740146      -2.42964249       0.84308365
H       -1.10715102       1.42495962       0.76306901
H        0.60119992       1.67793421       1.09253988
H       -1.11227826      -0.69147866       1.73247422
H        0.42369452      -0.29395255       2.47509981
16
Properties=species:S:1:pos:R:3 relative_energy_eV=0.4262714918186248 branch=left pbc="F F F"
C       -0.48978917       1.06100455      -1.97802761
C        0.21208258       0.46631591      -0.87314674
C        0.13955355      -0.98691880      -0.75963606
C        0.57421043      -1.40575294       0.58191393
C       -0.12808903       0.95079285       0.73439213
C       -0.09948357      -0.35567552       1.52771805
H       -1.42031506       0.63425749      -2.32431443
H       -0.21370459       2.00576132      -2.41671167
H        1.26358918       0.74973532      -0.88186030
H       -0.57901066      -1.56111474      -1.33564693
H        1.65718447      -1.29907485       0.68544937
H        0.32928067      -2.42764059       0.84160049
H       -1.11389676       1.42621706       0.76357423
H        0.60323734       1.68060956       1.09939207
H       -1.11247557      -0.69145436       1.73439682
H        0.42339707      -0.29661967       2.47951085
16
Properties=species:S:1:pos:R:3 relative_energy_eV=0.4609815220701421 branch=left pbc="F F F"
C       -0.50120190       1.07173410      -1.95036732
C        0.20242857       0.47811627      -0.83967399
C        0.14001701      -0.97609052      -0.75082195
C        0.57192623      -1.41401840       0.58386697
C       -0.11221786       0.93061092       0.67816990
C       -0.10440255      -0.34421418       1.52751060
H       -1.41623652       0.63137181      -2.32349540
H       -0.21184158       2.00138333      -2.42118755
H        1.24997707       0.74621742      -0.87901666
H       -0.55977474      -1.55716289      -1.33893666
H        1.65123905      -1.30043285       0.69060360
H        0.32561482      -2.43202275       0.84544624
H       -1.10235307       1.42576465       0.76880353
H        0.59860282       1.67884280       1.09144833
H       -1.10914269      -0.69363101       1.72960102
H        0.42313623      -0.29602609       2.46665355
16
Properties=species:S:1:pos:R:3 relative_energy_eV=0.46453037202627456 branch=left pbc="F F F"
C       -0.47866169       1.05041921      -1.99843238
C        0.22225712       0.45514466      -0.90291136
C        0.13858767      -0.99243744      -0.76546386
C        0.57725136      -1.40137938       0.57846523
C       -0.13779853       0.96064513       0.77005883
C       -0.09766730      -0.35990318       1.53318582
H       -1.42411547       0.63694197      -2.32558191
H       -0.21555046       2.01029592      -2.41369966
H        1.27227836       0.75262038      -0.88329445
H       -0.59503179      -1.56416927      -1.33166087
H        1.66101302      -1.29708651       0.68085457
H        0.33262858      -2.42359816       0.83853693
H       -1.12623710       1.42820547       0.76206017
H        0.60773486       1.68455939       1.10975622
H       -1.11381375      -0.69041409       1.73814844
H        0.42289601      -0.29940153       2.48858251
16
Properties=species:S:1:pos:R:3 relative_energy_eV=0.48188036141982593 branch=left pbc="F F F"
C       -0.47282931       1.04486665      -2.01154574
C        0.22612513       0.44959008      -0.91730988
C        0.13846565      -0.99783119      -0.77010091
C        0.57806266      -1.39699473       0.57786728
C       -0.14513268       0.97032997       0.79484063
C       -0.09490387      -0.36611687       1.53302138
H       -1.42622780       0.63833829      -2.32604259
H       -0.21650459       2.01270154      -2.41168155
H        1.27941121       0.75447496      -0.88460639
H       -0.60457772      -1.56624345      -1.33015698
H        1.66406222      -1.29639091       0.67827823
H        0.33440905      -2.42138779       0.83659931
H       -1.13204420       1.42856573       0.75980535
H        0.61002445       1.68553499       1.11398007
H       -1.11563654      -0.68935778       1.74057638
H        0.42306722      -0.29963693       2.49507965
16
Properties=species:S:1:pos:R:3 relative_energy_eV=0.48717355717599276 branch=left pbc="F F F"
C       -0.47188590       1.04416008      -2.01459035
C        0.22652389       0.44830946      -0.91941967
C        0.13834295      -0.99950643      -0.77135334
C        0.57793351      -1.39513083       0.57799434
C       -0.14685051       0.97376103       0.80012249
C       -0.09398898      -0.36851320       1.53201577
H       -1.42656026       0.63859160      -2.32605712
H       -0.21672916       2.01297504      -2.41120034
H        1.28132411       0.75496962      -0.88490376
H       -0.60635940      -1.56657113      -1.32986384
H        1.66487203      -1.29632094       0.67779417
H        0.33464713      -2.42133724       0.83626142
H       -1.13268444       1.42834532       0.75924549
H        0.61013521       1.68525090       1.11451413
H       -1.11626637      -0.68910373       1.74116343
H        0.42331707      -0.29943700       2.49688140
16
Properties=species:S:1:pos:R:3 relative_energy_eV=0.5313453404360189 branch=ts pbc="F F F"
C       -0.46911017       1.04237250      -2.01927170
C        0.24585342       0.42385672      -0.97410140
C        0.13845053      -1.01130422      -0.77311665
C        0.58578298      -1.40668563       0.55359162
C       -0.16388493       0.99248835       0.86766451
C       -0.10282431      -0.34218976       1.53888283
H       -1.43007972       0.64321295      -2.32453678
H       -0.21816948       2.02692489      -2.37954769
H        1.27736987       0.76869185      -0.86837922
H       -0.65538507      -1.55719841      -1.28073428
H        1.66068123      -1.26929943       0.68695937
H        0.34911233      -2.42888304       0.83608559
H       -1.14630700       1.43309326       0.77115570
H        0.59516301       1.71328128       1.13979804
H       -1.11298019      -0.69559712       1.74073119
H        0.44633392      -0.33274096       2.48480570
16
Properties=species:S:1:pos:R:3 relative_energy_eV=0.3911146863538306 branch=right pbc="F F F"
C       -0.46633444       1.04058492      -2.02395306
C        0.26518294       0.39940398      -1.02878313
C        0.13855810      -1.02310201      -0.77487995
C        0.59363245      -1.41824043       0.52918891
C       -0.18091934       1.01121566       0.93520653
C       -0.11165965      -0.31586631       1.54574988
H       -1.43359918       0.64783430      -2.32301644
H       -0.21960981       2.04087473      -2.34789504
H        1.27341562       0.78241409      -0.85185469
H       -0.70441074      -1.54782568      -1.23160472
H        1.65649043      -1.24227792       0.69612456
H        0.36357752      -2.43642885       0.83590977
H       -1.15992956       1.43784120       0.78306590
H        0.58019080       1.74131166       1.16508195
H       -1.10969400      -0.70209051       1.74029896
H        0.46935077      -0.36604491       2.47273000
16
Properties=species:S:1:pos:R:3 relative_energy_eV=0.31232323788026406 branch=right pbc="F F F"
C       -0.46616140       1.04016610      -2.02169064
C        0.27228579       0.39018382      -1.04779891
C        0.13654729      -1.02370649      -0.77552688
C        0.59693602      -1.42096008       0.52116015
C       -0.18509963       1.01494625       0.95422542
C       -0.11448355      -0.30728002       1.55029201
H       -1.43290830       0.64752497      -2.32330664
H       -0.21945749       2.04067949      -2.34746690
H        1.27082413       0.78212545      -0.85017055
H       -0.70351474      -1.54710311      -1.23097435
H        1.65603294      -1.24201125       0.69614098
H        0.36344002      -2.43623650       0.83636534
H       -1.16016084       1.43818634       0.78367322
H        0.58002475       1.74218416       1.16507552
H       -1.10954664      -0.70230085       1.74000454
H        0.46948357      -0.36679438       2.47136713
16
Properties=species:S:1:pos:R:3 relative_energy_eV=0.02342158455758181 branch=right pbc="F F F"
C       -0.47339911       1.04140848      -2.02179048
C        0.30669908       0.34204717      -1.12841273
C        0.14032844      -1.02104903      -0.77413701
C        0.60657649      -1.44320776       0.46492695
C       -0.20110720       1.02144032       1.04482259
C       -0.14253430      -0.25380082       1.57549520
H       -1.42834105       0.64325394      -2.32512688
H       -0.21608101       2.03579178      -2.34135318
H        1.26127824       0.78273059      -0.83358640
H       -0.71137439      -1.55305116      -1.23174283
H        1.66158073      -1.23393501       0.69643949
H        0.36039933      -2.43564553       0.83750265
H       -1.16986612       1.44581519       0.78285082
H        0.58812895       1.75884369       1.16605697
H       -1.10884284      -0.70500199       1.73745031
H        0.48079675      -0.37603593       2.47197403
16
Properties=species:S:1:pos:R:3 relative_energy_eV=-0.20659627477471076 branch=right pbc="F F F"
C       -0.46852593       1.03325054      -2.00819243
C        0.33971294       0.30843545      -1.21661895
C        0.12297430      -1.03104748      -0.78850760
C        0.63298184      -1.46104874       0.42556338
C       -0.22308420       1.05265682       1.12903807
C       -0.15703281      -0.21682052       1.61350520
H       -1.42671257       0.64064528      -2.32783085
H       -0.21462727       2.03510427      -2.33843577
H        1.24895251       0.78056629      -0.82402711
H       -0.70532620      -1.54926043      -1.22717149
H        1.65683839      -1.23059661       0.69533575
H        0.35786508      -2.43515978       0.83868470
H       -1.17044231       1.44766271       0.78469251
H        0.58785909       1.76265906       1.16663577
H       -1.11014116      -0.70621620       1.73525209
H        0.48295029      -0.38122671       2.46344621
16
Properties=species:S:1:pos:R:3 relative_energy_eV=-0.4901293842904124 branch=right pbc="F F F"
C       -0.46840919       1.02756189      -2.00327829
C        0.37869041       0.27067813      -1.30061384
C        0.11424381      -1.03877836      -0.80198653
C        0.66018182      -1.48921896       0.37010285
C       -0.24642203       1.08415706       1.21937567
C       -0.18308585      -0.16962015       1.66206422
H       -1.42414013       0.63669207      -2.33073097
H       -0.21216917       2.03137834      -2.33265770
H        1.23578123       0.77800437      -0.81109171
H       -0.70831384      -1.55192171      -1.22571927
H        1.65646624      -1.22257674       0.69385623
H        0.35372174      -2.43384753       0.83881648
H       -1.17590398       1.45281390       0.78370150
H        0.59317699       1.77291770       1.16815009
H       -1.11207918      -0.70810252       1.73225608
H        0.49250314      -0.39053354       2.45912473
16
Properties=species:S:1:pos:R:3 relative_energy_eV=-0.5806800283698976 branch=right pbc="F F F"
C       -0.46780789       1.02158377      -1.99904314
C        0.41853906       0.23314107      -1.38429810
C        0.10707515      -1.04689004      -0.81475336
C        0.68910177      -1.52086991       0.31169739
C       -0.27049860       1.11927914       1.30945194
C       -0.21141909      -0.11982940       1.71450897
H       -1.42178243       0.63250640      -2.33376761
H       -0.20962462       2.02771665      -2.32663690
H        1.22201389       0.77470735      -0.79893160
H       -0.71271076      -1.55546441      -1.22486985
H        1.65607626      -1.21397390       0.69188198
H        0.34945759      -2.43175669       0.83828893
H       -1.18071183       1.45790872       0.78344513
H        0.59776436       1.78287199       1.17048124
H       -1.11420977      -0.71035158       1.72926405
H        0.50297897      -0.40097520       2.45465051
16
Properties=species:S:1:pos:R:3 relative_energy_eV=-0.6963817854666559 branch=right pbc="F F F"
C       -0.46776116       1.02084663      -2.00605330
C        0.42035373       0.24226301      -1.36376042
C        0.11014186      -1.04667826      -0.82240800
C        0.68850443      -1.51871807       0.31948806
C       -0.27225972       1.13168828       1.29548024
C       -0.20925923      -0.13998216       1.72222946
H       -1.42205480       0.63265093      -2.33349134
H       -0.21015164       2.02577900      -2.32528566
H        1.22114206       0.77160070      -0.80409263
H       -0.71785984      -1.55873599      -1.22665522
H        1.65642551      -1.21277716       0.68962142
H        0.34944307      -2.43042981       0.83580887
H       -1.18036311       1.45863178       0.78290190
H        0.59830680       1.78205590       1.17205239
H       -1.11516932      -0.70807378       1.72917995
H        0.50480339      -0.40051705       2.45635390
16
Properties=species:S:1:pos:R:3 relative_energy_eV=-0.8345383452806345 branch=right pbc="F F F"
C       -0.45847107       1.01171893      -2.01626775
C        0.41437612       0.26276169      -1.33164348
C        0.12152644      -1.05167057      -0.83472075
C        0.68809217      -1.51965042       0.32199402
C       -0.27491021       1.13191515       1.28246115
C       -0.21236314      -0.13812415       1.73320750
H       -1.42418170       0.63027118      -2.33466537
H       -0.21003097       2.02290577      -2.32151132
H        1.22274512       0.76595780      -0.81130960
H       -0.73105248      -1.56711880      -1.23122866
H        1.65841300      -1.20685986       0.68296963
H        0.34841320      -2.42697685       0.82832945
H       -1.18226271       1.46380217       0.78132304
H        0.59999388       1.78486281       1.17738104
H       -1.12271589      -0.70810632       1.73017721
H        0.51667026      -0.40608457       2.46487353
16
Properties=species:S:1:pos:R:3 relative_energy_eV=-1.0301974251906358 branch=right pbc="F F F"
C       -0.44278948       0.99606693      -2.03977936
C        0.40955297       0.27166413      -1.30539523
C        0.14032498      -1.07049475      -0.85834992
C        0.70051632      -1.53431015       0.28976483
C       -0.28626599       1.15222903       1.29544497
C       -0.23288851      -0.10997600       1.78698836
H       -1.42301347       0.62273462      -2.33808009
H       -0.20893044       2.01449594      -2.31114120
H        1.22988286       0.75816441      -0.81786877
H       -0.75344385      -1.58082648      -1.23897116
H        1.66138294      -1.18981824       0.66521241
H        0.34448321      -2.42001170       0.81112032
H       -1.18703091       1.47781693       0.77954083
H        0.59783874       1.79111185       1.19261266
H       -1.13764370      -0.70728894       1.73374399
H        0.54226637      -0.42195360       2.47652720
16
Properties=species:S:1:pos:R:3 relative_energy_eV=-1.1788314683553835 branch=right pbc="F F F"
C       -0.42825999       0.97811625      -2.06222180
C        0.40393921       0.26449171      -1.29778590
C        0.15061330      -1.08990532      -0.88151262
C        0.72618259      -1.56433684       0.24430156
C       -0.30190106       1.17291916       1.32696275
C       -0.26515961      -0.06044260       1.85795941
H       -1.41687315       0.61355152      -2.34344050
H       -0.20680083       2.00756973      -2.30137600
H        1.24139180       0.75131504      -0.82473327
H       -0.76901552      -1.59068138      -1.24600694
H        1.66113645      -1.17042095       0.64053375
H        0.34182121      -2.41289956       0.78844826
H       -1.18827823       1.49339231       0.78186581
H        0.59010172       1.79719803       1.21311925
H       -1.14863606      -0.70216286       1.74232038
H        0.56398021      -0.43810028       2.48293589
16
Properties=species:S:1:pos:R:3 relative_energy_eV=-1.2603124395927807 branch=right pbc="F F F"
C       -0.42187155       0.97109861      -2.07189216
C        0.40238485       0.25181553      -1.30438232
C        0.14905660      -1.10196991      -0.88439766
C        0.74691648      -1.58730794       0.20758548
C       -0.31103482       1.18303608       1.35035877
C       -0.28757075      -0.02612362       1.90762898
H       -1.40972212       0.60693133      -2.34929942
H       -0.20520962       2.00429172      -2.29806194
H        1.24880501       0.74592127      -0.83317992
H       -0.76873599      -1.59183083      -1.24996322
H        1.65943775      -1.15956034       0.62083582
H        0.34235658      -2.41435648       0.77266704
H       -1.18561856       1.50237845       0.78843281
H        0.57970377       1.79944079       1.23041779
H       -1.14938459      -0.69237683       1.75494181
H        0.56472897      -0.44178384       2.47967823
16
Properties=species:S:1:pos:R:3 relative_energy_eV=-1.332707406393638 branch=right pbc="F F F"
C       -0.42065681       0.97033648      -2.07433041
C        0.39891963       0.23947160      -1.30977036
C        0.13920080      -1.10395610      -0.87958160
C        0.76629366      -1.61190364       0.18708144
C       -0.31360266       1.18218184       1.35917290
C       -0.30407430      -0.00404564       1.94221276
H       -1.40084683       0.60143601      -2.35691451
H       -0.20371782       2.00372347      -2.30002896
H        1.25605028       0.73973545      -0.84666712
H       -0.75894484      -1.58856252      -1.25362970
H        1.65705637      -1.15437684       0.59974496
H        0.34779322      -2.42161192       0.75717372
H       -1.18135748       1.50858762       0.79909001
H        0.56681987       1.80009247       1.24956765
H       -1.14478892      -0.67664657       1.77565743
H        0.55009783      -0.43485773       2.47259192
16
Properties=species:S:1:pos:R:3 relative_energy_eV=-1.3798552939942965 branch=right pbc="F F F"
C       -0.42044192       0.96990262      -2.07027873
C        0.39591080       0.23686241      -1.31391334
C        0.13268937      -1.10336390      -0.86670244
C        0.77818680      -1.62992716       0.16890919
C       -0.31417644       1.17935769       1.35784533
C       -0.31610769       0.00616582       1.96595031
H       -1.39306289       0.59603071      -2.36698580
H       -0.20157730       2.00440461      -2.30501784
H        1.26232261       0.73105340      -0.86334585
H       -0.74995263      -1.58626628      -1.25866910
H        1.65797349      -1.15218711       0.57900615
H        0.35618829      -2.43781267       0.74360447
H       -1.17920234       1.51456456       0.81070465
H        0.55700299       1.80344365       1.26995382
H       -1.14322444      -0.65985115       1.80217881
H        0.53171328      -0.42277322       2.46813056
16
Properties=species:S:1:pos:R:3 relative_energy_eV=-1.417112418231227 branch=right pbc="F F F"
C       -0.42310127       0.97283185      -2.06708632
C        0.39718906       0.23729204      -1.31195264
C        0.12632267      -1.09757504      -0.86167693
C        0.78835439      -1.64664887       0.16105427
C       -0.31452351       1.17788888       1.35460233
C       -0.32628670       0.01577527       1.98033127
H       -1.38687986       0.59047862      -2.37823074
H       -0.19912693       2.00339109      -2.31050891
H        1.26861634       0.72152571      -0.88094857
H       -0.74522591      -1.58674749      -1.26434142
H        1.66099396      -1.15223136       0.55914208
H        0.36755684      -2.45800902       0.72940299
H       -1.18081561       1.52162100       0.82061179
H        0.55140358       1.80992630       1.29018548
H       -1.15023032      -0.64778128       1.83047727
H        0.51999522      -0.41213373       2.47030826
16
Properties=species:S:1:pos:R:3 relative_energy_eV=-1.4728609745734502 branch=right pbc="F F F"
C       -0.42640793       0.97690465      -2.05905286
C        0.39691731       0.24269322      -1.31149090
C        0.12243651      -1.09000372      -0.85200566
C        0.79628789      -1.66716943       0.14666915
C       -0.31586912       1.18224209       1.35017833
C       -0.34118020       0.02765925       1.99539207
H       -1.37858907       0.58123123      -2.39847375
H       -0.19461800       2.00140312      -2.32080280
H        1.28255632       0.70649365      -0.90913813
H       -0.74292029      -1.59024002      -1.27487426
H        1.67008130      -1.15527801       0.52894145
H        0.39077643      -2.49822048       0.70527615
H       -1.18815091       1.53522350       0.83487399
H        0.54682138       1.82456551       1.32361463
H       -1.17195274      -0.63262237       1.88027438
H        0.50805305      -0.39527821       2.48198846
16
Properties=species:S:1:pos:R:3 relative_energy_eV=-1.5217195550931137 branch=right pbc="F F F"
C       -0.43305348       0.98295289      -2.05420149
C        0.39821046       0.24778220      -1.30987601
C        0.11856766      -1.08704217      -0.84835872
C        0.79863573      -1.67928620       0.13863206
C       -0.31917009       1.19230387       1.35126092
C       -0.35098306       0.03613545       1.99765261
H       -1.37149310       0.57421544      -2.41731424
H       -0.19052365       1.99926095      -2.33184292
H        1.29911353       0.69421189      -0.93512367
H       -0.74353700      -1.59349581      -1.28362411
H        1.68025105      -1.16482904       0.50514479
H        0.41915003      -2.54068643       0.67982394
H       -1.19858937       1.54978095       0.84563197
H        0.54620130       1.84054282       1.35330231
H       -1.20165498      -0.62321156       1.92917169
H        0.50311690      -0.37903129       2.50109118
16
Properties=species:S:1:pos:R:3 relative_energy_eV=-1.5586538314191785 branch=right pbc="F F F"
C       -0.43473565       0.98456342      -2.05329391
C        0.39668899       0.24785192      -1.31441392
C        0.11730035      -1.09029370      -0.85189643
C        0.79840670      -1.68755256       0.13047247
C       -0.32675831       1.20820057       1.36574948
C       -0.35947701       0.04190192       2.00032248
H       -1.36672780       0.57016200      -2.43098870
H       -0.18797501       1.99770191      -2.34066099
H        1.31517099       0.68670153      -0.95432576
H       -0.74799126      -1.59597494      -1.28919891
H        1.68865820      -1.17689754       0.49085105
H        0.44707046      -2.57291832       0.65401385
H       -1.20759835       1.56368382       0.85206159
H        0.54600264       1.85327982       1.37497972
H       -1.22634738      -0.61529629       1.96739994
H        0.50255435      -0.36550957       2.52029836
16
Properties=species:S:1:pos:R:3 relative_energy_eV=-1.5981686755885676 branch=right pbc="F F F"
C       -0.43414947       0.98293415      -2.05983149
C        0.39971030       0.24152985      -1.32411074
C        0.11581895      -1.10182138      -0.86307578
C        0.80192122      -1.69628017       0.11462253
C       -0.34286243       1.23144154       1.39951414
C       -0.36961242       0.05226041       2.01386455
H       -1.36104594       0.56733935      -2.44402515
H       -0.18591711       1.99537861      -2.34939081
H        1.33112512       0.67821637      -0.97602491
H       -0.75581911      -1.59792831      -1.29346917
H        1.69574926      -1.19407653       0.47806760
H        0.48172297      -2.60584100       0.61795333
H       -1.21540948       1.58190451       0.85913081
H        0.54292421       1.86601764       1.39842904
H       -1.25062025      -0.60275893       2.00802951
H        0.50070605      -0.34871212       2.54168689
16
Properties=species:S:1:pos:R:3 relative_energy_eV=-1.6404261396155562 branch=right pbc="F F F"
C       -0.42643354       0.97553113      -2.07303951
C        0.40212697       0.22780546      -1.34140820
C        0.11550936      -1.11728684      -0.88174178
C        0.81276361      -1.71433922       0.08621922
C       -0.36777198       1.26153189       1.45270960
C       -0.38756078       0.07203426       2.04837505
H       -1.35333133       0.56353057      -2.46040937
H       -0.18359246       1.99143788      -2.35958965
H        1.35026990       0.66547343      -1.00587527
H       -0.76776568      -1.60074365      -1.29870701
H        1.70290565      -1.21605409       0.46017872
H        0.52848346      -2.64637404       0.56212218
H       -1.22205074       1.60832582       0.87204659
H        0.53239389       1.88055027       1.43242861
H       -1.27444515      -0.57805627       2.06125199
H        0.49274062      -0.32376261       2.56680923
16
Properties=species:S:1:pos:R:3 relative_energy_eV=-1.6782152066007257 branch=right pbc="F F F"
C       -0.41683466       0.96522590      -2.09217668
C        0.40805967       0.21207235      -1.35905940
C        0.11530512      -1.13414657      -0.90102240
C        0.82876044      -1.73556769       0.04965055
C       -0.39422844       1.28878736       1.50683819
C       -0.40888996       0.09881081       2.09562650
H       -1.34439904       0.55950929      -2.47750160
H       -0.18064879       1.98589853      -2.36952535
H        1.36606974       0.64849847      -1.03971026
H       -0.77890034      -1.60326645      -1.30360596
H        1.70903743      -1.23838558       0.43974231
H        0.57781779      -2.69090677       0.49613365
H       -1.22549113       1.63737901       0.89227679
H        0.51430214       1.89384023       1.47316723
H       -1.29326112      -0.54441726       2.11906473
H        0.47754291      -0.29372760       2.59147216
16
Properties=species:S:1:pos:R:3 relative_energy_eV=-1.7103416995678344 branch=right pbc="F F F"
C       -0.40390393       0.95196516      -2.11374547
C        0.41419221       0.19627885      -1.37913067
C        0.11638523      -1.14701146      -0.92042222
C        0.84904461      -1.76325479       0.00769944
C       -0.41885351       1.31343438       1.55506304
C       -0.43453112       0.13207048       2.15272837
H       -1.33579763       0.55433849      -2.49577246
H       -0.17643000       1.97820448      -2.37875584
H        1.37842818       0.62745952      -1.07513072
H       -0.78906502      -1.60660934      -1.30878678
H        1.71577281      -1.25855832       0.41663212
H        0.62694552      -2.73743487       0.42250213
H       -1.22776615       1.66779635       0.92062534
H        0.49046336       1.90705727       1.52034296
H       -1.30917244      -0.50480689       2.18009010
H        0.45852960      -0.26132526       2.61743121
16
Properties=species:S:1:pos:R:3 relative_energy_eV=-1.7309545793950747 branch=right pbc="F F F"
C       -0.39523127       0.94192982      -2.13258762
C        0.42116370       0.18562300      -1.39532156
C        0.11898032      -1.15423760      -0.93419346
C        0.86504438      -1.78314859      -0.02490113
C       -0.43440748       1.32998668       1.58241011
C       -0.45313719       0.15920299       2.19593881
H       -1.33057949       0.55041026      -2.50982462
H       -0.17140390       1.97031929      -2.38592710
H        1.38389006       0.60837796      -1.10144941
H       -0.79520807      -1.60933695      -1.31213520
H        1.72211534      -1.27544164       0.39916416
H        0.66413948      -2.77616898       0.36155229
H       -1.23156763       1.69141324       0.94887689
H        0.47092048       1.91891692       1.55963378
H       -1.32317548      -0.47339340       2.22839888
H        0.44269840      -0.23484895       2.64173580
16
Properties=species:S:1:pos:R:3 relative_energy_eV=-1.7478467844657644 branch=right pbc="F F F"
C       -0.38893633       0.93353229      -2.14843681
C        0.42550945       0.17863282      -1.41005590
C        0.12335315      -1.15723051      -0.94483263
C        0.87662579      -1.79866092      -0.04778965
C       -0.44184761       1.34038506       1.59511364
C       -0.46675193       0.17973821       2.22596423
H       -1.32933780       0.54773503      -2.51977204
H       -0.16533953       1.96277896      -2.39167841
H        1.38536880       0.59249207      -1.11822274
H       -0.79832903      -1.61173527      -1.31355911
H        1.72905029      -1.29037938       0.38761200
H        0.69134006      -2.80514276       0.31010764
H       -1.23947728       1.70985231       0.97518183
H        0.45729846       1.93128765       1.59071618
H       -1.33597753      -0.44935110       2.26474238
H        0.43169268      -0.21433040       2.66628010
16
Properties=species:S:1:pos:R:3 relative_energy_eV=-1.764574660762264 branch=right pbc="F F F"
C       -0.38554585       0.92645407      -2.16482301
C        0.42867822       0.17201376      -1.42577319
C        0.12948614      -1.15970194      -0.95394374
C        0.88597970      -1.80982872      -0.06580271
C       -0.44422938       1.34754257       1.59953535
C       -0.47569282       0.19611456       2.24654766
H       -1.33181420       0.54635609      -2.52775113
H       -0.15690768       1.95474851      -2.39864699
H        1.38497058       0.57773112      -1.12949564
H       -0.79849463      -1.61387146      -1.31325328
H        1.73807800      -1.30937204       0.38003239
H        0.71564397      -2.83230332       0.25670378
H       -1.25385346       1.72726108       1.00398321
H        0.44796398       1.94773479       1.61916893
H       -1.35148708      -0.42735363       2.29792912
H        0.42146611      -0.19392140       2.69696001
16
Properties=species:S:1:pos:R:3 relative_energy_eV=-1.775715835513438 branch=right pbc="F F F"
C       -0.38634326       0.92320827      -2.17162526
C        0.42863584       0.16895262      -1.43442464
C        0.13387375      -1.16002235      -0.95661185
C        0.88899846      -1.81138129      -0.06814391
C       -0.43832480       1.34629851       1.59202501
C       -0.47499567       0.19836471       2.24614524
H       -1.33843061       0.54780235      -2.52599868
H       -0.15073076       1.95119507      -2.40109977
H        1.37980719       0.57524390      -1.12279097
H       -0.79427004      -1.61497639      -1.31045392
H        1.74340941      -1.31787470       0.38356798
H        0.71449426      -2.83198780       0.23784702
H       -1.26583002       1.73012614       1.01755742
H        0.44923862       1.95738005       1.62278392
H       -1.35557826      -0.42226160       2.29887355
H        0.42028751      -0.19046345       2.71371963
16
Properties=species:S:1:pos:R:3 relative_energy_eV=-1.7823551627361667 branch=right pbc="F F F"
C       -0.38825570       0.92225131      -2.17432212
C        0.42817307       0.16516228      -1.44021129
C        0.13638673      -1.16163543      -0.95785801
C        0.89188832      -1.80866425      -0.06892521
C       -0.43515574       1.34709496       1.58976214
C       -0.47064733       0.19728111       2.24196657
H       -1.34435060       0.54979673      -2.52353206
H       -0.14610215       1.94934902      -2.40424395
H        1.37685815       0.57694280      -1.11547695
H       -0.79017240      -1.61652311      -1.30858147
H        1.74753815      -1.32508636       0.38728134
H        0.70950643      -2.83054487       0.22873918
H       -1.27446158       1.72961309       1.02587365
H        0.45230741       1.96462525       1.62017871
H       -1.35803578      -0.42060314       2.29511052
H        0.41876464      -0.18945535       2.72560971
16
Properties=species:S:1:pos:R:3 relative_energy_eV=-1.787397598750431 branch=right pbc="F F F"
C       -0.38930879       0.92036045      -2.17550137
C        0.42845583       0.16163963      -1.44449630
C        0.13774424      -1.16478149      -0.96061058
C        0.89690238      -1.80974901      -0.07352447
C       -0.43482107       1.35115860       1.59529457
C       -0.46907747       0.19856321       2.24376842
H       -1.34840454       0.55136691      -2.52136709
H       -0.14228095       1.94757761      -2.40729958
H        1.37475300       0.57993560      -1.10954507
H       -0.78680556      -1.61959883      -1.30814014
H        1.75164587      -1.32874925       0.38798460
H        0.70184662      -2.82729890       0.22359641
H       -1.28000755       1.72824659       1.03205374
H        0.45389855       1.97027883       1.61570115
H       -1.35787641      -0.41856508       2.28948028
H        0.41757749      -0.19078084       2.73397618
16
Properties=species:S:1:pos:R:3 relative_energy_eV=-1.7934981208891259 branch=right pbc="F F F"
C       -0.38991084       0.91823184      -2.17693736
C        0.42810846       0.15805952      -1.44703963
C        0.14021714      -1.16975586      -0.96573156
C        0.90540598      -1.81448194      -0.08429689
C       -0.43777616       1.35966232       1.60845783
C       -0.46888615       0.20392273       2.25228472
H       -1.35124961       0.55246334      -2.52194662
H       -0.13697647       1.94358798      -2.41436830
H        1.37507735       0.58208300      -1.10861423
H       -0.78305533      -1.62576624      -1.31016133
H        1.75893826      -1.33585660       0.38185396
H        0.69679719      -2.83201402       0.21111807
H       -1.28626876       1.72932799       1.04352806
H        0.45249788       1.97952803       1.61477617
H       -1.36051107      -0.41106280       2.29099328
H        0.41183377      -0.18832522       2.74745460
16
Properties=species:S:1:pos:R:3 relative_energy_eV=-1.8012879287307442 branch=right pbc="F F F"
C       -0.39029898       0.91502389      -2.17849856
C        0.42738306       0.15592922      -1.44716890
C        0.14463924      -1.17655713      -0.97399196
C        0.91769310      -1.82630170      -0.10260209
C       -0.44269325       1.37278093       1.62928421
C       -0.47218335       0.21502950       2.26938890
H       -1.35274595       0.55311160      -2.52513019
H       -0.12912164       1.93627557      -2.42665612
H        1.37622420       0.58301049      -1.11247410
H       -0.77723984      -1.63638330      -1.31539553
H        1.77108766      -1.34708190       0.36621594
H        0.69291925      -2.84325057       0.18982843
H       -1.29434638       1.73298969       1.06304629
H        0.44682405       1.99380010       1.61754561
H       -1.36535646      -0.39635951       2.29949113
H        0.40145691      -0.18241285       2.76848772
16
Properties=species:S:1:pos:R:3 relative_energy_eV=-1.808833579631937 branch=right pbc="F F F"
C       -0.39008281       0.91199140      -2.18043904
C        0.42619939       0.15536338      -1.44534760
C        0.15094250      -1.18343479      -0.98382949
C        0.93040510      -1.84338814      -0.12524060
C       -0.44946091       1.38857242       1.65338179
C       -0.47876257       0.23073291       2.29218249
H       -1.35198532       0.55283550      -2.53162766
H       -0.11992437       1.92632901      -2.44356463
H        1.37846218       0.58085380      -1.12305123
H       -0.77010547      -1.64939381      -1.32386589
H        1.78660416      -1.36446183       0.34129390
H        0.69609449      -2.86310135       0.15916605
H       -1.30348555       1.74081085       1.08976309
H        0.43664016       2.01185117       1.62727021
H       -1.37425694      -0.37504381       2.31893132
H        0.38695758      -0.17091268       2.79634810
16
Properties=species:S:1:pos:R:3 relative_energy_eV=-1.8137021918309983 branch=right pbc="F F F"
C       -0.38958922       0.91048263      -2.18155091
C        0.42567688       0.15608461      -1.44326358
C        0.15589243      -1.18743197      -0.99032075
C        0.93666932      -1.85687284      -0.14058206
C       -0.45435548       1.39944537       1.66906477
C       -0.48501389       0.24296033       2.30890062
H       -1.34975830       0.55213141      -2.53680834
H       -0.11383866       1.91886899      -2.45692105
H        1.37929775       0.57773682      -1.13303541
H       -0.76419700      -1.65837618      -1.33182535
H        1.79802678      -1.38042417       0.31945147
H        0.70307437      -2.87856366       0.13653893
H       -1.30974573       1.74837035       1.11022848
H        0.42755758       2.02471457       1.63727783
H       -1.38195495      -0.35872579       2.33671392
H        0.37649973      -0.16079646       2.81750227
16
Properties=species:S:1:pos:R:3 relative_energy_eV=-1.8170790708945788 branch=right pbc="F F F"
C       -0.38867757       0.90982909      -2.18256322
C        0.42551299       0.15605365      -1.44272393
C        0.15892296      -1.18954972      -0.99429158
C        0.93867746      -1.86594274      -0.14992239
C       -0.45813238       1.40646560       1.67845741
C       -0.49014921       0.25173682       2.32068093
H       -1.34730469       0.55122943      -2.53994014
H       -0.11033394       1.91412870      -2.46665174
H        1.37937627       0.57487147      -1.14058142
H       -0.75972948      -1.66353227      -1.33913952
H        1.80591400      -1.39505766       0.30202147
H        0.71181644      -2.88910698       0.12169926
H       -1.31436444       1.75553287       1.12437968
H        0.42091046       2.03330704       1.64639247
H       -1.38825910      -0.34777903       2.35092984
H        0.37006186      -0.15258225       2.83262373
16
Properties=species:S:1:pos:R:3 relative_energy_eV=-1.8203426268455587 branch=right pbc="F F F"
C       -0.38716114       0.90873831      -2.18471562
C        0.42599193       0.15430381      -1.44465145
C        0.16080402      -1.19221346      -0.99853867
C        0.94002259      -1.87444026      -0.15931217
C       -0.46272368       1.41376268       1.68833272
C       -0.49593496       0.26103808       2.33402004
H       -1.34487469       0.54997914      -2.54194352
H       -0.10723750       1.91012610      -2.47631466
H        1.37931618       0.57204769      -1.14716159
H       -0.75539858      -1.66761861      -1.34815352
H        1.81444079      -1.41243306       0.28358445
H        0.72254135      -2.89869454       0.10798353
H       -1.32002491       1.76456937       1.13799203
H        0.41479497       2.04183970       1.65689061
H       -1.39495490      -0.33766339       2.36532592
H        0.36464014      -0.14373755       2.84803277
16
Properties=species:S:1:pos:R:3 relative_energy_eV=-1.8241869657013012 branch=right pbc="F F F"
C       -0.38428340       0.90595925      -2.18982793
C        0.42745881       0.14953288      -1.45053169
C        0.16240624      -1.19751709      -1.00595677
C        0.94383801      -1.88603279      -0.17448901
C       -0.47042128       1.42530489       1.70486037
C       -0.50440723       0.27506579       2.35555040
H       -1.34267898       0.54791005      -2.54376489
H       -0.10277483       1.90494024      -2.48905728
H        1.37991477       0.56848581      -1.15447193
H       -0.75050503      -1.67285787      -1.36164610
H        1.82766768      -1.43705703       0.25837394
H        0.73683705      -2.91166082       0.08863695
H       -1.32910838       1.77847784       1.15677419
H        0.40708359       2.05404911       1.67233948
H       -1.40415393      -0.32399266       2.38472963
H        0.35736846      -0.13100361       2.86985155
16
Properties=species:S:1:pos:R:3 relative_energy_eV=-1.8288660635007545 branch=right pbc="F F F"
C       -0.37916680       0.89941650      -2.20084122
C        0.43089852       0.14001982      -1.46274120
C        0.16529288      -1.20841322      -1.02064145
C        0.95442172      -1.90574837      -0.20342640
C       -0.48410780       1.44649636       1.73626621
C       -0.51858655       0.29968828       2.39392276
H       -1.34107148       0.54439636      -2.54672626
H       -0.09445857       1.89584484      -2.50894234
H        1.38193772       0.56261070      -1.16476777
H       -0.74413797      -1.68212255      -1.38322067
H        1.85107714      -1.47503807       0.21853303
H        0.75696229      -2.93396848       0.05370120
H       -1.34494489       1.80149258       1.18898841
H        0.39466449       2.07499672       1.69814768
H       -1.41880249      -0.30060363       2.41619828
H        0.34426331      -0.10946387       2.90692067
16
Properties=species:S:1:pos:R:3 relative_energy_eV=-1.8326785679564637 branch=right pbc="F F F"
C       -0.37314532       0.89022263      -2.21551121
C        0.43554958       0.12849759      -1.47767922
C        0.16997441      -1.22255935      -1.03971760
C        0.97008303      -1.92892544      -0.23968472
C       -0.50008794       1.47235593       1.77495605
C       -0.53442980       0.32866326       2.43876077
H       -1.34138874       0.54033760      -2.54959743
H       -0.08401106       1.88428395      -2.53101614
H        1.38468399       0.55611198      -1.17403048
H       -0.73755199      -1.69375380      -1.40802575
H        1.88008783      -1.51653690       0.17285772
H        0.77488429      -2.95932914       0.01217950
H       -1.36378645       1.82739264       1.22810719
H        0.38047111       2.09978099       1.72742595
H       -1.43467893      -0.27316020       2.45106679
H        0.32758749      -0.08377778       2.95127958
16
Properties=species:S:1:pos:R:3 relative_energy_eV=-1.8359604549232245 branch=right pbc="F F F"
C       -0.37108371       0.88584937      -2.22173888
C        0.43803714       0.12463890      -1.48299932
C        0.17215425      -1.22793041      -1.04709098
C        0.97672263      -1.93493029      -0.25155155
C       -0.50478428       1.48035809       1.78701695
C       -0.53830327       0.33652169       2.45060116
H       -1.34374118       0.53869978      -2.54807990
H       -0.08121089       1.88049119      -2.53586283
H        1.38557424       0.55511744      -1.17178095
H       -0.73613215      -1.69697219      -1.41749744
H        1.89129632      -1.52728133       0.15774742
H        0.77339396      -2.96362696       0.00468878
H       -1.36962760       1.83477379       1.23997918
H        0.37718552       2.10614409       1.73530768
H       -1.43731814      -0.26712284       2.45808353
H        0.32207869      -0.07512636       2.96454813
16
Properties=species:S:1:pos:R:3 relative_energy_eV=-1.8418066396097856 branch=right pbc="F F F"
C       -0.36744976       0.87724558      -2.23239762
C        0.44360371       0.11920025      -1.49149537
C        0.17603456      -1.23539912      -1.05964382
C        0.98782306      -1.94385611      -0.26981404
C       -0.51215159       1.49163903       1.80361965
C       -0.54472061       0.34651581       2.46388285
H       -1.34792607       0.53453612      -2.54494160
H       -0.07933283       1.87508054      -2.53893208
H        1.38861873       0.55208341      -1.16548823
H       -0.73570855      -1.69932347      -1.43354028
H        1.90923846      -1.53814885       0.13205152
H        0.76579056      -2.96869976       0.00041248
H       -1.37621447       1.84654565       1.25595445
H        0.37297211       2.11221178       1.75012291
H       -1.43967165      -0.26152630       2.46960655
H        0.31333585      -0.05850065       2.98197363
16
Properties=species:S:1:pos:R:3 relative_energy_eV=-1.8451892248313015 branch=right pbc="F F F"
C       -0.36537968       0.87277639      -2.23690465
C        0.44709090       0.11733978      -1.49425394
C        0.17903450      -1.23851036      -1.06613426
C        0.99140374      -1.94875221      -0.27824050
C       -0.51579416       1.49600897       1.80933910
C       -0.54852883       0.35000912       2.46712709
H       -1.34865730       0.53120941      -2.54368448
H       -0.08039453       1.87245853      -2.53848916
H        1.39060051       0.54893265      -1.16284661
H       -0.73524171      -1.69859052      -1.44206741
H        1.91750870      -1.54134563       0.11589781
H        0.76122032      -2.97000968       0.00222286
H       -1.37784355       1.85335386       1.26246583
H        0.37093077       2.11322290       1.76010992
H       -1.44088867      -0.26072893       2.47742680
H        0.30918052      -0.04777035       2.98940260
16
Properties=species:S:1:pos:R:3 relative_energy_eV=-1.849512460720689 branch=right pbc="F F F"
C       -0.36170085       0.86611768      -2.24236674
C        0.45249135       0.11348734      -1.49889661
C        0.18463305      -1.24322642      -1.07718326
C        0.99661873      -1.95947772      -0.29361804
C       -0.52288758       1.50424261       1.81991023
C       -0.55715138       0.35743737       2.47485559
H       -1.34654621       0.52486324      -2.54495867
H       -0.08229367       1.86760310      -2.53965083
H        1.39447596       0.54103742      -1.16485945
H       -0.73307825      -1.69730405      -1.45503785
H        1.92912893      -1.54993446       0.08526139
H        0.76089341      -2.97644432      -0.00169720
H       -1.38131869       1.86764126       1.27504611
H        0.36595340       2.11714756       1.78151953
H       -1.44678553      -0.25634820       2.49790421
H        0.30180883      -0.02723850       3.00514260
16
Properties=species:S:1:pos:R:3 relative_energy_eV=-1.851844987018012 branch=right pbc="F F F"
C       -0.35978132       0.86314647      -2.24324258
C        0.45536912       0.11065705      -1.50126481
C        0.18851644      -1.24616163      -1.08342786
C        0.99838612      -1.96559715      -0.30240960
C       -0.52701050       1.50846462       1.82525202
C       -0.56232003       0.36108279       2.47932040
H       -1.34306389       0.52064120      -2.54745340
H       -0.08408179       1.86496409      -2.54003997
H        1.39680385       0.53553093      -1.16898511
H       -0.73098805      -1.69610402      -1.45984583
H        1.93286974      -1.55504551       0.06742952
H        0.76312482      -2.97984852      -0.00622352
H       -1.38325708       1.87659163       1.28126635
H        0.36305193       2.11995863       1.79493430
H       -1.45166046      -0.25347489       2.51135133
H        0.29828263      -0.01520179       3.01470976
16
Properties=species:S:1:pos:R:3 relative_energy_eV=-1.853530828753719 branch=right pbc="F F F"
C       -0.35802118       0.86046729      -2.24355617
C        0.45797425       0.10619477      -1.50551837
C        0.19189809      -1.25016741      -1.09063799
C        1.00189227      -1.97280046      -0.31398030
C       -0.53207118       1.51461842       1.83434282
C       -0.56821600       0.36713379       2.48901327
H       -1.33864401       0.51638916      -2.55187179
H       -0.08443893       1.86198994      -2.54224611
H        1.39965836       0.52997004      -1.17607805
H       -0.72880154      -1.69681691      -1.46278372
H        1.93629766      -1.56293925       0.05037065
H        0.76871802      -2.98590179      -0.01810101
H       -1.38685186       1.88653665       1.28943404
H        0.35903136       2.12579309       1.80895561
H       -1.45836571      -0.24716253       2.52664436
H        0.29418192      -0.00370091       3.02738376
16
Properties=species:S:1:pos:R:3 relative_energy_eV=-1.8546411501401963 branch=right pbc="F F F"
C       -0.35746103       0.85935854      -2.24240067
C        0.45969307       0.10290575      -1.50871804
C        0.19375536      -1.25322026      -1.09546095
C        1.00414766      -1.97600361      -0.32149929
C       -0.53495983       1.51791246       1.83994305
C       -0.57117680       0.37045650       2.49574976
H       -1.33504754       0.51314503      -2.55581248
H       -0.08488190       1.86077681      -2.54205430
H        1.40215681       0.52679682      -1.18135802
H       -0.72840837      -1.69779704      -1.46122129
H        1.93665562      -1.56599661       0.04299039
H        0.77163410      -2.98857679      -0.02691017
H       -1.38864433       1.89182883       1.29273160
H        0.35672244       2.12959383       1.81646675
H       -1.46234693      -0.24322370       2.53439161
H        0.29240318       0.00164734       3.03453309
16
Properties=species:S:1:pos:R:3 relative_energy_eV=-1.8555707770874506 branch=right pbc="F F F"
C       -0.35662149       0.85740537      -2.24278402
C        0.46215105       0.09870802      -1.51405035
C        0.19554115      -1.25747522      -1.10264680
C        1.00874020      -1.98116147      -0.33295632
C       -0.53914496       1.52366718       1.84960903
C       -0.57532826       0.37704223       2.50745147
H       -1.33172407       0.50893512      -2.56064656
H       -0.08411582       1.85881907      -2.54294878
H        1.40568942       0.52312857      -1.18750820
H       -0.72874142      -1.70082332      -1.46091305
H        1.94042669      -1.57196613       0.03305092
H        0.77529124      -2.99397375      -0.04074244
H       -1.39192410       1.89878705       1.29966472
H        0.35267177       2.13604085       1.82622698
H       -1.46738347      -0.23614491       2.54455381
H        0.28871356       0.00861523       3.04601064
16
Properties=species:S:1:pos:R:3 relative_energy_eV=-1.856272808002359 branch=right pbc="F F F"
C       -0.35701868       0.85737886      -2.24148894
C        0.46367380       0.09739636      -1.51660387
C        0.19586246      -1.25891430      -1.10580435
C        1.01010554      -1.98081776      -0.33653814
C       -0.53968970       1.52403937       1.85109989
C       -0.57575119       0.37828400       2.51067844
H       -1.32942110       0.50549096      -2.56396494
H       -0.08510416       1.85964198      -2.53916333
H        1.40847931       0.52158103      -1.19022642
H       -0.73128285      -1.70220721      -1.45659390
H        1.94010615      -1.57040228       0.03336383
H        0.77432414      -2.99365000      -0.04522535
H       -1.39147302       1.89954144       1.29903796
H        0.35134323       2.13759517       1.82872628
H       -1.46807766      -0.23459340       2.54545119
H        0.28816524       0.00923966       3.04862269
16
Properties=species:S:1:pos:R:3 relative_energy_eV=-1.8568164644793796 branch=right pbc="F F F"
C       -0.35656293       0.85616152      -2.24272050
C        0.46583912       0.09561138      -1.52052709
C        0.19663187      -1.26131561      -1.11106004
C        1.01319278      -1.98391432      -0.34395016
C       -0.54196878       1.52766481       1.85689132
C       -0.57821342       0.38330633       2.51840490
H       -1.32750398       0.50119399      -2.56717839
H       -0.08505284       1.85922971      -2.53823941
H        1.41151887       0.51901502      -1.19359872
H       -0.73283471      -1.70508972      -1.45744887
H        1.94530596      -1.57520625       0.02581008
H        0.77501618      -2.99680837      -0.05311367
H       -1.39315673       1.90320317       1.30422888
H        0.34786016       2.14225208       1.83526654
H       -1.47035567      -0.22966500       2.55104621
H        0.28452561       0.01396513       3.05755996
16
Properties=species:S:1:pos:R:3 relative_energy_eV=-1.8573349229454834 branch=right pbc="F F F"
C       -0.35718170       0.85725467      -2.24159223
C        0.46658630       0.09680021      -1.52080911
C        0.19591105      -1.26020211      -1.11103479
C        1.01201868      -1.98139136      -0.34188880
C       -0.54030308       1.52545120       1.85348316
C       -0.57686367       0.38191234       2.51589454
H       -1.32607781       0.49800225      -2.56853784
H       -0.08755247       1.86203308      -2.53283760
H        1.41316760       0.51852089      -1.19380431
H       -0.73535752      -1.70519958      -1.45490581
H        1.94533853      -1.57304641       0.02738604
H        0.77163232      -2.99351092      -0.04928457
H       -1.39090156       1.90036535       1.30083942
H        0.34776457       2.14151153       1.83429006
H       -1.46834220      -0.23133354       2.54732527
H        0.28440245       0.01243628       3.05684763
16
Properties=species:S:1:pos:R:3 relative_energy_eV=-1.8579115885586361 branch=right pbc="F F F"
C       -0.35725173       0.85802920      -2.24145570
C        0.46750942       0.09777949      -1.52144507
C        0.19533765      -1.25927913      -1.11135077
C        1.01095669      -1.98038751      -0.34091666
C       -0.53926762       1.52479320       1.85193693
C       -0.57634852       0.38188012       2.51488198
H       -1.32419767       0.49406428      -2.56981793
H       -0.09058243       1.86499622      -2.52828910
H        1.41470424       0.51743875      -1.19462450
H       -0.73663114      -1.70541843      -1.45549888
H        1.94817658      -1.57511362       0.02352926
H        0.76877467      -2.99103829      -0.04503031
H       -1.38957273       1.89835759       1.29951978
H        0.34695903       2.14252912       1.83508448
H       -1.46696396      -0.23198333       2.54521799
H        0.28263900       0.01295621       3.05962955
16
Properties=species:S:1:pos:R:3 relative_energy_eV=-1.8584981300818981 branch=right pbc="F F F"
C       -0.35737445       0.85945413      -2.24064869
C        0.46779613       0.09917550      -1.52110317
C        0.19431330      -1.25719051      -1.10952671
C        1.00853511      -1.97788251      -0.33693870
C       -0.53705336       1.52271854       1.84820807
C       -0.57468568       0.37976611       2.51096158
H       -1.32192284       0.49057954      -2.57086297
H       -0.09528710       1.86944373      -2.52188883
H        1.41563167       0.51677266      -1.19516745
H       -0.73749296      -1.70403275      -1.45500812
H        1.94908028      -1.57576044       0.02162689
H        0.76484506      -2.98643390      -0.03654955
H       -1.38716588       1.89389828       1.29483135
H        0.34759317       2.14244115       1.83356564
H       -1.46452550      -0.23487433       2.53991755
H        0.28195457       0.01152867       3.05995417
16
Properties=species:S:1:pos:R:3 relative_energy_eV=-1.8590417785026148 branch=right pbc="F F F"
C       -0.35694899       0.86002133      -2.24088454
C        0.46817375       0.09935445      -1.52169013
C        0.19388791      -1.25609669      -1.10842091
C        1.00719625      -1.97706216      -0.33532805
C       -0.53582705       1.52252411       1.84752249
C       -0.57392144       0.37917122       2.50993371
H       -1.31933367       0.48752408      -2.57267902
H       -0.10013622       1.87329068      -2.51623936
H        1.41653771       0.51546767      -1.19705180
H       -0.73735387      -1.70239158      -1.45507022
H        1.95083994      -1.57854665       0.01728216
H        0.76211848      -2.98358190      -0.03083159
H       -1.38589682       1.89038939       1.29161888
H        0.34783222       2.14425329       1.83370264
H       -1.46339932      -0.23621312       2.53637846
H        0.28047263       0.01149974       3.06312832
16
Properties=species:S:1:pos:R:3 relative_energy_eV=-1.8594981028891198 branch=right pbc="F F F"
C       -0.35629455       0.85972700      -2.24186207
C        0.46852148       0.09851839      -1.52300304
C        0.19406962      -1.25585833      -1.10796097
C        1.00722635      -1.97755973      -0.33572819
C       -0.53535571       1.52347230       1.84899709
C       -0.57376711       0.37968797       2.51122762
H       -1.31714072       0.48575126      -2.57536544
H       -0.10437954       1.87595141      -2.51146271
H        1.41750864       0.51389261      -1.19990072
H       -0.73700318      -1.70054485      -1.45412516
H        1.95208695      -1.58108511       0.01369952
H        0.76074265      -2.98286338      -0.02904341
H       -1.38532333       1.88759712       1.28938476
H        0.34782544       2.14700902       1.83483010
H       -1.46340786      -0.23612600       2.53434410
H        0.27893239       0.01203415       3.06733955
16
Properties=species:S:1:pos:R:3 relative_energy_eV=-1.859812640979726 branch=right pbc="F F F"
C       -0.35566850       0.85858069      -2.24352005
C        0.46904882       0.09707392      -1.52485225
C        0.19496280      -1.25669153      -1.10865795
C        1.00859037      -1.97950065      -0.33842255
C       -0.53575533       1.52546799       1.85234005
C       -0.57439509       0.38159313       2.51484535
H       -1.31597067       0.48536073      -2.57849481
H       -0.10697531       1.87670098      -2.50870928
H        1.41855796       0.51236731      -1.20306775
H       -0.73674890      -1.69923381      -1.45284526
H        1.95351349      -1.58353721       0.01084690
H        0.76096160      -2.98474274      -0.03192738
H       -1.38560098       1.88631480       1.28932604
H        0.34708081       2.15042737       1.83725795
H       -1.46452709      -0.23417926       2.53460303
H        0.27716752       0.01360213       3.07264901
16
Properties=species:S:1:pos:R:3 relative_energy_eV=-1.8600524742696507 branch=right pbc="F F F"
C       -0.35539747       0.85727655      -2.24501614
C        0.46963558       0.09581977      -1.52655441
C        0.19606016      -1.25765643      -1.10960931
C        1.01030943      -1.98171218      -0.34130941
C       -0.53618906       1.52714590       1.85528508
C       -0.57509463       0.38362329       2.51848320
H       -1.31576065       0.48594096      -2.58164036
H       -0.10844240       1.87641653      -2.50705481
H        1.41963546       0.51133363      -1.20584201
H       -0.73701795      -1.69819329      -1.45109155
H        1.95451648      -1.58502272       0.00969386
H        0.76186123      -2.98764750      -0.03648067
H       -1.38580684       1.88545084       1.28982881
H        0.34604889       2.15334382       1.83983560
H       -1.46576090      -0.23180579       2.53549691
H        0.27564417       0.01529045       3.07734628
16
Properties=species:S:1:pos:R:3 relative_energy_eV=-1.860236471277858 branch=right pbc="F F F"
C       -0.35552603       0.85615966      -2.24602284
C        0.47033213       0.09503811      -1.52785213
C        0.19716223      -1.25854770      -1.11057761
C        1.01173384      -1.98374548      -0.34369257
C       -0.53641253       1.52822499       1.85721895
C       -0.57566946       0.38537836       2.52139723
H       -1.31616930       0.48685817      -2.58440077
H       -0.10926837       1.87569217      -2.50614338
H        1.42062234       0.51096172      -1.20790345
H       -0.73762468      -1.69737311      -1.44964299
H        1.95556718      -1.58639027       0.00903685
H        0.76281783      -2.99047990      -0.04062696
H       -1.38574696       1.88472798       1.29040338
H        0.34483289       2.15563218       1.84233973
H       -1.46665765      -0.22966774       2.53627230
H        0.27424805       0.01713470       3.08156534
16
Properties=species:S:1:pos:R:3 relative_energy_eV=-1.8604010803946949 branch=right pbc="F F F"
C       -0.35605977       0.85556227      -2.24614439
C        0.47098255       0.09487020      -1.52852056
C        0.19796872      -1.25893338      -1.11105534
C        1.01242076      -1.98505608      -0.34464636
C       -0.53610563       1.52825802       1.85743937
C       -0.57576561       0.38622976       2.52268525
H       -1.31683969       0.48777169      -2.58652898
H       -0.11008588       1.87521260      -2.50524811
H        1.42137934       0.51142483      -1.20907766
H       -0.73847179      -1.69640716      -1.44850761
H        1.95634768      -1.58757753       0.00877850
H        0.76317762      -2.99214564      -0.04234568
H       -1.38502223       1.88345716       1.28984147
H        0.34385767       2.15695958       1.84418434
H       -1.46673915      -0.22869973       2.53578785
H        0.27319691       0.01867726       3.08472898
16
Properties=species:S:1:pos:R:3 relative_energy_eV=-1.8605634379418916 branch=right pbc="F F F"
C       -0.35693619       0.85547536      -2.24542388
C        0.47156968       0.09519421      -1.52863663
C        0.19850848      -1.25891662      -1.11108778
C        1.01232357      -1.98567612      -0.34433838
C       -0.53529706       1.52741718       1.85623183
C       -0.57538200       0.38620807       2.52255403
H       -1.31759476       0.48856105      -2.58795041
H       -0.11116715       1.87512945      -2.50418327
H        1.42176483       0.51279736      -1.20942569
H       -0.73935189      -1.69512324      -1.44784284
H        1.95712350      -1.58913595       0.00828521
H        0.76267156      -2.99239671      -0.04112798
H       -1.38363427       1.88146382       1.28779926
H        0.34318923       2.15759931       1.84547827
H       -1.46591710      -0.22908981       2.53364884
H        0.27237104       0.02009649       3.08739053
16
Properties=species:S:1:pos:R:3 relative_energy_eV=-1.8607377882926812 branch=right pbc="F F F"
C       -0.35803594       0.85593289      -2.24392073
C        0.47189365       0.09589986      -1.52823966
C        0.19867974      -1.25841250      -1.11060785
C        1.01152481      -1.98550628      -0.34280195
C       -0.53403675       1.52575469       1.85373881
C       -0.57448161       0.38522876       2.52102662
H       -1.31827405       0.48915527      -2.58844639
H       -0.11252385       1.87557963      -2.50281186
H        1.42158612       0.51502118      -1.20898017
H       -0.74016483      -1.69344156      -1.44741994
H        1.95763503      -1.59078568       0.00780929
H        0.76115548      -2.99107190      -0.03684667
H       -1.38153965       1.87864523       1.28383809
H        0.34305418       2.15751083       1.84608078
H       -1.46413757      -0.23111671       2.52963901
H        0.27190670       0.02121014       3.08931373
16
Properties=species:S:1:pos:R:3 relative_energy_eV=-1.860924654950395 branch=right pbc="F F F"
C       -0.35916435       0.85672204      -2.24211728
C        0.47188405       0.09672905      -1.52760735
C        0.19862863      -1.25771535      -1.10996589
C        1.01042307      -1.98490041      -0.34091175
C       -0.53263559       1.52381916       1.85083308
C       -0.57334713       0.38378292       2.51896099
H       -1.31880696       0.48949716      -2.58800679
H       -0.11386226       1.87635666      -2.50137723
H        1.42074586       0.51776348      -1.20806487
H       -0.74078397      -1.69155700      -1.44710589
H        1.95809572      -1.59266621       0.00715852
H        0.75888081      -2.98875771      -0.03085287
H       -1.37900572       1.87536051       1.27840853
H        0.34330107       2.15714865       1.84647002
H       -1.46170152      -0.23432953       2.52438839
H        0.27158971       0.02235045       3.09116151
16
Properties=species:S:1:pos:R:3 relative_energy_eV=-1.861154496636118 branch=right pbc="F F F"
C       -0.36027310       0.85769850      -2.24035322
C        0.47145272       0.09755122      -1.52697195
C        0.19848840      -1.25692470      -1.10934611
C        1.00942764      -1.98423886      -0.33928626
C       -0.53121276       1.52187928       1.84795901
C       -0.57214509       0.38226165       2.51696687
H       -1.31925920       0.48963254      -2.58683377
H       -0.11497306       1.87732733      -2.49990275
H        1.41923786       0.52082424      -1.20711231
H       -0.74134322      -1.68949660      -1.44637788
H        1.95853529      -1.59472341       0.00655401
H        0.75609948      -2.98612108      -0.02451055
H       -1.37590864       1.87152656       1.27143499
H        0.34371980       2.15691618       1.84725331
H       -1.45873385      -0.23843777       2.51822859
H        0.27112911       0.02392879       3.09366915
16
Properties=species:S:1:pos:R:3 relative_energy_eV=-1.8614443586602647 branch=right pbc="F F F"
C       -0.36137755       0.85870601      -2.23904062
C        0.47055395       0.09827806      -1.52657234
C        0.19847099      -1.25625571      -1.10899332
C        1.00895681      -1.98406842      -0.33877582
C       -0.52988274       1.52031369       1.84567164
C       -0.57113265       0.38122065       2.51584876
H       -1.31980824       0.48960387      -2.58511992
H       -0.11554714       1.87828551      -2.49860928
H        1.41703430       0.52406622      -1.20663617
H       -0.74198659      -1.68734011      -1.44478744
H        1.95929716      -1.59737386       0.00583377
H        0.75314074      -2.98404034      -0.01954278
H       -1.37201291       1.86698903       1.26278335
H        0.34389467       2.15748718       1.84946474
H       -1.45530333      -0.24308515       2.51153900
H        0.26994386       0.02681726       3.09830759
16
Properties=species:S:1:pos:R:3 relative_energy_eV=-1.861853924717252 branch=right pbc="F F F"
C       -0.36247156       0.85959467      -2.23862349
C        0.46912580       0.09885290      -1.52658745
C        0.19868440      -1.25579448      -1.10893393
C        1.00946085      -1.98494509      -0.34010279
C       -0.52875677       1.51947387       1.84445308
C       -0.57060071       0.38122466       2.51632889
H       -1.32068434       0.48950508      -2.58319362
H       -0.11521094       1.87903100      -2.49782326
H        1.41433770       0.52712018      -1.20728562
H       -0.74294644      -1.68529486      -1.44172150
H        1.96046582      -1.60066196       0.00515729
H        0.75065793      -2.98366259      -0.01828470
H       -1.36701875       1.86161064       1.25244753
H        0.34336750       2.15950131       1.85416130
H       -1.45159689      -0.24776697       2.50509088
H        0.26742764       0.03181553       3.10628858
16
Properties=species:S:1:pos:R:3 relative_energy_eV=-1.8623514957571388 branch=right pbc="F F F"
C       -0.36342986       0.86008041      -2.23954751
C        0.46741444       0.09917386      -1.52711627
C        0.19916622      -1.25573267      -1.10912137
C        1.01120225      -1.98731171      -0.34382022
C       -0.52807496       1.51986080       1.84495728
C       -0.57096277       0.38287594       2.51909228
H       -1.32206307       0.48946466      -2.58162413
H       -0.11372794       1.87922935      -2.49814488
H        1.41185883       0.52920578      -1.20957151
H       -0.74429252      -1.68390080      -1.43720761
H        1.96216209      -1.60450613       0.00430420
H        0.74967426      -2.98619110      -0.02324057
H       -1.36118775       1.85592508       1.24175872
H        0.34161929       2.16346821       1.86199381
H       -1.44824186      -0.25137514       2.50052755
H        0.26312447       0.03933735       3.11813151
16
Properties=species:S:1:pos:R:3 relative_energy_eV=-1.8628999334769105 branch=right pbc="F F F"
C       -0.36414286       0.86002245      -2.24153253
C        0.46594792       0.09925780      -1.52794176
C        0.19966071      -1.25594947      -1.10916319
C        1.01375216      -1.99080826      -0.34914994
C       -0.52782795       1.52134123       1.84693444
C       -0.57221401       0.38598318       2.52366831
H       -1.32387167       0.48962423      -2.58096257
H       -0.11167682       1.87882555      -2.49963297
H        1.41061359       0.52973775      -1.21322292
H       -0.74596628      -1.68346994      -1.43200963
H        1.96411457      -1.60834119       0.00299446
H        0.75062937      -2.99143503      -0.03411426
H       -1.35502997       1.85053417       1.23221490
H        0.33862994       2.16898539       1.87216267
H       -1.44573653      -0.25329035       2.49872970
H        0.25735887       0.04858642       3.13239661
16
Properties=species:S:1:pos:R:3 relative_energy_eV=-1.8634809854538616 branch=right pbc="F F F"
C       -0.36473861       0.85959976      -2.24359210
C        0.46516024       0.09931623      -1.52863587
C        0.19981128      -1.25610481      -1.10861611
C        1.01612086      -1.99448732      -0.35456606
C       -0.52754473       1.52310287       1.84922133
C       -0.57382586       0.38963822       2.52878373
H       -1.32591608       0.49004651      -2.58105607
H       -0.11027356       1.87815505      -2.50163127
H        1.41095419       0.52915239      -1.21721585
H       -0.74786739      -1.68359578      -1.42704376
H        1.96621858      -1.61220854       0.00052934
H        0.75254762      -2.99753156      -0.04727872
H       -1.34836175       1.84496780       1.22314973
H        0.33479514       2.17531222       1.88344404
H       -1.44354460      -0.25448089       2.49805941
H        0.25070557       0.05872176       3.14781963
16
Properties=species:S:1:pos:R:3 relative_energy_eV=-1.8641936095991696 branch=right pbc="F F F"
C       -0.36560179       0.85920500      -2.24484558
C        0.46488691       0.09970160      -1.52876972
C        0.19920050      -1.25563768      -1.10691044
C        1.01769831      -1.99784104      -0.35934767
C       -0.52645709       1.52424569       1.85057318
C       -0.57527394       0.39324585       2.53380362
H       -1.32840127       0.49088977      -2.58097488
H       -0.11037021       1.87759963      -2.50365821
H        1.41249334       0.52842952      -1.22095875
H       -0.75032021      -1.68345620      -1.42180237
H        1.96860404      -1.61690085      -0.00378865
H        0.75404430      -3.00308299      -0.06033970
H       -1.33898058       1.83678677       1.21021436
H        0.33006057       2.18276308       1.89675567
H       -1.43987977      -0.25731344       2.49509068
H        0.24253766       0.07096923       3.16632996
16
Properties=species:S:1:pos:R:3 relative_energy_eV=-1.8651415770791573 branch=right pbc="F F F"
C       -0.36705613       0.85925364      -2.24439258
C        0.46481907       0.10080609      -1.52767657
C        0.19720768      -1.25392965      -1.10336516
C        1.01782303      -2.00020601      -0.36288713
C       -0.52382024       1.52391071       1.84985107
C       -0.57609235       0.39628798       2.53827785
H       -1.33162708       0.49249801      -2.57921852
H       -0.11258848       1.87728545      -2.50590306
H        1.41482630       0.52824468      -1.22362782
H       -0.75358541      -1.68245255      -1.41579382
H        1.97134444      -1.62293922      -0.01068148
H        0.75382509      -3.00685013      -0.07157926
H       -1.32421267       1.82329483       1.18877250
H        0.32411304       2.19180943       1.91322412
H       -1.43262870      -0.26425025       2.48628795
H        0.23189300       0.08684095       3.19008350
16
Properties=species:S:1:pos:R:3 relative_energy_eV=-1.8661145482865322 branch=right pbc="F F F"
C       -0.36878001       0.86014829      -2.24143712
C        0.46458977       0.10263667      -1.52485178
C        0.19372681      -1.25087190      -1.09846763
C        1.01577017      -1.99983809      -0.36318600
C       -0.51987328       1.52136083       1.84624172
C       -0.57554376       0.39718500       2.54015974
H       -1.33470422       0.49477979      -2.57462550
H       -0.11661879       1.87723474      -2.50829539
H        1.41695148       0.52868132      -1.22322572
H       -0.75671158      -1.68059223      -1.41081579
H        1.97322685      -1.62783902      -0.01814177
H        0.75092063      -3.00645407      -0.07587733
H       -1.30645123       1.80663510       1.16252063
H        0.31847450       2.19957161       1.92772133
H       -1.42216494      -0.27490317       2.47162809
H        0.22142797       0.10186912       3.21202426
16
Properties=species:S:1:pos:R:3 relative_energy_eV=-1.8668635655776598 branch=right pbc="F F F"
C       -0.37039784       0.86182156      -2.23692922
C        0.46392597       0.10469878      -1.52130919
C        0.19015282      -1.24741520      -1.09413452
C        1.01237059      -1.99667012      -0.36000484
C       -0.51554078       1.51713366       1.84059069
C       -0.57349124       0.39534988       2.53838771
H       -1.33660122       0.49694136      -2.56856127
H       -0.12103333       1.87767739      -2.50955826
H        1.41760814       0.52949658      -1.21987478
H       -0.75893661      -1.67788837      -1.40774248
H        1.97345441      -1.62933436      -0.02259106
H        0.74578179      -3.00205648      -0.07143220
H       -1.29110433       1.79136390       1.13963045
H        0.31496559       2.20359347       1.93499903
H       -1.41137779      -0.28584329       2.45488040
H        0.21446405       0.11073523       3.22502130
16
Properties=species:S:1:pos:R:3 relative_energy_eV=-1.8675161887149443 branch=right pbc="F F F"
C       -0.37249672       0.86423946      -2.23178685
C        0.46253889       0.10704210      -1.51782428
C        0.18699852      -1.24375898      -1.09051219
C        1.00872277      -1.99268675      -0.35559563
C       -0.51028122       1.51171599       1.83349183
C       -0.57028510       0.39224835       2.53501726
H       -1.33827385       0.49896721      -2.56182928
H       -0.12563682       1.87883818      -2.50931975
H        1.41672630       0.53080560      -1.21578688
H       -0.76167518      -1.67338037      -1.40378092
H        1.97315155      -1.62955941      -0.02468781
H        0.73905229      -2.99630196      -0.06303587
H       -1.27517260       1.77421932       1.11531564
H        0.31200750       2.20708818       1.94017018
H       -1.39921225      -0.29772897       2.43469057
H        0.20807595       0.11785608       3.23684585
16
Properties=species:S:1:pos:R:3 relative_energy_eV=-1.8681938553136206 branch=right pbc="F F F"
C       -0.37448160       0.86773866      -2.22561784
C        0.46018392       0.10993527      -1.51301409
C        0.18331130      -1.23970143      -1.08669810
C        1.00359732      -1.98601613      -0.34738748
C       -0.50435633       1.50449396       1.82410399
C       -0.56549875       0.38655683       2.52800745
H       -1.33968417       0.50157419      -2.55292492
H       -0.12931200       1.88022969      -2.50970537
H        1.41479216       0.53093101      -1.20881477
H       -0.76441341      -1.66809806      -1.40090482
H        1.96971411      -1.62385010      -0.02122022
H        0.73239100      -2.98820227      -0.04956323
H       -1.26023525       1.75756754       1.09451641
H        0.31018634       2.20710205       1.93821511
H       -1.38627242      -0.30924554       2.41334433
H        0.20431770       0.11858836       3.23903547
16
Properties=species:S:1:pos:R:3 relative_energy_eV=-1.8679586013959124 branch=right pbc="F F F"
C       -0.38009642       0.87312007      -2.21742360
C        0.45602727       0.11452841      -1.50814549
C        0.17877137      -1.23378939      -1.08152699
C        0.99886770      -1.98217944      -0.34317904
C       -0.49252216       1.49459072       1.81125216
C       -0.55926647       0.38277792       2.52470889
H       -1.34495526       0.50520671      -2.54034213
H       -0.13642831       1.88343370      -2.50858154
H        1.41145823       0.53279201      -1.20492503
H       -0.77378210      -1.65538286      -1.38732146
H        1.97009495      -1.62607038      -0.02351610
H        0.72150820      -2.98268430      -0.04118079
H       -1.22271008       1.71672510       1.03856832
H        0.30075778       2.22018142       1.95666658
H       -1.35944826      -0.33305716       2.37026303
H        0.18596307       0.13941153       3.27605532
16
Properties=species:S:1:pos:R:3 relative_energy_eV=-1.869486245551343 branch=right pbc="F F F"
C       -0.37704178       0.87038524      -2.22287690
C        0.45776487       0.11122016      -1.51224743
C        0.18210927      -1.23858090      -1.08722944
C        1.00258377      -1.98572718      -0.34753981
C       -0.49904604       1.50091206       1.81992629
C       -0.56293087       0.38582273       2.52808944
H       -1.34239619       0.50275467      -2.54643846
H       -0.13045410       1.88140240      -2.51053210
H        1.41252997       0.52897144      -1.20754601
H       -0.77039855      -1.66039744      -1.39492668
H        1.96938087      -1.62307587      -0.02077328
H        0.73050605      -2.98849748      -0.04853961
H       -1.24282947       1.73892485       1.07198756
H        0.30393906       2.21493580       1.94732511
H       -1.37383266      -0.31750715       2.39523908
H        0.19435554       0.12806069       3.25745426
16
Properties=species:S:1:pos:R:3 relative_energy_eV=-1.8701318458543028 branch=right pbc="F F F"
C       -0.37776315       0.87120230      -2.22261202
C        0.45696604       0.11135115      -1.51204492
C        0.18146987      -1.23891975      -1.08739267
C        1.00261365      -1.98683945      -0.34906353
C       -0.49741302       1.50052763       1.81958938
C       -0.56229368       0.38675950       2.52955642
H       -1.34394079       0.50309400      -2.54425691
H       -0.12964315       1.88164653      -2.51222970
H        1.41279190       0.52662259      -1.20810309
H       -0.77345282      -1.65792988      -1.39268500
H        1.96831731      -1.62141503      -0.02045021
H        0.73253111      -2.99057467      -0.05222482
H       -1.23566701       1.73227593       1.06502211
H        0.30027402       2.21901181       1.95211114
H       -1.36981630      -0.31937590       2.39111508
H        0.18926568       0.13216728       3.26504081
16
Properties=species:S:1:pos:R:3 relative_energy_eV=-1.8712026434632207 branch=right pbc="F F F"
C       -0.38056903       0.87364213      -2.22077372
C        0.45495659       0.11191289      -1.51114181
C        0.17836580      -1.23924198      -1.08708895
C        1.00251107      -1.99076646      -0.35548451
C       -0.49090452       1.49931828       1.81805362
C       -0.56081674       0.39008582       2.53444411
H       -1.34950469       0.50410331      -2.53642752
H       -0.12901298       1.88252683      -2.51738981
H        1.41473920       0.51989106      -1.21033406
H       -0.78381713      -1.64932735      -1.38520168
H        1.96679449      -1.62007648      -0.02554618
H        0.73716308      -2.99712074      -0.06332293
H       -1.20709635       1.70581847       1.03482565
H        0.28632898       2.23580449       1.97354028
H       -1.35344815      -0.32884884       2.37373506
H        0.16854971       0.15188265       3.29948470
16
Properties=species:S:1:pos:R:3 relative_energy_eV=-1.871476873406209 branch=right pbc="F F F"
C       -0.38032904       0.87335893      -2.22092380
C        0.45545062       0.11129813      -1.51163949
C        0.17752146      -1.23980529      -1.08761615
C        1.00262272      -1.99222497      -0.35813473
C       -0.49056095       1.50030719       1.81949245
C       -0.56101500       0.39169438       2.53686507
H       -1.34985303       0.50375439      -2.53558243
H       -0.12895154       1.88229260      -2.51816525
H        1.41579729       0.51871339      -1.21122319
H       -0.78506529      -1.64895136      -1.38609443
H        1.96699699      -1.62109992      -0.02940410
H        0.73872807      -2.99795257      -0.06457286
H       -1.20334003       1.70335227       1.03278335
H        0.28334950       2.23918389       1.97734044
H       -1.35160169      -0.32949739       2.37303449
H        0.16448924       0.15518040       3.30521288
16
Properties=species:S:1:pos:R:3 relative_energy_eV=-1.8720905687887353 branch=right pbc="F F F"
C       -0.37952563       0.87190102      -2.22142014
C        0.45704817       0.10897632      -1.51391082
C        0.17510458      -1.24161314      -1.09055501
C        1.00320918      -1.99653033      -0.36788507
C       -0.48922455       1.50316826       1.82376405
C       -0.56232176       0.39623335       2.54398560
H       -1.35058341       0.50241704      -2.53257110
H       -0.12902473       1.88094093      -2.51967425
H        1.41896929       0.51529435      -1.21439947
H       -0.78901226      -1.64755005      -1.38871388
H        1.96827089      -1.62594546      -0.04404764
H        0.74275333      -3.00074584      -0.06808399
H       -1.19023639       1.69509800       1.02523365
H        0.27320622       2.25157095       1.99175610
H       -1.34429835      -0.33200935       2.37050461
H        0.14990462       0.16839805       3.32738970
16
Properties=species:S:1:pos:R:3 relative_energy_eV=-1.8723426813166952 branch=right pbc="F F F"
C       -0.37923870       0.87118337      -2.22156673
C        0.45744332       0.10811505      -1.51495353
C        0.17366427      -1.24199977      -1.09184501
C        1.00310521      -1.99813654      -0.37229620
C       -0.48773407       1.50377406       1.82544117
C       -0.56229424       0.39786531       2.54723643
H       -1.35102916       0.50261970      -2.53036247
H       -0.12896599       1.88001978      -2.51942360
H        1.41934449       0.51504703      -1.21605203
H       -0.79111237      -1.64699559      -1.38860455
H        1.96843260      -1.62817165      -0.05028351
H        0.74351017      -3.00116900      -0.06865700
H       -1.18204903       1.68927416       1.01833901
H        0.26802081       2.25788231       1.99876018
H       -1.33876355      -0.33497923       2.36657546
H        0.14190536       0.17527509       3.33906480
16
Properties=species:S:1:pos:R:3 relative_energy_eV=-1.8725521842470698 branch=right pbc="F F F"
C       -0.37866407       0.86977422      -2.22279999
C        0.45774660       0.10699399      -1.51651441
C        0.17332020      -1.24282413      -1.09407304
C        1.00334614      -1.99940191      -0.37615806
C       -0.48696796       1.50438265       1.82681909
C       -0.56233074       0.39898447       2.54949192
H       -1.35126672       0.50308377      -2.52940007
H       -0.12771320       1.87842536      -2.51833153
H        1.41882459       0.51600356      -1.21753160
H       -0.79147354      -1.64817525      -1.38915998
H        1.96927027      -1.63041170      -0.05534531
H        0.74327186      -3.00141598      -0.06911979
H       -1.17844167       1.68775224       1.01763101
H        0.26461047       2.26273002       2.00284247
H       -1.33538900      -0.33598154       2.36585083
H        0.13609583       0.17968430       3.34717088
16
Properties=species:S:1:pos:R:3 relative_energy_eV=-1.8727041350257423 branch=right pbc="F F F"
C       -0.37916936       0.86976039      -2.22288549
C        0.45692071       0.10705031      -1.51673577
C        0.17235281      -1.24251620      -1.09422481
C        1.00276613      -1.99945105      -0.37696622
C       -0.48449284       1.50320246       1.82581749
C       -0.56129109       0.39892700       2.55008268
H       -1.35282613       0.50482409      -2.52710925
H       -0.12690733       1.87786909      -2.51773672
H        1.41771181       0.51680239      -1.21834816
H       -0.79335908      -1.64760489      -1.38656772
H        1.96896590      -1.63029914      -0.05662844
H        0.74222878      -3.00173312      -0.06997974
H       -1.17024313       1.68083170       1.00888378
H        0.26091647       2.26712008       2.00759669
H       -1.32894772      -0.34017909       2.35977288
H        0.12961305       0.18500006       3.35640132
16
Properties=species:S:1:pos:R:3 relative_energy_eV=-1.8728720598228392 branch=right pbc="F F F"
C       -0.37919205       0.86933902      -2.22400061
C        0.45638764       0.10675895      -1.51761836
C        0.17258466      -1.24277168      -1.09452051
C        1.00258551      -1.99894417      -0.37562093
C       -0.48384734       1.50279155       1.82581830
C       -0.56087176       0.39848832       2.54984485
H       -1.35356138       0.50666778      -2.52763521
H       -0.12530575       1.87743720      -2.51635037
H        1.41610570       0.51837294      -1.21941716
H       -0.79305690      -1.64924484      -1.38530068
H        1.96890301      -1.62925689      -0.05514988
H        0.74118582      -3.00214524      -0.07064847
H       -1.16945242       1.68111158       1.00857783
H        0.26046961       2.26704126       2.00718847
H       -1.32708929      -0.34126864       2.35958855
H        0.12839390       0.18522692       3.35661670
16
Properties=species:S:1:pos:R:3 relative_energy_eV=-1.873065403754481 branch=right pbc="F F F"
C       -0.37990635       0.86956187      -2.22441465
C        0.45554843       0.10638769      -1.51838997
C        0.17229904      -1.24315304      -1.09453643
C        1.00185784      -1.99874076      -0.37431294
C       -0.48228499       1.50163395       1.82430665
C       -0.56016327       0.39872965       2.55060215
H       -1.35531606       0.50866332      -2.52705165
H       -0.12432656       1.87757692      -2.51558228
H        1.41496113       0.51878133      -1.22038791
H       -0.79398815      -1.64946807      -1.38368381
H        1.96973431      -1.62901981      -0.05651734
H        0.73970834      -3.00256582      -0.07164272
H       -1.16308662       1.67667482       1.00281547
H        0.25756358       2.26977502       2.01105643
H       -1.32171829      -0.34486003       2.35534477
H        0.12335651       0.18962702       3.36376678
16
Properties=species:S:1:pos:R:3 relative_energy_eV=-1.8732839787526245 branch=right pbc="F F F"
C       -0.38038126       0.86971810      -2.22479690
C        0.45536297       0.10500038      -1.52036668
C        0.17184918      -1.24444567      -1.09528665
C        1.00145462      -1.99946327      -0.37427252
C       -0.48163488       1.50209917       1.82547803
C       -0.56064387       0.40025082       2.55328542
H       -1.35655347       0.51010314      -2.52747259
H       -0.12375090       1.87816331      -2.51504178
H        1.41483986       0.51744789      -1.22278391
H       -0.79517061      -1.64984498      -1.38367233
H        1.97109743      -1.62963651      -0.06141977
H        0.73958517      -3.00389334      -0.07304784
H       -1.15554866       1.67291674       0.99754348
H        0.25307018       2.27330425       2.01722884
H       -1.31610835      -0.34812852       2.35300273
H        0.11677141       0.19601254       3.37299504
16
Properties=species:S:1:pos:R:3 relative_energy_eV=-1.8734839223279778 branch=right pbc="F F F"
C       -0.38061281       0.86956859      -2.22534016
C        0.45552782       0.10254585      -1.52354159
C        0.17114647      -1.24657377      -1.09740983
C        1.00160615      -2.00162015      -0.37736364
C       -0.48163673       1.50379464       1.82881499
C       -0.56208921       0.40356651       2.55917513
H       -1.35727628       0.51088934      -2.52835380
H       -0.12343021       1.87858830      -2.51461261
H        1.41567646       0.51448527      -1.22670826
H       -0.79676719      -1.65037162      -1.38493923
H        1.97317552      -1.63224005      -0.07098420
H        0.74067922      -3.00573625      -0.07528941
H       -1.14559340       1.66860698       0.99194990
H        0.24619676       2.27963768       2.02730394
H       -1.30930871      -0.35134046       2.35131470
H        0.10694487       0.20580316       3.38735670
16
Properties=species:S:1:pos:R:3 relative_energy_eV=-1.8736179542065656 branch=right pbc="F F F"
C       -0.38078806       0.86937746      -2.22581898
C        0.45562625       0.10055507      -1.52615629
C        0.17051569      -1.24837860      -1.09968237
C        1.00193115      -2.00342437      -0.38110593
C       -0.48165275       1.50554039       1.83233776
C       -0.56330276       0.40627132       2.56402473
H       -1.35778214       0.51151557      -2.52897021
H       -0.12298433       1.87865303      -2.51452007
H        1.41637383       0.51147159      -1.22979936
H       -0.79786418      -1.65108808      -1.38635150
H        1.97467583      -1.63462919      -0.07896359
H        0.74174489      -3.00686843      -0.07675666
H       -1.13750567       1.66502601       0.98826478
H        0.24036651       2.28532174       2.03535196
H       -1.30356465      -0.35368111       2.35001160
H        0.09844906       0.21394163       3.39950682
16
Properties=species:S:1:pos:R:3 relative_energy_eV=-1.8737820503847615 branch=right pbc="F F F"
C       -0.38109284       0.86908118      -2.22690207
C        0.45519610       0.09813412      -1.52949256
C        0.16965294      -1.25046662      -1.10288372
C        1.00284679      -2.00590818      -0.38683103
C       -0.48164855       1.50771124       1.83698907
C       -0.56490649       0.40991532       2.57086834
H       -1.35868346       0.51285195      -2.53011096
H       -0.12189514       1.87835530      -2.51463351
H        1.41720781       0.50715893      -1.23405932
H       -0.79926258      -1.65256624      -1.38767409
H        1.97631940      -1.63773518      -0.08805064
H        0.74361355      -3.00857183      -0.07980449
H       -1.12713193       1.66042182       0.98382763
H        0.23288199       2.29291084       2.04609973
H       -1.29601681      -0.35650728       2.34863390
H        0.08715777       0.22481865       3.41539647
16
Properties=species:S:1:pos:R:3 relative_energy_eV=-1.873983327361202 branch=right pbc="F F F"
C       -0.38197933       0.86921012      -2.22808383
C        0.45393361       0.09624394      -1.53247137
C        0.16853608      -1.25226782      -1.10603673
C        1.00335118      -2.00734080      -0.39194968
C       -0.48068673       1.50905690       1.84081649
C       -0.56569902       0.41261406       2.57645027
H       -1.36054678       0.51571101      -2.53121784
H       -0.12026464       1.87811490      -2.51462422
H        1.41727701       0.50241093      -1.23777060
H       -0.80055904      -1.65477598      -1.38842922
H        1.97748010      -1.63992548      -0.09489429
H        0.74453113      -3.00893845      -0.08146657
H       -1.11510361       1.65411315       0.97826858
H        0.22526811       2.30025189       2.05619743
H       -1.28611939      -0.36102432       2.34501959
H        0.07481977       0.23614996       3.43156482
16
Properties=species:S:1:pos:R:3 relative_energy_eV=-1.874152290785787 branch=right pbc="F F F"
C       -0.38292657       0.86948413      -2.22963752
C        0.45215963       0.09516548      -1.53461513
C        0.16761768      -1.25330006      -1.10831677
C        1.00417456      -2.00824898      -0.39561369
C       -0.47974005       1.50959031       1.84312263
C       -0.56620242       0.41441583       2.58054266
H       -1.36253053       0.51903414      -2.53307566
H       -0.11843891       1.87787761      -2.51472381
H        1.41708916       0.49848882      -1.24097263
H       -0.80155557      -1.65735034      -1.38821063
H        1.97804494      -1.64102359      -0.09727429
H        0.74560039      -3.00952264      -0.08394631
H       -1.10638420       1.64969021       0.97431419
H        0.22007648       2.30494437       2.06394159
H       -1.27836816      -0.36465680       2.34288524
H        0.06562194       0.24501550       3.44295305
16
Properties=species:S:1:pos:R:3 relative_energy_eV=-1.8742168432136168 branch=right pbc="F F F"
C       -0.38387580       0.87013990      -2.23010193
C        0.45070265       0.09541806      -1.53481853
C        0.16678130      -1.25327058      -1.10859611
C        1.00377401      -2.00749395      -0.39564276
C       -0.47781793       1.50842861       1.84216243
C       -0.56522014       0.41398858       2.58047453
H       -1.36437545       0.52189904      -2.53318393
H       -0.11763313       1.87809196      -2.51457335
H        1.41612968       0.49736211      -1.24159570
H       -0.80246061      -1.65849010      -1.38709327
H        1.97786928      -1.64043919      -0.09594699
H        0.74465671      -3.00853096      -0.08342360
H       -1.10028580       1.64504020       0.96934880
H        0.21774756       2.30658381       2.06706183
H       -1.27228895      -0.36870909       2.33858909
H        0.06053495       0.24958558       3.44871244
16
Properties=species:S:1:pos:R:3 relative_energy_eV=-1.874192771687376 branch=right pbc="F F F"
C       -0.38413700       0.87083182      -2.23013811
C        0.44992852       0.09679536      -1.53331806
C        0.16716863      -1.25230576      -1.10720678
C        1.00353473      -2.00546918      -0.39215392
C       -0.47762080       1.50681990       1.83947383
C       -0.56409512       0.41155122       2.57641905
H       -1.36423688       0.52290952      -2.53480407
H       -0.11791660       1.87880646      -2.51420097
H        1.41525680       0.49853789      -1.24000923
H       -0.80121763      -1.65959875      -1.38668389
H        1.97669683      -1.63813552      -0.08820154
H        0.74342921      -3.00656994      -0.08086761
H       -1.10622629       1.64834968       0.97325294
H        0.22241983       2.30091521       2.06088357
H       -1.27502265      -0.36810329       2.33991949
H        0.06627680       0.24426934       3.43900819
16
Properties=species:S:1:pos:R:3 relative_energy_eV=-1.8742671916534164 branch=right pbc="F F F"
C       -0.38383548       0.87044593      -2.23026862
C        0.45039790       0.09616104      -1.53397442
C        0.16706305      -1.25278024      -1.10775516
C        1.00395359      -2.00678270      -0.39386488
C       -0.47774834       1.50760780       1.84056318
C       -0.56467736       0.41288438       2.57847352
H       -1.36405292       0.52225391      -2.53426370
H       -0.11809189       1.87852165      -2.51469615
H        1.41574496       0.49838784      -1.24094066
H       -0.80190234      -1.65905171      -1.38692602
H        1.97750510      -1.63958640      -0.09156585
H        0.74418399      -3.00806183      -0.08294148
H       -1.10447151       1.64737709       0.97167891
H        0.22069107       2.30326962       2.06413286
H       -1.27450385      -0.36797829       2.34007987
H        0.06398238       0.24693586       3.44364151
16
Properties=species:S:1:pos:R:3 relative_energy_eV=-1.874294215917871 branch=right pbc="F F F"
C       -0.38375462       0.87058700      -2.22999359
C        0.45050086       0.09617798      -1.53384077
C        0.16700885      -1.25276477      -1.10755684
C        1.00370808      -2.00656113      -0.39339354
C       -0.47749025       1.50732461       1.84011217
C       -0.56435854       0.41259835       2.57799890
H       -1.36380864       0.52215535      -2.53407097
H       -0.11859014       1.87880328      -2.51466683
H        1.41563553       0.49873825      -1.24070314
H       -0.80195735      -1.65885361      -1.38708930
H        1.97730229      -1.63937305      -0.09138510
H        0.74373204      -3.00763204      -0.08208283
H       -1.10453604       1.64705925       0.97122607
H        0.22100352       2.30299298       2.06377597
H       -1.27427036      -0.36839835       2.33944958
H        0.06411312       0.24674985       3.44359313
16
Properties=species:S:1:pos:R:3 relative_energy_eV=-1.8743313215009039 branch=right pbc="F F F"
C       -0.38344435       0.87084551      -2.22994618
C        0.45061915       0.09599097      -1.53398276
C        0.16699783      -1.25304952      -1.10762126
C        1.00358472      -2.00647969      -0.39294157
C       -0.47722877       1.50708120       1.83977785
C       -0.56392307       0.41232892       2.57765385
H       -1.36312407       0.52218393      -2.53454794
H       -0.11951650       1.87941254      -2.51503853
H        1.41541783       0.49912205      -1.24074681
H       -0.80183077      -1.65919869      -1.38801316
H        1.97695910      -1.63914393      -0.09053569
H        0.74330128      -3.00724494      -0.08118674
H       -1.10580716       1.64754930       0.97183394
H        0.22200680       2.30219927       2.06332748
H       -1.27410207      -0.36879407       2.33954977
H        0.06432841       0.24680113       3.44379066
16
Properties=species:S:1:pos:R:3 relative_energy_eV=-1.8743629562404749 branch=right pbc="F F F"
C       -0.38326772       0.87128792      -2.22997710
C        0.45045181       0.09589065      -1.53414478
C        0.16681409      -1.25324903      -1.10772472
C        1.00313758      -2.00590741      -0.39200299
C       -0.47675502       1.50649370       1.83921939
C       -0.56323626       0.41168722       2.57703286
H       -1.36269071       0.52271812      -2.53506421
H       -0.12018865       1.88010887      -2.51533409
H        1.41499841       0.49925127      -1.24062464
H       -0.80165681      -1.65986984      -1.38893772
H        1.97589316      -1.63796081      -0.08858681
H        0.74276606      -3.00639429      -0.07961413
H       -1.10655031       1.64765228       0.97225308
H        0.22313241       2.30115297       2.06229032
H       -1.27299486      -0.36986402       2.33896395
H        0.06438521       0.24660635       3.44362447
16
Properties=species:S:1:pos:R:3 relative_energy_eV=-1.8744221698025285 branch=right pbc="F F F"
C       -0.38300660       0.87177616      -2.23069321
C        0.45006522       0.09547636      -1.53500135
C        0.16646553      -1.25389638      -1.10867859
C        1.00255603      -2.00543655      -0.39144602
C       -0.47620039       1.50608939       1.83939614
C       -0.56251761       0.41131174       2.57733686
H       -1.36244817       0.52389984      -2.53604614
H       -0.12045910       1.88079630      -2.51629671
H        1.41442163       0.49874282      -1.24089665
H       -0.80136452      -1.66154157      -1.39088316
H        1.97421560      -1.63617091      -0.08610615
H        0.74265126      -3.00583352      -0.07846821
H       -1.10696552       1.64781566       0.97336793
H        0.22409803       2.30050643       2.06180323
H       -1.27041529      -0.37153199       2.33851307
H        0.06314232       0.24760018       3.44547186
16
Properties=species:S:1:pos:R:3 relative_energy_eV=-1.874493271711799 branch=right pbc="F F F"
C       -0.38285018       0.87240488      -2.23173721
C        0.44940803       0.09516852      -1.53603045
C        0.16578727      -1.25445691      -1.10990443
C        1.00133633      -2.00440557      -0.39026474
C       -0.47530276       1.50525646       1.83943421
C       -0.56145087       0.41064227       2.57773653
H       -1.36263088       0.52561347      -2.53686879
H       -0.12030018       1.88145496      -2.51755342
H        1.41368507       0.49793431      -1.24091603
H       -0.80108606      -1.66364321      -1.39328406
H        1.97119261      -1.63278390      -0.08215661
H        0.74262641      -3.00506111      -0.07694134
H       -1.10655924       1.64727260       0.97401397
H        0.22521313       2.29974840       2.06088699
H       -1.26618302      -0.37428033       2.33701667
H        0.06135277       0.24873911       3.44794165
16
Properties=species:S:1:pos:R:3 relative_energy_eV=-1.8745861713186969 branch=right pbc="F F F"
C       -0.38273947       0.87285021      -2.23340362
C        0.44869636       0.09489859      -1.53743287
C        0.16499879      -1.25507156      -1.11177164
C        0.99968658      -2.00330681      -0.38915226
C       -0.47438745       1.50454189       1.84004211
C       -0.56037791       0.41021347       2.57893187
H       -1.36327867       0.52740159      -2.53764700
H       -0.11946218       1.88171065      -2.51936680
H        1.41298089       0.49683589      -1.24087043
H       -0.80060392      -1.66617591      -1.39663867
H        1.96737269      -1.62861117      -0.07772158
H        0.74298725      -3.00471739      -0.07608281
H       -1.10595207       1.64660610       0.97505695
H        0.22630702       2.29925495       2.06011575
H       -1.26093352      -0.37734933       2.33535296
H        0.05894408       0.25052280       3.45196105
16
Properties=species:S:1:pos:R:3 relative_energy_eV=-1.8746733707930616 branch=right pbc="F F F"
C       -0.38286695       0.87317494      -2.23477507
C        0.44808721       0.09519315      -1.53823009
C        0.16425960      -1.25499395      -1.11302816
C        0.99761049      -2.00166636      -0.38709351
C       -0.47344479       1.50337794       1.83992292
C       -0.55911981       0.40936267       2.57939719
H       -1.36404629       0.52846350      -2.53813247
H       -0.11859558       1.88175837      -2.52066136
H        1.41241735       0.49637773      -1.24026307
H       -0.79995222      -1.66790826      -1.39973001
H        1.96304014      -1.62390607      -0.07242090
H        0.74298524      -3.00406312      -0.07482479
H       -1.10591674       1.64576552       0.97564082
H        0.22816444       2.29786065       2.05820897
H       -1.25640847      -0.38022706       2.33316381
H        0.05802489       0.25103430       3.45419874
16
Properties=species:S:1:pos:R:3 relative_energy_eV=-1.874761464578114 branch=right pbc="F F F"
C       -0.38309569       0.87319075      -2.23594383
C        0.44777602       0.09586615      -1.53857831
C        0.16393791      -1.25448826      -1.11389471
C        0.99556535      -1.99997499      -0.38470834
C       -0.47283998       1.50230380       1.83963681
C       -0.55791299       0.40842696       2.57939302
H       -1.36453551       0.52832532      -2.53896026
H       -0.11791106       1.88155918      -2.52146085
H        1.41201291       0.49677170      -1.23946194
H       -0.79876147      -1.66892393      -1.40310515
H        1.95909265      -1.61989518      -0.06700913
H        0.74255710      -3.00331706      -0.07359998
H       -1.10792742       1.64584798       0.97731179
H        0.23108090       2.29546277       2.05530815
H       -1.25381230      -0.38192592       2.33174598
H        0.05901216       0.25037471       3.45469980
16
Properties=species:S:1:pos:R:3 relative_energy_eV=-1.8748752978490302 branch=right pbc="F F F"
C       -0.38353251       0.87319320      -2.23665838
C        0.44755504       0.09716067      -1.53817184
C        0.16390451      -1.25323103      -1.11392316
C        0.99311689      -1.99741715      -0.38070667
C       -0.47224235       1.50057346       1.83827835
C       -0.55615483       0.40661263       2.57793986
H       -1.36445939       0.52703166      -2.54059035
H       -0.11785582       1.88155626      -2.52138957
H        1.41147904       0.49844517      -1.23825772
H       -0.79685891      -1.66918925      -1.40699663
H        1.95451023      -1.61539309      -0.05925523
H        0.74104509      -3.00151719      -0.07097805
H       -1.11267071       1.64672135       0.97999329
H        0.23631816       2.29070354       2.04993815
H       -1.25287691      -0.38312854       2.33039633
H        0.06296113       0.24748227       3.45175469
16
Properties=species:S:1:pos:R:3 relative_energy_eV=-1.8749788335499034 branch=right pbc="F F F"
C       -0.38403992       0.87314287      -2.23718556
C        0.44729890       0.09839767      -1.53767840
C        0.16413362      -1.25197329      -1.11376965
C        0.99086723      -1.99473387      -0.37649656
C       -0.47173970       1.49889273       1.83691256
C       -0.55422788       0.40461975       2.57610960
H       -1.36380592       0.52517479      -2.54342922
H       -0.11825264       1.88173509      -2.52078386
H        1.41074241       0.50063683      -1.23760944
H       -0.79449439      -1.66931897      -1.41160509
H        1.95025614      -1.61150432      -0.05088056
H        0.73888235      -2.99916111      -0.06791034
H       -1.11882514       1.64820303       0.98384338
H        0.24245554       2.28509470       2.04408442
H       -1.25285264      -0.38392076       2.32977699
H        0.06784081       0.24431887       3.44799479
16
Properties=species:S:1:pos:R:3 relative_energy_eV=-1.8750714916250217 branch=right pbc="F F F"
C       -0.38454723       0.87323910      -2.23745676
C        0.44676585       0.09906720      -1.53743309
C        0.16412843      -1.25117051      -1.11357847
C        0.98914358      -1.99235841      -0.37302372
C       -0.47109584       1.49741484       1.83585828
C       -0.55248736       0.40287037       2.57463828
H       -1.36294851       0.52396350      -2.54664112
H       -0.11878982       1.88215005      -2.51991123
H        1.40984987       0.50226611      -1.23797398
H       -0.79269471      -1.66958012      -1.41568155
H        1.94674997      -1.60828772      -0.04359781
H        0.73684189      -2.99672893      -0.06506868
H       -1.12290083       1.64882683       0.98664485
H        0.24718030       2.28065762       2.03992346
H       -1.25208429      -0.38522768       2.32923027
H        0.07112756       0.24250174       3.44544435
16
Properties=species:S:1:pos:R:3 relative_energy_eV=-1.8751428117593605 branch=right pbc="F F F"
C       -0.38486469       0.87328934      -2.23792482
C        0.44605055       0.09893132      -1.53781934
C        0.16376881      -1.25116981      -1.11394838
C        0.98805032      -1.99083748      -0.37122585
C       -0.47038599       1.49660403       1.83589337
C       -0.55131973       0.40194631       2.57451671
H       -1.36227398       0.52371113      -2.54954335
H       -0.11890672       1.88236966      -2.51958309
H        1.40897235       0.50276776      -1.23934443
H       -0.79176825      -1.67028297      -1.41932726
H        1.94416615      -1.60586124      -0.03859237
H        0.73574933      -2.99516071      -0.06379356
H       -1.12386661       1.64843014       0.98827785
H        0.24934712       2.27872904       2.03868118
H       -1.25000516      -0.38692710       2.32908990
H        0.07152540       0.24306459       3.44601652
16
Properties=species:S:1:pos:R:3 relative_energy_eV=-1.8751932300974659 branch=right pbc="F F F"
C       -0.38494745       0.87327355      -2.23847789
C        0.44539634       0.09850395      -1.53833837
C        0.16311062      -1.25148463      -1.11450525
C        0.98726648      -1.98991174      -0.37042204
C       -0.46962394       1.49610594       1.83635507
C       -0.55060969       0.40154021       2.57515850
H       -1.36194426       0.52405902      -2.55119135
H       -0.11865591       1.88226655      -2.51998503
H        1.40826878       0.50261643      -1.24060554
H       -0.79168192      -1.67098086      -1.42209017
H        1.94207069      -1.60363741      -0.03525086
H        0.73554775      -2.99447943      -0.06381398
H       -1.12258626       1.64724731       0.98853795
H        0.24962148       2.27867343       2.03909859
H       -1.24741823      -0.38866860       2.32896948
H        0.07042442       0.24448029       3.44793400
16
Properties=species:S:1:pos:R:3 relative_energy_eV=-1.8752378296021561 branch=right pbc="F F F"
C       -0.38490611       0.87310896      -2.23926701
C        0.44483972       0.09798919      -1.53899536
C        0.16231011      -1.25194363      -1.11539050
C        0.98651071      -1.98935109      -0.37028070
C       -0.46875915       1.49582572       1.83722009
C       -0.55014560       0.40154570       2.57649218
H       -1.36199585       0.52459922      -2.55195263
H       -0.11806422       1.88177659      -2.52109976
H        1.40770403       0.50209883      -1.24158285
H       -0.79198972      -1.67167239      -1.42470684
H        1.94010603      -1.60149463      -0.03296687
H        0.73583794      -2.99445375      -0.06484230
H       -1.11978169       1.64541732       0.98796643
H        0.24858395       2.27997910       2.04071054
H       -1.24432592      -0.39043170       2.32880920
H        0.06831466       0.24661059       3.45125951
16
Properties=species:S:1:pos:R:3 relative_energy_eV=-1.8753029117624465 branch=right pbc="F F F"
C       -0.38486447       0.87284496      -2.24030841
C        0.44432591       0.09761217      -1.53968697
C        0.16138286      -1.25229842      -1.11648403
C        0.98542778      -1.98874316      -0.37013676
C       -0.46763483       1.49541339       1.83817871
C       -0.54961100       0.40163949       2.57823632
H       -1.36230604       0.52505095      -2.55227908
H       -0.11736284       1.88103039      -2.52276541
H        1.40716469       0.50157407      -1.24218208
H       -0.79239839      -1.67228120      -1.42763769
H        1.93766219      -1.59895910      -0.03056326
H        0.73616931      -2.99465616      -0.06631381
H       -1.11577168       1.64283163       0.98653736
H        0.24681184       2.28197887       2.04298422
H       -1.24064232      -0.39244898       2.32845931
H        0.06588589       0.24901511       3.45533477
16
Properties=species:S:1:pos:R:3 relative_energy_eV=-1.8753815031404883 branch=right pbc="F F F"
C       -0.38490517       0.87244841      -2.24187946
C        0.44380031       0.09744317      -1.54060400
C        0.16038975      -1.25251999      -1.11806735
C        0.98373208      -1.98790999      -0.36977619
C       -0.46606166       1.49475131       1.83935825
C       -0.54874700       0.40172836       2.58054012
H       -1.36281914       0.52519255      -2.55276058
H       -0.11670003       1.88006084      -2.52512542
H        1.40648284       0.50125761      -1.24245111
H       -0.79255056      -1.67296096      -1.43174095
H        1.93425897      -1.59587190      -0.02731753
H        0.73611388      -2.99486763      -0.06802124
H       -1.11030825       1.63922243       0.98435105
H        0.24428180       2.28465273       2.04614542
H       -1.23592215      -0.39494260       2.32809677
H        0.06319319       0.25191967       3.46062544
16
Properties=species:S:1:pos:R:3 relative_energy_eV=-1.8755448526908367 branch=right pbc="F F F"
C       -0.38515121       0.87190479      -2.24463326
C        0.44309531       0.09785919      -1.54191739
C        0.15927277      -1.25232064      -1.12053955
C        0.98040688      -1.98604346      -0.36802374
C       -0.46341104       1.49316136       1.84064345
C       -0.54671546       0.40124860       2.58348728
H       -1.36336596       0.52454220      -2.55442245
H       -0.11649871       1.87892583      -2.52880576
H        1.40515882       0.50192373      -1.24204506
H       -0.79175575      -1.67394442      -1.43903712
H        1.92797492      -1.59084330      -0.02018610
H        0.73467787      -2.99444452      -0.06935146
H       -1.10268006       1.63369861       0.98116607
H        0.24123319       2.28763738       2.05008152
H       -1.22908747      -0.39867748       2.32789183
H        0.06108475       0.25497614       3.46706503
16
Properties=species:S:1:pos:R:3 relative_energy_eV=-1.8758719873585505 branch=right pbc="F F F"
C       -0.38582050       0.87111494      -2.25000826
C        0.44201864       0.09957964      -1.54415810
C        0.15822558      -1.25125347      -1.12496737
C        0.97365879      -1.98186323      -0.36300722
C       -0.45865679       1.48964638       1.84211881
C       -0.54195850       0.39930554       2.58735797
H       -1.36360137       0.52198812      -2.55950314
H       -0.11770365       1.87776793      -2.53509640
H        1.40223387       0.50516521      -1.24021592
H       -0.78831380      -1.67585324      -1.45354969
H        1.91546304      -1.58195664      -0.00393547
H        0.72970695      -2.99224468      -0.06914913
H       -1.09184726       1.62486971       0.97710659
H        0.23798742       2.29042448       2.05481490
H       -1.21842447      -0.40471241       2.32863999
H        0.06127096       0.25762574       3.47492581
16
Properties=species:S:1:pos:R:3 relative_energy_eV=-1.8764261548567447 branch=right pbc="F F F"
C       -0.38692708       0.87006784      -2.25853683
C        0.44096702       0.10349267      -1.54721142
C        0.15843258      -1.24873718      -1.13134611
C        0.96299951      -1.97493656      -0.35342172
C       -0.45219271       1.48398814       1.84347807
C       -0.53367512       0.39516588       2.59119150
H       -1.36239298       0.51573961      -2.57025803
H       -0.12215384       1.87734677      -2.54389643
H        1.39726172       0.51319421      -1.23597758
H       -0.78006729      -1.67871358      -1.47647563
H        1.89577992      -1.57004894       0.02422744
H        0.71898213      -2.98727282      -0.06570695
H       -1.08070313       1.61420307       0.97410312
H        0.23631390       2.29097595       2.05856546
H       -1.20673916      -0.41151133       2.33268173
H        0.06835354       0.25665031       3.47995688
16
Properties=species:S:1:pos:R:3 relative_energy_eV=-1.877143507499568 branch=right pbc="F F F"
C       -0.38790316       0.86885235      -2.26748571
C        0.44107269       0.10833640      -1.55037622
C        0.16152588      -1.24584363      -1.13771498
C        0.95335861      -1.96914462      -0.34431705
C       -0.44774489       1.47956068       1.84531345
C       -0.52535053       0.39120221       2.59409993
H       -1.35899116       0.50640752      -2.58482822
H       -0.12995559       1.87844093      -2.55148221
H        1.39218748       0.52427134      -1.23096652
H       -0.76805376      -1.68161170      -1.49872549
H        1.87794963      -1.56362342       0.05134156
H        0.70498601      -2.98166677      -0.06048001
H       -1.07560865       1.60769454       0.97526292
H        0.23671612       2.28915687       2.06099318
H       -1.20227428      -0.41375450       2.34196348
H        0.08232475       0.25132586       3.47877545
16
Properties=species:S:1:pos:R:3 relative_energy_eV=-1.877706559719627 branch=right pbc="F F F"
C       -0.38879509       0.86909034      -2.27365378
C        0.44068001       0.11260042      -1.55232798
C        0.16505247      -1.24317586      -1.14128947
C        0.94617174      -1.96346602      -0.33473635
C       -0.44555837       1.47560884       1.84473443
C       -0.51786146       0.38634111       2.59266412
H       -1.35464647       0.49964868      -2.59950026
H       -0.13770872       1.88168947      -2.55478432
H        1.38736744       0.53418731      -1.22733761
H       -0.75626940      -1.68521928      -1.51446407
H        1.86337472      -1.55821799       0.07711320
H        0.69218520      -2.97491788      -0.05164874
H       -1.08143510       1.60706092       0.98110024
H        0.24498693       2.28046753       2.05587444
H       -1.20164859      -0.41536294       2.34859760
H        0.09834408       0.24326946       3.47103210
16
Properties=species:S:1:pos:R:3 relative_energy_eV=-1.8778231271808181 branch=right pbc="F F F"
C       -0.38813543       0.86908274      -2.27332535
C        0.44168914       0.11285135      -1.55195322
C        0.16774593      -1.24329803      -1.14030257
C        0.94818032      -1.96495650      -0.33596762
C       -0.44887877       1.47761400       1.84545662
C       -0.51890205       0.38674057       2.59122585
H       -1.35178344       0.49763569      -2.60258339
H       -0.14032755       1.88310143      -2.55319879
H        1.38741828       0.53618444      -1.22722919
H       -0.75278955      -1.68574437      -1.51179269
H        1.86596787      -1.56351938       0.07454371
H        0.69082884      -2.97506129      -0.05086877
H       -1.09135418       1.61365842       0.98739735
H        0.24963078       2.27682088       2.05284950
H       -1.21062388      -0.41011937       2.35408042
H        0.10557314       0.23861353       3.46304163
16
Properties=species:S:1:pos:R:3 relative_energy_eV=-1.8778841036091762 branch=right pbc="F F F"
C       -0.38865283       0.87027041      -2.27551882
C        0.43981822       0.11485426      -1.55181231
C        0.16725054      -1.24164064      -1.14077302
C        0.94292121      -1.95891503      -0.32686987
C       -0.44652672       1.47338353       1.84248931
C       -0.51386072       0.38168768       2.58727313
H       -1.35038192       0.49761558      -2.60834033
H       -0.14182539       1.88469184      -2.55479244
H        1.38380332       0.54007814      -1.22484647
H       -0.74833559      -1.68869032      -1.52071399
H        1.85462242      -1.55304782       0.09515468
H        0.68590058      -2.96962375      -0.04332736
H       -1.09765752       1.61309439       0.99145884
H        0.25967905       2.26780524       2.04345386
H       -1.20569304      -0.41547715       2.35155144
H        0.11317801       0.23351775       3.45698688
16
Properties=species:S:1:pos:R:3 relative_energy_eV=-1.8779572966186606 branch=right pbc="F F F"
C       -0.38836239       0.86980101      -2.27458688
C        0.44009190       0.11344312      -1.55197992
C        0.16668211      -1.24279849      -1.14084787
C        0.94511846      -1.96130015      -0.33094171
C       -0.44725985       1.47531706       1.84410381
C       -0.51627284       0.38405526       2.58940114
H       -1.35158136       0.49901395      -2.60499174
H       -0.13980234       1.88349041      -2.55448491
H        1.38499339       0.53734115      -1.22581998
H       -0.75113244      -1.68806206      -1.51703381
H        1.85930707      -1.55633916       0.08569757
H        0.68901206      -2.97197446      -0.04683319
H       -1.09359654       1.61239110       0.98934052
H        0.25483270       2.27259686       2.04793147
H       -1.20574958      -0.41448403       2.35100981
H        0.10795917       0.23711254       3.46140921
16
Properties=species:S:1:pos:R:3 relative_energy_eV=-1.8780139190603222 branch=right pbc="F F F"
C       -0.38799939       0.86943669      -2.27475124
C        0.44023171       0.11307775      -1.55193601
C        0.16666956      -1.24324059      -1.14107187
C        0.94562981      -1.96198232      -0.33205065
C       -0.44783968       1.47628911       1.84513856
C       -0.51714464       0.38484186       2.59015768
H       -1.35145410       0.49892146      -2.60474798
H       -0.13907644       1.88290979      -2.55488667
H        1.38506254       0.53691679      -1.22538170
H       -0.75155336      -1.68818076      -1.51648405
H        1.86017572      -1.55704341       0.08355535
H        0.69020297      -2.97297360      -0.04847328
H       -1.09382288       1.61288834       0.99012492
H        0.25395284       2.27395059       2.04902549
H       -1.20729383      -0.41317218       2.35223257
H        0.10849868       0.23696460       3.46092241
16
Properties=species:S:1:pos:R:3 relative_energy_eV=-1.87818985139711 branch=right pbc="F F F"
C       -0.38705721       0.86856890      -2.27660342
C        0.43979205       0.11249940      -1.55211080
C        0.16651857      -1.24433942      -1.14269044
C        0.94511924      -1.96210493      -0.33265645
C       -0.44865122       1.47817403       1.84793012
C       -0.51793198       0.38592494       2.59174529
H       -1.35023905       0.49844495      -2.60754969
H       -0.13728737       1.88176194      -2.55650681
H        1.38324272       0.53710576      -1.22235048
H       -0.75096678      -1.69019777      -1.51834087
H        1.85883128      -1.55615848       0.08274972
H        0.69155478      -2.97379542      -0.05018165
H       -1.09516364       1.61306592       0.99354126
H        0.25318690       2.27654887       2.05127418
H       -1.21013088      -0.41100344       2.35526643
H        0.11342211       0.23510889       3.45785715
16
Properties=species:S:1:pos:R:3 relative_energy_eV=-1.8783467599605501 branch=right pbc="F F F"
C       -0.38622292       0.86798884      -2.27931273
C        0.43902465       0.11286075      -1.55203873
C        0.16660736      -1.24476872      -1.14425312
C        0.94289741      -1.96053997      -0.33030682
C       -0.44891035       1.47876500       1.84970501
C       -0.51683987       0.38530112       2.59176068
H       -1.34782698       0.49676010      -2.61370060
H       -0.13664299       1.88151469      -2.55814053
H        1.38039388       0.53917781      -1.21836421
H       -0.74856872      -1.69286835      -1.52309128
H        1.85410769      -1.55255608       0.08871649
H        0.69114485      -2.97316311      -0.04938199
H       -1.10015334       1.61423600       0.99903478
H        0.25578062       2.27564892       2.05055058
H       -1.21360145      -0.40895920       2.35934504
H        0.12304978       0.23020633       3.45085097
16
Properties=species:S:1:pos:R:3 relative_energy_eV=-1.878550599243681 branch=right pbc="F F F"
C       -0.38548863       0.86779803      -2.28329624
C        0.43708543       0.11390133      -1.55177197
C        0.16619678      -1.24478942      -1.14613555
C        0.93816748      -1.95653190      -0.32424385
C       -0.44797912       1.47765925       1.85030816
C       -0.51304705       0.38259317       2.58997882
H       -1.34403832       0.49470327      -2.62450503
H       -0.13630517       1.88223384      -2.55950936
H        1.37498826       0.54296714      -1.21186447
H       -0.74437828      -1.69724980      -1.53143312
H        1.84484293      -1.54481983       0.10118727
H        0.68841266      -2.96983024      -0.04389239
H       -1.10663078       1.61460620       1.00556060
H        0.26043191       2.27244373       2.04813948
H       -1.21583515      -0.40840086       2.36292342
H        0.13781679       0.22232025       3.43992775
16
Properties=species:S:1:pos:R:3 relative_energy_eV=-1.8787625649174515 branch=right pbc="F F F"
C       -0.38499291       0.86791437      -2.28670857
C        0.43477315       0.11420978      -1.55181838
C        0.16511435      -1.24527753      -1.14763414
C        0.93430595      -1.95334891      -0.31976310
C       -0.44682859       1.47644608       1.85071614
C       -0.50913093       0.38021366       2.58866159
H       -1.34097923       0.49409181      -2.63450560
H       -0.13526272       1.88321635      -2.55990556
H        1.37009498       0.54486343      -1.20715440
H       -0.74155107      -1.70163820      -1.53827648
H        1.83748029      -1.53788778       0.11035023
H        0.68667799      -2.96700862      -0.03864188
H       -1.11061688       1.61477174       1.00990342
H        0.26286022       2.27027034       2.04764487
H       -1.21550175      -0.40882600       2.36504893
H        0.14779694       0.21759362       3.43345650
16
Properties=species:S:1:pos:R:3 relative_energy_eV=-1.8791078221756834 branch=right pbc="F F F"
C       -0.38431313       0.86841492      -2.29027646
C        0.43085888       0.11374313      -1.55129400
C        0.16245120      -1.24640677      -1.14843519
C        0.93016051      -1.94973842      -0.31487413
C       -0.44537370       1.47469934       1.85043441
C       -0.50329203       0.37685446       2.58598654
H       -1.33717145       0.49504167      -2.64729608
H       -0.13233781       1.88471676      -2.55880270
H        1.36315182       0.54546242      -1.20050028
H       -0.73958277      -1.70752938      -1.54472181
H        1.83000404      -1.52897147       0.11756784
H        0.68557647      -2.96325421      -0.03040900
H       -1.11402916       1.61513630       1.01342777
H        0.26330108       2.26868403       2.04844223
H       -1.21379756      -0.40951155       2.36586387
H        0.15863347       0.21226291       3.42626062
16
Properties=species:S:1:pos:R:3 relative_energy_eV=-1.879399320315315 branch=right pbc="F F F"
C       -0.38341999       0.86850166      -2.29210845
C        0.42778806       0.11272769      -1.54989117
C        0.15980332      -1.24769197      -1.14768865
C        0.92886089      -1.94849200      -0.31340796
C       -0.44549664       1.47430603       1.85039456
C       -0.49923897       0.37486797       2.58382204
H       -1.33480842       0.49669056      -2.65458754
H       -0.12837270       1.88488486      -2.55798358
H        1.35827725       0.54445346      -1.19488489
H       -0.73971255      -1.71128817      -1.54690541
H        1.82763570      -1.52389914       0.11776041
H        0.68692672      -2.96191967      -0.02634762
H       -1.11688906       1.61752145       1.01570814
H        0.26147836       2.26878447       2.04941539
H       -1.21400605      -0.40799800       2.36660270
H        0.16541398       0.20815491       3.42147567
16
Properties=species:S:1:pos:R:3 relative_energy_eV=-1.8795711842440141 branch=right pbc="F F F"
C       -0.38267559       0.86818522      -2.29253876
C        0.42609616       0.11202671      -1.54824746
C        0.15786395      -1.24826515      -1.14629622
C        0.92918343      -1.94849185      -0.31376304
C       -0.44650355       1.47463640       1.85054487
C       -0.49728140       0.37403787       2.58258833
H       -1.33410224       0.49795698      -2.65619867
H       -0.12521271       1.88389143      -2.55819410
H        1.35583263       0.54322399      -1.19078144
H       -0.74080716      -1.71233111      -1.54645763
H        1.82786870      -1.52203371       0.11511397
H        0.68876567      -2.96200084      -0.02603962
H       -1.11712042       1.61937769       1.01562928
H        0.25861084       2.27026145       2.05006549
H       -1.21472383      -0.40624081       2.36684145
H        0.16844540       0.20536986       3.41910719
16
Properties=species:S:1:pos:R:3 relative_energy_eV=-1.8796422882114712 branch=right pbc="F F F"
C       -0.38209975       0.86758166      -2.29288329
C        0.42574889       0.11184535      -1.54728080
C        0.15739590      -1.24841894      -1.14565021
C        0.92995582      -1.94906191      -0.31479586
C       -0.44799235       1.47569026       1.85152698
C       -0.49718401       0.37426899       2.58272668
H       -1.33382041       0.49792540      -2.65619378
H       -0.12381023       1.88273551      -2.55917843
H        1.35522901       0.54283325      -1.18883998
H       -0.74114586      -1.71228844      -1.54610829
H        1.82849408      -1.52227397       0.11378891
H        0.69020169      -2.96296548      -0.02819471
H       -1.11847502       1.62162619       1.01672333
H        0.25783176       2.27105722       2.04967022
H       -1.21659905      -0.40439305       2.36844809
H        0.17050940       0.20344207       3.41761479
16
Properties=species:S:1:pos:R:3 relative_energy_eV=-1.879686878760367 branch=right pbc="F F F"
C       -0.38190704       0.86721705      -2.29303625
C        0.42543877       0.11171765      -1.54681170
C        0.15698343      -1.24842461      -1.14539344
C        0.93047621      -1.94943621      -0.31570595
C       -0.44886761       1.47645574       1.85232031
C       -0.49748789       0.37466748       2.58322522
H       -1.33391071       0.49817535      -2.65604510
H       -0.12309232       1.88198438      -2.55970901
H        1.35499558       0.54220850      -1.18796743
H       -0.74178452      -1.71195030      -1.54541983
H        1.82890356      -1.52271863       0.11278770
H        0.69111188      -2.96358548      -0.02988859
H       -1.11738532       1.62209532       1.01606797
H        0.25671416       2.27246452       2.05011154
H       -1.21627930      -0.40449065       2.36879996
H        0.17033095       0.20322400       3.41803824
16
Properties=species:S:1:pos:R:3 relative_energy_eV=-1.8797499466127192 branch=right pbc="F F F"
C       -0.38160486       0.86681237      -2.29346066
C        0.42511053       0.11195944      -1.54592929
C        0.15696877      -1.24826890      -1.14504082
C        0.93069227      -1.94953125      -0.31574741
C       -0.44998168       1.47734327       1.85293815
C       -0.49755992       0.37472871       2.58296703
H       -1.33309226       0.49760027      -2.65773148
H       -0.12282350       1.88150014      -2.56002702
H        1.35421240       0.54264692      -1.18601306
H       -0.74173626      -1.71169819      -1.54527511
H        1.82885025      -1.52311771       0.11349647
H        0.69151469      -2.96392715      -0.03078750
H       -1.11943504       1.62418814       1.01749258
H        0.25742662       2.27255893       2.04881514
H       -1.21759089      -0.40400752       2.37032048
H        0.17328872       0.20081664       3.41535612
16
Properties=species:S:1:pos:R:3 relative_energy_eV=-1.879825144872484 branch=right pbc="F F F"
C       -0.38166985       0.86667664      -2.29385098
C        0.42425736       0.11186179      -1.54545661
C        0.15643250      -1.24841487      -1.14499090
C        0.93079618      -1.94975281      -0.31625623
C       -0.45025535       1.47803693       1.85345590
C       -0.49763556       0.37510926       2.58326253
H       -1.33252207       0.49794291      -2.66023756
H       -0.12238699       1.88137819      -2.55967310
H        1.35314861       0.54218789      -1.18471977
H       -0.74273145      -1.71154713      -1.54454180
H        1.82918205      -1.52375985       0.11318063
H        0.69194787      -2.96420608      -0.03137404
H       -1.11830957       1.62464276       1.01677012
H        0.25646887       2.27426112       2.04956578
H       -1.21526912      -0.40597007       2.37015553
H        0.17278636       0.20115741       3.41608412
16
Properties=species:S:1:pos:R:3 relative_energy_eV=-1.8798992513866324 branch=right pbc="F F F"
C       -0.38163873       0.86672821      -2.29402271
C        0.42332077       0.11234827      -1.54403482
C        0.15615227      -1.24813751      -1.14419151
C        0.93031447      -1.94938370      -0.31502437
C       -0.45024948       1.47815420       1.85261833
C       -0.49673850       0.37445877       2.58146673
H       -1.33073338       0.49720000      -2.66450830
H       -0.12253126       1.88182979      -2.55861847
H        1.35107983       0.54339429      -1.18121002
H       -0.74309424      -1.71114008      -1.54389751
H        1.82912800      -1.52406997       0.11431793
H        0.69115509      -2.96359993      -0.02959160
H       -1.12081483       1.62648744       1.01784694
H        0.25731926       2.27405022       2.04795568
H       -1.21484346      -0.40710932       2.37020866
H        0.17641403       0.19839342       3.41205865
16
Properties=species:S:1:pos:R:3 relative_energy_eV=-1.8799877469818966 branch=right pbc="F F F"
C       -0.38172174       0.86682060      -2.29437386
C        0.42221263       0.11246650      -1.54308756
C        0.15551626      -1.24828628      -1.14381438
C        0.92984833      -1.94958412      -0.31483314
C       -0.44951616       1.47823004       1.85209198
C       -0.49572176       0.37439130       2.58075203
H       -1.32917560       0.49683780      -2.66878173
H       -0.12233135       1.88228613      -2.55773595
H        1.34892429       0.54399034      -1.17837024
H       -0.74417407      -1.71093539      -1.54329918
H        1.82963187      -1.52494757       0.11381500
H        0.69052704      -2.96357117      -0.02871545
H       -1.12112570       1.62704985       1.01788064
H        0.25642882       2.27523281       2.04865367
H       -1.21153054      -0.40936939       2.36904201
H        0.17644751       0.19899262       3.41214977
16
Properties=species:S:1:pos:R:3 relative_energy_eV=-1.8801203957591497 branch=right pbc="F F F"
C       -0.38151517       0.86680218      -2.29488788
C        0.42085679       0.11315012      -1.54105113
C        0.15468834      -1.24800317      -1.14280808
C        0.92874683      -1.94963228      -0.31381453
C       -0.44858848       1.47803234       1.85093810
C       -0.49351352       0.37371762       2.57883770
H       -1.32632878       0.49510460      -2.67461054
H       -0.12237196       1.88278309      -2.55702138
H        1.34541965       0.54606867      -1.17261582
H       -0.74510086      -1.71020652      -1.54280448
H        1.82953643      -1.52585030       0.11378518
H        0.68887278      -2.96336842      -0.02724647
H       -1.12300926       1.62789486       1.01878082
H        0.25573691       2.27600176       2.04861587
H       -1.20808957      -0.41131001       2.36731392
H        0.17889970       0.19841955       3.40996234
16
Properties=species:S:1:pos:R:3 relative_energy_eV=-1.8803686474948336 branch=right pbc="F F F"
C       -0.38065388       0.86609146      -2.29704545
C        0.41848722       0.11426427      -1.53772561
C        0.15297430      -1.24776793      -1.14185432
C        0.92675132      -1.95066145      -0.31380917
C       -0.44749695       1.47863276       1.85095213
C       -0.48950152       0.37360354       2.57777008
H       -1.32101040       0.49120865      -2.68501210
H       -0.12200465       1.88275456      -2.55767658
H        1.33896294       0.54973349      -1.16221054
H       -0.74671952      -1.70918806      -1.54323637
H        1.82872457      -1.52814338       0.11299685
H        0.68652279      -2.96463329      -0.02836850
H       -1.12494881       1.62863820       1.02088422
H        0.25299425       2.27901094       2.05094172
H       -1.20011151      -0.41445571       2.36456003
H        0.18126962       0.20051603       3.41020724
16
Properties=species:S:1:pos:R:3 relative_energy_eV=-1.8807674310037328 branch=right pbc="F F F"
C       -0.37854582       0.86427978      -2.30147031
C        0.41481513       0.11654900      -1.53192473
C        0.15001942      -1.24692042      -1.14045519
C        0.92318016      -1.95258002      -0.31431597
C       -0.44691500       1.48033441       1.85247495
C       -0.48267100       0.37365055       2.57692281
H       -1.31164208       0.48341258      -2.70156742
H       -0.12158793       1.88192025      -2.56037040
H        1.32818212       0.55646432      -1.14413158
H       -0.74885478      -1.70722948      -1.54473752
H        1.82570242      -1.53171164       0.11267553
H        0.68286368      -2.96765613      -0.03286979
H       -1.12780919       1.62925051       1.02487666
H        0.24838938       2.28421797       2.05497350
H       -1.18733496      -0.41847828       2.36048645
H        0.18644817       0.20410065       3.41080662
16
Properties=species:S:1:pos:R:3 relative_energy_eV=-1.8811780265014022 branch=right pbc="F F F"
C       -0.37539164       0.86144162      -2.30756261
C        0.41107003       0.11899602      -1.52597211
C        0.14662758      -1.24610519      -1.13973598
C        0.91961065      -1.95570791      -0.31695673
C       -0.44807830       1.48376977       1.85698808
C       -0.47580780       0.37500952       2.57862393
H       -1.30087663       0.47400585      -2.71879901
H       -0.12092055       1.88001670      -2.56509732
H        1.31670874       0.56350124      -1.12529725
H       -0.75111497      -1.70534416      -1.54722393
H        1.82150294      -1.53624345       0.11217200
H        0.68030054      -2.97297162      -0.04252661
H       -1.13033213       1.62977308       1.03039009
H        0.24293034       2.29087628       2.06065629
H       -1.17297377      -0.42178369       2.35690484
H        0.19098467       0.21037001       3.41480994
16
Properties=species:S:1:pos:R:3 relative_energy_eV=-1.881397231711162 branch=right pbc="F F F"
C       -0.37291070       0.85941770      -2.31178432
C        0.40904309       0.12043715      -1.52295772
C        0.14454952      -1.24550581      -1.13978554
C        0.91744041      -1.95739598      -0.31882742
C       -0.45017802       1.48641735       1.86123443
C       -0.47218034       0.37604450       2.58069632
H       -1.29412473       0.46809296      -2.72826297
H       -0.12073668       1.87858833      -2.56828954
H        1.31042213       0.56727946      -1.11560595
H       -0.75198264      -1.70475999      -1.54949859
H        1.81743084      -1.53787813       0.11348763
H        0.67961567      -2.97648798      -0.04989003
H       -1.13158494       1.62989425       1.03429012
H        0.24030164       2.29446023       2.06363257
H       -1.16569452      -0.42261879       2.35576472
H        0.19482893       0.21361882       3.41716995
16
Properties=species:S:1:pos:R:3 relative_energy_eV=-1.8814480099454158 branch=right pbc="F F F"
C       -0.37196484       0.85875433      -2.31361643
C        0.40838551       0.12070685      -1.52258466
C        0.14399289      -1.24549328      -1.14027250
C        0.91663203      -1.95747617      -0.31910358
C       -0.45143205       1.48737016       1.86325580
C       -0.47133544       0.37630620       2.58179103
H       -1.29195296       0.46663143      -2.73160396
H       -0.12075315       1.87825701      -2.56907558
H        1.30875013       0.56812034      -1.11379173
H       -0.75161777      -1.70558496      -1.55121195
H        1.81508918      -1.53718801       0.11563355
H        0.67976521      -2.97724671      -0.05191810
H       -1.13222928       1.63024025       1.03613692
H        0.24008616       2.29508314       2.06418419
H       -1.16501279      -0.42217510       2.35681379
H        0.19783684       0.21329860       3.41673687
16
Properties=species:S:1:pos:R:3 relative_energy_eV=-1.8814589977282594 branch=right pbc="F F F"
C       -0.37179370       0.85876841      -2.31377483
C        0.40828716       0.12064054      -1.52266721
C        0.14390851      -1.24553829      -1.14029570
C        0.91663502      -1.95744483      -0.31905487
C       -0.45183397       1.48752186       1.86354762
C       -0.47145530       0.37630415       2.58181427
H       -1.29151005       0.46671471      -2.73218551
H       -0.12095026       1.87848137      -2.56858463
H        1.30870161       0.56800256      -1.11406102
H       -0.75162649      -1.70589172      -1.55113611
H        1.81479054      -1.53693422       0.11609398
H        0.67993050      -2.97724258      -0.05176571
H       -1.13228167       1.63039478       1.03626833
H        0.24008713       2.29506232       2.06410832
H       -1.16557558      -0.42198248       2.35717249
H        0.19892626       0.21274749       3.41589424
16
Properties=species:S:1:pos:R:3 relative_energy_eV=-1.8814614684879416 branch=right pbc="F F F"
C       -0.37168409       0.85886454      -2.31386690
C        0.40814321       0.12062322      -1.52259204
C        0.14378476      -1.24558014      -1.14019153
C        0.91653744      -1.95738539      -0.31882882
C       -0.45201307       1.48751173       1.86354096
C       -0.47139744       0.37615995       2.58158979
H       -1.29101925       0.46681469      -2.73297130
H       -0.12116288       1.87879763      -2.56800514
H        1.30855312       0.56802143      -1.11400637
H       -0.75171409      -1.70616866      -1.55109658
H        1.81454114      -1.53669446       0.11668032
H        0.67990218      -2.97720494      -0.05134764
H       -1.13246452       1.63061558       1.03636369
H        0.23996557       2.29503652       2.06393891
H       -1.16588767      -0.42201526       2.35733464
H        0.20015528       0.21220762       3.41483167
16
Properties=species:S:1:pos:R:3 relative_energy_eV=-1.8814735315272628 branch=right pbc="F F F"
C       -0.37163032       0.85908771      -2.31340593
C        0.40812708       0.12055935      -1.52235511
C        0.14365557      -1.24560769      -1.13975486
C        0.91676033      -1.95764446      -0.31886503
C       -0.45218203       1.48748528       1.86314347
C       -0.47151038       0.37607788       2.58105382
H       -1.29065363       0.46708482      -2.73303701
H       -0.12139439       1.87924638      -2.56696198
H        1.30867852       0.56782759      -1.11406492
H       -0.75223793      -1.70604795      -1.55007914
H        1.81513003      -1.53712937       0.11620340
H        0.67994402      -2.97735169      -0.05094595
H       -1.13267449       1.63092807       1.03609701
H        0.23957980       2.29512767       2.06362909
H       -1.16599377      -0.42221138       2.35677520
H        0.20064126       0.21217184       3.41394157
16
Properties=species:S:1:pos:R:3 relative_energy_eV=-1.8814829441080292 branch=right pbc="F F F"
C       -0.37151852       0.85929813      -2.31307419
C        0.40796938       0.12065632      -1.52175723
C        0.14339571      -1.24556719      -1.13921436
C        0.91662842      -1.95785064      -0.31863088
C       -0.45223375       1.48736084       1.86259880
C       -0.47108822       0.37578153       2.58024618
H       -1.29004474       0.46708384      -2.73361791
H       -0.12151574       1.87966232      -2.56609395
H        1.30837962       0.56799505      -1.11312336
H       -0.75270218      -1.70591280      -1.54948384
H        1.81524717      -1.53747591       0.11629026
H        0.67963586      -2.97756431      -0.05063080
H       -1.13312244       1.63123695       1.03598763
H        0.23888570       2.29542687       2.06321351
H       -1.16541575      -0.42269517       2.35593480
H        0.20173912       0.21216822       3.41272894
16
Properties=species:S:1:pos:R:3 relative_energy_eV=-1.881499706503746 branch=right pbc="F F F"
C       -0.37141500       0.85959749      -2.31211847
C        0.40805797       0.12064141      -1.52103503
C        0.14322513      -1.24559624      -1.13845937
C        0.91688039      -1.95854474      -0.31884942
C       -0.45252199       1.48741185       1.86185220
C       -0.47088720       0.37569831       2.57927269
H       -1.28978359       0.46737399      -2.73292667
H       -0.12145759       1.88010374      -2.56486818
H        1.30858161       0.56776666      -1.11249629
H       -0.75343909      -1.70544452      -1.54810899
H        1.81616338      -1.53870022       0.11531070
H        0.67955133      -2.97821481      -0.05083513
H       -1.13394540       1.63181451       1.03576679
H        0.23785568       2.29598452       2.06255159
H       -1.16466259      -0.42320447       2.35448227
H        0.20203657       0.21291657       3.41183491
16
Properties=species:S:1:pos:R:3 relative_energy_eV=-1.8815325033547197 branch=right pbc="F F F"
C       -0.37118545       0.85994575      -2.31098023
C        0.40813797       0.12071969      -1.51986362
C        0.14300059      -1.24563914      -1.13767282
C        0.91669779      -1.95938587      -0.31881967
C       -0.45301302       1.48753436       1.86092966
C       -0.46998053       0.37544525       2.57782631
H       -1.28946477       0.46758826      -2.73214446
H       -0.12111658       1.88055013      -2.56352878
H        1.30862736       0.56765401      -1.11084643
H       -0.75392355      -1.70498629      -1.54738245
H        1.81635836      -1.54009669       0.11509945
H        0.67904177      -2.97917788      -0.05141494
H       -1.13536784       1.63242902       1.03571079
H        0.23601499       2.29718672       2.06161865
H       -1.16299109      -0.42406102       2.35263292
H        0.20340357       0.21389771       3.41020916
16
Properties=species:S:1:pos:R:3 relative_energy_eV=-1.8815877065308086 branch=right pbc="F F F"
C       -0.37079795       0.86045332      -2.30880281
C        0.40868396       0.12051707      -1.51839454
C        0.14300343      -1.24602004      -1.13693696
C        0.91669537      -1.96114743      -0.31933602
C       -0.45440647       1.48829426       1.85990445
C       -0.46889960       0.37560739       2.57597627
H       -1.28970739       0.46849802      -2.72921141
H       -0.12020210       1.88105492      -2.56138658
H        1.30958779       0.56670704      -1.10940466
H       -0.75426211      -1.70443833      -1.54670254
H        1.81679181      -1.54284090       0.11443207
H        0.67865318      -2.98119062      -0.05322769
H       -1.13822653       1.63357700       1.03590612
H        0.23289483       2.29948817       2.06019527
H       -1.16059672      -0.42498793       2.35020958
H        0.20502797       0.21603206       3.40815285
16
Properties=species:S:1:pos:R:3 relative_energy_eV=-1.8816767396483556 branch=right pbc="F F F"
C       -0.37000131       0.86113475      -2.30562981
C        0.40957390       0.12003523      -1.51628665
C        0.14315261      -1.24690116      -1.13666003
C        0.91601628      -1.96385247      -0.31993254
C       -0.45715256       1.49002668       1.85886718
C       -0.46651600       0.37612551       2.57327908
H       -1.29004325       0.46997826      -2.72497161
H       -0.11851693       1.88170405      -2.55801330
H        1.31102890       0.56502693      -1.10687722
H       -0.75387461      -1.70420723      -1.54768452
H        1.81586997      -1.54672463       0.11494425
H        0.67760662      -2.98442865      -0.05636447
H       -1.14307074       1.63487198       1.03649503
H        0.22717471       2.30404029       2.05854411
H       -1.15617091      -0.42632224       2.34734234
H        0.20916266       0.21909668       3.40432137
16
Properties=species:S:1:pos:R:3 relative_energy_eV=-1.8818459016229099 branch=right pbc="F F F"
C       -0.36848922       0.86208101      -2.30058503
C        0.41119654       0.11873908      -1.51340761
C        0.14362601      -1.24893518      -1.13726452
C        0.91484099      -1.96863413      -0.32144073
C       -0.46254939       1.49391388       1.85812586
C       -0.46259824       0.37793862       2.56960985
H       -1.29040302       0.47286294      -2.71815094
H       -0.11559088       1.88266513      -2.55208160
H        1.31362936       0.56158502      -1.10360219
H       -0.75272797      -1.70460039      -1.55074956
H        1.81388465      -1.55323870       0.11603072
H        0.67602804      -2.99009652      -0.06203316
H       -1.15166860       1.63676698       1.03794452
H        0.21720901       2.31229684       2.05685600
H       -1.14865135      -0.42786854       2.34390526
H        0.21650316       0.22412785       3.39821601
16
Properties=species:S:1:pos:R:3 relative_energy_eV=-1.882115708686797 branch=right pbc="F F F"
C       -0.36570406       0.86338264      -2.29323539
C        0.41336152       0.11631933      -1.50904774
C        0.14412818      -1.25269182      -1.13926443
C        0.91220852      -1.97631341      -0.32392413
C       -0.47174713       1.50105880       1.85784185
C       -0.45538686       0.38166326       2.56421036
H       -1.28933862       0.47714619      -2.71036542
H       -0.11116980       1.88434139      -2.54177012
H        1.31656974       0.55614905      -1.09740954
H       -0.75075892      -1.70612322      -1.55745241
H        1.80951040      -1.56330237       0.11850000
H        0.67272964      -2.99905308      -0.07072543
H       -1.16517867       1.63862849       1.04028673
H        0.19983479       2.32683657       2.05627924
H       -1.13484236      -0.43015530       2.33928596
H        0.23002229       0.23171727       3.38816278
16
Properties=species:S:1:pos:R:3 relative_energy_eV=-1.8824691106519822 branch=right pbc="F F F"
C       -0.36172817       0.86494636      -2.28396231
C        0.41584528       0.11258881      -1.50355920
C        0.14445978      -1.25827867      -1.14261277
C        0.90861817      -1.98687585      -0.32788537
C       -0.48440000       1.51144425       1.85826311
C       -0.44546125       0.38792166       2.55766497
H       -1.28608235       0.48275022      -2.70295911
H       -0.10573001       1.88682573      -2.52686602
H        1.31931128       0.54885029      -1.08881819
H       -0.74886384      -1.70882901      -1.56682245
H        1.80408618      -1.57695859       0.12077406
H        0.66792631      -3.01097684      -0.08183578
H       -1.18285055       1.64005965       1.04333147
H        0.17557482       2.34682488       2.05785440
H       -1.11461698      -0.43270562       2.33331092
H        0.24814944       0.24201637       3.37549386
16
Properties=species:S:1:pos:R:3 relative_energy_eV=-1.8828413495584755 branch=right pbc="F F F"
C       -0.35764422       0.86639995      -2.27543285
C        0.41743475       0.10857082      -1.49815690
C        0.14395881      -1.26409649      -1.14606431
C        0.90492200      -1.99745231      -0.33243138
C       -0.49648133       1.52183167       1.85900186
C       -0.43508752       0.39519282       2.55160979
H       -1.28060980       0.48779584      -2.69988907
H       -0.10102908       1.88964491      -2.51084040
H        1.32001246       0.54200532      -1.07891586
H       -0.74866601      -1.71171852      -1.57529767
H        1.79963929      -1.59064832       0.12093417
H        0.66238971      -3.02233035      -0.09171288
H       -1.19805999       1.63940709       1.04510650
H        0.14985973       2.36713502       2.06263428
H       -1.09125569      -0.43538148       2.32592745
H        0.26485441       0.25324756       3.36489814
16
Properties=species:S:1:pos:R:3 relative_energy_eV=-1.8831544932718316 branch=right pbc="F F F"
C       -0.35360236       0.86746362      -2.26911911
C        0.41696300       0.10552061      -1.49150568
C        0.14176847      -1.26888125      -1.14757764
C        0.90126601      -2.00691001      -0.33664202
C       -0.50631252       1.53054949       1.85930741
C       -0.42435698       0.40157383       2.54553639
H       -1.27238010       0.49085026      -2.70336811
H       -0.09695529       1.89235327      -2.49629865
H        1.31650169       0.53778052      -1.06477275
H       -0.75115427      -1.71372262      -1.58021352
H        1.79678360      -1.60311867       0.11885845
H        0.65685719      -3.03235602      -0.09983139
H       -1.21029949       1.63822828       1.04614017
H        0.12581804       2.38492795       2.06847177
H       -1.06599148      -0.43877731       2.31577350
H        0.27933150       0.26412145       3.35661149
16
Properties=species:S:1:pos:R:3 relative_energy_eV=-1.8835397013854163 branch=right pbc="F F F"
C       -0.34703638       0.86919348      -2.25990796
C        0.41437331       0.10165929      -1.47870970
C        0.13630868      -1.27570063      -1.14831899
C        0.89424775      -2.02239629      -0.34350468
C       -0.52028271       1.54327586       1.85915235
C       -0.40496458       0.41082213       2.53549747
H       -1.25804386       0.49479366      -2.71170287
H       -0.08977998       1.89662445      -2.47429250
H        1.30751253       0.53235502      -1.03689298
H       -0.75733631      -1.71552033      -1.58601249
H        1.79161973      -1.62410519       0.11448217
H        0.64724582      -3.04928410      -0.11458822
H       -1.22478785       1.63375795       1.04451398
H        0.08358991       2.41610800       2.07971876
H       -1.01736379      -0.44852518       2.29332380
H        0.29893384       0.28654505       3.34861131
16
Properties=species:S:1:pos:R:3 relative_energy_eV=-1.8839100522309309 branch=right pbc="F F F"
C       -0.33453873       0.87274243      -2.24183372
C        0.40913041       0.09576768      -1.45242495
C        0.12584308      -1.28693766      -1.14694745
C        0.88034869      -2.04930799      -0.35267648
C       -0.54646309       1.56489611       1.85646422
C       -0.36735437       0.42573269       2.51230016
H       -1.23020838       0.50138638      -2.72682734
H       -0.07642926       1.90478441      -2.43306160
H        1.28922164       0.52396851      -0.98151610
H       -0.76847169      -1.71755645      -1.59520192
H        1.78053322      -1.66050758       0.11045037
H        0.62923296      -3.07928283      -0.13952074
H       -1.25816916       1.62801147       1.04436594
H        0.00950636       2.46706850       2.09323482
H       -0.92904649      -0.46385944       2.24899643
H        0.34109934       0.32269657       3.32556622
16
Properties=species:S:1:pos:R:3 relative_energy_eV=-1.8848188823012606 branch=right pbc="F F F"
C       -0.33408848       0.87446637      -2.23866329
C        0.40565850       0.09610921      -1.44706950
C        0.12126523      -1.28621007      -1.14228606
C        0.87754563      -2.04961982      -0.35081750
C       -0.54495631       1.56125185       1.85110639
C       -0.36053363       0.42666602       2.50531109
H       -1.22452085       0.50346253      -2.73147084
H       -0.07654324       1.90707597      -2.42550302
H        1.28200333       0.52438287      -0.97135658
H       -0.77575924      -1.71494391      -1.58828760
H        1.78078530      -1.66143332       0.10839456
H        0.62524036      -3.07913214      -0.13660542
H       -1.25261647       1.61834220       1.03560634
H       -0.00104361       2.46570899       2.09598450
H       -0.90564928      -0.46704646       2.22878501
H        0.33744706       0.33052244       3.32823976
16
Properties=species:S:1:pos:R:3 relative_energy_eV=-1.8859831688114355 branch=right pbc="F F F"
C       -0.32702474       0.87792849      -2.22864391
C        0.40182792       0.09425621      -1.43172409
C        0.11462880      -1.29120146      -1.14171133
C        0.86128247      -2.05863981      -0.34522841
C       -0.55864344       1.56687974       1.84536836
C       -0.33073023       0.42973566       2.48569015
H       -1.20849231       0.50905786      -2.73970597
H       -0.06911859       1.91362804      -2.40068696
H        1.26978752       0.52066534      -0.93800450
H       -0.77534959      -1.71905250      -1.60517038
H        1.75651172      -1.66963905       0.13033285
H        0.61001129      -3.09174231      -0.14496959
H       -1.27463334       1.61106967       1.03615705
H       -0.04304589       2.48643695       2.09522189
H       -0.84618565      -0.47670511       2.19897823
H        0.37340750       0.34692477       3.30546343
16
Properties=species:S:1:pos:R:3 relative_energy_eV=-1.8860604186338605 branch=right pbc="F F F"
C       -0.32141060       0.88431896      -2.21657659
C        0.40068851       0.09047279      -1.42381556
C        0.10994506      -1.29825395      -1.15075137
C        0.83361289      -2.06555429      -0.33321491
C       -0.57227907       1.56729082       1.83987333
C       -0.29188509       0.43274375       2.46838370
H       -1.20212333       0.52401249      -2.73220297
H       -0.06096862       1.92255082      -2.37319837
H        1.26568970       0.50861356      -0.91956967
H       -0.76188351      -1.72880958      -1.64726303
H        1.70405425      -1.66917244       0.18288885
H        0.58792560      -3.10472169      -0.15707760
H       -1.28444261       1.58797776       1.02695711
H       -0.10136853       2.51161734       2.09793347
H       -0.75590073      -0.49736248       2.16127008
H        0.40457839       0.38387833       3.29772912
16
Properties=species:S:1:pos:R:3 relative_energy_eV=-1.8805480734718003 branch=right pbc="F F F"
C       -0.33158349       0.88201728      -2.23532323
C        0.40849204       0.09714559      -1.45163358
C        0.12448038      -1.28802562      -1.16001906
C        0.83171707      -2.03393583      -0.30890600
C       -0.55385001       1.54241584       1.84285540
C       -0.31388747       0.41000681       2.48433625
H       -1.23258780       0.51953460      -2.71260232
H       -0.07114267       1.91670722      -2.41216465
H        1.28776936       0.51504884      -0.97452020
H       -0.72635021      -1.73541755      -1.67339616
H        1.67332949      -1.61730292       0.23678283
H        0.59891509      -3.07413241      -0.13208756
H       -1.27332988       1.60116569       1.04147261
H       -0.03198336       2.45589601       2.06724169
H       -0.83748942      -0.48080881       2.21667099
H        0.40173480       0.33928780       3.29265967
16
Properties=species:S:1:pos:R:3 relative_energy_eV=-1.8869454163796036 branch=right pbc="F F F"
C       -0.33135494       0.87688220      -2.23958268
C        0.40400680       0.09583856      -1.44703179
C        0.12069281      -1.28857033      -1.15286878
C        0.85396765      -2.04728750      -0.33707724
C       -0.55048930       1.55614677       1.85225448
C       -0.33462509       0.42390322       2.49963525
H       -1.22408158       0.50874013      -2.73310826
H       -0.07208192       1.91073066      -2.41881279
H        1.27822092       0.51988337      -0.96272913
H       -0.75372130      -1.72351626      -1.62851307
H        1.72773099      -1.64903602       0.15910730
H        0.61166779      -3.08080932      -0.14041874
H       -1.25493469       1.60533565       1.03493136
H       -0.02922918       2.47217143       2.09537742
H       -0.85360829      -0.47934229       2.21606904
H        0.36207327       0.34853235       3.32413491
16
Properties=species:S:1:pos:R:3 relative_energy_eV=-1.8879003325419035 branch=right pbc="F F F"
C       -0.32391161       0.87800574      -2.23245576
C        0.40072035       0.09319521      -1.43289172
C        0.11488294      -1.29523687      -1.15558189
C        0.84221960      -2.06208164      -0.34067750
C       -0.56427507       1.56743649       1.85290118
C       -0.30969959       0.43482230       2.48939050
H       -1.20509300       0.51047390      -2.74647707
H       -0.06557455       1.91423544      -2.39976282
H        1.26467937       0.51816060      -0.93032625
H       -0.75707363      -1.72644030      -1.64661014
H        1.71430547      -1.66721890       0.16945260
H        0.59835495      -3.09999565      -0.15870761
H       -1.27660457       1.59915914       1.03960149
H       -0.07263336       2.49888668       2.10536748
H       -0.79457728      -0.48642590       2.19265535
H        0.38851302       0.37262617       3.31548853
16
Properties=species:S:1:pos:R:3 relative_energy_eV=-1.8882022409361525 branch=right pbc="F F F"
C       -0.32378355       0.87972445      -2.22668001
C        0.40314923       0.09080551      -1.43376463
C        0.11629803      -1.29710589      -1.15729201
C        0.84111449      -2.06424780      -0.34088490
C       -0.56787420       1.56780131       1.85104355
C       -0.30765375       0.43553653       2.48609198
H       -1.20906416       0.51615512      -2.73424500
H       -0.06380337       1.91595747      -2.39318599
H        1.27088554       0.51118570      -0.93619209
H       -0.75374977      -1.72718992      -1.64959645
H        1.70947363      -1.66863440       0.17249075
H        0.59830095      -3.10187348      -0.16007845
H       -1.27787021       1.59717571       1.03614374
H       -0.08236480       2.50307233       2.10526368
H       -0.79088945      -0.48503245       2.19127938
H        0.39206424       0.37627216       3.31097255
16
Properties=species:S:1:pos:R:3 relative_energy_eV=-1.8883378757309401 branch=right pbc="F F F"
C       -0.32286346       0.87817813      -2.23092057
C        0.40268815       0.08975202      -1.43654574
C        0.11703677      -1.29863121      -1.16224592
C        0.83872725      -2.06453820      -0.34228267
C       -0.56941228       1.56910766       1.85709831
C       -0.30597794       0.43787658       2.49175575
H       -1.20760347       0.51396653      -2.74057874
H       -0.06290403       1.91468398      -2.39610750
H        1.26920019       0.51060200      -0.93632652
H       -0.74873950      -1.73041774      -1.66008274
H        1.70211967      -1.66744322       0.17677131
H        0.59762992      -3.10243350      -0.16388588
H       -1.27882143       1.59892577       1.04238771
H       -0.08462062       2.50292358       2.10946679
H       -0.78558488      -0.48425681       2.19601964
H        0.39335855       0.38130678       3.31684291
16
Properties=species:S:1:pos:R:3 relative_energy_eV=-1.8885223435654552 branch=right pbc="F F F"
C       -0.32046751       0.87639280      -2.23290361
C        0.40268224       0.08750657      -1.43671704
C        0.11732382      -1.30221696      -1.16840211
C        0.83641084      -2.07089335      -0.34870408
C       -0.57425048       1.57458931       1.86463875
C       -0.30127161       0.44496581       2.49744820
H       -1.20297572       0.51200682      -2.74699323
H       -0.06071002       1.91317649      -2.39581177
H        1.26675787       0.50839213      -0.93163702
H       -0.74574866      -1.73301408      -1.67179914
H        1.69668746      -1.67490909       0.17678407
H        0.59596238      -3.11026518      -0.17646225
H       -1.28069820       1.59790134       1.04693012
H       -0.10129345       2.51418134       2.12212732
H       -0.77253560      -0.48096599       2.20017769
H        0.39835930       0.39275434       3.32269003
16
Properties=species:S:1:pos:R:3 relative_energy_eV=-1.8886655980149953 branch=right pbc="F F F"
C       -0.31167167       0.87233666      -2.22953074
C        0.40586056       0.07731043      -1.43418337
C        0.11959297      -1.31621311      -1.18547840
C        0.83498920      -2.09807924      -0.37467798
C       -0.59718934       1.59803090       1.88636867
C       -0.28950373       0.47163865       2.51077052
H       -1.18968004       0.51161322      -2.75184091
H       -0.05105809       1.90957530      -2.38557527
H        1.26509410       0.49491295      -0.91877773
H       -0.74025916      -1.73931707      -1.70003158
H        1.69230001      -1.71077609       0.16210515
H        0.59346885      -3.14040582      -0.21931006
H       -1.30119186       1.60323508       1.06466866
H       -0.15757434       2.55194804       2.15538686
H       -0.73335313      -0.46803487       2.20803319
H        0.41440746       0.43182707       3.33343795
16
Properties=species:S:1:pos:R:3 relative_energy_eV=-1.8888359041611693 branch=right pbc="F F F"
C       -0.31344426       0.87123933      -2.23487586
C        0.40496682       0.07890865      -1.43778401
C        0.11993373      -1.31384653      -1.18536138
C        0.83561886      -2.09142231      -0.37116072
C       -0.59116034       1.59344711       1.88678667
C       -0.29378626       0.46734881       2.51393867
H       -1.19137598       0.50827787      -2.75644417
H       -0.05338502       1.90838935      -2.39320333
H        1.26391075       0.49828200      -0.92274392
H       -0.73905448      -1.73976335      -1.69944528
H        1.69232823      -1.70146539       0.16468229
H        0.59499725      -3.13305783      -0.21255786
H       -1.29480177       1.60362876       1.06576307
H       -0.14388138       2.54309288       2.15331270
H       -0.74685550      -0.46691791       2.21454257
H        0.41022148       0.42346073       3.33591587
16
Properties=species:S:1:pos:R:3 relative_energy_eV=-1.8888955462980448 branch=right pbc="F F F"
C       -0.31149563       0.87113016      -2.23437641
C        0.40395129       0.07711970      -1.43648485
C        0.11887515      -1.31614535      -1.18794517
C        0.83236742      -2.09378440      -0.37198665
C       -0.59472329       1.59568257       1.88894038
C       -0.28780000       0.46966425       2.51277620
H       -1.18646490       0.50821218      -2.76205642
H       -0.05155178       1.90933371      -2.38806341
H        1.26027661       0.49564025      -0.91630247
H       -0.73789136      -1.74195551      -1.70603954
H        1.68661819      -1.70322621       0.16748463
H        0.59205475      -3.13547518      -0.21576545
H       -1.29916470       1.60330982       1.06902112
H       -0.15440735       2.54780145       2.15698239
H       -0.73401404      -0.46716861       2.21130480
H        0.41760159       0.42946331       3.33387597
16
Properties=species:S:1:pos:R:3 relative_energy_eV=-1.8889541930511768 branch=right pbc="F F F"
C       -0.30866575       0.86948007      -2.23518765
C        0.40419338       0.07373882      -1.43680663
C        0.11940065      -1.32059265      -1.19430178
C        0.83125975      -2.10095965      -0.37949193
C       -0.60104142       1.60215549       1.89703162
C       -0.28381272       0.47761554       2.51818566
H       -1.18126641       0.50738168      -2.76649700
H       -0.04873374       1.90799481      -2.38601151
H        1.25794827       0.49107975      -0.91201834
H       -0.73535290      -1.74495796      -1.71680296
H        1.68360360      -1.71211266       0.16443339
H        0.59109933      -3.14360859      -0.22891709
H       -1.30422543       1.60497034       1.07594925
H       -0.17114199       2.55787992       2.16846664
H       -0.72149489      -0.46295851       2.21464288
H        0.42246197       0.44249566       3.33869033
16
Properties=species:S:1:pos:R:3 relative_energy_eV=-1.888977975592752 branch=right pbc="F F F"
C       -0.30601264       0.86790895      -2.23681787
C        0.40370988       0.07136851      -1.43645066
C        0.11957915      -1.32406818      -1.19946635
C        0.82954692      -2.10649009      -0.38486424
C       -0.60602388       1.60722506       1.90379314
C       -0.27937320       0.48372793       2.52197749
H       -1.17520679       0.50567896      -2.77348169
H       -0.04675434       1.90694181      -2.38435159
H        1.25388708       0.48858171      -0.90568156
H       -0.73284378      -1.74758600      -1.72631904
H        1.67995385      -1.71878638       0.16282008
H        0.58962812      -3.14973607      -0.23844604
H       -1.30903640       1.60639938       1.08238604
H       -0.18487695       2.56591024       2.17822543
H       -0.71156592      -0.45889465       2.21805624
H        0.42962045       0.45142083       3.33998528
16
Properties=species:S:1:pos:R:3 relative_energy_eV=-1.8890046167543915 branch=right pbc="F F F"
C       -0.30423820       0.86683489      -2.23904903
C        0.40275008       0.06995221      -1.43666212
C        0.11952773      -1.32628729      -1.20339516
C        0.82729290      -2.10906965      -0.38722524
C       -0.60855872       1.60966474       1.90845401
C       -0.27556801       0.48715756       2.52448564
H       -1.17028390       0.50438404      -2.78021259
H       -0.04581715       1.90644180      -2.38356849
H        1.24960704       0.48724090      -0.90104791
H       -0.73022041      -1.75007680      -1.73453722
H        1.67529163      -1.72124135       0.16425432
H        0.58808365      -3.15284972      -0.24355042
H       -1.31178399       1.60683587       1.08723362
H       -0.19293118       2.56987057       2.18472479
H       -0.70382070      -0.45710062       2.22026247
H        0.43490068       0.45784483       3.34119789
16
Properties=species:S:1:pos:R:3 relative_energy_eV=-1.8890622179360435 branch=right pbc="F F F"
C       -0.30028857       0.86447232      -2.24349487
C        0.40065853       0.06700425      -1.43650418
C        0.11929951      -1.33098878      -1.21134386
C        0.82270474      -2.11494001      -0.39253562
C       -0.61437005       1.61545806       1.91822822
C       -0.26746519       0.49447742       2.52928321
H       -1.15915868       0.50096704      -2.79573350
H       -0.04367052       1.90543921      -2.38137973
H        1.24035679       0.48488492      -0.89022465
H       -0.72494867      -1.75510316      -1.75123600
H        1.66575801      -1.72689122       0.16655363
H        0.58513846      -3.15987487      -0.25435067
H       -1.31931990       1.60853564       1.09850141
H       -0.20940990       2.57913097       2.19789593
H       -0.68868521      -0.45299227       2.22553130
H        0.44763189       0.47002242       3.34217373
16
Properties=species:S:1:pos:R:3 relative_energy_eV=-1.8890662135490857 branch=right pbc="F F F"
C       -0.28191829       0.85317310      -2.26569708
C        0.39003625       0.05409229      -1.43537407
C        0.11815382      -1.35205379      -1.24782813
C        0.80118265      -2.14057721      -0.41580163
C       -0.64004056       1.64162454       1.96361168
C       -0.23030694       0.52736631       2.55143858
H       -1.10614640       0.48388211      -2.86962112
H       -0.03420458       1.90019997      -2.37378524
H        1.19507263       0.47577766      -0.83813464
H       -0.69939255      -1.77837577      -1.82898345
H        1.62049603      -1.75067437       0.17869125
H        0.57202251      -3.19084870      -0.30247874
H       -1.35642514       1.61731936       1.15373971
H       -0.27999494       2.61968104       2.25597729
H       -0.62250048      -0.43384234       2.25110182
H        0.50819643       0.52285753       3.34450716
16
Properties=species:S:1:pos:R:3 relative_energy_eV=-1.8893947394572024 branch=right pbc="F F F"
C       -0.28960551       0.85806045      -2.25859698
C        0.39183955       0.06116377      -1.43461431
C        0.11769959      -1.34143450      -1.23008110
C        0.80921054      -2.12621427      -0.40188780
C       -0.62614967       1.62761732       1.94231969
C       -0.24529753       0.51008887       2.53857236
H       -1.12375768       0.48925233      -2.84645395
H       -0.04037398       1.90324535      -2.37679528
H        1.20758566       0.48280175      -0.85562574
H       -0.71000233      -1.76803031      -1.79309761
H        1.63830729      -1.73558845       0.17571833
H        0.57772481      -3.17396074      -0.27492592
H       -1.34277549       1.61453966       1.13278462
H       -0.24069597       2.59656430       2.22709349
H       -0.65604150      -0.44313712       2.24005313
H        0.48656312       0.49463345       3.33690103
16
Properties=species:S:1:pos:R:3 relative_energy_eV=-1.890117012666451 branch=right pbc="F F F"
C       -0.27757169       0.85116969      -2.27433932
C        0.38148351       0.05517760      -1.43098994
C        0.11551094      -1.35232196      -1.24888279
C        0.79476640      -2.13823649      -0.41151262
C       -0.63861802       1.64043909       1.96727999
C       -0.22103439       0.52657244       2.54652299
H       -1.08358258       0.47687466      -2.90055847
H       -0.03682719       1.90079275      -2.37148416
H        1.16992607       0.48064224      -0.81588073
H       -0.69423501      -1.78129150      -1.83658700
H        1.60900359      -1.74494194       0.18546902
H        0.57021138      -3.18906106      -0.29691419
H       -1.37076136       1.62123671       1.17143041
H       -0.27241506       2.61475205       2.25608597
H       -0.62160465      -0.43257621       2.25386813
H        0.52997856       0.52037369       3.32785619
16
Properties=species:S:1:pos:R:3 relative_energy_eV=-1.8884899459517328 branch=right pbc="F F F"
C       -0.25932207       0.84109728      -2.29654422
C        0.36631960       0.04587196      -1.42511668
C        0.11237913      -1.36896863      -1.27703446
C        0.77315441      -2.15699908      -0.42628188
C       -0.65809729       1.66009120       2.00429270
C       -0.18436135       0.55182291       2.55762546
H       -1.02370513       0.45942907      -2.97872714
H       -0.03102160       1.89712415      -2.36259515
H        1.11414604       0.47638383      -0.75650684
H       -0.67040866      -1.80110659      -1.90208170
H        1.56496631      -1.75996780       0.20019775
H        0.55891946      -3.21248593      -0.33087571
H       -1.41389137       1.63092617       1.22933991
H       -0.32148280       2.64311637       2.29893972
H       -0.56893229      -0.41665474       2.27356221
H        0.59556746       0.55992147       3.31316876
16
Properties=species:S:1:pos:R:3 relative_energy_eV=-1.8906048021508468 branch=right pbc="F F F"
C       -0.27430327       0.84898059      -2.27947557
C        0.37853503       0.05382890      -1.43050142
C        0.11538028      -1.35510377      -1.25453637
C        0.79042917      -2.14041904      -0.41332493
C       -0.64105156       1.64349119       1.97430100
C       -0.21491740       0.53043529       2.54906249
H       -1.07263868       0.47347566      -2.91406385
H       -0.03605672       1.89956372      -2.37218934
H        1.15918577       0.48056783      -0.80584236
H       -0.68789530      -1.78572531      -1.85119397
H        1.59908127      -1.74528133       0.19089429
H        0.56869254      -3.19232715      -0.30232328
H       -1.38010521       1.62310491       1.18457706
H       -0.27677753       2.61916741       2.26169322
H       -0.61607997      -0.42981691       2.25985535
H        0.54275203       0.52565979       3.32443107
16
Properties=species:S:1:pos:R:3 relative_energy_eV=-1.891004915249141 branch=right pbc="F F F"
C       -0.27269105       0.84839093      -2.28042729
C        0.37642774       0.05374339      -1.42819055
C        0.11463613      -1.35559808      -1.25447801
C        0.78956020      -2.14138750      -0.41375846
C       -0.64215136       1.64490806       1.97588138
C       -0.21266760       0.53139283       2.54755047
H       -1.06568427       0.47130438      -2.92156701
H       -0.03620714       1.89957975      -2.37048848
H        1.15282741       0.48088926      -0.79907843
H       -0.68718863      -1.78586605      -1.85193026
H        1.59723974      -1.74611999       0.19078957
H        0.56890239      -3.19375459      -0.30400309
H       -1.38644383       1.62477376       1.19086517
H       -0.27584931       2.62041393       2.26120675
H       -0.61581515      -0.42888186       2.26020383
H        0.54933516       0.52581359       3.31878772
16
Properties=species:S:1:pos:R:3 relative_energy_eV=-1.8930885263916934 branch=right pbc="F F F"
C       -0.25732650       0.84086709      -2.29894566
C        0.35584606       0.05402444      -1.41248582
C        0.10999679      -1.36060012      -1.26271540
C        0.77344562      -2.14401815      -0.41087186
C       -0.64835106       1.65416498       1.99552849
C       -0.18756997       0.53764755       2.53885860
H       -1.00077837       0.44989649      -2.99456650
H       -0.03823055       1.89696561      -2.36809350
H        1.08758061       0.48909913      -0.73471529
H       -0.66609942      -1.79590298      -1.88746874
H        1.56127043      -1.74132403       0.21242873
H        0.56576124      -3.20061880      -0.31364388
H       -1.44645353       1.63814642       1.25982403
H       -0.25944991       2.62767517       2.25652252
H       -0.61603168      -0.42071382       2.27572249
H        0.62062066       0.52429299       3.26598473
16
Properties=species:S:1:pos:R:3 relative_energy_eV=-1.8946848227587907 branch=right pbc="F F F"
C       -0.25832325       0.83969362      -2.29917251
C        0.35885473       0.05198830      -1.41854287
C        0.11290975      -1.36211269      -1.26760143
C        0.77619336      -2.14498153      -0.41533266
C       -0.64895861       1.65666388       2.00119820
C       -0.19349346       0.53999085       2.54755868
H       -1.00630055       0.44990163      -2.98512862
H       -0.03813253       1.89535317      -2.37283697
H        1.09519498       0.48490843      -0.74852411
H       -0.66192398      -1.79744396      -1.89391871
H        1.56167357      -1.74202916       0.21151273
H        0.56885969      -3.20143545      -0.32039641
H       -1.44313698       1.63777904       1.26483217
H       -0.25566707       2.63274759       2.25639770
H       -0.62341336      -0.41908050       2.28432204
H        0.60989422       0.52765884       3.27699572
16
Properties=species:S:1:pos:R:3 relative_energy_eV=-1.8957785194725147 branch=right pbc="F F F"
C       -0.25515533       0.83810904      -2.30546615
C        0.35156558       0.05477303      -1.41366918
C        0.11280114      -1.36053059      -1.26678282
C        0.77149185      -2.13915791      -0.40701986
C       -0.64696656       1.65547027       2.00351484
C       -0.19036426       0.53483938       2.54128035
H       -0.98909213       0.44468021      -2.99893443
H       -0.04052477       1.89427403      -2.37908319
H        1.07412211       0.49143383      -0.73199758
H       -0.65005160      -1.80069865      -1.90456960
H        1.54704614      -1.73166051       0.22929443
H        0.56926344      -3.19657081      -0.31599886
H       -1.46485632       1.64202354       1.29299655
H       -0.22726734       2.62787641       2.23657403
H       -0.63896029      -0.42015747       2.29139099
H        0.63117914       0.51489846       3.24983343
16
Properties=species:S:1:pos:R:3 relative_energy_eV=-1.8964286319323946 branch=right pbc="F F F"
C       -0.25205378       0.83590342      -2.31047438
C        0.34760153       0.05394808      -1.41298974
C        0.11317518      -1.36281855      -1.27178390
C        0.76814144      -2.14127633      -0.40905147
C       -0.64930749       1.65853242       2.01204282
C       -0.18704157       0.53858172       2.54489423
H       -0.97498162       0.43917755      -3.01468558
H       -0.04164520       1.89332651      -2.38064767
H        1.06085989       0.49226854      -0.72246509
H       -0.64243913      -1.80454550      -1.91816341
H        1.53790690      -1.73365872       0.23455070
H        0.56783787      -3.19899519      -0.32272379
H       -1.47423112       1.64450689       1.31187860
H       -0.22623533       2.63065186       2.23847008
H       -0.63399714      -0.41672291       2.29826623
H        0.64064040       0.52072249       3.24424524
16
Properties=species:S:1:pos:R:3 relative_energy_eV=-1.896784546201161 branch=right pbc="F F F"
C       -0.24551248       0.83641028      -2.30367137
C        0.34509844       0.04971041      -1.40549407
C        0.11480703      -1.36940252      -1.27538281
C        0.76398914      -2.15250740      -0.41246527
C       -0.66264050       1.66677248       2.01561238
C       -0.17843870       0.54733416       2.53569539
H       -0.95486468       0.44171190      -3.02060739
H       -0.04000153       1.89688104      -2.36187399
H        1.04723900       0.48673744      -0.70443724
H       -0.63370011      -1.80910696      -1.93069824
H        1.52813386      -1.74962567       0.23990261
H        0.56317360      -3.21040395      -0.33455606
H       -1.50665109       1.65233379       1.33873467
H       -0.24001723       2.63883538       2.23293874
H       -0.61438894      -0.41048135       2.29509959
H        0.66800458       0.53440319       3.21256515
16
Properties=species:S:1:pos:R:3 relative_energy_eV=-1.8970659946899104 branch=right pbc="F F F"
C       -0.24619536       0.83581491      -2.30768386
C        0.34226630       0.05080169      -1.40481695
C        0.11281463      -1.36784826      -1.27311744
C        0.76509353      -2.15042600      -0.41259361
C       -0.65785483       1.66444434       2.01517346
C       -0.18091342       0.54615647       2.53716774
H       -0.95356905       0.44087649      -3.02726424
H       -0.04057599       1.89552343      -2.36596696
H        1.04239877       0.48936089      -0.70127981
H       -0.63702018      -1.80841543      -1.92500248
H        1.53093033      -1.74660489       0.23628742
H        0.56592015      -3.20869341      -0.33318016
H       -1.49967323       1.65015169       1.33701825
H       -0.23430754       2.63610898       2.23533672
H       -0.61592980      -0.41187288       2.29402759
H        0.66084620       0.53422428       3.21725665
16
Properties=species:S:1:pos:R:3 relative_energy_eV=-1.8971661628220318 branch=right pbc="F F F"
C       -0.24432169       0.83493729      -2.30788669
C        0.34291495       0.04842427      -1.40637424
C        0.11413878      -1.37096971      -1.27944676
C        0.76273973      -2.15395613      -0.41600423
C       -0.66128746       1.66817285       2.02133595
C       -0.17735009       0.55157323       2.54087217
H       -0.94849796       0.43953322      -3.03262381
H       -0.04046864       1.89462956      -2.36292716
H        1.04060695       0.48524888      -0.70086282
H       -0.63182481      -1.81161347      -1.93785244
H        1.52456367      -1.74920088       0.23882695
H        0.56500766      -3.21338395      -0.34028014
H       -1.50605453       1.64998473       1.34473508
H       -0.24192688       2.64216808       2.24214700
H       -0.61247070      -0.40825353       2.29978138
H        0.66846140       0.54230783       3.21792192
16
Properties=species:S:1:pos:R:3 relative_energy_eV=-1.897322824582261 branch=right pbc="F F F"
C       -0.24430287       0.83600971      -2.30308676
C        0.34510141       0.04712023      -1.40559881
C        0.11449296      -1.37193681      -1.27959503
C        0.76258886      -2.15656452      -0.41704195
C       -0.66419085       1.66902794       2.01889896
C       -0.17522394       0.55317928       2.53751195
H       -0.95181399       0.44350254      -3.02411327
H       -0.03971453       1.89556085      -2.35658944
H        1.04484361       0.48240337      -0.70054318
H       -0.63337502      -1.81057017      -1.93678679
H        1.52596099      -1.75364020       0.23641213
H        0.56267489      -3.21498217      -0.34006959
H       -1.50443795       1.64733030       1.33819698
H       -0.25223315       2.64508340       2.24375367
H       -0.60481226      -0.40852264       2.29356860
H        0.66867201       0.54660111       3.21644450
16
Properties=species:S:1:pos:R:3 relative_energy_eV=-1.8974536793211882 branch=right pbc="F F F"
C       -0.24306352       0.83656089      -2.29999682
C        0.34476675       0.04603342      -1.40235104
C        0.11428327      -1.37328747      -1.27919310
C        0.76182045      -2.15958718      -0.41812452
C       -0.66722002       1.67033090       2.01786413
C       -0.17211712       0.55568716       2.53319496
H       -0.94871643       0.44616830      -3.02309054
H       -0.03926203       1.89663091      -2.34946329
H        1.04289839       0.47983850      -0.69531393
H       -0.63322575      -1.81074986      -1.93684475
H        1.52451186      -1.75763461       0.23683076
H        0.56174482      -3.21836528      -0.34322381
H       -1.50945600       1.64619721       1.33971492
H       -0.25864371       2.64732758       2.24358115
H       -0.59825414      -0.40700521       2.28905612
H        0.67416317       0.55145693       3.20872149
16
Properties=species:S:1:pos:R:3 relative_energy_eV=-1.897577262843697 branch=right pbc="F F F"
C       -0.24038880       0.83703466      -2.29430514
C        0.34506757       0.04283355      -1.39848565
C        0.11489108      -1.37704831      -1.28208828
C        0.75991903      -2.16663941      -0.42210083
C       -0.67367392       1.67420985       2.01938352
C       -0.16596679       0.56289198       2.52833692
H       -0.94186065       0.44948027      -3.02275473
H       -0.03896314       1.89766233      -2.33696474
H        1.03928243       0.47421278      -0.68597337
H       -0.63094166      -1.81206680      -1.94323803
H        1.52128792      -1.76736244       0.23535257
H        0.55908908      -3.22558636      -0.35079328
H       -1.51872970       1.64402242       1.34478348
H       -0.27378567       2.65416938       2.24771002
H       -0.58557468      -0.40256291       2.28399198
H        0.68457753       0.56435115       3.19850687
16
Properties=species:S:1:pos:R:3 relative_energy_eV=-1.89764277681752 branch=right pbc="F F F"
C       -0.23935765       0.83745299      -2.29013266
C        0.34630724       0.04038964      -1.39682316
C        0.11581538      -1.37986614      -1.28495427
C        0.75939006      -2.17191187      -0.42620289
C       -0.67844948       1.67713946       2.02143574
C       -0.16263426       0.56863101       2.52726379
H       -0.94085973       0.45222298      -3.01966829
H       -0.03798210       1.89777192      -2.33006166
H        1.04076487       0.46910658      -0.68404464
H       -0.62915919      -1.81305947      -1.94837897
H        1.51916932      -1.77399388       0.23512663
H        0.55837669      -3.23146618      -0.35913408
H       -1.52265951       1.64238620       1.34612716
H       -0.28536607       2.65914137       2.25186242
H       -0.57716686      -0.39908961       2.28215408
H        0.68804066       0.57474712       3.19679187
16
Properties=species:S:1:pos:R:3 relative_energy_eV=-1.8976822897520833 branch=right pbc="F F F"
C       -0.23832746       0.83712265      -2.28890993
C        0.34593018       0.03925942      -1.39538953
C        0.11589750      -1.38118907      -1.28630789
C        0.75844921      -2.17406798      -0.42750644
C       -0.68077609       1.67860953       2.02297516
C       -0.16011420       0.57113535       2.52592008
H       -0.93775189       0.45201252      -3.02108981
H       -0.03766141       1.89816838      -2.32629237
H        1.03873604       0.46733039      -0.67996295
H       -0.62762954      -1.81361642      -1.95218718
H        1.51715471      -1.77691004       0.23525103
H        0.55769862      -3.23345325      -0.36218112
H       -1.52696184       1.64232277       1.34979594
H       -0.28916413       2.66172325       2.25237320
H       -0.57354507      -0.39745769       2.28129930
H        0.69229464       0.57861226       3.19357341
16
Properties=species:S:1:pos:R:3 relative_energy_eV=-1.8977180497222434 branch=right pbc="F F F"
C       -0.23923058       0.83764420      -2.28694958
C        0.34634260       0.03982415      -1.39456391
C        0.11606205      -1.38037112      -1.28466817
C        0.75932233      -2.17331721      -0.42635124
C       -0.68050700       1.67773365       2.02127302
C       -0.16149453       0.57010991       2.52430307
H       -0.94053846       0.45220157      -3.01722412
H       -0.03738873       1.89827139      -2.32681333
H        1.04114625       0.46791862      -0.68096680
H       -0.62795899      -1.81256076      -1.95029849
H        1.51887627      -1.77699910       0.23519622
H        0.55854800      -3.23249631      -0.36142525
H       -1.52740175       1.64286543       1.34882469
H       -0.28559360       2.65999402       2.24823854
H       -0.57686624      -0.39759475       2.28039720
H        0.69091167       0.57637841       3.19238908
16
Properties=species:S:1:pos:R:3 relative_energy_eV=-1.897753089510843 branch=right pbc="F F F"
C       -0.23939114       0.83787710      -2.28500284
C        0.34666050       0.03941918      -1.39338475
C        0.11608415      -1.38087450      -1.28439836
C        0.76012176      -2.17489868      -0.42772617
C       -0.68206880       1.67869802       2.02114703
C       -0.16168477       0.57119851       2.52366724
H       -0.94276780       0.45304655      -3.01370329
H       -0.03555979       1.89803421      -2.32629915
H        1.04321057       0.46698429      -0.68054073
H       -0.62830618      -1.81216336      -1.94976505
H        1.51977627      -1.77945244       0.23443836
H        0.55982401      -3.23426727      -0.36486972
H       -1.52900227       1.64365646       1.34892587
H       -0.28709689       2.66129552       2.24696665
H       -0.57555462      -0.39702666       2.27916151
H        0.68998423       0.57807516       3.19274428
16
Properties=species:S:1:pos:R:3 relative_energy_eV=-1.8977814852687516 branch=right pbc="F F F"
C       -0.24020439       0.83844067      -2.28234658
C        0.34790142       0.03918610      -1.39271780
C        0.11635486      -1.38095065      -1.28349820
C        0.76126848      -2.17579638      -0.42820896
C       -0.68283888       1.67885606       2.01925286
C       -0.16281584       0.57153123       2.52258911
H       -0.94737935       0.45468779      -3.00783811
H       -0.03437373       1.89870384      -2.32394679
H        1.04789199       0.46581656      -0.68292963
H       -0.62924315      -1.81145007      -1.94797537
H        1.52170594      -1.78121850       0.23382451
H        0.56083211      -3.23500095      -0.36609522
H       -1.52934020       1.64344836       1.34662501
H       -0.28754945       2.66157487       2.24448486
H       -0.57538599      -0.39692415       2.27689452
H        0.68740537       0.57869732       3.19324658
16
Properties=species:S:1:pos:R:3 relative_energy_eV=-1.8978170268901522 branch=right pbc="F F F"
C       -0.24041841       0.83902536      -2.27981208
C        0.34874169       0.03868214      -1.39170118
C        0.11665387      -1.38147220      -1.28308562
C        0.76214536      -2.17711383      -0.42896540
C       -0.68398683       1.67955874       2.01781831
C       -0.16355782       0.57232532       2.52124828
H       -0.95017603       0.45662929      -3.00358282
H       -0.03319734       1.89891485      -2.32146271
H        1.05044165       0.46452035      -0.68299633
H       -0.62950268      -1.81147824      -1.94732989
H        1.52291226      -1.78313047       0.23316040
H        0.56186072      -3.23646255      -0.36767584
H       -1.53135167       1.64370486       1.34638028
H       -0.28826036       2.66217668       2.24268456
H       -0.57540826      -0.39625030       2.27546512
H        0.68733300       0.57997206       3.19121563
16
Properties=species:S:1:pos:R:3 relative_energy_eV=-1.897868826255035 branch=right pbc="F F F"
C       -0.24079097       0.83980955      -2.27572743
C        0.35070032       0.03782430      -1.39070925
C        0.11776305      -1.38231349      -1.28286581
C        0.76398735      -2.17905441      -0.43019598
C       -0.68526170       1.68068151       2.01522646
C       -0.16550256       0.57337560       2.51916821
H       -0.95459164       0.45935638      -2.99691914
H       -0.03243012       1.89945198      -2.31654321
H        1.05458663       0.46260444      -0.68322883
H       -0.62964152      -1.81147675      -1.94617792
H        1.52548750      -1.78588253       0.23176079
H        0.56337753      -3.23847656      -0.36929950
H       -1.53526655       1.64481448       1.34707920
H       -0.28723487       2.66275569       2.23858455
H       -0.57809152      -0.39499968       2.27438207
H        0.68713811       0.58113155       3.18682635
16
Properties=species:S:1:pos:R:3 relative_energy_eV=-1.8979047806251401 branch=right pbc="F F F"
C       -0.24090498       0.84043612      -2.27240080
C        0.35210974       0.03699168      -1.38951811
C        0.11886747      -1.38321094      -1.28287145
C        0.76538896      -2.18048193      -0.43092808
C       -0.68638502       1.68185005       2.01346023
C       -0.16695647       0.57413384       2.51711400
H       -0.95701146       0.46153844      -2.99253117
H       -0.03243279       1.89994380      -2.31189235
H        1.05693692       0.46063608      -0.68249786
H       -0.62891194      -1.81205600      -1.94652389
H        1.52738056      -1.78778361       0.23028596
H        0.56443202      -3.23995260      -0.36993051
H       -1.53921897       1.64655477       1.34905260
H       -0.28562324       2.66342683       2.23442666
H       -0.58188015      -0.39391680       2.27491122
H        0.68843835       0.58149231       3.18120401
16
Properties=species:S:1:pos:R:3 relative_energy_eV=-1.8979666678269496 branch=right pbc="F F F"
C       -0.24119401       0.84071657      -2.26977842
C        0.35375351       0.03642637      -1.38916082
C        0.12095557      -1.38392112      -1.28363989
C        0.76701407      -2.18147379      -0.43156969
C       -0.68667840       1.68285461       2.01204779
C       -0.16908822       0.57429407       2.51541028
H       -0.95849579       0.46233166      -2.98920482
H       -0.03409441       1.90058039      -2.30760735
H        1.05844418       0.45966415      -0.68156474
H       -0.62701727      -1.81244445      -1.94714310
H        1.52899702      -1.78885343       0.23010049
H        0.56515659      -3.24079795      -0.37012629
H       -1.54369752       1.64956946       1.35290956
H       -0.28057358       2.66332329       2.22824470
H       -0.58947948      -0.39273054       2.27804267
H        0.69022674       0.58006278       3.17439997
16
Properties=species:S:1:pos:R:3 relative_energy_eV=-1.8979926912925293 branch=right pbc="F F F"
C       -0.24155159       0.84087087      -2.26853366
C        0.35409770       0.03626727      -1.38860466
C        0.12203267      -1.38421021      -1.28387474
C        0.76769630      -2.18167103      -0.43151724
C       -0.68644388       1.68333515       2.01154882
C       -0.16994300       0.57409939       2.51463146
H       -0.95829350       0.46236419      -2.98855265
H       -0.03562193       1.90099304      -2.30554712
H        1.05842022       0.45926725      -0.68067351
H       -0.62555979      -1.81282677      -1.94804252
H        1.52978564      -1.78907247       0.22979005
H        0.56548777      -3.24104541      -0.37005193
H       -1.54541964       1.65166286       1.35504375
H       -0.27729211       2.66331176       2.22412438
H       -0.59400362      -0.39237348       2.28055698
H        0.69083777       0.57862968       3.17106289
16
Properties=species:S:1:pos:R:3 relative_energy_eV=-1.898028338236145 branch=right pbc="F F F"
C       -0.24201243       0.84071488      -2.26845709
C        0.35377893       0.03630380      -1.38838436
C        0.12292376      -1.38448716      -1.28454219
C        0.76808822      -2.18176887      -0.43180312
C       -0.68596397       1.68373870       2.01191759
C       -0.17073383       0.57399216       2.51506435
H       -0.95708520       0.46158128      -2.98954917
H       -0.03723283       1.90119474      -2.30492369
H        1.05748913       0.45942404      -0.68000816
H       -0.62386143      -1.81329408      -1.94937472
H        1.52987215      -1.78899054       0.22988310
H        0.56588070      -3.24104257      -0.37050311
H       -1.54572186       1.65348296       1.35669436
H       -0.27450681       2.66326664       2.22168493
H       -0.59818039      -0.39182484       2.28397666
H        0.69149489       0.57731095       3.16968490
16
Properties=species:S:1:pos:R:3 relative_energy_eV=-1.898074093636751 branch=right pbc="F F F"
C       -0.24295169       0.84084305      -2.26796981
C        0.35283907       0.03664219      -1.38770164
C        0.12340792      -1.38436496      -1.28459247
C        0.76805588      -2.18140258      -0.43128828
C       -0.68461028       1.68359838       2.01117646
C       -0.17109918       0.57341407       2.51524687
H       -0.95579654       0.46092849      -2.99058056
H       -0.03926824       1.90161559      -2.30405236
H        1.05612340       0.46007404      -0.67897586
H       -0.62214541      -1.81351353      -1.95051885
H        1.52922812      -1.78830605       0.23117588
H        0.56653441      -3.24090881      -0.37101274
H       -1.54506410       1.65444948       1.35675258
H       -0.27094731       2.66269328       2.21799748
H       -0.60114147      -0.39185684       2.28628142
H        0.69106450       0.57569631       3.16942219
16
Properties=species:S:1:pos:R:3 relative_energy_eV=-1.8981614470585555 branch=right pbc="F F F"
C       -0.24466856       0.84085713      -2.26736010
C        0.35097689       0.03687919      -1.38668031
C        0.12401155      -1.38470667      -1.28539571
C        0.76835713      -2.18148451      -0.43175963
C       -0.68241896       1.68389787       2.01019680
C       -0.17232454       0.57341059       2.51715300
H       -0.95389349       0.46013502      -2.99260366
H       -0.04252259       1.90207969      -2.30228380
H        1.05379099       0.46062199      -0.67746852
H       -0.61923203      -1.81441915      -1.95331088
H        1.52822291      -1.78789280       0.23210542
H        0.56868824      -3.24135678      -0.37334472
H       -1.54242151       1.65570592       1.35543623
H       -0.26626938       2.66239758       2.21406229
H       -0.60571278      -0.39112469       2.29100114
H        0.68964525       0.57460178       3.17161275
16
Properties=species:S:1:pos:R:3 relative_energy_eV=-1.8982882370328298 branch=right pbc="F F F"
C       -0.24736447       0.84126016      -2.26559328
C        0.34761784       0.03708778      -1.38461251
C        0.12446069      -1.38539170      -1.28684556
C        0.76825676      -2.18180342      -0.43243124
C       -0.67854016       1.68408689       2.00727614
C       -0.17329170       0.57378958       2.51992764
H       -0.95090480       0.45984543      -2.99556053
H       -0.04792033       1.90305151      -2.29769244
H        1.04900158       0.46116688      -0.67379193
H       -0.61437748      -1.81608647      -1.95881972
H        1.52476377      -1.78719081       0.23503137
H        0.57231966      -3.24244102      -0.37750603
H       -1.53761835       1.65584165       1.35120456
H       -0.25981496       2.66198039       2.20800826
H       -0.60950883      -0.39011978       2.29641420
H        0.68714988       0.57452514       3.17635137
16
Properties=species:S:1:pos:R:3 relative_energy_eV=-1.898430570096025 branch=right pbc="F F F"
C       -0.24977811       0.84141734      -2.26414151
C        0.34428970       0.03671010      -1.38304280
C        0.12480225      -1.38664300      -1.28943160
C        0.76838730      -2.18291131      -0.43457233
C       -0.67475756       1.68478399       2.00459179
C       -0.17433017       0.57551361       2.52440930
H       -0.94863252       0.46007546      -2.99841607
H       -0.05322934       1.90384003      -2.29242089
H        1.04344868       0.46084730      -0.66963152
H       -0.60933105      -1.81823725      -1.96590693
H        1.52039203      -1.78737643       0.23728948
H        0.57689326      -3.24463653      -0.38373575
H       -1.53106320       1.65500293       1.34500729
H       -0.25529725       2.66245984       2.20456886
H       -0.61091262      -0.38839248       2.30192207
H        0.68334771       0.57714868       3.18487092
16
Properties=species:S:1:pos:R:3 relative_energy_eV=-1.8985293740906855 branch=right pbc="F F F"
C       -0.25125850       0.84189692      -2.26247469
C        0.34205418       0.03628525      -1.38176006
C        0.12520792      -1.38779253      -1.29178614
C        0.76860390      -2.18389515      -0.43651604
C       -0.67184845       1.68504485       2.00178501
C       -0.17472341       0.57690668       2.52731910
H       -0.94824046       0.46123355      -2.99918887
H       -0.05687286       1.90451391      -2.28771432
H        1.03843654       0.46013400      -0.66559972
H       -0.60538432      -1.82006397      -1.97161604
H        1.51623519      -1.78749297       0.23950006
H        0.58020655      -3.24594586      -0.38770472
H       -1.52606058       1.65349794       1.33916292
H       -0.25208365       2.66280404       2.20169496
H       -0.61011331      -0.38733758       2.30438622
H        0.68007034       0.57981325       3.19187262
16
Properties=species:S:1:pos:R:3 relative_energy_eV=-1.8985986934167158 branch=right pbc="F F F"
C       -0.25144732       0.84178797      -2.26217968
C        0.34154343       0.03554072      -1.38194531
C        0.12613898      -1.38873133      -1.29429479
C        0.76880695      -2.18496425      -0.43833638
C       -0.67090555       1.68571323       2.00122531
C       -0.17492983       0.57872677       2.53000849
H       -0.94921650       0.46181077      -2.99873302
H       -0.05847490       1.90480764      -2.28532213
H        1.03506288       0.45903747      -0.66299171
H       -0.60240832      -1.82122021      -1.97644737
H        1.51285281      -1.78842354       0.24095551
H        0.58213230      -3.24789139      -0.39194877
H       -1.52300730       1.65267619       1.33599070
H       -0.25170771       2.66378819       2.20150620
H       -0.60812821      -0.38621527       2.30637844
H        0.67791735       0.58315935       3.19749474
16
Properties=species:S:1:pos:R:3 relative_energy_eV=-1.8986340620749615 branch=right pbc="F F F"
C       -0.25139788       0.84194746      -2.26233996
C        0.34160960       0.03559015      -1.38222767
C        0.12700186      -1.38890601      -1.29530792
C        0.76915768      -2.18486895      -0.43890529
C       -0.67018163       1.68552192       2.00100107
C       -0.17518100       0.57856520       2.53071573
H       -0.95090742       0.46205190      -2.99776797
H       -0.05847777       1.90482313      -2.28586949
H        1.03316019       0.45899955      -0.66197212
H       -0.60111029      -1.82173635      -1.97770022
H        1.51183122      -1.78793210       0.24146595
H        0.58230866      -3.24731535      -0.39146019
H       -1.52192650       1.65277735       1.33510312
H       -0.25001573       2.66351760       2.20033255
H       -0.60810679      -0.38637772       2.30669606
H        0.67646488       0.58294455       3.19959661
16
Properties=species:S:1:pos:R:3 relative_energy_eV=-1.8986541567473978 branch=right pbc="F F F"
C       -0.25120394       0.84173524      -2.26334352
C        0.34158321       0.03576092      -1.38271125
C        0.12759071      -1.38877521      -1.29591755
C        0.76871364      -2.18448221      -0.43853022
C       -0.67004056       1.68540138       2.00188372
C       -0.17488200       0.57835348       2.53121229
H       -0.95078965       0.46123934      -2.99840977
H       -0.05836655       1.90476924      -2.28739001
H        1.03176606       0.45943796      -0.66150946
H       -0.60000660      -1.82187230      -1.97882212
H        1.51079216      -1.78733592       0.24240628
H        0.58169416      -3.24712139      -0.39137132
H       -1.52175250       1.65313375       1.33601570
H       -0.24953805       2.66337759       2.20034279
H       -0.60823010      -0.38649125       2.30762655
H        0.67689909       0.58247171       3.19987819
16
Properties=species:S:1:pos:R:3 relative_energy_eV=-1.8986539377301597 branch=right pbc="F F F"
C       -0.25134531       0.84164682      -2.26374618
C        0.34140635       0.03591671      -1.38283472
C        0.12781684      -1.38865753      -1.29602486
C        0.76856284      -2.18429489      -0.43839655
C       -0.66977626       1.68534553       2.00222883
C       -0.17490903       0.57814799       2.53154195
H       -0.95065807       0.46075084      -2.99878125
H       -0.05835312       1.90472963      -2.28833456
H        1.03119559       0.45975765      -0.66142996
H       -0.59950829      -1.82187689      -1.97906631
H        1.51076993      -1.78703274       0.24236647
H        0.58152572      -3.24692976      -0.39117958
H       -1.52141520       1.65340761       1.33628162
H       -0.24903208       2.66324382       2.20026791
H       -0.60881979      -0.38652532       2.30818604
H        0.67676898       0.58197287       3.20028146
