16
Properties=species:S:1:pos:R:3 pbc="F F F"
O       -1.38357788       0.79064251      -1.21390924
C       -0.78556738       0.31681388      -0.25761339
C       -1.59402226      -0.63755907       0.58782107
O       -2.90508229      -0.85685576       0.15310205
C        0.68099860       0.53850833       0.03063395
O        0.99951115       1.86615154      -0.88556406
C        1.54269095      -0.67771369      -0.00960517
O        2.86518008      -0.23953641       0.10710296
H       -1.06254945      -1.59699193       0.64176243
H       -1.61018699      -0.27338652       1.62423474
H       -3.00874546      -0.30917503      -0.64489411
H        0.66897582       0.93537541       1.05040381
H        0.21451402       1.93929716      -1.43859714
H        1.40559611      -0.36711553      -1.22978177
H        1.04063777      -1.51195615       0.47077502
H        2.93162716       0.08350322       1.01412870
