16
Properties=species:S:1:pos:R:3 pbc="F F F"
O        0.04430433      -1.06172897      -1.74229413
C       -0.73635579      -0.57262157      -0.69494782
C       -0.83525961       0.91493929      -0.55053309
O       -2.02154855       1.51890554      -0.08608793
C       -0.08556145       0.10881305       0.48052076
O       -0.67455896      -0.05469723       1.73552142
C        1.41583377       0.10284804       0.51545459
O        1.84113117      -1.27046011       0.49810360
H       -2.74266911       1.24386528      -0.66462351
H       -0.26620251       1.51279352      -1.25801637
H        0.71839141      -1.62031536      -1.32901294
H       -1.62868427      -1.14036091      -0.45604760
H       -1.40831457       0.57285523       1.77761671
H        1.76659245       0.60157333       1.42291652
H        1.81205925       0.63079852      -0.35698126
H        2.80446526      -1.29054301       0.51601057
