16
Properties=species:S:1:pos:R:3 pbc="F F F"
O        0.25695374      -0.49012931      -2.98193555
C        0.12384625       0.00851443      -1.74715733
C       -0.73992040       0.78898341      -0.87846869
O       -1.95902610       0.20803930      -0.33765321
C        0.53557084       0.14559402      -0.52389446
O       -1.48586484      -0.17746426       2.57229975
C        1.43953513      -0.11635559       0.59898888
O        2.52215652      -0.92876104       0.14891166
H       -2.70396077       0.65115894      -0.76066984
H       -0.85600128       1.87092969      -0.97344478
H        1.07610430      -1.00870102      -3.00132462
H       -1.72766925      -0.09415167       1.63604671
H       -2.20593858       0.25522314       3.04239363
H        0.86514555      -0.58306376       1.40816285
H        1.79645729       0.84491361       0.98749265
H        3.03784347      -1.18760966       0.92023213
