12
Properties=species:S:1:pos:R:3 pbc="F F F"
O        2.63521207       0.40369993      -1.78245424
C        1.87659918       0.41358623      -0.82481765
C        1.96120262      -0.02405358       0.57688693
O        1.49231298       0.12214289       1.64724779
C       -1.77795576       0.18626811       0.15421720
O       -1.37391765      -1.16598490      -0.01458632
H        0.94815622       1.00945198      -0.82489339
H        1.37136662      -0.84429424      -0.43224876
H       -1.30243664       0.66223222       1.01646961
H       -1.58889311      -1.65141701       0.78739752
H       -1.49021894       0.72166835      -0.74934531
H       -2.86272810       0.27204397       0.25429281
