12
Properties=species:S:1:pos:R:3 pbc="F F F"
O        1.09417982       1.40765823      -1.70040150
C        1.40393301       0.80698107      -0.69877808
C        0.53476048      -0.24893066      -0.04694670
O        0.90576487      -0.35276402       1.31619251
C       -0.94363234       0.05088288      -0.20090803
O       -1.61474592      -0.97923016       0.53175422
H        2.37530280       0.97456110      -0.19003069
H        0.74670776      -1.19391033      -0.57399036
H       -1.15837245       1.03545411       0.22209566
H        0.19759957      -0.86217884       1.73512793
H       -1.22052032       0.05379934      -1.25627425
H       -2.53445687      -0.72441371       0.65064112
