12
Properties=species:S:1:pos:R:3 pbc="F F F"
O        1.31237260      -1.52387330       0.07461668
C        1.20060478      -0.15969713       0.24327675
C        0.09585653       0.51865865      -0.07390722
O       -0.00827927       1.88035187       0.09454523
C       -1.14544854      -0.08244392      -0.63279668
O       -2.22710080      -0.10523489       0.30506587
H        2.22885612      -1.76998108       0.22459010
H        2.06767112       0.35191926       0.65118962
H        0.79175265       2.21437399       0.51408604
H       -0.93685900      -1.08292559      -1.01592529
H       -1.49370907       0.53751729      -1.45803187
H       -1.94905153      -0.65900727       1.04464372
