12
Properties=species:S:1:pos:R:3 pbc="F F F"
O        1.19028531      -1.33662436       0.51073611
C        1.20397520       0.04311734       0.29631519
C        0.02838192       0.64174571      -0.20966155
O        0.06646727       1.91548863       0.09881041
C       -1.19413362      -0.01821046      -0.72088637
O       -2.16244969      -0.20390391       0.31327150
H        2.09744988      -1.63675403       0.62734966
H        2.16048473       0.39460034      -0.10707356
H        1.00354811       1.37744014       0.89074016
H       -0.93612494      -0.97110249      -1.18815999
H       -1.67634399       0.61693753      -1.46221583
H       -1.78154277      -0.82272693       0.95076943
