12
Properties=species:S:1:pos:R:3 pbc="F F F"
C        0.55127236      -0.39402190      -0.34151608
O        1.07462127      -1.51885886       0.04951321
O       -0.46569038       1.57348858       1.32261556
C        0.49088062      -0.21832174      -1.80459076
C       -1.20684263       0.92318000       2.20535904
O       -1.84034209       1.44216773       3.09291147
H        0.72854564       0.81522951      -2.05321845
H       -1.20013329      -0.17455815       2.05755535
H       -0.04595530       0.86941737       0.68244700
H        1.12160531      -0.90079763      -2.38589043
H        1.37953175      -2.08602174      -0.70224756
H       -0.55532500      -0.37242968      -2.09048724
