16
Properties=species:S:1:pos:R:3 pbc="F F F"
O        2.81609139       0.27384650      -1.22759947
C        1.88918100      -0.51811747      -1.18897784
C        0.59633001      -0.12333083      -0.63214391
O        0.35496659       1.18414277      -0.41968527
C       -0.46836299      -0.93753281      -0.58852479
O        1.48226476       1.51792930       2.25324200
C       -1.81526738      -0.54234825      -0.11980188
O       -2.70768425      -0.65377083      -1.24166475
H        1.95712676      -1.55360565      -1.55551110
H        0.65489257       1.92127133       2.53571449
H        1.55681154       1.55667942       0.08627443
H       -0.31461412      -1.94416431      -0.96149923
H        1.52787857       0.97789683       3.05637176
H       -1.79218125       0.48333679       0.25567399
H       -2.13870152      -1.20953615       0.68875855
H       -3.59873166      -0.43269664      -0.94062699
