16
Properties=species:S:1:pos:R:3 pbc="F F F"
O       -2.66323622       0.12037936      -0.32766587
C       -1.39209321      -0.30395657       0.08809610
C       -0.28631870       0.64808409      -0.43166398
O       -0.57133481       1.95243741      -0.04038671
C        1.04665661      -0.05515443       0.60946896
O        1.26350231       0.54456265       1.61813225
C        1.64851297      -1.26120104      -0.09226268
O        2.05598747      -0.71033200      -1.24710455
H       -1.20308098      -1.29308081      -0.32496221
H       -0.28961816       0.55089075      -1.51668082
H       -2.71411974       1.06370121      -0.12662012
H       -1.32127018      -0.35134061       1.18023529
H       -0.11077691       2.15380563       0.78816270
H        0.87706083      -2.05191545      -0.15949592
H        2.43557568      -1.62640226       0.59306311
H        1.06132686       0.64897271      -0.68704316
