16
Properties=species:S:1:pos:R:3 pbc="F F F"
O       -2.68146647       0.51128938      -0.90533562
C       -1.67495191      -0.16234144      -0.87337617
C       -1.02390385      -0.49613027       0.47621716
O       -1.89051083      -0.15043194       1.52250409
C        0.30056008       0.21000029       0.55772288
O        0.29482371       1.13693319      -1.19066427
C        1.48811903      -0.45671191       0.16654237
O        2.65696762       0.04504758       0.76723733
H       -1.24199026      -0.63392374      -1.76468803
H       -0.85832359      -1.57968434       0.46541840
H       -2.60416862       0.36779577       1.10572946
H        0.34654507       1.09960404       1.17590062
H        0.80414577       1.93224735      -1.01624200
H        1.24469344       0.17739649      -1.00827516
H        1.42457223      -1.53474322       0.07089546
H        3.41487001      -0.46636717       0.45038546
