12
Properties=species:S:1:pos:R:3 pbc="F F F"
O        0.68997076       1.04719882      -2.82750243
C        0.34862163       0.93431279      -1.66788574
C       -0.13790733      -0.26304480      -0.93515909
O       -0.40835892      -0.29690153       0.40009654
C       -0.30743950      -1.34139955      -1.70613185
O       -0.07000323       0.53194900       3.20165296
H       -0.23537953       0.65264197       4.14658212
H        0.08230060       0.78254269       1.03226551
H        0.39902539       1.85462677      -1.05560820
H       -0.09861928      -1.38046704      -2.76287248
H       -0.67556753      -2.26314105      -1.28278789
H        0.41335695      -0.25831807       3.45735055
