12
Properties=species:S:1:pos:R:3 pbc="F F F"
C       -0.37184074      -2.47640656      -0.03836510
O        0.04565735      -1.33440691       0.39329625
O       -0.52443471       1.90703944       1.74976302
C        0.94414885      -0.50659358      -0.37739702
C       -0.03268173       0.48120181      -0.87276343
O       -1.17392405       0.89373310      -0.99533238
H       -1.25517394       1.61667276       1.19066079
H        0.01373629      -2.59588899      -1.09880472
H       -0.68674413       1.46972087       2.59254964
H        1.17029397       0.32541144       0.24932055
H        0.44789655       1.30629594      -1.43246868
H        1.43344163      -0.96896939      -1.22450521
