16
Properties=species:S:1:pos:R:3 pbc="F F F"
O       -2.95792149       0.74122822       0.18187789
C       -2.11739852      -0.08372876      -0.10014684
C       -0.67657295       0.19550754      -0.41178565
O       -0.60442776       1.58916007      -0.48272816
C        0.41560454      -0.44008652       0.47799206
O        0.08953720       0.34014306       1.64783746
C        1.66879335      -0.84561882      -0.22141872
O        2.14387318       0.39810618      -0.63751101
H       -2.44596710      -1.13747920      -0.06604023
H       -0.55369482      -0.16260805      -1.43496720
H       -1.44964955       1.99440539      -0.22654517
H       -0.13621481      -1.30673776       0.80926608
H        0.36216728       1.19541459       1.39203977
H        1.06795600      -1.43638561      -0.63210247
H        2.17250533      -1.19887523       0.65396822
H        3.02140772       0.15754888      -0.94973725
