16
Properties=species:S:1:pos:R:3 pbc="F F F"
O        2.86205997       0.41310944      -0.04755855
C        1.75749056       0.89573978       0.30391185
C        0.58534673      -0.43962029       0.34892104
O        1.18793514      -1.54532811      -0.10079104
C       -0.48469935       0.22615533      -0.59483975
O       -0.66790401       1.50283904      -0.36229364
C       -1.79461587      -0.64482649      -0.29103066
O       -2.35539254      -0.14412074       0.87787801
H        1.60591529       1.32914614       1.30867825
H        0.20818568      -0.50143185       1.36914004
H        2.12631175      -1.28637526      -0.25965865
H       -0.15785241      -0.01846539      -1.61255641
H        1.25993415       1.60172947      -0.40702772
H       -1.54446537      -1.70333466      -0.20655432
H       -2.44482458      -0.49838667      -1.15828853
H       -2.14340472       0.81313832       0.83202857
