12
Properties=species:S:1:pos:R:3 pbc="F F F"
C        2.14780040       0.08784255      -3.39662153
O        1.64585717      -0.78278615      -4.13658867
O       -2.41474489       0.12086570       3.78720253
C        1.51438438       0.69741535      -2.30200291
C       -1.37318131      -0.41873560       3.15123988
O       -1.49275919      -0.89803315       1.91292820
H       -1.91162934      -0.26877141       1.30196812
H        3.18829038       0.42038651      -3.60541766
H       -3.23392199       0.00149257       3.28230568
H        0.49680487       0.42141389      -2.06985607
H       -0.59191989      -0.81776382       3.77792049
H        2.02527300       1.43664242      -1.70331636
