12
Properties=species:S:1:pos:R:3 pbc="F F F"
C       -0.75893863      -0.84371277      -0.80670768
O       -1.62090901      -1.22059847      -1.78593529
O        0.11589152       2.58118657      -0.07081428
C        0.08692938      -1.24866325       0.10943407
C        0.97716517      -0.81739246       1.14105077
O        1.11141134       0.38499776       1.35821553
H        0.56224423       1.94629581       0.52604530
H       -0.70758693       0.23574557      -0.69442978
H        0.30038580       3.44459600       0.31082531
H        0.05956468      -2.32913823       0.02576911
H        1.52628930      -1.58148304       1.71944467
H       -1.68642175      -0.38104852      -1.85190920
