12
Properties=species:S:1:pos:R:3 pbc="F F F"
C       -1.02593435      -0.35775621      -0.62038766
O       -1.17691613      -0.43446748      -1.88538778
O        0.02738966       2.35366817      -0.07029031
C        0.09394507      -1.16484887      -0.21843716
C        0.85536580      -0.86907561       0.97777758
O        0.87675105       0.20958064       1.56759876
H        0.41189550       1.77707313       0.61648415
H       -1.57821388       0.34554409      -0.00558223
H       -0.07902281       3.20577102       0.36367709
H        0.02151386      -2.23438416      -0.44609849
H        1.46801286      -1.70281191       1.37962839
H        0.07136908      -0.95738523      -1.67797753
