16
Properties=species:S:1:pos:R:3 pbc="F F F"
C        0.18551905       0.37220248      -1.99132932
C       -0.32296597      -1.05002444      -1.88523956
O       -0.46782404      -1.75537869      -2.87588515
N       -0.55650127      -1.49405701      -0.62444266
C        0.82784490       0.76165491       1.98971139
N       -0.58252194       0.49170569       1.71634667
H       -0.14500648       1.00350926      -1.16749371
H        1.27588990       0.36204568      -1.99738760
H       -0.14276736       0.79425432      -2.93640696
H       -0.61132376      -0.85712755       0.16816098
H       -0.97816637      -2.40172373      -0.53657126
H        1.01597184       1.44836013       2.82270577
H        1.33716118      -0.17630597       2.20394967
H        1.29317042       1.17522901       1.09783533
H       -1.03907689       0.11620530       2.53707461
H       -1.07248231       1.34769687       1.49204668
