12
Properties=species:S:1:pos:R:3 pbc="F F F"
O        2.05105863      -0.05632786      -0.45799316
C        1.20321585       0.72070086      -0.21182807
C       -1.09933295      -1.01641591       0.29585401
O       -0.18406860      -1.84969570      -0.29153611
C       -0.21732481       1.14365922      -0.13358867
O       -0.98314509       0.07431623      -0.60857978
H       -0.75733978      -0.81771392       1.31142290
H       -2.04540588      -1.50879750       0.14199703
H        1.74680548       1.68316943      -0.06210581
H       -0.38151956       1.40503315       0.92579393
H       -0.43882762       2.02351605      -0.74224756
H        1.05206543      -1.68415082      -0.26884376
