12
Properties=species:S:1:pos:R:3 pbc="F F F"
C        0.45290168      -0.42683856      -2.27906849
O        1.36003697      -0.46635183      -1.30766046
O        1.03748841      -0.08410433       1.86116282
C       -0.82190998      -0.00553625      -2.21247484
C        0.20051421      -0.16472467       2.72300371
O       -0.64878905       0.70857521       3.23677699
H       -0.43380321       1.62702723       2.94757149
H        0.69939645      -0.92034294      -3.21482211
H        1.03544887       0.31265087      -0.47366252
H       -1.16974879       0.68899143      -1.45943282
H       -0.15497042      -1.09892642       3.16568205
H       -1.55656515      -0.17041975      -2.98707581
