12
Properties=species:S:1:pos:R:3 pbc="F F F"
C        0.08785196      -1.56779296      -5.45372905
O        0.60949210      -2.23272200      -6.36753578
O        0.78608255       1.83622538       4.88953636
C        0.58038125      -1.33841932      -4.13298651
C       -0.23270854       1.12387857       4.35292906
O       -1.48376905       1.22250393       4.83145473
H       -1.50642625       1.52732717       5.75550778
H       -0.90563580      -1.07013020      -5.65375828
H        0.51309469       2.75811754       5.10417544
H        1.54931627      -1.67948749      -3.75809713
H        0.04927218       0.20149307       3.86458187
H       -0.04762635      -0.78129920      -3.43136002
