16
Properties=species:S:1:pos:R:3 pbc="F F F"
O       -1.00356429      -1.82147867      -2.16843516
C       -0.94464179      -0.67769099      -1.77636031
C        0.32418456       0.06813701      -1.95913118
O        1.32573505      -0.51101464      -2.73164141
O       -1.05073021       0.35716970       0.41349826
C        0.08164044       0.20739609       0.61894975
C       -0.01198693       0.32472983       2.11950813
O        1.08163041       0.82602130       2.83649184
H       -1.87955674      -0.34002468      -1.29035317
H       -0.43037270       0.98344041      -1.82353161
H        0.43371745       0.52060488      -0.98496662
H        0.88159765      -1.34983201      -2.73086930
H        1.15323145       0.18842830       0.51221017
H       -0.83065054       0.90840138       2.50491803
H       -0.22289287      -0.58479074       2.66773758
H        1.09265907       0.90050284       3.79197501
