16
Properties=species:S:1:pos:R:3 pbc="F F F"
C       -0.98339585       0.44416178      -1.61313636
C       -1.30892416      -0.37337959      -0.37588383
O       -2.02763585       0.01780593       0.52309264
N       -0.95751541      -1.73280908      -0.55269835
C        1.72223703       0.75352658       0.79651793
N        0.68915832       0.11735232       1.60742449
H       -1.97394783       0.64123599      -2.03096872
H       -0.51342272       1.40272048      -1.44007950
H       -0.43118786      -0.14278517      -2.34524385
H        0.01476225      -1.90748802      -0.73833085
H       -1.35144551      -2.32952567       0.15302474
H        2.52007651       1.26266990       1.35760924
H        2.18477475      -0.00778804       0.16608450
H        1.26895738       1.48756219       0.12405021
H        1.08283661      -0.42956973       2.35313375
H        0.06463455       0.79628114       2.01543665
