16
Properties=species:S:1:pos:R:3 pbc="F F F"
O       -1.70769243       0.31516432      -3.01967230
C       -1.69079211      -0.28453203      -1.95663763
C       -0.47087503      -0.34898989      -1.15063473
O        0.58882980       0.32267304      -1.65932373
C       -0.44582001      -1.02786159       0.00721215
O        1.17931938       3.01008620       1.62309976
C        0.74098759      -1.16667132       0.87923295
O        0.33250937      -0.92003248       2.22340789
H       -2.58380159      -0.79786517      -1.56831848
H        0.79243788       3.31978143       0.79649221
H        0.26387329       0.69292180      -2.50739436
H       -1.35213819      -1.51842960       0.32520208
H        0.63325077       2.25303747       1.86003264
H        1.52413624      -0.47444386       0.56239218
H        1.14417205      -2.18931399       0.77753180
H        1.05327623      -1.18499740       2.80754988
