12
Properties=species:S:1:pos:R:3 pbc="F F F"
C        0.12167188      -1.30052813      -0.55099829
O        0.82651041      -2.41114269      -0.88503162
O       -0.01021246       1.49599615       1.44796158
C        0.61563587      -0.10067952      -0.25273046
C       -0.24326127       1.06168197       0.11122104
O       -1.60096369       0.72238902      -0.09189651
H       -2.11341650       1.44111741       0.30038319
H       -0.93984935      -1.49532928      -0.56039879
H       -0.04917040       0.70402131       2.00212650
H        1.68668855       0.07470973      -0.25566518
H        0.01731495       1.94013216      -0.48926751
H        1.76778743      -2.19592023      -0.88295371
