16
Properties=species:S:1:pos:R:3 pbc="F F F"
O        2.19054508       2.29893516       1.20229780
C        1.04636982       2.47184725       0.85457483
C        0.57466854       2.65666220      -0.83703332
O        0.46290866       3.93817589      -1.08504064
O       -1.08968566      -0.60089063       0.53776838
C       -1.38333450      -1.75330672       0.31944941
C       -0.37812386      -2.82688980       0.01720676
O       -1.03608490      -3.87953744      -0.66913349
H        0.15474063       2.27260797       1.48172918
H        1.38626948       2.09423374      -1.33394588
H       -0.34193962       2.04526472      -0.78560082
H        0.82030317       3.57948227       0.21355223
H       -2.42820156      -2.11569020       0.33897448
H        0.44444663      -2.38467959      -0.55032666
H        0.02723868      -3.15224347       0.98663774
H       -0.45011186      -4.64396181      -0.69111480
