12
Properties=species:S:1:pos:R:3 pbc="F F F"
O        0.06770608      -0.80119828      -1.36382895
C        0.20114492       0.33820953      -0.82167729
C       -1.84640921      -1.20964284       2.20021207
O       -1.72748888      -0.00850292       2.21575455
C        1.27153178       1.18384445      -1.24617348
O        2.14354015       0.70420300      -2.10721901
H       -1.68239490      -1.83183754       3.10398939
H       -2.12647937      -1.75748776       1.28234231
H       -0.60767271       0.87896507      -0.30025878
H        1.41206152       2.19305820      -0.89960735
H        1.19456584       0.43709227       0.15282668
H        1.75212397      -0.18251880      -2.34495755
