16
Properties=species:S:1:pos:R:3 pbc="F F F"
O        1.90509216       0.91096669      -2.06248726
C        0.62643909       1.35175622      -1.87691690
C       -0.12984181       0.81061095      -0.75963044
O       -0.46553921       0.43655360      -2.11212103
C       -0.42187839      -1.41257170       0.96771922
O       -1.20531651      -0.34164436       0.59604408
C       -0.19244140      -1.60686911       2.26375859
O       -0.57354245      -0.71945289       3.23814380
H        0.17250693      -0.14255057      -0.34168885
H       -1.02969220       1.31332749      -0.42350159
H       -0.34370163       0.56629222       0.00319910
H       -0.19026968      -2.14317844       0.19855653
H        2.21435021       1.14658876      -2.95609705
H        0.47084740       2.38437591      -2.18594057
H        0.33111611      -2.46942787       2.64778093
H       -1.16812863      -0.08477691       2.80318144
