16
Properties=species:S:1:pos:R:3 pbc="F F F"
O        1.84251056       1.17749062      -1.40744308
C        0.67534025       1.65695103      -1.94319389
C       -0.83532000       0.47624049      -1.70011326
O        0.39721064       1.50472209      -3.16858852
C       -0.44829094      -1.23035293       1.54334759
O       -0.77444888      -0.01267660       1.54096618
C        0.01190122      -1.79995889       2.73097205
O        0.10393298      -1.00815476       3.78997433
H       -0.59686230      -0.39426673      -2.28903457
H       -1.63001042       1.10188637      -2.06245355
H       -0.78615385       0.36377928      -0.62429291
H       -0.51717261      -1.85013567       0.64561997
H        2.12456547       0.49059703      -2.02417729
H        0.35329208       2.50421464      -1.32440833
H        0.29457353      -2.83401591       2.86731391
H       -0.21508090      -0.14632113       3.42551032
