16
Properties=species:S:1:pos:R:3 pbc="F F F"
C        1.59876775       0.39667091      -1.01072272
C        0.58119317       0.69128073      -1.83496573
O       -0.62030352       0.11517715      -2.22401765
N        0.51618204       1.72624689      -2.73061776
C       -1.04308526      -1.20267114       2.56456045
N       -0.41582344      -0.88658774       1.27626700
H        2.49380818       0.99633903      -1.02160110
H        1.57362815      -0.47624512      -0.37712747
H       -0.39029471      -1.04184520      -0.47715970
H        1.13041665       2.50301822      -2.48522166
H       -0.42088727       2.01496570      -2.95306645
H       -1.85518983      -0.61365957       3.01977264
H       -1.53260652      -2.18048732       2.56483860
H       -0.42631923      -1.33933137       3.45662708
H       -1.18213855      -0.69399641       0.63927084
H       -0.00734762      -0.00887475       1.59316364
