16
Properties=species:S:1:pos:R:3 pbc="F F F"
C        1.35019270       0.58687074      -0.32725936
C        0.50153598       0.40300631      -1.42141882
O       -0.44751067      -0.48587507      -1.44013695
N        0.58614064       1.19528171      -2.54324109
C       -0.79282005      -1.29851788       1.96036561
N       -0.93031544      -0.19490259       1.00060750
H        2.12882707       1.33344873      -0.37633360
H        1.64760606      -0.31206151       0.19085022
H       -0.90089133      -0.50481149      -0.13975930
H        1.08103565       2.06609055      -2.47708941
H       -0.21896519       1.18354611      -3.14555302
H       -0.51150091      -0.93837487       2.94835268
H       -1.72352409      -1.85511128       2.04328652
H       -0.02611491      -1.98205977       1.60674773
H       -1.71945645       0.39730391       1.22875525
H       -0.02423995       0.40617618       0.89182343
