12
Properties=species:S:1:pos:R:3 pbc="F F F"
C        0.62666894      -0.54395769      -2.05829872
C        1.63525649       0.28626724      -1.84472976
O       -0.60231580       1.75439408       0.86568970
O       -1.32984235       1.37136462       1.96030266
C       -1.35469912       0.13836719       2.26397002
O       -0.69647870      -0.75250398       1.54299928
H       -0.06886457      -0.39742841      -2.87541087
H        0.44763243      -1.39918348      -1.41960057
H        2.29139202       0.17145228      -0.99356076
H        1.83337005       1.12317834      -2.50265190
H       -0.84160233      -1.62738205       1.92733973
H       -1.94045190      -0.12455619       3.13400908
