12
Properties=species:S:1:pos:R:3 pbc="F F F"
C        0.26207946      -0.06188876      -1.71888866
O       -0.42843781       1.06870523      -1.51983453
O       -1.18540672       1.08535987       1.22089772
C        0.26473647      -1.18699242      -0.98219834
C       -0.35271452       0.75948991       2.04529712
O        0.68503136      -0.03621743       1.84669120
H        0.70619660      -0.32195958       0.90065698
H        0.89223008       0.02262505      -2.60069779
H       -0.84255302       1.06654541      -0.63085280
H       -0.47369131      -1.40673665      -0.22263257
H       -0.37171614       1.09594692       3.08772881
H        0.88312324      -2.01630918      -1.29315390
