12
Properties=species:S:1:pos:R:3 pbc="F F F"
C        0.51059262      -0.04077954      -1.29909339
O       -0.15216812       1.00566702      -0.72537319
O       -1.47008613       0.80811739       1.87136304
C        0.31108620      -1.33713811      -1.08637309
C       -0.22987830       1.05097778       1.64741816
O        0.39952119       0.17408090       0.88073240
H       -0.27598716      -0.48184400       0.60825265
H        1.39997925       0.28900941      -1.82559929
H       -1.31821255       0.54678767      -0.30390729
H       -0.56777509      -1.69144528      -0.56651283
H        0.37878965       1.76711340       2.20868743
H        1.01413844      -2.09054663      -1.40959460
