12
Properties=species:S:1:pos:R:3 pbc="F F F"
C        0.71328715      -0.49513180      -0.37958238
O        1.05359984       0.72329211      -0.29160780
O       -0.73196793       1.48640509       1.49233413
C        1.42640923      -1.43628496      -1.28398897
C       -1.93533456       1.61636231       1.39424233
O       -0.27490426      -0.85438962       0.33190280
H        1.07576460      -2.45486244      -1.14345455
H       -2.37045956       2.27096795       0.62932322
H       -0.09871989       0.59347027       0.62251148
H        1.25444230      -1.13626863      -2.31781285
H       -2.61132415       1.06627845       2.05473757
H        2.49922715      -1.37982401      -1.10861472
