12
Properties=species:S:1:pos:R:3 pbc="F F F"
O        0.05453857      -0.47795841      -1.38104447
C        1.00505739      -0.11930808      -1.45672033
C        1.45381766       0.40808557      -0.59775810
O        0.69240249       0.64944314       0.79366481
C       -2.60409814      -0.78579967       0.97067250
O       -3.65319486      -1.06368396       1.49800380
H        1.68112825      -0.10804424      -2.12041869
H        1.90525565       1.59425300      -0.63103173
H        2.53326363       0.06825956      -0.02200634
H        1.10694820       1.13057980       1.51769758
H       -1.72515723      -0.16922101       1.70030769
H       -2.44996405      -1.12660353      -0.27136416
