16
Properties=species:S:1:pos:R:3 pbc="F F F"
O        1.45496063       3.30074994       1.41286558
C        0.89513238       2.38791394       0.84231713
C        0.46892516       2.52934405      -0.58890571
O        0.79886218       3.79112880      -1.09005041
O       -0.87161114      -1.01658422       0.67880953
C       -1.26811677      -2.04711454       0.22131607
C       -0.54501010      -3.45502926       0.34781837
O       -1.01590170      -4.36943914      -0.43561449
H        0.68052741       1.42440589       1.34194040
H        0.94816775       1.72056754      -1.15993757
H       -0.61332603       2.33352012      -0.65233487
H        1.22438804       4.23971790      -0.33579463
H       -2.27284210      -2.19417910      -0.21236304
H        0.54237502      -3.30077272       0.40571463
H       -0.88239155      -3.56392265       1.41957329
H        0.45581833      -1.78032687      -2.19530310
