18
Properties=species:S:1:pos:R:3 pbc="F F F"
O        0.30512396       0.67154902       2.18368323
C       -0.67643728       0.73015775       1.42602476
O       -1.93499858       0.84916767       1.91447112
C       -0.58555239       0.57536740       0.03109066
O        0.65871642       0.90434064      -0.55547215
P        1.65329750      -0.38808288      -0.69708013
O        1.05182393      -1.44053335      -1.56579187
O        3.00003890       0.20184229      -1.32877452
O        2.03972402      -0.78115986       0.79174038
C       -1.64428323       0.24708212      -0.94314255
O       -1.52758436      -1.30650242      -0.93457781
H       -1.84057043       0.91739068       2.87617884
H       -0.82747253      -0.93502868       0.05581223
H        3.61970747       0.47327005      -0.63969886
H        1.50946383      -0.23265102       1.45325767
H       -2.66653944       0.44386787      -0.64651812
H       -1.43121102       0.56797114      -1.95438336
H       -0.70325936      -1.49797952      -1.46680845
