16
Properties=species:S:1:pos:R:3 pbc="F F F"
O       -2.83211611      -0.66711579      -0.53110378
C       -1.57985977      -0.07759694      -0.71033299
C       -0.86201933       0.13658407       0.60413295
O       -1.42115768      -0.10184101       1.66306106
C        0.55196712       0.57221759       0.60220592
O        0.89828589       1.33591370      -0.63192746
C        1.58456389      -0.69484920       0.42971555
O        2.31077415      -0.43098628      -0.68232914
H       -1.66734632       0.89514662      -1.21364265
H       -0.94704358      -0.69642654      -1.36691238
H       -2.96104884      -0.72790262       0.43095926
H        0.77947276       1.19971094       1.45942821
H        1.94979740       1.19188039      -0.55168474
H        0.97526847      -1.60843233       0.36695903
H        2.14616018      -0.73761165       1.37547808
H        1.01135895       0.47511070      -1.26628783
