12
Properties=species:S:1:pos:R:3 relative_energy_eV=0.0 branch=left pbc="F F F"
C        0.18765198      -0.38389618      -1.78954062
O        0.50424595      -1.41854869      -0.98235307
O        0.80564890      -0.41367916       1.68322989
C        0.28478202       0.92369003      -1.53459283
C       -0.20631162      -0.16830222       2.30514763
O       -1.36915400       0.20479400       1.77884619
H       -1.26173623       0.25306428       0.81103594
H       -0.18827757      -0.73955311      -2.74519443
H        0.77764982      -1.08162792      -0.10688867
H        0.72315079       1.31740252      -0.62716426
H       -0.29163898      -0.21923946       3.39658960
H       -0.00143867       1.64179679      -2.28995300
12
Properties=species:S:1:pos:R:3 relative_energy_eV=5.244111889624037e-06 branch=left pbc="F F F"
C        0.18736738      -0.38412280      -1.78923383
O        0.50420839      -1.41931816      -0.98279544
O        0.80596479      -0.41216114       1.68244095
C        0.28513517       0.92330889      -1.53350083
C       -0.20629218      -0.16764676       2.30434126
O       -1.36970721       0.20405011       1.77816151
H       -1.26235513       0.25204108       0.81038035
H       -0.18914292      -0.73876760      -2.74497753
H        0.77786612      -1.08282569      -0.10731669
H        0.72427728       1.31650107      -0.62613339
H       -0.29088682      -0.21725077       3.39566857
H       -0.00186247       1.64209266      -2.28787255
12
Properties=species:S:1:pos:R:3 relative_energy_eV=5.304754995449912e-05 branch=left pbc="F F F"
C        0.18566025      -0.38426451      -1.78801740
O        0.50382451      -1.41931725      -0.98196679
O        0.80743673      -0.40854324       1.68286323
C        0.28661727       0.92323097      -1.53321924
C       -0.20677720      -0.16766325       2.30362436
O       -1.37090753       0.20081783       1.77631065
H       -1.26242449       0.25005033       0.80869574
H       -0.19466673      -0.73833407      -2.74246214
H        0.77986005      -1.08218726      -0.10748500
H        0.72958108       1.31544541      -0.62729445
H       -0.29170762      -0.21582993       3.39466906
H       -0.00192393       1.64249592      -2.28655557
12
Properties=species:S:1:pos:R:3 relative_energy_eV=0.0001516105894552311 branch=left pbc="F F F"
C        0.18235183      -0.38418966      -1.78592398
O        0.50240727      -1.41786575      -0.97886442
O        0.80981925      -0.40129580       1.68471076
C        0.28942092       0.92359288      -1.53492392
C       -0.20766431      -0.16855000       2.30341179
O       -1.37243395       0.19529317       1.77397798
H       -1.26148418       0.24864032       0.80679671
H       -0.20517401      -0.73937428      -2.73704279
H        0.78365768      -1.07849078      -0.10692389
H        0.73900781       1.31474279      -0.63195297
H       -0.29490573      -0.21919996       3.39402951
H       -0.00043022       1.64259811      -2.28813215
12
Properties=species:S:1:pos:R:3 relative_energy_eV=0.0002477777670719661 branch=left pbc="F F F"
C        0.17936444      -0.38386633      -1.78423867
O        0.50082978      -1.41557642      -0.97511913
O        0.81189942      -0.39492679       1.68738921
C        0.29208682       0.92426587      -1.53802414
C       -0.20847875      -0.16989288       2.30408720
O       -1.37336449       0.19058752       1.77256369
H       -1.25988488       0.24851289       0.80589009
H       -0.21486808      -0.74146896      -2.73176959
H        0.78707050      -1.07343631      -0.10584009
H        0.74735858       1.31516174      -0.63794939
H       -0.29912577      -0.22574106       3.39431664
H        0.00168479       1.64228188      -2.29214302
12
Properties=species:S:1:pos:R:3 relative_energy_eV=0.00031632502577849664 branch=left pbc="F F F"
C        0.17759291      -0.38359722      -1.78335852
O        0.49950079      -1.41394837      -0.97251514
O        0.81308934      -0.39071182       1.68910233
C        0.29373761       0.92471759      -1.54035442
C       -0.20883077      -0.17064247       2.30470618
O       -1.37366621       0.18798929       1.77198467
H       -1.25863270       0.24886918       0.80567377
H       -0.22052982      -0.74317717      -2.72859519
H        0.78892709      -1.06998431      -0.10495244
H        0.75200674       1.31573612      -0.64189543
H       -0.30205025      -0.23125979       3.39473390
H        0.00342764       1.64191019      -2.29536681
12
Properties=species:S:1:pos:R:3 relative_energy_eV=0.000352178079992882 branch=left pbc="F F F"
C        0.17685575      -0.38339131      -1.78313433
O        0.49876547      -1.41290962      -0.97107258
O        0.81365657      -0.38892655       1.69031558
C        0.29456697       0.92501224      -1.54194770
C       -0.20895548      -0.17101726       2.30534775
O       -1.37356882       0.18703296       1.77194200
H       -1.25772610       0.24910851       0.80581309
H       -0.22306926      -0.74430364      -2.72717181
H        0.78965348      -1.06788163      -0.10437950
H        0.75398192       1.31642260      -0.64423767
H       -0.30396514      -0.23485834       3.39528003
H        0.00437701       1.64161329      -2.29759189
12
Properties=species:S:1:pos:R:3 relative_energy_eV=0.00037765028355352115 branch=left pbc="F F F"
C        0.17652710      -0.38330619      -1.78310891
O        0.49818963      -1.41246458      -0.97035442
O        0.81395548      -0.38774848       1.69082886
C        0.29500493       0.92508109      -1.54271728
C       -0.20890455      -0.17096627       2.30564940
O       -1.37341545       0.18669276       1.77191657
H       -1.25719281       0.24912058       0.80591019
H       -0.22409179      -0.74484426      -2.72662043
H        0.78979311      -1.06694944      -0.10407854
H        0.75475793       1.31676873      -0.64524914
H       -0.30495122      -0.23690309       3.39556161
H        0.00489998       1.64142042      -2.29857492
12
Properties=species:S:1:pos:R:3 relative_energy_eV=0.00038199802293092944 branch=left pbc="F F F"
C        0.17642599      -0.38327243      -1.78321699
O        0.49792472      -1.41220102      -0.97000164
O        0.81414512      -0.38721260       1.69130266
C        0.29529410       0.92508687      -1.54325684
C       -0.20886814      -0.17080545       2.30596840
O       -1.37323677       0.18674513       1.77197986
H       -1.25680543       0.24887968       0.80600535
H       -0.22450122      -0.74511230      -2.72645489
H        0.78972642      -1.06636833      -0.10393444
H        0.75517257       1.31712874      -0.64594780
H       -0.30572213      -0.23822724       3.39584562
H        0.00501714       1.64126021      -2.29912629
12
Properties=species:S:1:pos:R:3 relative_energy_eV=0.00039506526809418574 branch=left pbc="F F F"
C        0.17624485      -0.38335362      -1.78319722
O        0.49769598      -1.41223882      -0.96984641
O        0.81432083      -0.38618395       1.69133650
C        0.29562814       0.92492178      -1.54337385
C       -0.20879952      -0.17037219       2.30597833
O       -1.37323137       0.18670296       1.77186155
H       -1.25666373       0.24851731       0.80596589
H       -0.22484326      -0.74504554      -2.72632778
H        0.78953433      -1.06624448      -0.10389772
H        0.75584417       1.31724720      -0.64627199
H       -0.30608468      -0.23912685       3.39584719
H        0.00492662       1.64107747      -2.29891148
12
Properties=species:S:1:pos:R:3 relative_energy_eV=0.00041106487879005726 branch=left pbc="F F F"
C        0.17592005      -0.38350078      -1.78297582
O        0.49813199      -1.41226441      -0.96981805
O        0.81437189      -0.38513077       1.69136032
C        0.29614326       0.92474549      -1.54346480
C       -0.20897763      -0.16993264       2.30597741
O       -1.37351264       0.18676056       1.77182413
H       -1.25685264       0.24794230       0.80589645
H       -0.22573540      -0.74484412      -2.72583695
H        0.78967448      -1.06605690      -0.10394908
H        0.75755952       1.31760940      -0.64711434
H       -0.30648425      -0.24019276       3.39574481
H        0.00433374       1.64076592      -2.29848106
12
Properties=species:S:1:pos:R:3 relative_energy_eV=0.0004269407018000493 branch=left pbc="F F F"
C        0.17522062      -0.38371821      -1.78215508
O        0.49923289      -1.41242117      -0.96982860
O        0.81416220      -0.38349651       1.69068000
C        0.29690549       0.92454797      -1.54315278
C       -0.20940582      -0.16961244       2.30546541
O       -1.37438033       0.18633784       1.77158296
H       -1.25767984       0.24765214       0.80571891
H       -0.22769660      -0.74454190      -2.72454753
H        0.79037904      -1.06600837      -0.10401966
H        0.76068116       1.31801008      -0.64823401
H       -0.30633957      -0.24121346       3.39518675
H        0.00349312       1.64036534      -2.29753333
12
Properties=species:S:1:pos:R:3 relative_energy_eV=0.00046904097325750627 branch=left pbc="F F F"
C        0.17439473      -0.38373606      -1.78096355
O        0.50118989      -1.41214757      -0.96962999
O        0.81353250      -0.38256414       1.68995742
C        0.29772895       0.92475459      -1.54317431
C       -0.21024857      -0.17000661       2.30496496
O       -1.37554334       0.18606974       1.77168131
H       -1.25897513       0.24772251       0.80576047
H       -0.23073484      -0.74477589      -2.72231887
H        0.79220309      -1.06555309      -0.10387439
H        0.76468346       1.31910828      -0.65027300
H       -0.30627435      -0.24287232       3.39452663
H        0.00261595       1.63990184      -2.29749362
12
Properties=species:S:1:pos:R:3 relative_energy_eV=0.0005147516858414747 branch=left pbc="F F F"
C        0.17370744      -0.38359963      -1.77949866
O        0.50313285      -1.41195800      -0.96925377
O        0.81273533      -0.38203950       1.68870408
C        0.29864426       0.92511621      -1.54295542
C       -0.21101155      -0.17071428       2.30407220
O       -1.37664535       0.18554247       1.77148500
H       -1.26047356       0.24783703       0.80563529
H       -0.23428276      -0.74523970      -2.71967095
H        0.79430910      -1.06518959      -0.10358898
H        0.76830922       1.32039420      -0.65194172
H       -0.30590061      -0.24392884       3.39373530
H        0.00204797       1.63968095      -2.29755928
12
Properties=species:S:1:pos:R:3 relative_energy_eV=0.0005720708359149285 branch=left pbc="F F F"
C        0.17356085      -0.38320269      -1.77834955
O        0.50436622      -1.41136404      -0.96825308
O        0.81195572      -0.38184529       1.68769957
C        0.29954228       0.92590976      -1.54366227
C       -0.21171534      -0.17196082       2.30352632
O       -1.37725148       0.18584667       1.77194240
H       -1.26182474       0.24833615       0.80613363
H       -0.23747847      -0.74642443      -2.71689910
H        0.79660451      -1.06464882      -0.10267013
H        0.77108839       1.32253227      -0.65408813
H       -0.30616756      -0.24661162       3.39299118
H        0.00189195       1.63933419      -2.29920773
12
Properties=species:S:1:pos:R:3 relative_energy_eV=0.0006204326000442961 branch=left pbc="F F F"
C        0.17400431      -0.38293499      -1.77740653
O        0.50468602      -1.41171640      -0.96767750
O        0.81168344      -0.38129339       1.68605496
C        0.30061204       0.92625301      -1.54338963
C       -0.21175015      -0.17221946       2.30251316
O       -1.37739518       0.18562649       1.77151596
H       -1.26295601       0.24757319       0.80569851
H       -0.23982324      -0.74652096      -2.71495725
H        0.79758337      -1.06537177      -0.10203816
H        0.77258569       1.32386300      -0.65443953
H       -0.30608728      -0.24675120       3.39231912
H        0.00142933       1.63939383      -2.29902999
12
Properties=species:S:1:pos:R:3 relative_energy_eV=0.0006777519556635525 branch=left pbc="F F F"
C        0.17495708      -0.38307621      -1.77737887
O        0.50369310      -1.41170979      -0.96646731
O        0.81181498      -0.37888930       1.68550268
C        0.30175454       0.92636936      -1.54478749
C       -0.21175238      -0.17287262       2.30258235
O       -1.37738033       0.18608560       1.77273289
H       -1.26336933       0.24974433       0.80724424
H       -0.24025977      -0.74721983      -2.71407506
H        0.79699844      -1.06514562      -0.10105189
H        0.77340448       1.32530827      -0.65606469
H       -0.30674602      -0.25136325       3.39177963
H        0.00145756       1.63867040      -2.30085338
12
Properties=species:S:1:pos:R:3 relative_energy_eV=0.0007285654264705954 branch=left pbc="F F F"
C        0.17575407      -0.38310778      -1.77696790
O        0.50264997      -1.41271597      -0.96638206
O        0.81241370      -0.37645886       1.68367991
C        0.30262793       0.92629308      -1.54426482
C       -0.21125320      -0.17213178       2.30172788
O       -1.37744123       0.18522798       1.77244792
H       -1.26400426       0.24966598       0.80679669
H       -0.24048633      -0.74612761      -2.71347053
H        0.79579544      -1.06763466      -0.10027605
H        0.77411977       1.32582569      -0.65558679
H       -0.30647168      -0.25123493       3.39122644
H        0.00086817       1.63830019      -2.29976758
12
Properties=species:S:1:pos:R:3 relative_energy_eV=0.0008293927949125646 branch=left pbc="F F F"
C        0.17692508      -0.38395326      -1.77704728
O        0.50120662      -1.41365595      -0.96570946
O        0.81331553      -0.37032182       1.68258831
C        0.30426643       0.92555279      -1.54547063
C       -0.21094450      -0.17209114       2.30184399
O       -1.37809930       0.18411419       1.77425143
H       -1.26423539       0.25486304       0.80908187
H       -0.23986408      -0.74563622      -2.71347662
H        0.79216348      -1.06885365      -0.09930813
H        0.77522319       1.32642531      -0.65713101
H       -0.30647540      -0.25738795       3.39069369
H        0.00109072       1.63684599      -2.30115305
12
Properties=species:S:1:pos:R:3 relative_energy_eV=0.001043781585394754 branch=left pbc="F F F"
C        0.17729325      -0.38487442      -1.77709514
O        0.50074289      -1.41451562      -0.96580955
O        0.81426982      -0.36190283       1.68118468
C        0.30527763       0.92491041      -1.54681019
C       -0.21098167      -0.17228639       2.30231211
O       -1.37985351       0.18153828       1.77705682
H       -1.26439356       0.26364179       0.81252558
H       -0.23929135      -0.74528832      -2.71363868
H        0.78760628      -1.07136553      -0.09790897
H        0.77713550       1.32680974      -0.65941576
H       -0.30593288      -0.26544549       3.39063892
H        0.00270000       1.63467969      -2.30387670
12
Properties=species:S:1:pos:R:3 relative_energy_eV=0.0013337966956896707 branch=left pbc="F F F"
C        0.17680495      -0.38588936      -1.77752831
O        0.50210961      -1.41428546      -0.96585468
O        0.81418948      -0.35394473       1.68116353
C        0.30600751       0.92415926      -1.54941680
C       -0.21190096      -0.17388663       2.30378216
O       -1.38240107       0.17910203       1.78121480
H       -1.26432577       0.27568102       0.81801783
H       -0.23986399      -0.74697030      -2.71384856
H        0.78466838      -1.07082702      -0.09725492
H        0.77911221       1.32683352      -0.66327775
H       -0.30566240      -0.27669603       3.39133080
H        0.00583450       1.63262496      -2.30916494
12
Properties=species:S:1:pos:R:3 relative_energy_eV=0.001592280774275423 branch=left pbc="F F F"
C        0.17584563      -0.38626466      -1.77828067
O        0.50440001      -1.41309888      -0.96612170
O        0.81316115      -0.34995354       1.68175520
C        0.30579552       0.92408813      -1.55180615
C       -0.21321657      -0.17587575       2.30544030
O       -1.38458758       0.17759949       1.78479980
H       -1.26413410       0.28497142       0.82267340
H       -0.24121582      -0.74982096      -2.71389738
H        0.78476908      -1.06883007      -0.09714699
H        0.78071658       1.32683110      -0.66666822
H       -0.30584601      -0.28513236       3.39254741
H        0.00888460       1.63138733      -2.31413185
12
Properties=species:S:1:pos:R:3 relative_energy_eV=0.0017811050311138388 branch=left pbc="F F F"
C        0.17509300      -0.38627276      -1.77913377
O        0.50723774      -1.41163285      -0.96636878
O        0.81158954      -0.34881969       1.68276062
C        0.30584774       0.92401612      -1.55402922
C       -0.21458508      -0.17768239       2.30695554
O       -1.38627499       0.17689023       1.78742276
H       -1.26422995       0.29092673       0.82609619
H       -0.24347846      -0.75272752      -2.71352417
H        0.78697494      -1.06580973      -0.09765341
H        0.78219812       1.32653064      -0.66950231
H       -0.30644392      -0.29066308       3.39380448
H        0.01064385       1.63114555      -2.31766479
12
Properties=species:S:1:pos:R:3 relative_energy_eV=0.0019891391129931435 branch=left pbc="F F F"
C        0.17494288      -0.38624421      -1.78090224
O        0.51135897      -1.40968971      -0.96718929
O        0.80903103      -0.34915387       1.68373299
C        0.30599846       0.92411826      -1.55631260
C       -0.21646583      -0.17943324       2.30887308
O       -1.38812826       0.17636929       1.79009914
H       -1.26454741       0.29538430       0.82945172
H       -0.24695161      -0.75665093      -2.71306240
H        0.79074618      -1.06120548      -0.09899674
H        0.78567930       1.32549867      -0.67281794
H       -0.30780375      -0.29464786       3.39563282
H        0.01071259       1.63155601      -2.31934539
12
Properties=species:S:1:pos:R:3 relative_energy_eV=0.002253930397273507 branch=left pbc="F F F"
C        0.17525877      -0.38632910      -1.78298205
O        0.51677908      -1.40786712      -0.96805934
O        0.80584190      -0.34728967       1.68450204
C        0.30774067       0.92343929      -1.55966891
C       -0.21888967      -0.18052210       2.31079276
O       -1.39099077       0.17601864       1.79330235
H       -1.26714754       0.29933827       0.83329831
H       -0.25226080      -0.76029183      -2.71143774
H        0.79732506      -1.05616758      -0.10115834
H        0.79341612       1.32226260      -0.67805087
H       -0.30987107      -0.29964325       3.39706293
H        0.00737081       1.63295308      -2.31843803
12
Properties=species:S:1:pos:R:3 relative_energy_eV=0.0026527267073106486 branch=left pbc="F F F"
C        0.17672657      -0.38785794      -1.78538197
O        0.51981116      -1.40784153      -0.96897314
O        0.80367743      -0.34033634       1.68261369
C        0.31045969       0.92184545      -1.56109622
C       -0.22055792      -0.17965758       2.31134538
O       -1.39395413       0.17559568       1.79627618
H       -1.27131232       0.30304154       0.83677884
H       -0.25637425      -0.76331127      -2.71087260
H        0.80116147      -1.05161860      -0.10406895
H        0.80376813       1.31633493      -0.68246409
H       -0.31098810      -0.30478849       3.39694066
H        0.00215482       1.63449535      -2.31193469
12
Properties=species:S:1:pos:R:3 relative_energy_eV=0.00323441013097181 branch=left pbc="F F F"
C        0.17744295      -0.38985927      -1.78625921
O        0.51910119      -1.40947818      -0.96830513
O        0.80344621      -0.32701416       1.67935312
C        0.31356728       0.91923161      -1.56213368
C       -0.22116731      -0.17750069       2.31038527
O       -1.39685959       0.17616504       1.79948166
H       -1.27795047       0.30796010       0.84032353
H       -0.25765441      -0.76379905      -2.71067937
H        0.80407645      -1.05010798      -0.10609574
H        0.81526669       1.30882993      -0.68627050
H       -0.31097091      -0.31388444       3.39448042
H       -0.00372551       1.63535831      -2.30511733
12
Properties=species:S:1:pos:R:3 relative_energy_eV=0.0037935615746391704 branch=left pbc="F F F"
C        0.17755566      -0.39244580      -1.78596112
O        0.51190015      -1.41233059      -0.96607840
O        0.80604961      -0.31344200       1.67525561
C        0.31519602       0.91678262      -1.56081056
C       -0.21957023      -0.17532346       2.30812259
O       -1.39740091       0.17742229       1.80140816
H       -1.28177201       0.31398104       0.84260178
H       -0.25312997      -0.76354823      -2.71298864
H        0.80021779      -1.05069154      -0.10626453
H        0.81787020       1.30435469      -0.68559889
H       -0.30865213      -0.32344827       3.39075360
H       -0.00369158       1.63459043      -2.30127656
12
Properties=species:S:1:pos:R:3 relative_energy_eV=0.004268611575753312 branch=left pbc="F F F"
C        0.17653206      -0.39432972      -1.78488198
O        0.50303030      -1.41474574      -0.96287075
O        0.80913737      -0.30150658       1.67266930
C        0.31530099       0.91493758      -1.56013086
C       -0.21768437      -0.17444001       2.30626851
O       -1.39704582       0.17966276       1.80366744
H       -1.28393805       0.32098439       0.84527017
H       -0.24637986      -0.76314157      -2.71571870
H        0.79614022      -1.05185746      -0.10557608
H        0.81649866       1.30262055      -0.68395197
H       -0.30643648      -0.33483435       3.38723153
H       -0.00058237       1.63255132      -2.30281360
12
Properties=species:S:1:pos:R:3 relative_energy_eV=0.004596954642693163 branch=left pbc="F F F"
C        0.17529829      -0.39570452      -1.78408360
O        0.49431181      -1.41648086      -0.96007839
O        0.81201730      -0.29368041       1.67057902
C        0.31485946       0.91369755      -1.55906990
C       -0.21562322      -0.17423737       2.30462001
O       -1.39599518       0.18145971       1.80495256
H       -1.28379239       0.32689647       0.84698513
H       -0.23982351      -0.76359844      -2.71844783
H        0.79155001      -1.05311205      -0.10426883
H        0.81042895       1.30306606      -0.68094309
H       -0.30397618      -0.34321142       3.38467359
H        0.00531734       1.63080644      -2.30575568
12
Properties=species:S:1:pos:R:3 relative_energy_eV=0.004864321193963406 branch=left pbc="F F F"
C        0.17401414      -0.39653823      -1.78366753
O        0.48753188      -1.41762975      -0.95771820
O        0.81384074      -0.28814637       1.66992596
C        0.31372699       0.91286807      -1.55883032
C       -0.21427022      -0.17491805       2.30398941
O       -1.39492981       0.18362544       1.80686879
H       -1.28295386       0.33250507       0.84933794
H       -0.23462951      -0.76448195      -2.72103101
H        0.78902145      -1.05290505      -0.10390535
H        0.80425060       1.30449778      -0.67814772
H       -0.30270698      -0.35147259       3.38318269
H        0.01167730       1.62849677      -2.31084166
12
Properties=species:S:1:pos:R:3 relative_energy_eV=0.005031242659242707 branch=left pbc="F F F"
C        0.17310303      -0.39698287      -1.78368836
O        0.48341202      -1.41842422      -0.95677780
O        0.81490848      -0.28521096       1.66886531
C        0.31320968       0.91217080      -1.55803288
C       -0.21323265      -0.17484553       2.30328315
O       -1.39431289       0.18462877       1.80737368
H       -1.28233412       0.33515029       0.85007830
H       -0.23234421      -0.76515899      -2.72242212
H        0.78814335      -1.05351952      -0.10365683
H        0.79856797       1.30526277      -0.67509359
H       -0.30137909      -0.35480722       3.38234955
H        0.01683116       1.62763781      -2.31311541
12
Properties=species:S:1:pos:R:3 relative_energy_eV=0.0055270136508625 branch=left pbc="F F F"
C        0.17112838      -0.39801026      -1.78343387
O        0.48051150      -1.42263033      -0.95917197
O        0.81610784      -0.27747131       1.66390044
C        0.31257835       0.90944153      -1.55158559
C       -0.21142298      -0.17038835       2.30016392
O       -1.39417109       0.18529968       1.80615321
H       -1.28513641       0.33325417       0.84833699
H       -0.23598098      -0.76332348      -2.72332815
H        0.79228498      -1.05685143      -0.10878022
H        0.78999681       1.30176140      -0.66214030
H       -0.29794504      -0.35166459       3.37912093
H        0.02662138       1.62648412      -2.31007239
12
Properties=species:S:1:pos:R:3 relative_energy_eV=0.005924339453486027 branch=left pbc="F F F"
C        0.16956776      -0.39853653      -1.78213572
O        0.48057241      -1.42663540      -0.96280137
O        0.81689132      -0.27180347       1.65781817
C        0.31303357       0.90732879      -1.54402753
C       -0.20990471      -0.16481110       2.29578435
O       -1.39493609       0.18309057       1.80207499
H       -1.28868417       0.32650740       0.84356544
H       -0.24127851      -0.75965053      -2.72208387
H        0.79570606      -1.06293687      -0.11273233
H        0.78761135       1.29633794      -0.65124734
H       -0.29396097      -0.34058326       3.37552440
H        0.02995469       1.62759361      -2.30057622
12
Properties=species:S:1:pos:R:3 relative_energy_eV=0.006521529434394324 branch=left pbc="F F F"
C        0.16677042      -0.39913780      -1.77787344
O        0.48473136      -1.43337231      -0.97027216
O        0.81779535      -0.26172616       1.64567382
C        0.31518617       0.90416652      -1.52947272
C       -0.20780215      -0.15405414       2.28608046
O       -1.39705933       0.17677816       1.79283850
H       -1.29609063       0.30906275       0.83259520
H       -0.25308994      -0.75078085      -2.71697302
H        0.80028369      -1.07561469      -0.11905760
H        0.79261881       1.28380294      -0.63476862
H       -0.28696755      -0.31412597       3.36712631
H        0.02819642       1.63090270      -2.27673378
12
Properties=species:S:1:pos:R:3 relative_energy_eV=0.007146824755182024 branch=left pbc="F F F"
C        0.16496773      -0.39936036      -1.77478979
O        0.48876293      -1.43824229      -0.97617692
O        0.81858553      -0.25390213       1.63796100
C        0.31658780       0.90264164      -1.51948548
C       -0.20616529      -0.14625489       2.27952713
O       -1.39877695       0.17306657       1.78594963
H       -1.30170331       0.29521184       0.82414783
H       -0.26107378      -0.74387773      -2.71356454
H        0.80273642      -1.08691683      -0.12277153
H        0.79788696       1.27434154      -0.62477939
H       -0.28230928      -0.29495590       3.36200490
H        0.02507378       1.63414972      -2.25885992
12
Properties=species:S:1:pos:R:3 relative_energy_eV=0.007521473906308529 branch=left pbc="F F F"
C        0.16457839      -0.39928526      -1.77424045
O        0.48995684      -1.43859202      -0.97681915
O        0.81892328      -0.24903593       1.63868978
C        0.31719677       0.90278647      -1.51944825
C       -0.20599098      -0.14544705       2.27885985
O       -1.39895361       0.17491457       1.78665281
H       -1.30254679       0.29333055       0.82435302
H       -0.26300980      -0.74315863      -2.71286784
H        0.80296757      -1.08968417      -0.12264393
H        0.79849133       1.27289609      -0.62586545
H       -0.28270262      -0.29702758       3.36025710
H        0.02566217       1.63420413      -2.25776457
12
Properties=species:S:1:pos:R:3 relative_energy_eV=0.007835419362891116 branch=left pbc="F F F"
C        0.16507772      -0.39933271      -1.77507870
O        0.49444532      -1.43725298      -0.97822719
O        0.81844318      -0.24810231       1.63824172
C        0.31674140       0.90288133      -1.52084038
C       -0.20716981      -0.14575734       2.27824443
O       -1.39936619       0.17862442       1.78862520
H       -1.30299992       0.29106288       0.82575726
H       -0.26545643      -0.74474594      -2.71171756
H        0.80287900      -1.08847622      -0.12276790
H        0.80141975       1.27011177      -0.62761522
H       -0.28437141      -0.29933081       3.36217986
H        0.02492994       1.63621908      -2.25763859
12
Properties=species:S:1:pos:R:3 relative_energy_eV=0.008628944655356463 branch=left pbc="F F F"
C        0.16826849      -0.39916890      -1.77936286
O        0.50134862      -1.43389270      -0.97890720
O        0.81710188      -0.24665417       1.64825388
C        0.31625708       0.90481242      -1.53205309
C       -0.21018157      -0.14780457       2.28885179
O       -1.40027678       0.18892396       1.79751685
H       -1.30163761       0.29666285       0.83553370
H       -0.26703689      -0.75049931      -2.71244879
H        0.80541465      -1.08277784      -0.12292652
H        0.80194077       1.27197882      -0.63972820
H       -0.29277107      -0.32252699       3.36716543
H        0.02614501       1.63684761      -2.27273207
12
Properties=species:S:1:pos:R:3 relative_energy_eV=0.011444166531873634 branch=left pbc="F F F"
C        0.17311656      -0.39844458      -1.78693868
O        0.50446718      -1.42816365      -0.97589994
O        0.81453199      -0.24488770       1.66473366
C        0.31404273       0.90832350      -1.54879083
C       -0.21443508      -0.15425194       2.30168721
O       -1.40006737       0.20798107       1.81205493
H       -1.29932618       0.30925304       0.84857209
H       -0.26543612      -0.75991686      -2.71711336
H        0.81193554      -1.07552227      -0.12307569
H        0.79407764       1.27856724      -0.65535023
H       -0.30200104      -0.36185135       3.37841852
H        0.03366679       1.63481468      -2.29913478
12
Properties=species:S:1:pos:R:3 relative_energy_eV=0.014524058315146249 branch=left pbc="F F F"
C        0.17651666      -0.39879610      -1.79482975
O        0.50521013      -1.41019657      -0.96172590
O        0.81330312      -0.24952008       1.68529437
C        0.31675636       0.91064440      -1.58146442
C       -0.22034091      -0.17277824       2.31908561
O       -1.39668658       0.22710844       1.83771309
H       -1.29176593       0.34397902       0.87769179
H       -0.26167432      -0.78034099      -2.71578119
H        0.81173200      -1.04257405      -0.11569400
H        0.78351363       1.29442340      -0.68568651
H       -0.31912792      -0.43107829       3.38255358
H        0.04713656       1.62503022      -2.34799372
12
Properties=species:S:1:pos:R:3 relative_energy_eV=0.018914671014499618 branch=left pbc="F F F"
C        0.17706980      -0.39905444      -1.79981502
O        0.49544528      -1.39278700      -0.94271316
O        0.81453623      -0.24903177       1.70672399
C        0.31965736       0.91346884      -1.61259816
C       -0.22333355      -0.19594180       2.33122209
O       -1.38935017       0.24195948       1.86205365
H       -1.27792008       0.38514194       0.90852827
H       -0.24894389      -0.79929121      -2.71839599
H        0.79896517      -1.00926374      -0.10182029
H        0.76746174       1.31546375      -0.71580800
H       -0.33374796      -0.50288872       3.38043792
H        0.06473307       1.60812577      -2.39865234
12
Properties=species:S:1:pos:R:3 relative_energy_eV=0.02284051060087222 branch=left pbc="F F F"
C        0.17634743      -0.40077168      -1.80382400
O        0.49530669      -1.39850176      -0.94625195
O        0.81754032      -0.24709914       1.70586189
C        0.31642604       0.91356448      -1.61218066
C       -0.21843603      -0.19611029       2.33591112
O       -1.38165835       0.24979779       1.85795702
H       -1.27590657       0.38770614       0.90369201
H       -0.23821418      -0.79713370      -2.73154665
H        0.77852366      -1.01313359      -0.09498733
H        0.75207983       1.31243925      -0.70528871
H       -0.32939789      -0.50588720       3.39073883
H        0.07196213       1.61103082      -2.40091859
12
Properties=species:S:1:pos:R:3 relative_energy_eV=0.028875025429442758 branch=left pbc="F F F"
C        0.17667447      -0.40257185      -1.80550228
O        0.49724171      -1.39405519      -0.94181834
O        0.81929134      -0.24453274       1.71046117
C        0.31930931       0.91318146      -1.62081851
C       -0.21564247      -0.20260252       2.33805037
O       -1.37349256       0.26376935       1.86881072
H       -1.27390534       0.39296945       0.90363040
H       -0.23249406      -0.80338999      -2.73168738
H        0.75282276      -0.99823792      -0.08051023
H        0.75443381       1.31414007      -0.71035955
H       -0.33032285      -0.53169492       3.38255283
H        0.07065702       1.60892591      -2.41364619
12
Properties=species:S:1:pos:R:3 relative_energy_eV=0.03333930060216517 branch=left pbc="F F F"
C        0.17568477      -0.40184867      -1.81096298
O        0.48485447      -1.36149677      -0.91054457
O        0.81661591      -0.25689572       1.74490999
C        0.32935016       0.91528318      -1.67206534
C       -0.22839229      -0.23888295       2.36201793
O       -1.37433523       0.26691834       1.90741286
H       -1.26057735       0.46096736       0.96139658
H       -0.22871078      -0.83254565      -2.72375634
H        0.78539191      -0.94701328      -0.08475855
H        0.73589980       1.35518509      -0.76971589
H       -0.36594928      -0.62511522       3.38439786
H        0.09474125       1.58134535      -2.48916852
12
Properties=species:S:1:pos:R:3 relative_energy_eV=0.04206956407870166 branch=left pbc="F F F"
C        0.17528761      -0.40035882      -1.81075635
O        0.48314373      -1.34592845      -0.89394582
O        0.81388641      -0.26166032       1.75758681
C        0.33186707       0.91555427      -1.69093363
C       -0.23495758      -0.25152221       2.37232075
O       -1.37456702       0.27349647       1.92876793
H       -1.26319868       0.47919194       0.97851694
H       -0.23269573      -0.84420341      -2.71585923
H        0.80704409      -0.92757494      -0.08718042
H        0.74364555       1.37250279      -0.80012290
H       -0.38198590      -0.66430263       3.37684463
H        0.09710383       1.57070637      -2.51607567
12
Properties=species:S:1:pos:R:3 relative_energy_eV=0.048975647252518684 branch=left pbc="F F F"
C        0.16753477      -0.40390094      -1.81331106
O        0.49639126      -1.37765318      -0.92449724
O        0.81554286      -0.25009750       1.73357046
C        0.32016107       0.91531266      -1.65893704
C       -0.22230115      -0.23561766       2.36311694
O       -1.35962503       0.27826543       1.90130794
H       -1.25964952       0.43707133       0.93982761
H       -0.21204215      -0.81868635      -2.74790228
H        0.75815261      -0.96800170      -0.07397895
H        0.73697485       1.34506865      -0.75195941
H       -0.36372819      -0.59836889       3.40265905
H        0.08716193       1.59250922      -2.47073295
12
Properties=species:S:1:pos:R:3 relative_energy_eV=0.05570864498622541 branch=left pbc="F F F"
C        0.16570387      -0.40285666      -1.80963051
O        0.48589365      -1.34735789      -0.89345353
O        0.81537421      -0.24309125       1.76320719
C        0.33138411       0.91704284      -1.70223739
C       -0.23001901      -0.26653504       2.37208200
O       -1.36021128       0.27123774       1.92732797
H       -1.23277886       0.49439590       0.99819347
H       -0.20796124      -0.84240635      -2.72935099
H        0.74322653      -0.91027275      -0.05209243
H        0.74838013       1.37031763      -0.80866268
H       -0.38741261      -0.68972550       3.36959824
H        0.09299401       1.56515237      -2.53581823
12
Properties=species:S:1:pos:R:3 relative_energy_eV=0.06148131314876082 branch=left pbc="F F F"
C        0.16930449      -0.40145685      -1.80729562
O        0.48144824      -1.32328701      -0.86844605
O        0.80278760      -0.26084799       1.78140945
C        0.35726932       0.92052973      -1.74316276
C       -0.24607371      -0.28667415       2.39094919
O       -1.37553557       0.27180139       1.96379689
H       -1.22608785       0.54367489       1.03540212
H       -0.22685859      -0.86018166      -2.70637531
H        0.80694743      -0.86203458      -0.07530716
H        0.72705220       1.39705946      -0.84413431
H       -0.41204203      -0.76257764       3.37056251
H        0.10636209       1.53989540      -2.59823586
12
Properties=species:S:1:pos:R:3 relative_energy_eV=0.06916431923491473 branch=left pbc="F F F"
C        0.17081533      -0.39958283      -1.80481080
O        0.46186422      -1.30116799      -0.84255851
O        0.80335615      -0.25947690       1.80489569
C        0.36664134       0.92203980      -1.77248273
C       -0.25190989      -0.30570345       2.39640389
O       -1.38177282       0.26261930       1.97927272
H       -1.21341996       0.59116560       1.07603330
H       -0.22795750      -0.87808158      -2.69127570
H        0.82224026      -0.82983440      -0.07418597
H        0.71705611       1.42055583      -0.87967977
H       -0.42478441      -0.82474872       3.35225617
H        0.12244492       1.51811631      -2.64470519
12
Properties=species:S:1:pos:R:3 relative_energy_eV=0.07630275036171952 branch=left pbc="F F F"
C        0.17417284      -0.39909137      -1.80371252
O        0.43398081      -1.27819635      -0.81469915
O        0.81068998      -0.26064306       1.82233963
C        0.36906545       0.92199596      -1.79422638
C       -0.25332487      -0.32293515       2.39793661
O       -1.38310653       0.25651067       1.99326789
H       -1.20397527       0.63706086       1.11059826
H       -0.22502046      -0.90169858      -2.67896955
H        0.82383272      -0.79882746      -0.06628052
H        0.70026327       1.44691413      -0.91126255
H       -0.43148649      -0.88305406       3.32718873
H        0.14948243       1.49786531      -2.68301734
12
Properties=species:S:1:pos:R:3 relative_energy_eV=0.08108302877189999 branch=left pbc="F F F"
C        0.17560115      -0.39906201      -1.80438360
O        0.41173744      -1.26252379      -0.79606839
O        0.81899886      -0.25779968       1.83919268
C        0.36763222       0.92116144      -1.81065256
C       -0.25235309      -0.33719765       2.39757170
O       -1.38153152       0.24809468       1.99752118
H       -1.19381901       0.67437790       1.14078237
H       -0.21794102      -0.91937974      -2.67346120
H        0.81275304      -0.77757420      -0.05524034
H        0.68735829       1.46531948      -0.93415932
H       -0.43512970      -0.92379488       3.30822405
H        0.17126736       1.48427934      -2.71016346
12
Properties=species:S:1:pos:R:3 relative_energy_eV=0.08415076102937746 branch=left pbc="F F F"
C        0.17652867      -0.39951543      -1.80678294
O        0.40054564      -1.25476843      -0.78691153
O        0.82432062      -0.25785076       1.85080020
C        0.36455909       0.92018097      -1.81914174
C       -0.25199530      -0.34662666       2.39812078
O       -1.37879031       0.24631882       2.00346333
H       -1.18970699       0.69386881       1.15615961
H       -0.21321767      -0.93052271      -2.67321132
H        0.80592021      -0.76555792      -0.04842025
H        0.68083343       1.47817845      -0.94881386
H       -0.43881471      -0.94508028       3.29838424
H        0.18439141       1.47727602      -2.72448338
12
Properties=species:S:1:pos:R:3 relative_energy_eV=0.08620403116765374 branch=left pbc="F F F"
C        0.17639724      -0.40059843      -1.80946670
O        0.39447579      -1.24929471      -0.78144651
O        0.82865467      -0.25756526       1.86135025
C        0.36160920       0.91875873      -1.82702709
C       -0.25201678      -0.35546868       2.39989310
O       -1.37618611       0.24158060       2.00431366
H       -1.18375881       0.71143310       1.17313829
H       -0.20794198      -0.93806009      -2.67517562
H        0.79645164      -0.75444599      -0.04328314
H        0.67730945       1.48644805      -0.96080307
H       -0.44349187      -0.95966701       3.29418235
H        0.19307175       1.47278055      -2.73651237
12
Properties=species:S:1:pos:R:3 relative_energy_eV=0.08871488891963963 branch=left pbc="F F F"
C        0.17343374      -0.40024934      -1.81033148
O        0.38594970      -1.24526571      -0.77490107
O        0.83232971      -0.25439374       1.87091625
C        0.35616037       0.91919642      -1.83500946
C       -0.25230252      -0.36540983       2.40022357
O       -1.37331019       0.23887249       2.00941732
H       -1.17706172       0.72621830       1.18725370
H       -0.19874619      -0.94430696      -2.67681315
H        0.79033268      -0.74996022      -0.03630464
H        0.67431785       1.49737784      -0.97314597
H       -0.44893354      -0.97402570       3.28873963
H        0.20240435       1.46784730      -2.75088154
12
Properties=species:S:1:pos:R:3 relative_energy_eV=0.09099915806291392 branch=left pbc="F F F"
C        0.16994222      -0.39787024      -1.80786420
O        0.38478101      -1.23611717      -0.76612490
O        0.83185656      -0.24910441       1.88364134
C        0.35383944       0.92036304      -1.84809807
C       -0.25616110      -0.37636683       2.40222568
O       -1.37506174       0.23241800       2.01342012
H       -1.17054110       0.74199754       1.20964325
H       -0.19690216      -0.94833659      -2.67160087
H        0.79302497      -0.73968300      -0.03061124
H        0.68866945       1.50461582      -0.99655356
H       -0.45902041      -0.99608614       3.28031538
H        0.20014714       1.46007082      -2.76922978
12
Properties=species:S:1:pos:R:3 relative_energy_eV=0.0930193229833094 branch=left pbc="F F F"
C        0.16594386      -0.39711753      -1.80364189
O        0.37165562      -1.23223750      -0.75761889
O        0.83508573      -0.24099038       1.88214218
C        0.34850070       0.92339294      -1.85032441
C       -0.25365149      -0.38072265       2.39799956
O       -1.37298000       0.22796251       2.01119424
H       -1.16069462       0.75282833       1.21841041
H       -0.18482903      -0.95187054      -2.66888104
H        0.77853910      -0.73983592      -0.02029715
H        0.68546186       1.50851587      -0.99958624
H       -0.45692861      -1.00982741       3.27081085
H        0.20847120       1.45580310      -2.78104444
12
Properties=species:S:1:pos:R:3 relative_energy_eV=0.09460777325512026 branch=left pbc="F F F"
C        0.16367976      -0.39382950      -1.79846869
O        0.36964390      -1.22454584      -0.74954873
O        0.83345095      -0.23429313       1.88703781
C        0.34852865       0.92577897      -1.85836205
C       -0.25582051      -0.38482599       2.39756254
O       -1.37587890       0.22454629       2.01386063
H       -1.15686877       0.75985609       1.22977593
H       -0.18510574      -0.95358489      -2.66022539
H        0.78083778      -0.73514231      -0.01400926
H        0.69996645       1.51071380      -1.01494636
H       -0.46092625      -1.02847685       3.25921486
H        0.20306700       1.44970417      -2.79272810
12
Properties=species:S:1:pos:R:3 relative_energy_eV=0.09584211297624279 branch=left pbc="F F F"
C        0.16301789      -0.39250838      -1.79551141
O        0.36366149      -1.22109986      -0.74520039
O        0.83427014      -0.22910349       1.88619076
C        0.34808053       0.92777697      -1.86004844
C       -0.25462071      -0.38472204       2.39605763
O       -1.37607545       0.22269642       2.01235635
H       -1.15206935       0.76375913       1.23365744
H       -0.18092702      -0.95551621      -2.65656430
H        0.77317720      -0.73463712      -0.00781490
H        0.70208274       1.51094746      -1.01788906
H       -0.45935549      -1.03866327       3.25183073
H        0.20333236       1.44697121      -2.79790121
12
Properties=species:S:1:pos:R:3 relative_energy_eV=0.0971380748487718 branch=left pbc="F F F"
C        0.16359159      -0.39061321      -1.79318042
O        0.35782321      -1.21687524      -0.74073764
O        0.83550866      -0.22320154       1.88730170
C        0.34996442       0.92886558      -1.86325265
C       -0.25321731      -0.38388168       2.39535814
O       -1.37595486       0.22231711       2.01267339
H       -1.14749286       0.76657674       1.23674609
H       -0.17751358      -0.95878801      -2.65244727
H        0.76275375      -0.73311792       0.00062084
H        0.70568961       1.51156730      -1.02277258
H       -0.45786848      -1.05143536       3.24104863
H        0.20129020       1.44448704      -2.80219503
12
Properties=species:S:1:pos:R:3 relative_energy_eV=0.09890739201546239 branch=left pbc="F F F"
C        0.16612773      -0.39003713      -1.79480197
O        0.35055372      -1.21396004      -0.73969309
O        0.83870082      -0.21750885       1.89225352
C        0.35331163       0.92888063      -1.86667963
C       -0.25063700      -0.38261050       2.39670672
O       -1.37376497       0.22179543       2.01129963
H       -1.13982614       0.77099124       1.24161618
H       -0.17033121      -0.96413688      -2.65345112
H        0.74343581      -0.73106238       0.00946418
H        0.70362537       1.51308201      -1.02596187
H       -0.45690959      -1.06296261       3.23368598
H        0.20028820       1.44342988      -2.80527532
12
Properties=species:S:1:pos:R:3 relative_energy_eV=0.10066519262363727 branch=left pbc="F F F"
C        0.16873829      -0.39039058      -1.79813830
O        0.34517027      -1.21308747      -0.73976750
O        0.84256799      -0.21329804       1.89917815
C        0.35718648       0.92708781      -1.87034531
C       -0.24837781      -0.38242857       2.39934600
O       -1.37049603       0.22169619       2.01110470
H       -1.13332913       0.77515113       1.24564752
H       -0.16352476      -0.96865062      -2.65707217
H        0.72432360      -0.72903663       0.01678365
H        0.69934139       1.51579800      -1.02898717
H       -0.45695565      -1.07078060       3.22839463
H        0.19992976       1.44384020      -2.80698098
12
Properties=species:S:1:pos:R:3 relative_energy_eV=0.10263519715772418 branch=left pbc="F F F"
C        0.17209649      -0.39229695      -1.80472981
O        0.34567257      -1.21295185      -0.74320404
O        0.84534714      -0.21159443       1.91298908
C        0.36172016       0.92486992      -1.87639641
C       -0.24839927      -0.38530344       2.40438895
O       -1.36802196       0.21987800       2.01151405
H       -1.12715203       0.78186348       1.25529249
H       -0.15913821      -0.97157148      -2.66347847
H        0.71034379      -0.72384013       0.01878116
H        0.69784615       1.51967634      -1.03684359
H       -0.46245682      -1.07637552       3.23078583
H        0.19671641       1.44354688      -2.80993598
12
Properties=species:S:1:pos:R:3 relative_energy_eV=0.10487020131404279 branch=left pbc="F F F"
C        0.17469756      -0.39515670      -1.80855247
O        0.34746253      -1.21385989      -0.74364116
O        0.84904174      -0.21079567       1.92358550
C        0.36559179       0.92160920      -1.88132098
C       -0.24786967      -0.38974495       2.40762060
O       -1.36527144       0.21710770       2.01093477
H       -1.12285453       0.78986542       1.26308243
H       -0.15628168      -0.97157693      -2.66882769
H        0.69423020      -0.71629418       0.02082714
H        0.69668926       1.52229240      -1.04352530
H       -0.46563810      -1.08032610       3.23094812
H        0.19477683       1.44278049      -2.81196772
12
Properties=species:S:1:pos:R:3 relative_energy_eV=0.10609814709277998 branch=left pbc="F F F"
C        0.17615410      -0.39690253      -1.81005693
O        0.35203285      -1.21201849      -0.74223943
O        0.84893520      -0.21106840       1.92918335
C        0.36783504       0.92053416      -1.88544881
C       -0.24927403      -0.39390022       2.40818117
O       -1.36604513       0.21488820       2.01128881
H       -1.12165131       0.79496360       1.26945858
H       -0.15926414      -0.97063827      -2.66758975
H        0.69098403      -0.70859496       0.02046401
H        0.70296059       1.52257111      -1.05115183
H       -0.46866241      -1.08479269       3.23095355
H        0.19056972       1.44085931      -2.81387945
12
Properties=species:S:1:pos:R:3 relative_energy_eV=0.10752362024322792 branch=left pbc="F F F"
C        0.17663866      -0.39816957      -1.80535347
O        0.35555205      -1.21067959      -0.73840236
O        0.85172598      -0.21293760       1.92820947
C        0.36770267       0.91937742      -1.88464033
C       -0.24804883      -0.39824412       2.40348370
O       -1.36454195       0.21383494       2.01088867
H       -1.12234900       0.80069689       1.27150511
H       -0.16076619      -0.96908302      -2.66589487
H        0.67663604      -0.69582755       0.02411941
H        0.70904584       1.51989102      -1.05395723
H       -0.46658649      -1.08968688       3.22510892
H        0.18956572       1.43672887      -2.81590374
12
Properties=species:S:1:pos:R:3 relative_energy_eV=0.10847236470362986 branch=left pbc="F F F"
C        0.17741460      -0.39845098      -1.80337709
O        0.36075319      -1.20788463      -0.73573271
O        0.85026261      -0.21335978       1.93003654
C        0.36830702       0.91955584      -1.88710255
C       -0.24987546      -0.40114426       2.40351532
O       -1.36633863       0.21352232       2.01319628
H       -1.12370733       0.80311338       1.27462414
H       -0.16598615      -0.96865816      -2.66034770
H        0.67751031      -0.68805130       0.02356158
H        0.71962169       1.51919548      -1.06176424
H       -0.46842933      -1.09612630       3.22103127
H        0.18504195       1.43418918      -2.81847756
12
Properties=species:S:1:pos:R:3 relative_energy_eV=0.10996502927264373 branch=left pbc="F F F"
C        0.18194975      -0.39987566      -1.80501306
O        0.35527015      -1.20597092      -0.73311125
O        0.85091779      -0.21376051       1.92687316
C        0.36578297       0.91784078      -1.88620238
C       -0.24862585      -0.40183897       2.40234937
O       -1.36440259       0.21665022       2.01355739
H       -1.11769122       0.80220174       1.27458853
H       -0.15920129      -0.96971990      -2.66380747
H        0.66367525      -0.68236166       0.02404758
H        0.72182281       1.52089428      -1.05561853
H       -0.46738225      -1.09884749       3.22011463
H        0.18245898       1.43068889      -2.81861468
12
Properties=species:S:1:pos:R:3 relative_energy_eV=0.11217998173015076 branch=left pbc="F F F"
C        0.18450115      -0.39529287      -1.80317345
O        0.38175258      -1.18988619      -0.72941725
O        0.84003069      -0.21685928       1.94640624
C        0.36992892       0.91895160      -1.90206762
C       -0.26174096      -0.41148961       2.41102670
O       -1.37344117       0.21990305       2.03385147
H       -1.12582653       0.80298799       1.29547287
H       -0.18453219      -0.97352813      -2.64466125
H        0.69454331      -0.65431900       0.01901603
H        0.77705158       1.52493332      -1.10187830
H       -0.49144587      -1.12857110       3.20851377
H        0.15375291       1.41907101      -2.83392595
12
Properties=species:S:1:pos:R:3 relative_energy_eV=0.11526282566410373 branch=left pbc="F F F"
C        0.18715737      -0.39235147      -1.80698724
O        0.39981195      -1.18055307      -0.73042646
O        0.83247151      -0.21944205       1.96678095
C        0.37383097       0.91962137      -1.91760905
C       -0.27188614      -0.41605915       2.42399936
O       -1.38016179       0.22150421       2.04775226
H       -1.13205475       0.80310019       1.31188233
H       -0.20016619      -0.97523034      -2.63560817
H        0.72361823      -0.64178177       0.01160143
H        0.81225713       1.53024720      -1.13267824
H       -0.51187253      -1.14600588       3.20625456
H        0.13156863       1.41285159      -2.84579847
12
Properties=species:S:1:pos:R:3 relative_energy_eV=0.12002206036959251 branch=left pbc="F F F"
C        0.19049961      -0.39244608      -1.81607572
O        0.39851237      -1.18356494      -0.73615931
O        0.83261531      -0.22212318       1.98244843
C        0.37195304       0.92297892      -1.91945166
C       -0.27306552      -0.41408621       2.43657323
O       -1.37775717       0.22856665       2.05864396
H       -1.13103923       0.79936418       1.31291769
H       -0.19148508      -0.97651980      -2.65140156
H        0.72866056      -0.64726159       0.00815401
H        0.81524589       1.54011739      -1.13604662
H       -0.52312020      -1.14768148       3.21294860
H        0.12355482       1.40855696      -2.85338777
12
Properties=species:S:1:pos:R:3 relative_energy_eV=0.12185045637488656 branch=left pbc="F F F"
C        0.18567294      -0.38330936      -1.80405114
O        0.44339181      -1.16378847      -0.72949451
O        0.81483099      -0.21854555       2.00825142
C        0.38607836       0.92259172      -1.94718077
C       -0.29332768      -0.42698762       2.44366769
O       -1.39929962       0.21728771       2.07171919
H       -1.15316026       0.80743735       1.34394564
H       -0.24569012      -0.97091235      -2.60506804
H        0.79961203      -0.62137202      -0.00339145
H        0.88573618       1.53528702      -1.20681234
H       -0.54886212      -1.18231363       3.19595535
H        0.08959178       1.40052604      -2.86837783
12
Properties=species:S:1:pos:R:3 relative_energy_eV=0.1259500153537374 branch=left pbc="F F F"
C        0.18291017      -0.37934096      -1.80281982
O        0.47234798      -1.14971987      -0.72655536
O        0.80334942      -0.22549827       2.02862051
C        0.39504247       0.92432950      -1.96896356
C       -0.30883948      -0.43609633       2.45447088
O       -1.41155000       0.21411701       2.08424287
H       -1.16323228       0.81375137       1.36435711
H       -0.27240072      -0.97163721      -2.59071295
H        0.84417493      -0.60358484      -0.00950325
H        0.92792380       1.53293727      -1.24712665
H       -0.56760986      -1.20103116       3.19458887
H        0.06245777       1.39767435      -2.88143545
12
Properties=species:S:1:pos:R:3 relative_energy_eV=0.12872014372806007 branch=left pbc="F F F"
C        0.18000113      -0.37568919      -1.79612058
O        0.49484919      -1.13895160      -0.72142586
O        0.79313351      -0.22608103       2.03696831
C        0.40228342       0.92460956      -1.98220637
C       -0.32000066      -0.44402124       2.45711785
O       -1.42306716       0.20863407       2.09058450
H       -1.17034870       0.81912395       1.37842805
H       -0.29778949      -0.97036678      -2.56952033
H        0.87663178      -0.58847428      -0.01466196
H        0.96054358       1.52857639      -1.28046431
H       -0.57778199      -1.21713473       3.18838944
H        0.04611956       1.39567574      -2.88792556
12
Properties=species:S:1:pos:R:3 relative_energy_eV=0.130736973209423 branch=left pbc="F F F"
C        0.17851317      -0.37404517      -1.79325943
O        0.50812796      -1.12976762      -0.71798176
O        0.78678106      -0.23078110       2.03855779
C        0.40633386       0.92433557      -1.99107446
C       -0.32731912      -0.45045740       2.45697646
O       -1.42932716       0.20653874       2.09349119
H       -1.17157489       0.82319071       1.38811582
H       -0.31011972      -0.97442840      -2.55981398
H        0.89136429      -0.57498674      -0.01757244
H        0.97861669       1.52407435      -1.29700300
H       -0.58301758      -1.22501800       3.18931362
H        0.03619560       1.39724594      -2.89058664
12
Properties=species:S:1:pos:R:3 relative_energy_eV=0.13246790979792422 branch=left pbc="F F F"
C        0.17643548      -0.37235735      -1.78876241
O        0.52259584      -1.12136424      -0.71520617
O        0.78191175      -0.23189362       2.03718988
C        0.41103018       0.92222282      -2.00052920
C       -0.33253578      -0.45655088       2.45201288
O       -1.43539144       0.20596052       2.10000629
H       -1.17562040       0.82517064       1.39312022
H       -0.32691235      -0.97888648      -2.53758451
H        0.90025653      -0.55978299      -0.01451835
H        0.99756423       1.51917637      -1.31212706
H       -0.58497782      -1.23598418       3.17902200
H        0.03021789       1.40019027      -2.89346043
12
Properties=species:S:1:pos:R:3 relative_energy_eV=0.13904323816859687 branch=left pbc="F F F"
C        0.17421624      -0.36897667      -1.78088705
O        0.53532016      -1.10526865      -0.70415718
O        0.77179473      -0.22962626       2.02989463
C        0.41442590       0.92236984      -2.00679901
C       -0.34184045      -0.46721510       2.44165015
O       -1.43959969       0.21361837       2.11057111
H       -1.17976578       0.82245959       1.39647892
H       -0.34723055      -0.99826156      -2.50229677
H        0.90639800      -0.53600902      -0.01248463
H        1.02997784       1.51377508      -1.34060916
H       -0.58362418      -1.25862865       3.15832134
H        0.02450185       1.40766391      -2.89051925
12
Properties=species:S:1:pos:R:3 relative_energy_eV=0.14299500165907375 branch=left pbc="F F F"
C        0.17255008      -0.36741817      -1.77634148
O        0.54060981      -1.09961406      -0.69951218
O        0.76890343      -0.22554152       2.02708049
C        0.41605991       0.92158901      -2.00895069
C       -0.34390229      -0.47052758       2.43490760
O       -1.44127023       0.21507870       2.11270217
H       -1.18507832       0.82123284       1.39745597
H       -0.35922736      -1.00288294      -2.48279292
H        0.90951161      -0.52720309      -0.00925347
H        1.04401843       1.51042087      -1.35172115
H       -0.58134284      -1.26856367       3.14456062
H        0.02374183       1.40933048      -2.88897185
12
Properties=species:S:1:pos:R:3 relative_energy_eV=0.14587072648828325 branch=left pbc="F F F"
C        0.16931666      -0.36629191      -1.76644691
O        0.55318104      -1.09446804      -0.69318672
O        0.76387745      -0.21573373       2.02422829
C        0.41864657       0.92018914      -2.00922603
C       -0.34707695      -0.47264563       2.43035367
O       -1.44692861       0.20879999       2.10947274
H       -1.19579663       0.82251171       1.40351771
H       -0.38472779      -0.99776820      -2.45175675
H        0.92556736      -0.51650712      -0.00839975
H        1.06651715       1.50482428      -1.37508309
H       -0.58107540      -1.28369027       3.12401431
H        0.02307316       1.40668066      -2.88832439
12
Properties=species:S:1:pos:R:3 relative_energy_eV=0.14813349120413477 branch=left pbc="F F F"
C        0.16943622      -0.36920168      -1.76579715
O        0.56349187      -1.09162254      -0.69032678
O        0.76064405      -0.22216619       2.01805414
C        0.41589466       0.91736669      -2.01309518
C       -0.34736546      -0.47309490       2.43395685
O       -1.44851235       0.20840167       2.11456732
H       -1.19315776       0.82439291       1.40713411
H       -0.39091836      -1.00321723      -2.45120342
H        0.92724609      -0.50452541      -0.00722462
H        1.07104783       1.50689110      -1.38462259
H       -0.58845655      -1.28987382       3.12737803
H        0.02522377       1.41255025      -2.88965764
12
Properties=species:S:1:pos:R:3 relative_energy_eV=0.15146065135559184 branch=left pbc="F F F"
C        0.16584883      -0.36723196      -1.75360979
O        0.58429094      -1.08571887      -0.68509822
O        0.75364177      -0.21339355       2.01864063
C        0.42091237       0.91308975      -2.02036701
C       -0.35165618      -0.47571765       2.42961822
O       -1.45979883       0.19420155       2.10906874
H       -1.20489018       0.83028259       1.42071471
H       -0.42367729      -0.99181054      -2.41757238
H        0.95577181      -0.49218667      -0.01096013
H        1.09748430       1.49987617      -1.41333813
H       -0.59391829      -1.30464615       3.11337875
H        0.02056472       1.40915617      -2.89131235
12
Properties=species:S:1:pos:R:3 relative_energy_eV=0.1571988257674093 branch=left pbc="F F F"
C        0.16304019      -0.36668510      -1.74854659
O        0.61155661      -1.07748703      -0.68467315
O        0.74896673      -0.21785682       2.01997168
C        0.42870435       0.91144603      -2.03114567
C       -0.35686014      -0.48052763       2.43210801
O       -1.47187174       0.17585028       2.10484994
H       -1.21310077       0.84016098       1.44157861
H       -0.45328506      -0.98771649      -2.39263912
H        0.98139597      -0.47213056      -0.02042803
H        1.12172743       1.49054587      -1.43690564
H       -0.60752832      -1.30862175       3.11246927
H        0.01182868       1.40892310      -2.89747632
12
Properties=species:S:1:pos:R:3 relative_energy_eV=0.16346567070831952 branch=left pbc="F F F"
C        0.15605501      -0.35557211      -1.72550856
O        0.64012102      -1.06758359      -0.67741196
O        0.73878413      -0.19486988       2.03158599
C        0.44435269       0.90438227      -2.04689941
C       -0.36526741      -0.48699590       2.41861763
O       -1.49303630       0.14756426       2.08949459
H       -1.23911263       0.84999405       1.46508964
H       -0.50855774      -0.96414481      -2.32820507
H        1.03640876      -0.46307907      -0.03223862
H        1.16828489       1.47367934      -1.47998937
H       -0.61051981      -1.32670384       3.08326661
H       -0.00293877       1.39923015      -2.89863852
12
Properties=species:S:1:pos:R:3 relative_energy_eV=0.17541992139194917 branch=left pbc="F F F"
C        0.15127377      -0.34378424      -1.71039775
O        0.67298601      -1.05675160      -0.68077190
O        0.72628988      -0.17302279       2.05576190
C        0.46320187       0.90228423      -2.06551767
C       -0.37983402      -0.49706202       2.41082503
O       -1.51563465       0.11793800       2.07320772
H       -1.26676379       0.86093102       1.49712460
H       -0.56660780      -0.94285293      -2.26113547
H        1.10372122      -0.45673224      -0.05564833
H        1.21907270       1.45729556      -1.52797719
H       -0.62000852      -1.33980126       3.06562902
H       -0.02312294       1.38745916      -2.90193711
12
Properties=species:S:1:pos:R:3 relative_energy_eV=0.17903141164788394 branch=left pbc="F F F"
C        0.15178923      -0.34171600      -1.71146941
O        0.67962639      -1.05444793      -0.68435898
O        0.72451843      -0.17360373       2.06159057
C        0.46636874       0.90202281      -2.07180325
C       -0.38362860      -0.49979282       2.41287314
O       -1.51916529       0.11418162       2.07229689
H       -1.27000592       0.86338532       1.50397994
H       -0.57388413      -0.94220955      -2.25411415
H        1.11549920      -0.45586487      -0.06134591
H        1.22572648       1.45635299      -1.53441425
H       -0.62452396      -1.33935323       3.06953021
H       -0.02774686       1.38694630      -2.90360195
12
Properties=species:S:1:pos:R:3 relative_energy_eV=0.18205934486650222 branch=left pbc="F F F"
C        0.15555372      -0.34235410      -1.71994384
O        0.68808287      -1.05388950      -0.69561153
O        0.72175971      -0.18344199       2.06577214
C        0.46582134       0.90454178      -2.07633332
C       -0.39026585      -0.50440743       2.42195646
O       -1.52159772       0.11640067       2.07739470
H       -1.26370684       0.86628058       1.51198181
H       -0.57227691      -0.94496087      -2.26215685
H        1.12322542      -0.45229693      -0.06852794
H        1.22537267       1.46199804      -1.53956292
H       -0.63598231      -1.33705730       3.09231888
H       -0.03141237       1.38508797      -2.90812477
12
Properties=species:S:1:pos:R:3 relative_energy_eV=0.18318768440258282 branch=left pbc="F F F"
C        0.15102124      -0.33659942      -1.70110965
O        0.68834022      -1.05414381      -0.68555113
O        0.71209811      -0.15078307       2.07204234
C        0.47113980       0.90039785      -2.07330758
C       -0.39340175      -0.50334367       2.40972281
O       -1.53115543       0.10499091       2.06530053
H       -1.27565594       0.86379228       1.51404737
H       -0.59931926      -0.92253293      -2.22379330
H        1.15357789      -0.46277395      -0.07198034
H        1.24735819       1.45580941      -1.56479488
H       -0.62564587      -1.35424616       3.06000309
H       -0.03378354       1.37533346      -2.90141644
12
Properties=species:S:1:pos:R:3 relative_energy_eV=0.18480426028145303 branch=left pbc="F F F"
C        0.15023658      -0.33481910      -1.69545668
O        0.69117464      -1.05402192      -0.68386601
O        0.70930561      -0.14399892       2.07193980
C        0.47132675       0.89942755      -2.07254104
C       -0.39597434      -0.50421045       2.40803954
O       -1.53474419       0.10343715       2.06250233
H       -1.27918737       0.86449743       1.51538060
H       -0.60791119      -0.91402814      -2.21350013
H        1.16405171      -0.46382499      -0.07201129
H        1.25486861       1.45553190      -1.57488203
H       -0.62392542      -1.36199692       3.05444759
H       -0.03464777       1.36990734      -2.90088986
12
Properties=species:S:1:pos:R:3 relative_energy_eV=0.18704261323182436 branch=left pbc="F F F"
C        0.14615152      -0.33153727      -1.68026615
O        0.69316326      -1.05421595      -0.67481709
O        0.70654136      -0.12794507       2.06911459
C        0.47239496       0.89764990      -2.06711645
C       -0.39560621      -0.50338053       2.39734370
O       -1.53957306       0.09856599       2.05499582
H       -1.28985964       0.86543567       1.51308280
H       -0.62506977      -0.89826153      -2.18979314
H        1.17502884      -0.46429796      -0.06716760
H        1.26922881       1.44966792      -1.58843368
H       -0.61382657      -1.37658923       3.03086107
H       -0.03399992       1.36080897      -2.89864104
12
Properties=species:S:1:pos:R:3 relative_energy_eV=0.19038607938455243 branch=left pbc="F F F"
C        0.13973539      -0.32634984      -1.65960420
O        0.69554982      -1.05357318      -0.66079668
O        0.70749805      -0.11007116       2.06473504
C        0.47445206       0.89520477      -2.06134588
C       -0.39225043      -0.50151889       2.38253268
O       -1.54350373       0.09244147       2.04480761
H       -1.31052640       0.86772022       1.50729159
H       -0.64757666      -0.88056428      -2.15657099
H        1.18345529      -0.46378392      -0.05769715
H        1.28829416       1.43938049      -1.60106816
H       -0.59777705      -1.39396063       2.99367749
H       -0.03277694       1.35097586      -2.89679854
12
Properties=species:S:1:pos:R:3 relative_energy_eV=0.19521785201686725 branch=left pbc="F F F"
C        0.13206670      -0.32029682      -1.63742293
O        0.69758362      -1.05206469      -0.64543758
O        0.71151361      -0.09184877       2.06217195
C        0.47842994       0.89373162      -2.05497865
C       -0.38551097      -0.49912330       2.36261502
O       -1.54548070       0.08505307       2.03505071
H       -1.33816054       0.87057872       1.49915157
H       -0.67257705      -0.86511305      -2.11765266
H        1.18792284      -0.46276228      -0.04612854
H        1.30964693       1.42618643      -1.61118273
H       -0.57945089      -1.41029926       2.94882070
H       -0.03140999       1.34185925      -2.89584406
12
Properties=species:S:1:pos:R:3 relative_energy_eV=0.19895836447540205 branch=left pbc="F F F"
C        0.12872539      -0.31649833      -1.62788269
O        0.69842221      -1.04992098      -0.63824890
O        0.71609230      -0.08577261       2.06288740
C        0.48136159       0.89380354      -2.05374514
C       -0.38140963      -0.49833076       2.35409499
O       -1.54494050       0.08184578       2.03215424
H       -1.35588708       0.87259007       1.49446528
H       -0.68408972      -0.86058900      -2.09869818
H        1.18988701      -0.46409751      -0.04125621
H        1.32048827       1.42090196      -1.61562319
H       -0.57229391      -1.41638780       2.92746071
H       -0.03178246       1.33835655      -2.89644550
12
Properties=species:S:1:pos:R:3 relative_energy_eV=0.20218395376105036 branch=left pbc="F F F"
C        0.12899225      -0.31475185      -1.62755609
O        0.69976531      -1.04776577      -0.63903706
O        0.72176638      -0.09012087       2.06696473
C        0.48295933       0.89694587      -2.05486355
C       -0.37881558      -0.49914774       2.35285222
O       -1.54294661       0.08341125       2.03803178
H       -1.36654516       0.87385636       1.49256202
H       -0.68493422      -0.86393817      -2.09625465
H        1.19123110      -0.46723730      -0.04202425
H        1.32375343       1.42473716      -1.62008106
H       -0.57761533      -1.41682397       2.92826899
H       -0.03303741       1.33673591      -2.89970027
12
Properties=species:S:1:pos:R:3 relative_energy_eV=0.20741449132219714 branch=left pbc="F F F"
C        0.11897471      -0.30854761      -1.60556617
O        0.69652008      -1.04978066      -0.62839744
O        0.72321702      -0.05424555       2.07303374
C        0.49089556       0.88906883      -2.05269045
C       -0.37008378      -0.49587827       2.33039180
O       -1.54563776       0.07386444       2.03388059
H       -1.39134977       0.86415594       1.48457284
H       -0.71404026      -0.84825445      -2.04603946
H        1.20462947      -0.47808568      -0.02982145
H        1.34074293       1.41723620      -1.63605286
H       -0.56375162      -1.42749463       2.86839161
H       -0.02554321       1.33386232      -2.89253994
12
Properties=species:S:1:pos:R:3 relative_energy_eV=0.21192300135226105 branch=left pbc="F F F"
C        0.11857224      -0.30617554      -1.60235857
O        0.69712506      -1.05103894      -0.62965994
O        0.72734157      -0.05084727       2.07670912
C        0.49262936       0.88968301      -2.05412388
C       -0.36923253      -0.49577066       2.33222460
O       -1.54626684       0.07603375       2.04290845
H       -1.39783221       0.85927211       1.48350676
H       -0.71631387      -0.84730534      -2.04141482
H        1.21367548      -0.48655195      -0.03102560
H        1.34259527       1.42748732      -1.64965463
H       -0.57371678      -1.43045942       2.86587322
H       -0.02400339       1.33157382      -2.89382193
12
Properties=species:S:1:pos:R:3 relative_energy_eV=0.21532938649397693 branch=left pbc="F F F"
C        0.11029763      -0.30057309      -1.57667866
O        0.68489193      -1.05260973      -0.60623027
O        0.71551608      -0.00341241       2.08216959
C        0.49954313       0.88252087      -2.04636073
C       -0.36684512      -0.48851240       2.31259025
O       -1.55368383       0.05812310       2.02237053
H       -1.40882230       0.85137838       1.48105289
H       -0.74180194      -0.82361370      -2.00013639
H        1.24015417      -0.50498781      -0.03497970
H        1.36223186       1.41518674      -1.66943646
H       -0.55309385      -1.44491962       2.81339584
H       -0.02381452       1.32732052      -2.87859412
12
Properties=species:S:1:pos:R:3 relative_energy_eV=0.21828274453582708 branch=left pbc="F F F"
C        0.10774480      -0.29932805      -1.56581838
O        0.68281418      -1.05678843      -0.59961815
O        0.71077269       0.01471717       2.07855912
C        0.50175231       0.87938446      -2.04357753
C       -0.36723059      -0.48580417       2.30592204
O       -1.55871811       0.05385192       2.02012890
H       -1.40688853       0.84617746       1.47865768
H       -0.75263073      -0.81219177      -1.98409478
H        1.24805715      -0.50832716      -0.03037179
H        1.36739546       1.41422557      -1.67835530
H       -0.54710850      -1.45397590       2.79273246
H       -0.02138693       1.32395977      -2.87500148
12
Properties=species:S:1:pos:R:3 relative_energy_eV=0.22208821453386918 branch=left pbc="F F F"
C        0.10427391      -0.29547767      -1.54873340
O        0.67282873      -1.05506367      -0.58022057
O        0.70341872       0.04237318       2.07231361
C        0.50741263       0.87408705      -2.03913711
C       -0.36736640      -0.48181535       2.29186461
O       -1.56509092       0.04363895       2.00490660
H       -1.40866611       0.84157062       1.47716675
H       -0.76814916      -0.79635385      -1.96007652
H        1.26114845      -0.51589986      -0.02700269
H        1.37981473       1.40518302      -1.68691915
H       -0.53069053      -1.46588079       2.76014676
H       -0.02436090       1.31953924      -2.86514610
12
Properties=species:S:1:pos:R:3 relative_energy_eV=0.22671838128007948 branch=left pbc="F F F"
C        0.09265631      -0.29103601      -1.51989747
O        0.65771471      -1.05528782      -0.55075799
O        0.68470011       0.10093680       2.07656659
C        0.51580596       0.86146809      -2.03077040
C       -0.36190262      -0.47324655       2.25893073
O       -1.57264506       0.01845229       1.96746266
H       -1.42148921       0.83725004       1.47210301
H       -0.80367003      -0.76758526      -1.90071618
H        1.27912514      -0.52654245      -0.02296698
H        1.40411690       1.37173877      -1.68895034
H       -0.48573631      -1.47980269       2.68306118
H       -0.02410286       1.31955564      -2.84490203
12
Properties=species:S:1:pos:R:3 relative_energy_eV=0.23445768621422758 branch=left pbc="F F F"
C        0.08623475      -0.28607125      -1.50060182
O        0.64199510      -1.05221646      -0.52525118
O        0.67011994       0.14877212       2.08376991
C        0.52583483       0.85251502      -2.02865006
C       -0.35836272      -0.46590135       2.23593431
O       -1.57979941      -0.00245651       1.93597279
H       -1.43506533       0.83515592       1.46724925
H       -0.83082600      -0.74670895      -1.84902819
H        1.29722115      -0.54219021      -0.02489333
H        1.42705719       1.34523349      -1.68851786
H       -0.44913909      -1.49133117       2.62235468
H       -0.03069747       1.32110018      -2.82917575
12
Properties=species:S:1:pos:R:3 relative_energy_eV=0.23823435736630927 branch=left pbc="F F F"
C        0.08602003      -0.28539260      -1.49871228
O        0.63903929      -1.05261966      -0.52208416
O        0.66667806       0.15961308       2.08755330
C        0.52882508       0.85117519      -2.03033328
C       -0.35792425      -0.46387580       2.23239668
O       -1.58201128      -0.00710955       1.93128097
H       -1.43783749       0.83535868       1.46475408
H       -0.83688308      -0.74287803      -1.83484654
H        1.30080083      -0.54664011      -0.02583064
H        1.43209126       1.33983686      -1.68655600
H       -0.44117071      -1.49408856       2.60887030
H       -0.03305483       1.32252134      -2.82732965
12
Properties=species:S:1:pos:R:3 relative_energy_eV=0.2439883336191997 branch=left pbc="F F F"
C        0.09719173      -0.28740192      -1.51658534
O        0.64437873      -1.05528107      -0.53734855
O        0.67359758       0.13784101       2.08660413
C        0.52932284       0.85840412      -2.04242573
C       -0.36415175      -0.46628729       2.25533152
O       -1.58486383       0.00559091       1.95611593
H       -1.42741247       0.83641798       1.46247582
H       -0.82144785      -0.75418823      -1.85214284
H        1.29792992      -0.54953421      -0.02866675
H        1.42314435       1.36164918      -1.68563024
H       -0.46331945      -1.49439221       2.64268645
H       -0.03979687       1.32308260      -2.84125162
12
Properties=species:S:1:pos:R:3 relative_energy_eV=0.24537481169863895 branch=left pbc="F F F"
C        0.07887733      -0.28194135      -1.48678991
O        0.62866963      -1.04551973      -0.50592463
O        0.66208957       0.18456621       2.09352224
C        0.53497330       0.84411053      -2.02941682
C       -0.35157762      -0.46053952       2.21025496
O       -1.58007516      -0.01917847       1.90546370
H       -1.45617523       0.83421842       1.46364096
H       -0.85391319      -0.73459458      -1.80187975
H        1.30494211      -0.55193334      -0.02295811
H        1.44576135       1.31542905      -1.67950478
H       -0.41428164      -1.49490517       2.56734437
H       -0.03471759       1.32618878      -2.81458946
12
Properties=species:S:1:pos:R:3 relative_energy_eV=0.24896950575202936 branch=left pbc="F F F"
C        0.06999857      -0.27941658      -1.46994884
O        0.62428565      -1.03949885      -0.48979928
O        0.65941122       0.20021326       2.07658451
C        0.53726068       0.83669380      -2.02097103
C       -0.34971081      -0.46427550       2.18369218
O       -1.58280238      -0.02920739       1.89260234
H       -1.45467528       0.83523175       1.46102044
H       -0.86860953      -0.72283253      -1.78627799
H        1.30055837      -0.54221818      -0.00399601
H        1.45401474       1.30098323      -1.67732393
H       -0.39381536      -1.49918539       2.53754494
H       -0.03134303       1.31941322      -2.80396457
12
Properties=species:S:1:pos:R:3 relative_energy_eV=0.2546393253469432 branch=left pbc="F F F"
C        0.05664282      -0.27673113      -1.44731577
O        0.61753085      -1.03587969      -0.46971351
O        0.65003158       0.22880821       2.07519037
C        0.53764846       0.82732927      -2.00751126
C       -0.34363831      -0.46266309       2.15538529
O       -1.58206308      -0.04428692       1.86343553
H       -1.46449553       0.83388365       1.46266659
H       -0.88876724      -0.70704829      -1.76413743
H        1.30638241      -0.54003622       0.00140650
H        1.46582759       1.27611111      -1.67929293
H       -0.36583563      -1.50116149       2.49595904
H       -0.02469114       1.31757543      -2.78690965
12
Properties=species:S:1:pos:R:3 relative_energy_eV=0.26117002613864315 branch=left pbc="F F F"
C        0.04572904      -0.27521066      -1.42793199
O        0.61273210      -1.03707449      -0.45433526
O        0.63833723       0.25606806       2.08033290
C        0.53572724       0.82169365      -1.99272630
C       -0.33958592      -0.45955756       2.13787402
O       -1.58294462      -0.05840609       1.83816520
H       -1.47041632       0.83281203       1.46587170
H       -0.90426363      -0.69232707      -1.75009854
H        1.31789628      -0.54256692      -0.00464058
H        1.47606295       1.25798859      -1.68708488
H       -0.34595410      -1.50332726       2.46658995
H       -0.01874752       1.31580855      -2.77285345
12
Properties=species:S:1:pos:R:3 relative_energy_eV=0.26679577035974944 branch=left pbc="F F F"
C        0.03781579      -0.27404560      -1.41379768
O        0.60776337      -1.04088915      -0.44378266
O        0.62631334       0.28231601       2.09579254
C        0.53364452       0.81930837      -1.97993035
C       -0.33573504      -0.45336445       2.12930046
O       -1.58260108      -0.07208930       1.81371759
H       -1.47967229       0.83170636       1.47019658
H       -0.91584573      -0.68126871      -1.73659178
H        1.33256847      -0.55111224      -0.02210568
H        1.48628696       1.24184563      -1.69551721
H       -0.33090854      -1.50363788       2.44329713
H       -0.01505709       1.31713178      -2.76141618
12
Properties=species:S:1:pos:R:3 relative_energy_eV=0.2710288413145463 branch=left pbc="F F F"
C        0.03226091      -0.27305829      -1.40459050
O        0.60280704      -1.04501915      -0.43728244
O        0.61647022       0.30501823       2.11515076
C        0.53238468       0.81835412      -1.97069822
C       -0.33165568      -0.44571628       2.12485773
O       -1.58047463      -0.08421570       1.79159746
H       -1.49197206       0.83053669       1.47410961
H       -0.92490625      -0.67413697      -1.72132610
H        1.34499908      -0.56088129      -0.04167562
H        1.49568647       1.22626330      -1.70060339
H       -0.31822245      -1.50217462       2.42218135
H       -0.01280467       1.32093075      -2.75255790
12
Properties=species:S:1:pos:R:3 relative_energy_eV=0.27434396956414275 branch=left pbc="F F F"
C        0.02776450      -0.27220337      -1.39834429
O        0.59782623      -1.04793906      -0.43269314
O        0.60943370       0.32401681       2.13341639
C        0.53209331       0.81731369      -1.96447368
C       -0.32703932      -0.43804992       2.12076543
O       -1.57683949      -0.09449987       1.77138655
H       -1.50629464       0.82907737       1.47712068
H       -0.93310604      -0.66964129      -1.70398528
H        1.35333343      -0.56888205      -0.05760208
H        1.50405031       1.21023345      -1.70159718
H       -0.30574481      -1.49954789       2.40031288
H       -0.01090458       1.32602292      -2.74514354
12
Properties=species:S:1:pos:R:3 relative_energy_eV=0.2776668679089198 branch=left pbc="F F F"
C        0.02314440      -0.27140539      -1.39293158
O        0.59200205      -1.04853012      -0.42755219
O        0.60491619       0.34120279       2.14906956
C        0.53277760       0.81537842      -1.95981367
C       -0.32156861      -0.43053032       2.11455370
O       -1.57159724      -0.10419472       1.75059006
H       -1.52321621       0.82732453       1.47945605
H       -0.94212677      -0.66644260      -1.68367516
H        1.35803033      -0.57454221      -0.06859598
H        1.51232374       1.19196802      -1.69901319
H       -0.29132106      -1.49611841       2.37450956
H       -0.00879185       1.33179079      -2.73743441
12
Properties=species:S:1:pos:R:3 relative_energy_eV=0.2809204380882875 branch=left pbc="F F F"
C        0.01875491      -0.27076836      -1.38817578
O        0.58591633      -1.04579390      -0.42105851
O        0.60358012       0.35431788       2.15847121
C        0.53424103       0.81256018      -1.95678370
C       -0.31608905      -0.42513667       2.10628473
O       -1.56619810      -0.11171937       1.73186333
H       -1.53957869       0.82561250       1.48105309
H       -0.95091443      -0.66439096      -1.66514415
H        1.35952207      -0.57719117      -0.07243223
H        1.51941162       1.17477637      -1.69450484
H       -0.27716585      -1.49301564       2.34946179
H       -0.00690742       1.33664990      -2.72987220
12
Properties=species:S:1:pos:R:3 relative_energy_eV=0.28328172108922445 branch=left pbc="F F F"
C        0.01563820      -0.27035834      -1.38478526
O        0.58132231      -1.04143667      -0.41491656
O        0.60450770       0.36138781       2.16116881
C        0.53571730       0.80986859      -1.95539717
C       -0.31211730      -0.42284789       2.09831115
O       -1.56246734      -0.11610390       1.71977179
H       -1.55075078       0.82486034       1.48177572
H       -0.95715861      -0.66340118      -1.65376748
H        1.35916193      -0.57746649      -0.07067550
H        1.52381051       1.16342031      -1.69067670
H       -0.26729912      -1.49135626       2.33262314
H       -0.00579229       1.33933444      -2.72426920
12
Properties=species:S:1:pos:R:3 relative_energy_eV=0.28534912529357825 branch=left pbc="F F F"
C        0.01293434      -0.26988211      -1.38179852
O        0.57712986      -1.03569872      -0.40806451
O        0.60649907       0.36549986       2.16074926
C        0.53731099       0.80690684      -1.95509067
C       -0.30837780      -0.42243889       2.08930148
O       -1.55963601      -0.11874465       1.71070279
H       -1.55988065       0.82472461       1.48219218
H       -0.96214676      -0.66286335      -1.64653184
H        1.35864856      -0.57708207      -0.06593874
H        1.52686065       1.15500559      -1.68753378
H       -0.25948466      -1.49059555       2.32040804
H       -0.00528508       1.34106918      -2.71923293
12
Properties=species:S:1:pos:R:3 relative_energy_eV=0.28668454400212795 branch=left pbc="F F F"
C        0.01109814      -0.26919959      -1.37966260
O        0.57489717      -1.03163825      -0.40320158
O        0.60786625       0.36699437       2.15939935
C        0.53844337       0.80467667      -1.95543426
C       -0.30559996      -0.42286583       2.08229797
O       -1.55817299      -0.11982518       1.70621121
H       -1.56499107       0.82506103       1.48226314
H       -0.96460804      -0.66260154      -1.64347375
H        1.35781231      -0.57655428      -0.06179453
H        1.52819245       1.15059925      -1.68571204
H       -0.25518239      -1.49060504       2.31446583
H       -0.00518274       1.34185913      -2.71619600
12
Properties=species:S:1:pos:R:3 relative_energy_eV=0.2877220619302534 branch=left pbc="F F F"
C        0.00993139      -0.26822031      -1.37863818
O        0.57272932      -1.02952460      -0.39996592
O        0.60798558       0.36783279       2.16224154
C        0.53926976       0.80249256      -1.95788337
C       -0.30335606      -0.42291960       2.07763008
O       -1.55746394      -0.12002280       1.70359660
H       -1.56968667       0.82576818       1.48257126
H       -0.96520873      -0.66255235      -1.64322084
H        1.36139314      -0.57918520      -0.06115966
H        1.52807576       1.14870102      -1.68559718
H       -0.25321493      -1.49061148       2.31379427
H       -0.00588214       1.34414251      -2.71420585
12
Properties=species:S:1:pos:R:3 relative_energy_eV=0.2887905906736705 branch=left pbc="F F F"
C        0.00790393      -0.26678756      -1.37611082
O        0.57399197      -1.02950840      -0.39871330
O        0.60743793       0.36892818       2.16290079
C        0.53989125       0.79982654      -1.95950143
C       -0.30054818      -0.42260446       2.07246355
O       -1.55684844      -0.12007751       1.70209562
H       -1.57240902       0.82594275       1.48189766
H       -0.96614003      -0.66188955      -1.64025746
H        1.35857804      -0.57824443      -0.05877520
H        1.52734000       1.14524335      -1.68319925
H       -0.24992018      -1.49084047       2.30960806
H       -0.00470480       1.34591228      -2.71324547
12
Properties=species:S:1:pos:R:3 relative_energy_eV=0.29049430068153015 branch=left pbc="F F F"
C        0.00644229      -0.26565369      -1.37466018
O        0.57599954      -1.03338899      -0.40125141
O        0.60528103       0.37105795       2.17058177
C        0.53978835       0.79655520      -1.96397748
C       -0.29909615      -0.42062451       2.07185575
O       -1.55663299      -0.11991778       1.70145263
H       -1.57572523       0.82616510       1.48118707
H       -0.96660584      -0.66099206      -1.63766606
H        1.36107986      -0.58084278      -0.06093928
H        1.52461068       1.14279733      -1.68152245
H       -0.24750143      -1.49038510       2.30781971
H       -0.00306764       1.35113002      -2.71371734
12
Properties=species:S:1:pos:R:3 relative_energy_eV=0.2938755901668628 branch=left pbc="F F F"
C        0.00400079      -0.26555237      -1.37190319
O        0.58252745      -1.04153333      -0.40847137
O        0.60262780       0.37513765       2.17828197
C        0.53878923       0.79181117      -1.96856219
C       -0.29861146      -0.41733689       2.07422630
O       -1.55632139      -0.12001190       1.70096742
H       -1.57773882       0.82538980       1.47898812
H       -0.96989080      -0.65877201      -1.63000759
H        1.35848407      -0.57961634      -0.06092122
H        1.52013431       1.13743972      -1.67630414
H       -0.24192187      -1.48932301       2.29877166
H        0.00249317       1.35826823      -2.71590302
12
Properties=species:S:1:pos:R:3 relative_energy_eV=0.2992516851536493 branch=left pbc="F F F"
C        0.00151390      -0.26784606      -1.36977979
O        0.59023583      -1.05019995      -0.41708578
O        0.60133262       0.38000373       2.18291250
C        0.53690473       0.78701228      -1.97172153
C       -0.29984481      -0.41427655       2.07878895
O       -1.55587665      -0.12064222       1.70019830
H       -1.57842699       0.82423718       1.47601792
H       -0.97676357      -0.65584240      -1.62026539
H        1.35398750      -0.57493082      -0.05658028
H        1.51547632       1.13115565      -1.66952470
H       -0.23453920      -1.48805334       2.28477692
H        0.01057282       1.36528321      -2.71857438
12
Properties=species:S:1:pos:R:3 relative_energy_eV=0.30592358249487006 branch=left pbc="F F F"
C       -0.00120708      -0.27222060      -1.36885152
O        0.59749689      -1.05514575      -0.42300908
O        0.60227698       0.38430680       2.17894183
C        0.53501792       0.78357363      -1.97034622
C       -0.30081731      -0.41332255       2.07994407
O       -1.55521784      -0.12146378       1.69926604
H       -1.57706093       0.82284689       1.47265391
H       -0.98694245      -0.65282741      -1.60948808
H        1.34439447      -0.56476651      -0.04464537
H        1.51281234       1.12430727      -1.66174915
H       -0.22595199      -1.48763090       2.26668864
H        0.01977150       1.36824362      -2.72024233
12
Properties=species:S:1:pos:R:3 relative_energy_eV=0.31520449097661185 branch=left pbc="F F F"
C       -0.00446578      -0.27904700      -1.37073193
O        0.60422865      -1.05633691      -0.42636177
O        0.60440185       0.38859130       2.16734608
C        0.53273826       0.78181425      -1.96379712
C       -0.29995215      -0.41426359       2.07418366
O       -1.55421579      -0.12234962       1.69907706
H       -1.57374988       0.82140817       1.46860893
H       -1.00123442      -0.64967070      -1.59647358
H        1.32943383      -0.54876614      -0.02407276
H        1.51259676       1.11657781      -1.65260949
H       -0.21587464      -1.48867041       2.24449597
H        0.03066585       1.36661355      -2.72050232
12
Properties=species:S:1:pos:R:3 relative_energy_eV=0.32885232036460366 branch=left pbc="F F F"
C       -0.00889032      -0.28685871      -1.37510171
O        0.61101328      -1.05489684      -0.42786180
O        0.60568734       0.39291396       2.14972179
C        0.53077266       0.78212263      -1.95157516
C       -0.29498931      -0.41640045       2.05864674
O       -1.55299061      -0.12283645       1.70071494
H       -1.56814133       0.81962410       1.46382149
H       -1.01743067      -0.64654613      -1.57992088
H        1.30670653      -0.52698617       0.00296106
H        1.51498742       1.10739460      -1.64174921
H       -0.20477927      -1.49148498       2.21924897
H        0.04262685       1.35985515      -2.71974349
12
Properties=species:S:1:pos:R:3 relative_energy_eV=0.3441177728400362 branch=left pbc="F F F"
C       -0.01220818      -0.29159113      -1.37959804
O        0.61578150      -1.05453842      -0.42954695
O        0.60439779       0.39666839       2.13649718
C        0.52895580       0.78368621      -1.93971332
C       -0.28749454      -0.41770551       2.03988823
O       -1.55240784      -0.12285406       1.70416398
H       -1.56239337       0.81803766       1.45982509
H       -1.02858836      -0.64457824      -1.56472936
H        1.28513681      -0.50826751       0.02353255
H        1.51863479       1.09976304      -1.63252993
H       -0.19681759      -1.49478883       2.20056987
H        0.05157575       1.35206912      -2.71919654
12
Properties=species:S:1:pos:R:3 relative_energy_eV=0.3652298413508106 branch=left pbc="F F F"
C       -0.01568253      -0.29277858      -1.37858086
O        0.62015800      -1.05777935      -0.43365891
O        0.60094537       0.40067531       2.12435823
C        0.52919903       0.78739847      -1.92727776
C       -0.27715532      -0.41785075       2.01573982
O       -1.55250266      -0.12261201       1.70971369
H       -1.55450696       0.81551113       1.45579794
H       -1.03326311      -0.64335599      -1.54702219
H        1.25601350      -0.48725951       0.03875088
H        1.52307250       1.09045790      -1.62191171
H       -0.19007647      -1.49879408       2.18354877
H        0.05837121       1.34228816      -2.72029514
12
Properties=species:S:1:pos:R:3 relative_energy_eV=0.38828398167242995 branch=left pbc="F F F"
C       -0.01590674      -0.28543658      -1.36949444
O        0.62524300      -1.06233816      -0.43698348
O        0.59954601       0.40300261       2.10970341
C        0.52836195       0.78770339      -1.91714399
C       -0.26985532      -0.41770917       1.99737584
O       -1.55269278      -0.12298708       1.71343679
H       -1.54606924       0.81248679       1.45261324
H       -1.03204975      -0.64331040      -1.53188303
H        1.22193947      -0.46708887       0.04657802
H        1.52824397       1.08096618      -1.61085684
H       -0.18440848      -1.50182536       2.16792593
H        0.06222048       1.33243735      -2.72210867
12
Properties=species:S:1:pos:R:3 relative_energy_eV=0.42425971644115634 branch=left pbc="F F F"
C       -0.02247279      -0.27649761      -1.34208709
O        0.63092121      -1.06427042      -0.43480134
O        0.60457319       0.40120370       2.07480793
C        0.53338974       0.79031447      -1.90809670
C       -0.26557344      -0.42022075       1.97894091
O       -1.55065978      -0.12552440       1.71319220
H       -1.53455315       0.80871617       1.44902602
H       -1.02314064      -0.64218486      -1.51643624
H        1.16893111      -0.43515328       0.06054580
H        1.53360776       1.06650371      -1.59558019
H       -0.17531362      -1.50423481       2.14264969
H        0.06486296       1.31724875      -2.72299819
12
Properties=species:S:1:pos:R:3 relative_energy_eV=0.4578142884220142 branch=left pbc="F F F"
C       -0.02421357      -0.26501364      -1.32205326
O        0.63447589      -1.06178711      -0.42800421
O        0.61283532       0.39804084       2.04347015
C        0.53485243       0.78583513      -1.90101477
C       -0.26653037      -0.42464521       1.97260966
O       -1.54855422      -0.12791652       1.70924591
H       -1.52770241       0.80664445       1.44717466
H       -1.01872957      -0.64185815      -1.51006963
H        1.13304327      -0.41317525       0.07266797
H        1.53758238       1.05738104      -1.58572585
H       -0.16833735      -1.50482013       2.12352685
H        0.06585077       1.30721523      -2.72266466
12
Properties=species:S:1:pos:R:3 relative_energy_eV=0.5075475248759176 branch=left pbc="F F F"
C       -0.03045697      -0.25890064      -1.29846564
O        0.62917846      -1.05510292      -0.41202464
O        0.62951875       0.39202151       1.99702603
C        0.53772388       0.78115755      -1.89576561
C       -0.27124636      -0.43489172       1.96063022
O       -1.54284546      -0.13097313       1.70162330
H       -1.52269310       0.80549573       1.44574252
H       -1.01552503      -0.63961592      -1.50882070
H        1.10122166      -0.38196076       0.10388542
H        1.54148555       1.04894760      -1.57706718
H       -0.15907496      -1.50582143       2.10083059
H        0.06728613       1.29554483      -2.71843148
12
Properties=species:S:1:pos:R:3 relative_energy_eV=0.602922968164421 branch=left pbc="F F F"
C       -0.03185519      -0.25538984      -1.27957902
O        0.61446693      -1.04310019      -0.39164570
O        0.64888831       0.38370507       1.94497139
C        0.54063255       0.77019737      -1.88571839
C       -0.27452527      -0.45001763       1.94339716
O       -1.53538762      -0.13411117       1.69290339
H       -1.52081463       0.80663835       1.44457909
H       -1.01904503      -0.63727979      -1.51283965
H        1.08054241      -0.34814970       0.14989091
H        1.54351640       1.04301676      -1.57227456
H       -0.14982370      -1.50606648       2.07934208
H        0.06797742       1.28645793      -2.71386383
12
Properties=species:S:1:pos:R:3 relative_energy_eV=0.7046378014692891 branch=left pbc="F F F"
C       -0.03768186      -0.25657856      -1.25808628
O        0.62087206      -0.99305757      -0.34466137
O        0.66611692       0.35514256       1.86235604
C        0.54591195       0.76281978      -1.87967404
C       -0.26579099      -0.44478289       1.95416555
O       -1.53642037      -0.13858415       1.67169219
H       -1.51956277       0.80944968       1.44443900
H       -1.03531614      -0.63495870      -1.52519521
H        1.04391574      -0.33137289       0.19349309
H        1.54457838       1.03556413      -1.56770765
H       -0.13543106      -1.51681084       2.04569411
H        0.07338074       1.26907012      -2.69735253
12
Properties=species:S:1:pos:R:3 relative_energy_eV=0.8642174763481307 branch=left pbc="F F F"
C       -0.04911445      -0.25823228      -1.25197291
O        0.59866090      -0.96165667      -0.28855031
O        0.68850150       0.33113506       1.77816292
C        0.54675425       0.74924015      -1.86635257
C       -0.25257034      -0.45112220       1.91072291
O       -1.52918543      -0.13833925       1.65867390
H       -1.52171370       0.81062240       1.44423998
H       -1.04857611      -0.62947969      -1.53741673
H        1.02739462      -0.28909636       0.28183416
H        1.54732607       1.03098226      -1.56590500
H       -0.12105819      -1.53191581       2.01754146
H        0.07815350       1.25376307      -2.68181487
12
Properties=species:S:1:pos:R:3 relative_energy_eV=1.0585541750770062 branch=left pbc="F F F"
C       -0.06705177      -0.25813997      -1.26113327
O        0.59379419      -0.94107946      -0.24424508
O        0.69534666       0.31382836       1.73455612
C        0.54937783       0.74082963      -1.85517705
C       -0.24134224      -0.44695875       1.88123790
O       -1.52411371      -0.13720719       1.65263522
H       -1.52338469       0.81013605       1.44447560
H       -1.05111345      -0.62434597      -1.54289484
H        1.01803172      -0.27301247       0.32668476
H        1.54809988       1.02929812      -1.56631641
H       -0.11303926      -1.54353456       2.00336683
H        0.07996746       1.24608686      -2.67402680
12
Properties=species:S:1:pos:R:3 relative_energy_eV=1.327356014169709 branch=left pbc="F F F"
C       -0.07147810      -0.26110181      -1.26142720
O        0.57469959      -0.93156524      -0.21736812
O        0.68388351       0.29407254       1.71185297
C        0.54762736       0.73123369      -1.84451054
C       -0.21511253      -0.44367626       1.83133042
O       -1.51347489      -0.13519132       1.65335498
H       -1.52578335       0.81030220       1.44400550
H       -1.05259393      -0.62014549      -1.54661988
H        1.01472264      -0.25319721       0.37242946
H        1.55001382       1.02881869      -1.56682931
H       -0.10815047      -1.54675724       1.99455863
H        0.08021899       1.24310811      -2.67161389
12
Properties=species:S:1:pos:R:3 relative_energy_eV=1.4999457520134456 branch=left pbc="F F F"
C       -0.06929530      -0.27342589      -1.24722193
O        0.53032630      -0.94525417      -0.21243068
O        0.69196841       0.29349289       1.69155219
C        0.54847677       0.73116113      -1.84254148
C       -0.20460657      -0.46257447       1.76665294
O       -1.50237651      -0.13328914       1.65893992
H       -1.52764932       0.81053568       1.44294726
H       -1.05312702      -0.61676297      -1.54890433
H        1.02439226      -0.21100697       0.43604592
H        1.55139544       1.02818481      -1.56679026
H       -0.10520772      -1.54659204       1.99167540
H        0.08027593       1.24143180      -2.67076190
12
Properties=species:S:1:pos:R:3 relative_energy_eV=1.7424151770592289 branch=left pbc="F F F"
C       -0.06458918      -0.28414625      -1.23202914
O        0.47134968      -0.96962316      -0.20630197
O        0.72901931       0.31281049       1.66299780
C        0.54888475       0.73030979      -1.84039481
C       -0.21658878      -0.50440896       1.68559393
O       -1.49094198      -0.13231125       1.66711898
H       -1.52899122       0.81082407       1.44139696
H       -1.05264200      -0.61340464      -1.55029792
H        1.03837880      -0.15398521       0.51699588
H        1.55306923       1.02766554      -1.56660940
H       -0.10208372      -1.54806240       1.99182140
H        0.07970781       1.24023265      -2.67112866
12
Properties=species:S:1:pos:R:3 relative_energy_eV=1.815831534746394 branch=left pbc="F F F"
C       -0.06304150      -0.28684246      -1.22795515
O        0.45948887      -0.97406034      -0.20553804
O        0.73868006       0.31925444       1.65806565
C        0.54900011       0.73066062      -1.84044309
C       -0.22160360      -0.51567080       1.66944717
O       -1.48830794      -0.13205442       1.66889959
H       -1.52935465       0.81095732       1.44105498
H       -1.05263726      -0.61282727      -1.55054205
H        1.04087851      -0.14333285       0.53218954
H        1.55336155       1.02752046      -1.56655588
H       -0.10152258      -1.54772380       1.99175103
H        0.07963113       1.24001978      -2.67121070
12
Properties=species:S:1:pos:R:3 relative_energy_eV=1.9275459417858656 branch=ts pbc="F F F"
C       -0.06257017      -0.28735524      -1.22487043
O        0.45298242      -0.97788064      -0.20440825
O        0.74379248       0.32352332       1.65716546
C        0.54932606       0.73081762      -1.84055798
C       -0.22434154      -0.52385740       1.65562052
O       -1.48787131      -0.13188832       1.66985794
H       -1.52944022       0.81045741       1.43852294
H       -1.05279094      -0.61024393      -1.55034846
H        1.07852969      -0.05062021       0.64195280
H        1.55429583       1.02746300      -1.56798098
H       -0.10024947      -1.54828911       1.99745148
H        0.07833206       1.23787855      -2.67239968
12
Properties=species:S:1:pos:R:3 relative_energy_eV=1.873713786704684 branch=right pbc="F F F"
C       -0.06209884      -0.28786803      -1.22178571
O        0.44647597      -0.98170094      -0.20327847
O        0.74890490       0.32779219       1.65626527
C        0.54965202       0.73097462      -1.84067287
C       -0.22707948      -0.53204399       1.64179388
O       -1.48743469      -0.13172222       1.67081628
H       -1.52952579       0.80995749       1.43599090
H       -1.05294462      -0.60766059      -1.55015486
H        1.11618087       0.04209243       0.75171606
H        1.55523011       1.02740553      -1.56940607
H       -0.09897636      -1.54885442       2.00315194
H        0.07703298       1.23573731      -2.67358866
12
Properties=species:S:1:pos:R:3 relative_energy_eV=1.8387034251099976 branch=right pbc="F F F"
C       -0.06099808      -0.28886272      -1.21669191
O        0.43741129      -0.98690252      -0.20325373
O        0.74839115       0.33554430       1.66853163
C        0.55006395       0.73131273      -1.84093505
C       -0.22695068      -0.53774860       1.62700601
O       -1.48690512      -0.13148669       1.67173592
H       -1.52920985       0.80982017       1.43587987
H       -1.05330782      -0.60763657      -1.55024928
H        1.12352579       0.04600446       0.74807700
H        1.55527358       1.02747179      -1.56960001
H       -0.09891649      -1.54893416       2.00392298
H        0.07703936       1.23552719      -2.67357573
12
Properties=species:S:1:pos:R:3 relative_energy_eV=1.7961153774595005 branch=right pbc="F F F"
C       -0.06408585      -0.28603206      -1.21352788
O        0.41789783      -1.00005351      -0.19560754
O        0.74799366       0.34287917       1.68194395
C        0.55047214       0.72763225      -1.83771635
C       -0.22448445      -0.54466748       1.59606990
O       -1.48603993      -0.13248653       1.67131189
H       -1.52779429       0.80890063       1.43565085
H       -1.05266568      -0.60677058      -1.54984301
H        1.13975091       0.06172144       0.75203762
H        1.55595464       1.02808061      -1.57023430
H       -0.09829856      -1.54981782       2.00423369
H        0.07671665       1.23472327      -2.67347113
12
Properties=species:S:1:pos:R:3 relative_energy_eV=1.7341580734228046 branch=right pbc="F F F"
C       -0.07398027      -0.28571961      -1.20421849
O        0.37892570      -1.02093102      -0.18014279
O        0.75053036       0.34950381       1.69281301
C        0.55291336       0.72357228      -1.83413340
C       -0.22050016      -0.55988451       1.54428082
O       -1.48308032      -0.13510329       1.66584127
H       -1.52473625       0.80638693       1.43511180
H       -1.05300931      -0.60439845      -1.55000876
H        1.17045085       0.09868719       0.77234086
H        1.55716467       1.02894910      -1.57137255
H       -0.09655916      -1.54797373       2.00067306
H        0.07729760       1.23102067      -2.67033710
12
Properties=species:S:1:pos:R:3 relative_energy_eV=1.6056409587235976 branch=right pbc="F F F"
C       -0.08995064      -0.28171442      -1.18862506
O        0.31007874      -1.05285948      -0.15163017
O        0.75626835       0.35399929       1.69929811
C        0.55404392       0.70986508      -1.82308929
C       -0.21331452      -0.58474155       1.46066471
O       -1.47461736      -0.14209998       1.64999757
H       -1.51875900       0.80233432       1.43357617
H       -1.05853996      -0.59994167      -1.55264929
H        1.22368915       0.16892145       0.81959372
H        1.56004653       1.03035509      -1.57318998
H       -0.09240906      -1.54293269       1.99005358
H        0.07888090       1.22292393      -2.66315230
12
Properties=species:S:1:pos:R:3 relative_energy_eV=1.4957972603642702 branch=right pbc="F F F"
C       -0.10545837      -0.27744825      -1.17303461
O        0.24125363      -1.08535442      -0.12394396
O        0.76216506       0.35855016       1.70604871
C        0.55497863       0.69596474      -1.81208951
C       -0.20650868      -0.60936149       1.37688186
O       -1.46632332      -0.14906595       1.63469429
H       -1.51279964       0.79827572       1.43204953
H       -1.06394668      -0.59563537      -1.55514889
H        1.27686360       0.23921590       0.86682896
H        1.56310004       1.03188493      -1.57503595
H       -0.08830578      -1.53797653       1.97980579
H        0.08039857       1.21505990      -2.65620845
12
Properties=species:S:1:pos:R:3 relative_energy_eV=1.4346750852291734 branch=right pbc="F F F"
C       -0.11727807      -0.27083376      -1.16073709
O        0.17434099      -1.11606797      -0.09789431
O        0.76552123       0.35855991       1.70922078
C        0.55437853       0.68028449      -1.80022823
C       -0.20026989      -0.63520976       1.30527719
O       -1.46090426      -0.15664722       1.62082381
H       -1.50662837       0.79414723       1.43030864
H       -1.06896748      -0.59179979      -1.55696246
H        1.33197503       0.31022663       0.91064912
H        1.56713593       1.03413121      -1.57676258
H       -0.08537443      -1.53064876       1.96753728
H        0.08148782       1.20796711      -2.65038434
12
Properties=species:S:1:pos:R:3 relative_energy_eV=1.3724462664795283 branch=right pbc="F F F"
C       -0.11974946      -0.27151120      -1.15895490
O        0.15846669      -1.11990982      -0.09838994
O        0.76453076       0.34942133       1.69995615
C        0.55636718       0.67823056      -1.79814180
C       -0.20072253      -0.64076903       1.30700197
O       -1.46310350      -0.16048057       1.61781302
H       -1.50390598       0.79196207       1.42933592
H       -1.06942676      -0.59094038      -1.55613784
H        1.34929608       0.33407405       0.92322258
H        1.56812234       1.03463866      -1.57659591
H       -0.08603857      -1.52608726       1.96038368
H        0.08158077       1.20548093      -2.64864510
12
Properties=species:S:1:pos:R:3 relative_energy_eV=1.2833785287239152 branch=right pbc="F F F"
C       -0.13021922      -0.27404732      -1.15470096
O        0.11201073      -1.13027233      -0.09533655
O        0.75535497       0.32106138       1.67983843
C        0.56209010       0.67282133      -1.79139299
C       -0.20114715      -0.64541162       1.30365316
O       -1.46814342      -0.17199932       1.60646166
H       -1.49420136       0.78177509       1.42625857
H       -1.07374464      -0.58651339      -1.55638167
H        1.40706676       0.40913673       0.95528725
H        1.57077547       1.03493791      -1.57488832
H       -0.08774915      -1.52185405       1.94195630
H        0.08332377       1.19447503      -2.63990695
12
Properties=species:S:1:pos:R:3 relative_energy_eV=1.268171962854467 branch=right pbc="F F F"
C       -0.12877153      -0.27492555      -1.15894056
O        0.11898220      -1.12166457      -0.10103118
O        0.75768289       0.31685801       1.67141639
C        0.56160173       0.67302968      -1.78974735
C       -0.20254461      -0.63945020       1.31937732
O       -1.47172488      -0.17296678       1.60599030
H       -1.49239239       0.77851494       1.42540255
H       -1.07704557      -0.58487039      -1.55887183
H        1.40420754       0.41328505       0.95632300
H        1.57076537       1.03322605      -1.57238253
H       -0.08962691      -1.52787445       1.94061377
H        0.08428298       1.19094767      -2.63730192
12
Properties=species:S:1:pos:R:3 relative_energy_eV=1.2500630447266303 branch=right pbc="F F F"
C       -0.13488224      -0.27574762      -1.15938291
O        0.10464123      -1.12157694      -0.09921172
O        0.76177936       0.31488237       1.66826353
C        0.56265933       0.66913725      -1.78316914
C       -0.20131999      -0.64227023       1.30795406
O       -1.47381920      -0.17796769       1.60087455
H       -1.48752047       0.77313843       1.42296135
H       -1.08400909      -0.57968685      -1.56445479
H        1.42133798       0.44762147       0.97183971
H        1.57191575       1.03056347      -1.56840678
H       -0.09161330      -1.53634190       1.93473181
H        0.08624736       1.18235777      -2.63115165
12
Properties=species:S:1:pos:R:3 relative_energy_eV=1.2266032892566727 branch=right pbc="F F F"
C       -0.14336900      -0.27725721      -1.16324579
O        0.10176868      -1.11563348      -0.10235865
O        0.76732072       0.31747946       1.67220918
C        0.56340806       0.66560734      -1.77481742
C       -0.19768124      -0.64593521       1.29995755
O       -1.47427844      -0.18364407       1.59691183
H       -1.48251691       0.76759423       1.41903457
H       -1.09498646      -0.57102260      -1.57510937
H        1.42878077       0.48268046       0.98405536
H        1.57317004       1.02415911      -1.55961507
H       -0.09545493      -1.55070129       1.92775509
H        0.08925527       1.17078292      -2.62392914
12
Properties=species:S:1:pos:R:3 relative_energy_eV=1.2001870972217148 branch=right pbc="F F F"
C       -0.15419316      -0.27848261      -1.16941764
O        0.11069977      -1.10647116      -0.10951990
O        0.77156518       0.32208648       1.68579995
C        0.56352793       0.66255404      -1.76597534
C       -0.19079551      -0.65024410       1.29552589
O       -1.47020376      -0.18971320       1.59360631
H       -1.47758457       0.76116878       1.41349328
H       -1.11015264      -0.55849748      -1.59094151
H        1.42444151       0.51976970       0.99269296
H        1.57473073       1.01297505      -1.54455754
H       -0.10021930      -1.56848371       1.91725658
H        0.09360010       1.15744804      -2.61711475
12
Properties=species:S:1:pos:R:3 relative_energy_eV=1.1773808990692487 branch=right pbc="F F F"
C       -0.16295861      -0.27861198      -1.17379503
O        0.12667239      -1.09994233      -0.11631798
O        0.77298174       0.32520939       1.70387647
C        0.56312862       0.66120152      -1.76119453
C       -0.18337690      -0.65336731       1.29489373
O       -1.46186702      -0.19435833       1.59179965
H       -1.47464375       0.75641006       1.40831559
H       -1.12252738      -0.54691550      -1.60448667
H        1.40699766       0.54494739       0.99587596
H        1.57566741       1.00057050      -1.52837420
H       -0.10255818      -1.58062780       1.90568246
H        0.09790002       1.14959439      -2.61542696
12
Properties=species:S:1:pos:R:3 relative_energy_eV=1.152229155153691 branch=right pbc="F F F"
C       -0.17083567      -0.27734791      -1.17575658
O        0.14472805      -1.09595172      -0.12195836
O        0.77172153       0.32347052       1.72617758
C        0.56185885       0.65982390      -1.75911355
C       -0.17392627      -0.65662659       1.29511892
O       -1.44949827      -0.19918015       1.58884826
H       -1.47192297       0.75083704       1.40236822
H       -1.13368725      -0.53423688      -1.61619293
H        1.37874227       0.57114615       0.99907720
H        1.57593523       0.98454677      -1.50828701
H       -0.10153023      -1.58838301       1.88893813
H        0.10383034       1.14601214      -2.61837115
12
Properties=species:S:1:pos:R:3 relative_energy_eV=1.1262580116035679 branch=right pbc="F F F"
C       -0.17659568      -0.27538863      -1.17451927
O        0.15875305      -1.09397058      -0.12521330
O        0.76988934       0.31510781       1.74611107
C        0.56064617       0.65880624      -1.76027489
C       -0.16438272      -0.65853866       1.29508407
O       -1.43738181      -0.20486485       1.58377585
H       -1.46893813       0.74492782       1.39616913
H       -1.14094464      -0.52253253      -1.62192775
H        1.34380697       0.59818606       1.00502089
H        1.57453895       0.96649144      -1.48726167
H       -0.09576347      -1.59182465       1.86922184
H        0.11178718       1.14771104      -2.62533695
12
Properties=species:S:1:pos:R:3 relative_energy_eV=1.0947413502435666 branch=right pbc="F F F"
C       -0.18145915      -0.27143470      -1.17119758
O        0.16491153      -1.09199539      -0.12518667
O        0.76930530       0.29778658       1.76466968
C        0.55912742       0.65616833      -1.76259418
C       -0.15353780      -0.66137932       1.29059732
O       -1.42685252      -0.21299259       1.57287638
H       -1.46394335       0.73615828       1.38840396
H       -1.14655377      -0.50988111      -1.62143342
H        1.30200910       0.63981850       1.01876498
H        1.57123541       0.94322791      -1.46223108
H       -0.08347667      -1.59455975       1.84316669
H        0.12464911       1.15319415      -2.63498662
12
Properties=species:S:1:pos:R:3 relative_energy_eV=1.0568563080105378 branch=right pbc="F F F"
C       -0.18626117      -0.26607982      -1.16756005
O        0.16649699      -1.08570859      -0.12338050
O        0.77402973       0.27290976       1.78045891
C        0.55905425       0.65359988      -1.76603897
C       -0.14369044      -0.66432074       1.28215477
O       -1.42105426      -0.22480581       1.55539040
H       -1.45705416       0.72570356       1.37882976
H       -1.15102485      -0.49721733      -1.61269529
H        1.24880707       0.69447562       1.03949790
H        1.56567440       0.91444303      -1.43396476
H       -0.06368804      -1.60104783       1.81384489
H        0.14412435       1.16215964      -2.64568710
12
Properties=species:S:1:pos:R:3 relative_energy_eV=1.0150600147007935 branch=right pbc="F F F"
C       -0.19117561      -0.25745788      -1.16623585
O        0.16567080      -1.07191703      -0.12101271
O        0.78631832       0.24174086       1.79290894
C        0.56028724       0.65028437      -1.76825651
C       -0.13533378      -0.67129364       1.26967064
O       -1.42178055      -0.23930402       1.52948758
H       -1.44864700       0.71269517       1.36755634
H       -1.15823072      -0.48525186      -1.59606420
H        1.18392499       0.76536706       1.06715147
H        1.55964756       0.88077520      -1.40332862
H       -0.03700075      -1.61401065       1.78320657
H        0.17173238       1.17248442      -2.65423298
12
Properties=species:S:1:pos:R:3 relative_energy_eV=0.9793601309411315 branch=right pbc="F F F"
C       -0.19006202      -0.24814770      -1.16733817
O        0.17245609      -1.05274377      -0.12141954
O        0.80447326       0.21697976       1.78851975
C        0.56485126       0.65258067      -1.77377923
C       -0.13605034      -0.67546455       1.26546148
O       -1.43272099      -0.24952528       1.50605605
H       -1.44555663       0.70652438       1.36063512
H       -1.16086416      -0.48527414      -1.56719719
H        1.11411315       0.79975312       1.08560022
H        1.55521095       0.85797124      -1.38822118
H       -0.00960320      -1.62642699       1.77220483
H        0.19916472       1.18788578      -2.65967092
12
Properties=species:S:1:pos:R:3 relative_energy_eV=0.9747952725629148 branch=right pbc="F F F"
C       -0.20055515      -0.23893766      -1.16937372
O        0.17249242      -1.03659058      -0.12305376
O        0.82031745       0.19097210       1.79391621
C        0.56996704       0.65008364      -1.76973610
C       -0.12930319      -0.69110398       1.24849805
O       -1.43580743      -0.26438625       1.47886824
H       -1.43886588       0.69422851       1.35035655
H       -1.17857776      -0.47618617      -1.55299814
H        1.06123143       0.87915373       1.11558466
H        1.55682582       0.83164278      -1.36550246
H        0.01001636      -1.64500399       1.75134979
H        0.22767001       1.19024102      -2.65705744
12
Properties=species:S:1:pos:R:3 relative_energy_eV=0.946612331954384 branch=right pbc="F F F"
C       -0.19869335      -0.23967402      -1.17087110
O        0.17055891      -1.04154779      -0.12425447
O        0.81780407       0.20509035       1.77843001
C        0.57154012       0.65170816      -1.76647232
C       -0.13486770      -0.69425414       1.24933342
O       -1.43957117      -0.25761481       1.48622861
H       -1.44448725       0.69980097       1.35647041
H       -1.17923729      -0.48637223      -1.55301269
H        1.08989776       0.84967713       1.10727517
H        1.56452671       0.85119653      -1.38645859
H       -0.00162723      -1.64028518       1.77242598
H        0.21956791       1.18638792      -2.64824284
12
Properties=species:S:1:pos:R:3 relative_energy_eV=0.9335945445545804 branch=right pbc="F F F"
C       -0.20244655      -0.23763478      -1.17194195
O        0.18623377      -1.03659401      -0.12955575
O        0.81891881       0.20054789       1.77603218
C        0.57448577       0.65420792      -1.76482189
C       -0.13301555      -0.69389786       1.25255198
O       -1.43817974      -0.26066289       1.48115611
H       -1.44701062       0.69933539       1.35575427
H       -1.18679276      -0.48725399      -1.54718334
H        1.06667046       0.85122791       1.10513771
H        1.57114251       0.85028950      -1.38812316
H       -0.00146679      -1.64436558       1.77730527
H        0.22687197       1.18891353      -2.64545967
12
Properties=species:S:1:pos:R:3 relative_energy_eV=0.9148824990934372 branch=right pbc="F F F"
C       -0.20954067      -0.22930571      -1.16844984
O        0.20385743      -1.03377085      -0.13340340
O        0.82379766       0.18686823       1.76957797
C        0.58093628       0.65593649      -1.75878825
C       -0.12572728      -0.70429456       1.23982207
O       -1.43415580      -0.26887982       1.46194442
H       -1.45199795       0.69424093       1.35373007
H       -1.20413647      -0.48876243      -1.52699884
H        1.01588988       0.87443004       1.11296119
H        1.58725904       0.84680095      -1.39363222
H        0.00188244      -1.64733952       1.78364069
H        0.24734605       1.19818965      -2.63955166
12
Properties=species:S:1:pos:R:3 relative_energy_eV=0.9071185024731676 branch=right pbc="F F F"
C       -0.21065206      -0.22736959      -1.16307709
O        0.20971972      -1.03776960      -0.13442900
O        0.82297644       0.18101910       1.76571599
C        0.58314684       0.65656445      -1.75582297
C       -0.12048233      -0.70785055       1.23456663
O       -1.43006420      -0.27335590       1.45173207
H       -1.45453604       0.68993056       1.35348094
H       -1.20884544      -0.48674841      -1.51613074
H        0.99422220       0.88337699       1.11585791
H        1.59482123       0.84585396      -1.39952780
H        0.00013038      -1.64366327       1.78521023
H        0.25497357       1.20412584      -2.63672378
12
Properties=species:S:1:pos:R:3 relative_energy_eV=0.8982275815942558 branch=right pbc="F F F"
C       -0.20851725      -0.22756705      -1.15523354
O        0.21264936      -1.04737230      -0.13406355
O        0.82053395       0.17955183       1.76004783
C        0.58431214       0.65648636      -1.75111069
C       -0.11477562      -0.71062743       1.22911730
O       -1.42510004      -0.27962375       1.43930623
H       -1.45688090       0.68355261       1.35393211
H       -1.21032285      -0.48010164      -1.50461255
H        0.97865221       0.89147905       1.11844877
H        1.60232285       0.84580398      -1.41034579
H       -0.00669742      -1.63703378       1.78617028
H        0.25923360       1.20956588      -2.63080380
12
Properties=species:S:1:pos:R:3 relative_energy_eV=0.8894157775575877 branch=right pbc="F F F"
C       -0.20434607      -0.22915341      -1.14792966
O        0.21749697      -1.05637080      -0.13391506
O        0.81998382       0.18043947       1.75520978
C        0.58572643       0.65618408      -1.74531747
C       -0.10947748      -0.71258083       1.22536970
O       -1.42218859      -0.28815075       1.42289160
H       -1.45765151       0.67413031       1.35322301
H       -1.21042365      -0.46693092      -1.49269685
H        0.96003966       0.90562504       1.12210131
H        1.60787542       0.84113806      -1.41995591
H       -0.01400040      -1.63398061       1.78385307
H        0.26237502       1.21376434      -2.62198067
12
Properties=species:S:1:pos:R:3 relative_energy_eV=0.8795901802332082 branch=right pbc="F F F"
C       -0.19599675      -0.23278652      -1.14033351
O        0.22409541      -1.06722584      -0.13274636
O        0.81928405       0.18733688       1.74932104
C        0.58759220       0.65565936      -1.73847949
C       -0.10563654      -0.71365544       1.22199004
O       -1.42229379      -0.29866019       1.40339342
H       -1.45810615       0.66375443       1.35241927
H       -1.20725998      -0.44707590      -1.47963598
H        0.94361768       0.91824226       1.12385377
H        1.61327312       0.83450068      -1.43242535
H       -0.02336956      -1.63306684       1.78218966
H        0.26020951       1.21709133      -2.60869339
12
Properties=species:S:1:pos:R:3 relative_energy_eV=0.8720304918915645 branch=right pbc="F F F"
C       -0.18791873      -0.23480302      -1.13621490
O        0.23485842      -1.07123568      -0.13257444
O        0.81948189       0.19165599       1.74493560
C        0.59110797       0.65528578      -1.73376838
C       -0.10384972      -0.71584282       1.22053803
O       -1.42634419      -0.30776368       1.38417918
H       -1.45814129       0.65474561       1.35019700
H       -1.20485953      -0.42747054      -1.46624336
H        0.92113811       0.93274608       1.12510477
H        1.61826336       0.82364681      -1.43901264
H       -0.02586741      -1.63749916       1.78012154
H        0.25753984       1.22064912      -2.59640895
12
Properties=species:S:1:pos:R:3 relative_energy_eV=0.8646535511161346 branch=right pbc="F F F"
C       -0.17786656      -0.23754563      -1.13292508
O        0.24498193      -1.07545121      -0.13112465
O        0.81487052       0.20013723       1.74040381
C        0.59587464       0.65487011      -1.73158520
C       -0.10570557      -0.71773421       1.21910090
O       -1.43268011      -0.31353306       1.37007229
H       -1.45951696       0.65005199       1.34901010
H       -1.19876789      -0.40895500      -1.45473911
H        0.91000819       0.93463810       1.12074251
H        1.62485271       0.81516275      -1.44694037
H       -0.02641628      -1.64140149       1.78267877
H        0.24577374       1.22387510      -2.58384031
12
Properties=species:S:1:pos:R:3 relative_energy_eV=0.8570765733711596 branch=right pbc="F F F"
C       -0.16835730      -0.23690836      -1.12987506
O        0.25956610      -1.07538402      -0.13056992
O        0.80816957       0.20272091       1.73641955
C        0.60366516       0.65404888      -1.73069787
C       -0.10735951      -0.72320134       1.21574808
O       -1.43961966      -0.32065107       1.35160131
H       -1.46170627       0.64499208       1.34592369
H       -1.19566367      -0.38941407      -1.43790404
H        0.88487798       0.94390188       1.11760609
H        1.63599296       0.80133602      -1.45147214
H       -0.01951928      -1.64751805       1.78435622
H        0.23536176       1.23019213      -2.57028192
12
Properties=species:S:1:pos:R:3 relative_energy_eV=0.8493852615483775 branch=right pbc="F F F"
C       -0.15920910      -0.23621921      -1.12662574
O        0.26940939      -1.07725927      -0.12962382
O        0.79331600       0.20791142       1.73399984
C        0.61216397       0.65260956      -1.73236545
C       -0.11089982      -0.72722114       1.21339172
O       -1.44486860      -0.32239270       1.34192480
H       -1.46545858       0.64326808       1.34447942
H       -1.19018024      -0.37487519      -1.42591633
H        0.87767206       0.93820501       1.10825644
H        1.64904201       0.79305833      -1.45853504
H       -0.01230219      -1.64850423       1.78962858
H        0.21672268       1.23553453      -2.55776028
12
Properties=species:S:1:pos:R:3 relative_energy_eV=0.8434654189677531 branch=right pbc="F F F"
C       -0.15408516      -0.23344201      -1.12293374
O        0.27367071      -1.07920434      -0.12938316
O        0.77814031       0.20998276       1.73431221
C        0.61952295       0.65073232      -1.73406457
C       -0.11260586      -0.73069764       1.20991070
O       -1.44629331      -0.32530744       1.33518114
H       -1.46870824       0.64199767       1.34309422
H       -1.18827733      -0.36599450      -1.41664374
H        0.87435739       0.93507974       1.10103044
H        1.66158985       0.78729289      -1.46535669
H       -0.00540442      -1.64616577       1.79256351
H        0.20350043       1.23984161      -2.54685608
12
Properties=species:S:1:pos:R:3 relative_energy_eV=0.8396201851282967 branch=right pbc="F F F"
C       -0.15228808      -0.23115492      -1.12047536
O        0.27291380      -1.08100507      -0.12989479
O        0.76586000       0.21323130       1.73737686
C        0.62351591       0.64891044      -1.73486503
C       -0.11362142      -0.73079399       1.20981409
O       -1.44611044      -0.32627611       1.33444798
H       -1.47055001       0.63988241       1.34272730
H       -1.18746490      -0.36301457      -1.41385506
H        0.88135883       0.92841158       1.09393089
H        1.66890972       0.78614714      -1.47250969
H       -0.00250877      -1.64160835       1.79359280
H        0.19539263       1.24138545      -2.53943572
12
Properties=species:S:1:pos:R:3 relative_energy_eV=0.8360877947652625 branch=right pbc="F F F"
C       -0.15113069      -0.22878955      -1.11712119
O        0.27084691      -1.08310455      -0.13003240
O        0.75530919       0.21858888       1.74089736
C        0.62711738       0.64714501      -1.73412268
C       -0.11488878      -0.73038999       1.20881977
O       -1.44711406      -0.33071039       1.33166051
H       -1.47193978       0.63589280       1.34229949
H       -1.18752541      -0.35952554      -1.40956816
H        0.88868606       0.92394320       1.08753777
H        1.67584430       0.78476728      -1.48313054
H       -0.00085617      -1.63712371       1.79386201
H        0.19105823       1.24342193      -2.53024762
12
Properties=species:S:1:pos:R:3 relative_energy_eV=0.8317384420952294 branch=right pbc="F F F"
C       -0.14914895      -0.22575245      -1.11300013
O        0.27114650      -1.08386097      -0.13016541
O        0.74279703       0.22747923       1.74567575
C        0.63125078       0.64541025      -1.73243397
C       -0.11733412      -0.72890667       1.21003896
O       -1.45124373      -0.33794804       1.32624110
H       -1.47381341       0.62747767       1.34143782
H       -1.18757814      -0.35351780      -1.40159996
H        0.89456545       0.91782515       1.07791126
H        1.68416533       0.78087832      -1.49930176
H        0.00159964      -1.63310674       1.79382308
H        0.18900060       1.24813749      -2.51777228
12
Properties=species:S:1:pos:R:3 relative_energy_eV=0.8272481251751742 branch=right pbc="F F F"
C       -0.14668810      -0.22253390      -1.10831909
O        0.27348262      -1.08305792      -0.12903691
O        0.73133818       0.23804061       1.74895793
C        0.63560439       0.64475848      -1.73054304
C       -0.12093763      -0.72824419       1.21062257
O       -1.45833194      -0.34871539       1.31814418
H       -1.47656482       0.61690013       1.34018733
H       -1.18766454      -0.34563914      -1.38903236
H        0.89564705       0.91393326       1.06885481
H        1.69270785       0.77390494      -1.51820069
H        0.00547543      -1.63165773       1.79425460
H        0.19133817       1.25642646      -2.50503465
12
Properties=species:S:1:pos:R:3 relative_energy_eV=0.8227125083594728 branch=right pbc="F F F"
C       -0.14386130      -0.21913699      -1.10495781
O        0.27960439      -1.07907253      -0.12711917
O        0.72016797       0.24839725       1.75141503
C        0.63880418       0.64553089      -1.73006902
C       -0.12486392      -0.72797480       1.21354253
O       -1.46649786      -0.35959467       1.31173346
H       -1.48076100       0.60539379       1.33865691
H       -1.18762612      -0.33741223      -1.37540256
H        0.89227101       0.90976186       1.05986089
H        1.69948907       0.76368472      -1.53514200
H        0.01117230      -1.63331515       1.79466425
H        0.19750754       1.26785367      -2.49632759
12
Properties=species:S:1:pos:R:3 relative_energy_eV=0.8174301838007523 branch=right pbc="F F F"
C       -0.14127067      -0.21487302      -1.10187813
O        0.28767267      -1.07244609      -0.12373364
O        0.70667005       0.25978683       1.75345067
C        0.64164777       0.64783395      -1.73159919
C       -0.12881157      -0.72924375       1.21621168
O       -1.47472501      -0.37267233       1.30788167
H       -1.48772732       0.59277564       1.33678342
H       -1.18788286      -0.32807993      -1.36022959
H        0.88742485       0.90641157       1.05158728
H        1.70561434       0.74900775      -1.55123644
H        0.01909410      -1.63764704       1.79502223
H        0.20769944       1.28326247      -2.49140472
12
Properties=species:S:1:pos:R:3 relative_energy_eV=0.8112005166058225 branch=right pbc="F F F"
C       -0.13866944      -0.20859073      -1.09942264
O        0.29874978      -1.06233369      -0.11954071
O        0.68781833       0.27283741       1.75618973
C        0.64384791       0.65134916      -1.73563137
C       -0.13152522      -0.73163056       1.22024322
O       -1.48157928      -0.38818999       1.30834686
H       -1.49892996       0.57772441       1.33453455
H       -1.18889918      -0.31658786      -1.34445085
H        0.88250581       0.90229507       1.04291459
H        1.71145187       0.72845512      -1.56618026
H        0.02891013      -1.64393260       1.79458454
H        0.22172447       1.30272063      -2.49073203
12
Properties=species:S:1:pos:R:3 relative_energy_eV=0.8054797927234176 branch=right pbc="F F F"
C       -0.13776903      -0.20141257      -1.09746568
O        0.30763787      -1.05243234      -0.11617530
O        0.66938047       0.28356371       1.75792720
C        0.64584885       0.65493067      -1.74096182
C       -0.13111411      -0.73490917       1.22190199
O       -1.48381055      -0.40316096       1.31247562
H       -1.51204475       0.56374751       1.33270819
H       -1.19083717      -0.30533181      -1.33223552
H        0.87984651       0.90152509       1.03916747
H        1.71539363       0.70762701      -1.57540782
H        0.03678791      -1.64951909       1.79309521
H        0.23608506       1.31948861      -2.49417357
12
Properties=species:S:1:pos:R:3 relative_energy_eV=0.8009324212544016 branch=right pbc="F F F"
C       -0.13700372      -0.19355992      -1.09560539
O        0.31443904      -1.04480507      -0.11507500
O        0.65288948       0.29146244       1.75921178
C        0.64877521       0.65655184      -1.74548561
C       -0.12827955      -0.73738733       1.22161495
O       -1.48261930      -0.41642092       1.31530350
H       -1.52479262       0.55063966       1.33137514
H       -1.19288390      -0.29280510      -1.32292732
H        0.87780020       0.90306161       1.03863567
H        1.71966161       0.68919569      -1.58056001
H        0.04194090      -1.65201962       1.79055820
H        0.24547683       1.33020363      -2.49618960
12
Properties=species:S:1:pos:R:3 relative_energy_eV=0.7965373988954525 branch=right pbc="F F F"
C       -0.13669678      -0.18400376      -1.09280950
O        0.31934776      -1.03791569      -0.11575334
O        0.63816694       0.29808055       1.75982893
C        0.65394392       0.65668389      -1.74947014
C       -0.12440434      -0.73920014       1.21850592
O       -1.48060192      -0.43131182       1.31459964
H       -1.53855796       0.53506787       1.33027559
H       -1.19503416      -0.27703965      -1.31243612
H        0.87437460       0.90822762       1.04176449
H        1.72505473       0.67049583      -1.58475963
H        0.04660209      -1.65208760       1.78672939
H        0.25320874       1.33712012      -2.49561854
12
Properties=species:S:1:pos:R:3 relative_energy_eV=0.7909502786205849 branch=right pbc="F F F"
C       -0.13489106      -0.16846100      -1.08775091
O        0.32741746      -1.02712420      -0.11773443
O        0.61684926       0.30882535       1.76221679
C        0.66355982       0.65524893      -1.75430512
C       -0.12058060      -0.74010094       1.21422165
O       -1.48089343      -0.45585955       1.30800199
H       -1.55939038       0.50869109       1.32858074
H       -1.19750877      -0.24968670      -1.29311297
H        0.86632130       0.91467744       1.04474704
H        1.73580765       0.64201182      -1.59452799
H        0.05590831      -1.65027503       1.78034836
H        0.26280313       1.34617051      -2.48982788
12
Properties=species:S:1:pos:R:3 relative_energy_eV=0.7841111647630896 branch=right pbc="F F F"
C       -0.13356954      -0.14676619      -1.08127048
O        0.33536367      -1.01085832      -0.12087713
O        0.59487539       0.32063947       1.76483475
C        0.67676169       0.65294077      -1.76067896
C       -0.11727606      -0.73986312       1.20796288
O       -1.48402346      -0.48975614       1.29686453
H       -1.58825696       0.47152057       1.32697940
H       -1.20060777      -0.21284967      -1.26582231
H        0.85360053       0.92495681       1.05269520
H        1.74807239       0.60544819      -1.60702621
H        0.07091015      -1.64681536       1.77086715
H        0.27955139       1.35552142      -2.48367070
12
Properties=species:S:1:pos:R:3 relative_energy_eV=0.7784048706271278 branch=right pbc="F F F"
C       -0.13060101      -0.12401541      -1.07461616
O        0.34437835      -0.99166865      -0.12293706
O        0.56911514       0.33596981       1.77220989
C        0.69060836       0.65014405      -1.76771583
C       -0.11859437      -0.73731412       1.20550320
O       -1.49244745      -0.52625479       1.28529206
H       -1.62012711       0.43074246       1.32553041
H       -1.20205567      -0.17198854      -1.23578491
H        0.84443658       0.92699834       1.05430081
H        1.76199483       0.56742096      -1.62607915
H        0.09210406      -1.64253807       1.76155393
H        0.29658838       1.36662313      -2.47639814
12
Properties=species:S:1:pos:R:3 relative_energy_eV=0.7745262886874116 branch=right pbc="F F F"
C       -0.13110664      -0.11163249      -1.07317482
O        0.34290924      -0.98002519      -0.12411704
O        0.56809388       0.33681885       1.77381678
C        0.69547036       0.64858112      -1.77162896
C       -0.12008295      -0.73479809       1.20371445
O       -1.49697648      -0.54431138       1.28048525
H       -1.64043937       0.40947079       1.32689331
H       -1.20286032      -0.15066760      -1.22315869
H        0.83982847       0.93104109       1.06497085
H        1.76253915       0.55335164      -1.63056447
H        0.10505031      -1.63855314       1.75586533
H        0.31297383       1.36484393      -2.48224250
12
Properties=species:S:1:pos:R:3 relative_energy_eV=0.7708585452819534 branch=right pbc="F F F"
C       -0.12889579      -0.10402968      -1.06989060
O        0.34588579      -0.97291639      -0.12264918
O        0.55688272       0.34429032       1.77932504
C        0.70067160       0.64796722      -1.77448897
C       -0.12412701      -0.73422181       1.20502504
O       -1.50404345      -0.55957973       1.27664814
H       -1.65797285       0.39226952       1.32750427
H       -1.20241819      -0.12861086      -1.21111185
H        0.84176876       0.92585010       1.06264341
H        1.76923275       0.54152961      -1.64432554
H        0.11794520      -1.63652097       1.75478470
H        0.32046939       1.36809247      -2.48260459
12
Properties=species:S:1:pos:R:3 relative_energy_eV=0.7656841683765379 branch=right pbc="F F F"
C       -0.12725952      -0.10174317      -1.06891179
O        0.34320451      -0.97056041      -0.11952031
O        0.55291752       0.34592107       1.78435288
C        0.70218972       0.64792158      -1.77660739
C       -0.12907397      -0.73380033       1.21014429
O       -1.51025040      -0.56622718       1.27926304
H       -1.67575293       0.38373468       1.33083531
H       -1.20095262      -0.10892682      -1.20950075
H        0.85493053       0.91469537       1.06140643
H        1.77140516       0.54461191      -1.65588953
H        0.12885669      -1.63364140       1.75821104
H        0.32518402       1.36213461      -2.49292319
12
Properties=species:S:1:pos:R:3 relative_energy_eV=0.7624057233933854 branch=right pbc="F F F"
C       -0.12462937      -0.09843525      -1.06601123
O        0.34357025      -0.97050603      -0.11651903
O        0.54684251       0.34746929       1.78523658
C        0.70567582       0.64827419      -1.77838861
C       -0.12968081      -0.73668112       1.21206713
O       -1.51375557      -0.57545715       1.27811325
H       -1.69521520       0.37363990       1.33375227
H       -1.20152193      -0.08362107      -1.20430089
H        0.86055834       0.91009834       1.06369519
H        1.77811142       0.54555849      -1.66804718
H        0.13640206      -1.63261000       1.76301522
H        0.32904082       1.35639052      -2.50175242
12
Properties=species:S:1:pos:R:3 relative_energy_eV=0.7610276484992937 branch=right pbc="F F F"
C       -0.12690264      -0.09977444      -1.06842427
O        0.33495662      -0.97227875      -0.11507327
O        0.54959797       0.34294766       1.78673663
C        0.70414997       0.64810241      -1.78058889
C       -0.12959385      -0.73595360       1.21577357
O       -1.51159992      -0.56836132       1.28859816
H       -1.69762814       0.37877398       1.33639313
H       -1.20028538      -0.08352446      -1.21557565
H        0.87736096       0.90280102       1.06586620
H        1.77400412       0.55867460      -1.66505572
H        0.13530211      -1.63226919       1.76648041
H        0.32603685       1.34498200      -2.51427022
12
Properties=species:S:1:pos:R:3 relative_energy_eV=0.7598535005708982 branch=right pbc="F F F"
C       -0.12568688      -0.09533674      -1.06714870
O        0.33710600      -0.96971875      -0.11503410
O        0.54464667       0.34512281       1.78649503
C        0.70629704       0.64764585      -1.78214926
C       -0.12750719      -0.73685474       1.21557388
O       -1.51045170      -0.57401300       1.28729293
H       -1.70173699       0.37282884       1.33601596
H       -1.20115619      -0.07513328      -1.21125260
H        0.87322092       0.90441019       1.06759239
H        1.77744489       0.55400355      -1.66719282
H        0.13555377      -1.63369542       1.76582905
H        0.32766809       1.34486072      -2.51516153
12
Properties=species:S:1:pos:R:3 relative_energy_eV=0.7583266548554093 branch=right pbc="F F F"
C       -0.12438678      -0.08562354      -1.06427433
O        0.33867190      -0.96260982      -0.11422717
O        0.53407275       0.35078474       1.78830623
C        0.71106392       0.64653593      -1.78662333
C       -0.12592321      -0.73793675       1.21562703
O       -1.50970741      -0.58553349       1.28703008
H       -1.70865314       0.36014383       1.33512297
H       -1.20156269      -0.05982982      -1.20298860
H        0.86927462       0.90508823       1.07011800
H        1.78284763       0.54521814      -1.67250569
H        0.13790778      -1.63653277       1.76365334
H        0.33179268       1.34441558      -2.51837803
12
Properties=species:S:1:pos:R:3 relative_energy_eV=0.7566369195901643 branch=right pbc="F F F"
C       -0.12231390      -0.07499134      -1.06121230
O        0.33896484      -0.95388225      -0.11216341
O        0.52317376       0.35640189       1.79175505
C        0.71529441       0.64500595      -1.79237965
C       -0.12621127      -0.73875783       1.21863009
O       -1.50971677      -0.59665853       1.28940784
H       -1.71373223       0.34767210       1.33445974
H       -1.20029771      -0.04267595      -1.19596125
H        0.86729015       0.90149140       1.07203409
H        1.78740965       0.54050455      -1.67906084
H        0.14018932      -1.64025470       1.76166708
H        0.33534743       1.34026516      -2.52631569
12
Properties=species:S:1:pos:R:3 relative_energy_eV=0.7548103810513567 branch=right pbc="F F F"
C       -0.11968216      -0.06195225      -1.05649275
O        0.33839017      -0.94249880      -0.10840023
O        0.50943700       0.36278459       1.79729610
C        0.72072095       0.64333501      -1.80028585
C       -0.12919887      -0.74020864       1.22292546
O       -1.51218906      -0.61069266       1.29357585
H       -1.71933858       0.33290458       1.33390260
H       -1.19730827      -0.02014036      -1.18685246
H        0.86713917       0.89420395       1.07395527
H        1.79274861       0.53778860      -1.68981364
H        0.14482208      -1.64442343       1.75976726
H        0.33985622       1.33302007      -2.53871657
12
Properties=species:S:1:pos:R:3 relative_energy_eV=0.7537049470538477 branch=right pbc="F F F"
C       -0.11755732      -0.05703228      -1.05416653
O        0.33800277      -0.93727779      -0.10556008
O        0.50487235       0.36316440       1.80058822
C        0.72191350       0.64252173      -1.80395606
C       -0.13255621      -0.74149016       1.22625670
O       -1.51467324      -0.61443945       1.29713626
H       -1.71703369       0.32970763       1.33368703
H       -1.19404864      -0.01036680      -1.18419065
H        0.86677666       0.88820039       1.07514076
H        1.79377849       0.54281773      -1.69487611
H        0.14602298      -1.64667312       1.75928186
H        0.33989951       1.32498839      -2.54848033
12
Properties=species:S:1:pos:R:3 relative_energy_eV=0.7530122356038191 branch=right pbc="F F F"
C       -0.11617096      -0.05445771      -1.05224829
O        0.33947496      -0.93416479      -0.10402099
O        0.50096467       0.36248772       1.80300826
C        0.72299233       0.64257024      -1.80577248
C       -0.13510345      -0.74289176       1.22696552
O       -1.51764875      -0.61749033       1.29825171
H       -1.71582796       0.32809858       1.33334170
H       -1.19205855      -0.00374014      -1.18062470
H        0.86570484       0.88542133       1.07624432
H        1.79481036       0.54512255      -1.69929868
H        0.14804013      -1.64712218       1.75862492
H        0.34021946       1.32028720      -2.55361016
12
Properties=species:S:1:pos:R:3 relative_energy_eV=0.752479368218701 branch=right pbc="F F F"
C       -0.11544029      -0.05637209      -1.05198600
O        0.34183771      -0.93490433      -0.10379427
O        0.50264443       0.35813011       1.80365714
C        0.72175363       0.64313811      -1.80470812
C       -0.13603417      -0.74439212       1.22556464
O       -1.51865885      -0.61431321       1.29755919
H       -1.70939460       0.33283936       1.33270401
H       -1.19087205      -0.00549511      -1.18020306
H        0.86136352       0.88696242       1.07871835
H        1.79338420       0.54975668      -1.69832415
H        0.14668828      -1.64726382       1.75777372
H        0.33812536       1.31603464      -2.55610039
12
Properties=species:S:1:pos:R:3 relative_energy_eV=0.7520616293113562 branch=right pbc="F F F"
C       -0.11460567      -0.05590719      -1.05134004
O        0.34536531      -0.93391324      -0.10409459
O        0.50011927       0.35603071       1.80522367
C        0.72200446       0.64382638      -1.80437457
C       -0.13588649      -0.74564357       1.22375222
O       -1.51932946      -0.61516108       1.29536141
H       -1.70754915       0.33297711       1.33183278
H       -1.19077230      -0.00347367      -1.17625071
H        0.85683452       0.88990240       1.08153559
H        1.79376134       0.54874168      -1.69943257
H        0.14711162      -1.64763001       1.75590604
H        0.33834364       1.31437114      -2.55725808
12
Properties=species:S:1:pos:R:3 relative_energy_eV=0.7516392451707361 branch=right pbc="F F F"
C       -0.11396934      -0.05479692      -1.05078884
O        0.34927052      -0.93264226      -0.10481163
O        0.49819061       0.35346638       1.80712428
C        0.72235365       0.64452053      -1.80417973
C       -0.13465032      -0.74689403       1.22123874
O       -1.51852215      -0.61615857       1.29134319
H       -1.70594821       0.33219860       1.33076080
H       -1.19092672      -0.00123162      -1.17094803
H        0.84928639       0.89544704       1.08677287
H        1.79385834       0.54633186      -1.69944438
H        0.14701112      -1.64892904       1.75301955
H        0.33944311       1.31280876      -2.55922560
12
Properties=species:S:1:pos:R:3 relative_energy_eV=0.7511927431005461 branch=right pbc="F F F"
C       -0.11262589      -0.05174636      -1.04985582
O        0.35323761      -0.92989354      -0.10531215
O        0.49405522       0.35219749       1.81056792
C        0.72333349       0.64504775      -1.80522731
C       -0.13330769      -0.74791846       1.21966191
O       -1.51752542      -0.61924078       1.28597529
H       -1.70676829       0.32856481       1.32977333
H       -1.19064267       0.00425865      -1.16308424
H        0.84160775       0.90053919       1.09289897
H        1.79486023       0.54223915      -1.70158007
H        0.14773426      -1.65112881       1.74964718
H        0.34143817       1.31120173      -2.56260364
12
Properties=species:S:1:pos:R:3 relative_energy_eV=0.7507493980647268 branch=right pbc="F F F"
C       -0.11093572      -0.04793341      -1.04853268
O        0.35680483      -0.92666642      -0.10547191
O        0.48987981       0.35132257       1.81507507
C        0.72465129       0.64537707      -1.80745600
C       -0.13235683      -0.74881884       1.21888897
O       -1.51667400      -0.62262591       1.27956761
H       -1.70857309       0.32423022       1.32912505
H       -1.18943686       0.01075457      -1.15403803
H        0.83421424       0.90457246       1.09978579
H        1.79600227       0.53882009      -1.70520499
H        0.14855166      -1.65393341       1.74658070
H        0.34326898       1.30902192      -2.56745806
12
Properties=species:S:1:pos:R:3 relative_energy_eV=0.7503282858961029 branch=right pbc="F F F"
C       -0.10878120      -0.04533587      -1.04741005
O        0.35956802      -0.92441558      -0.10513760
O        0.48713598       0.35039149       1.81975493
C        0.72528518       0.64547232      -1.81010610
C       -0.13226601      -0.74943466       1.21927366
O       -1.51654531      -0.62390746       1.27340116
H       -1.70967473       0.32209814       1.32909275
H       -1.18729142       0.01493584      -1.14652903
H        0.82979204       0.90600678       1.10548880
H        1.79675159       0.53848497      -1.70976058
H        0.14836531      -1.65658546       1.74505133
H        0.34305702       1.30641043      -2.57225770
12
Properties=species:S:1:pos:R:3 relative_energy_eV=0.7499485253247258 branch=right pbc="F F F"
C       -0.10667764      -0.04435921      -1.04650478
O        0.36197870      -0.92330358      -0.10446985
O        0.48630157       0.34917398       1.82375307
C        0.72535282       0.64532658      -1.81288779
C       -0.13287930      -0.74982447       1.22007236
O       -1.51721241      -0.62306648       1.26827579
H       -1.70995808       0.32251939       1.32965456
H       -1.18480408       0.01589996      -1.14142203
H        0.82853507       0.90541185       1.10980730
H        1.79699048       0.54089320      -1.71451299
H        0.14682682      -1.65855081       1.74516665
H        0.34094249       1.30400052      -2.57607073
12
Properties=species:S:1:pos:R:3 relative_energy_eV=0.7495328238237562 branch=right pbc="F F F"
C       -0.10437518      -0.04505611      -1.04604358
O        0.36474738      -0.92302620      -0.10345501
O        0.48720637       0.34728589       1.82734887
C        0.72450402       0.64488431      -1.81585103
C       -0.13392479      -0.74997818       1.22100522
O       -1.51839803      -0.61986858       1.26410153
H       -1.70909718       0.32571629       1.33076308
H       -1.18214589       0.01321874      -1.13866903
H        0.83048289       0.90342159       1.11358239
H        1.79660345       0.54590356      -1.71936176
H        0.14313679      -1.65998484       1.74656792
H        0.33665671       1.30160439      -2.57912709
12
Properties=species:S:1:pos:R:3 relative_energy_eV=0.7489977744207863 branch=right pbc="F F F"
C       -0.10173814      -0.04632488      -1.04578352
O        0.36897422      -0.92213451      -0.10200839
O        0.48892298       0.34471749       1.83134864
C        0.72316754       0.64396189      -1.81999640
C       -0.13522743      -0.74985702       1.22177373
O       -1.52005118      -0.61558305       1.26061726
H       -1.70827618       0.33019547       1.33245002
H       -1.17939113       0.00828278      -1.13703086
H        0.83544148       0.90066805       1.11864875
H        1.79586784       0.55238355      -1.72517575
H        0.13697379      -1.66114155       1.74858533
H        0.33073292       1.29895253      -2.58256741
12
Properties=species:S:1:pos:R:3 relative_energy_eV=0.748437063093661 branch=right pbc="F F F"
C       -0.09922736      -0.04722426      -1.04599250
O        0.37413634      -0.91971135      -0.10032812
O        0.49053439       0.34189583       1.83554518
C        0.72158236       0.64256460      -1.82491831
C       -0.13633307      -0.74931290       1.22202609
O       -1.52153076      -0.61180715       1.25896033
H       -1.70825107       0.33408536       1.33431106
H       -1.17724024       0.00295487      -1.13666686
H        0.84274690       0.89826212       1.12543992
H        1.79498527       0.55816875      -1.73083054
H        0.12932330      -1.66185554       1.74998441
H        0.32467081       1.29610030      -2.58666937
12
Properties=species:S:1:pos:R:3 relative_energy_eV=0.7480417709084577 branch=right pbc="F F F"
C       -0.09776939      -0.04615969      -1.04631999
O        0.37850316      -0.91551428      -0.09913952
O        0.49018012       0.34019018       1.83906711
C        0.72103741       0.64128160      -1.82915480
C       -0.13669417      -0.74858149       1.22158510
O       -1.52221828      -0.61175915       1.25925459
H       -1.71029504       0.33381468       1.33537180
H       -1.17648135       0.00188245      -1.13608069
H        0.84815537       0.89787355       1.13264342
H        1.79485801       0.55925985      -1.73482153
H        0.12422332      -1.66207412       1.74922204
H        0.32189776       1.29390701      -2.59076627
12
Properties=species:S:1:pos:R:3 relative_energy_eV=0.7478364647049602 branch=right pbc="F F F"
C       -0.09728165      -0.04418404      -1.04663242
O        0.38057469      -0.91174604      -0.09862908
O        0.48848923       0.33970147       1.84144033
C        0.72138106       0.64064553      -1.83139774
C       -0.13653446      -0.74807701       1.22100024
O       -1.52214892      -0.61404636       1.26007271
H       -1.71282416       0.33099708       1.33539583
H       -1.17653347       0.00440045      -1.13500210
H        0.84975973       0.89901516       1.13804872
H        1.79546521       0.55698419      -1.73681628
H        0.12302068      -1.66216487       1.74711404
H        0.32202895       1.29259506      -2.59373293
12
Properties=species:S:1:pos:R:3 relative_energy_eV=0.7477178526769421 branch=right pbc="F F F"
C       -0.09700530      -0.04218262      -1.04681482
O        0.38156876      -0.90868270      -0.09836043
O        0.48642485       0.33965104       1.84360277
C        0.72213386       0.64043970      -1.83283437
C       -0.13640548      -0.74777771       1.22075782
O       -1.52202729      -0.61665499       1.26044314
H       -1.71516469       0.32785439       1.33498544
H       -1.17652802       0.00793927      -1.13347579
H        0.84947878       0.90026863       1.14242241
H        1.79641963       0.55408955      -1.73869703
H        0.12362532      -1.66246699       1.74489172
H        0.32287633       1.29164313      -2.59605948
12
Properties=species:S:1:pos:R:3 relative_energy_eV=0.7475688313606952 branch=right pbc="F F F"
C       -0.09655739      -0.04032582      -1.04722577
O        0.38229235      -0.90550986      -0.09794156
O        0.48431954       0.33934090       1.84672519
C        0.72291473       0.64036928      -1.83443905
C       -0.13648902      -0.74744075       1.22089071
O       -1.52197893      -0.61881439       1.26072606
H       -1.71731544       0.32520714       1.33431842
H       -1.17617983       0.01123736      -1.13216273
H        0.84913874       0.90137206       1.14793864
H        1.79750372       0.55141637      -1.74166161
H        0.12454519      -1.66309942       1.74239552
H        0.32320302       1.29036790      -2.59870233
12
Properties=species:S:1:pos:R:3 relative_energy_eV=0.7473919850726816 branch=right pbc="F F F"
C       -0.09579267      -0.03887738      -1.04785368
O        0.38317607      -0.90218871      -0.09727109
O        0.48243752       0.33846991       1.85123878
C        0.72364071       0.64040622      -1.83652686
C       -0.13687993      -0.74704979       1.22156335
O       -1.52219916      -0.61994839       1.26090150
H       -1.71899686       0.32378975       1.33335064
H       -1.17539154       0.01330568      -1.13147129
H        0.84905548       0.90211293       1.15519321
H        1.79858498       0.54945257      -1.74653123
H        0.12527626      -1.66418960       1.73980354
H        0.32248576       1.28883761      -2.60153532
12
Properties=species:S:1:pos:R:3 relative_energy_eV=0.7472072797681903 branch=right pbc="F F F"
C       -0.09488999      -0.03884774      -1.04863329
O        0.38398048      -0.90013149      -0.09643913
O        0.48197934       0.33684118       1.85594910
C        0.72372204       0.64048841      -1.83838902
C       -0.13745240      -0.74675031       1.22261239
O       -1.52257302      -0.61865916       1.26110126
H       -1.71887800       0.32533995       1.33223807
H       -1.17436472       0.01192131      -1.13266904
H        0.84961342       0.90224544       1.16231551
H        1.79899299       0.54954164      -1.75209328
H        0.12499989      -1.66550047       1.73815031
H        0.32026663       1.28763201      -2.60328132
12
Properties=species:S:1:pos:R:3 relative_energy_eV=0.747082453852272 branch=right pbc="F F F"
C       -0.09419691      -0.03972996      -1.04895435
O        0.38479469      -0.89975486      -0.09581637
O        0.48263810       0.33519265       1.85900504
C        0.72336052       0.64051127      -1.83941135
C       -0.13782080      -0.74674442       1.22350887
O       -1.52293331      -0.61618562       1.26104813
H       -1.71739364       0.32845736       1.33122293
H       -1.17362012       0.00846019      -1.13482121
H        0.84979736       0.90216891       1.16666476
H        1.79873183       0.55074861      -1.75636815
H        0.12408651      -1.66656402       1.73788751
H        0.31795247       1.28756064      -2.60310425
12
Properties=species:S:1:pos:R:3 relative_energy_eV=0.7470073658460024 branch=right pbc="F F F"
C       -0.09384795      -0.04059605      -1.04877736
O        0.38534661      -0.90037805      -0.09547337
O        0.48359456       0.33400840       1.86008092
C        0.72284838       0.64037722      -1.83954962
C       -0.13782481      -0.74698689       1.22389528
O       -1.52299819      -0.61409624       1.26080458
H       -1.71564246       0.33115923       1.33039334
H       -1.17327065       0.00532555      -1.13685273
H        0.84926995       0.90239168       1.16809125
H        1.79816451       0.55174096      -1.75844199
H        0.12321807      -1.66716031       1.73842467
H        0.31653875       1.28833522      -2.60173344
12
Properties=species:S:1:pos:R:3 relative_energy_eV=0.7469526219410909 branch=right pbc="F F F"
C       -0.09355491      -0.04041491      -1.04808457
O        0.38609790      -0.90052125      -0.09524968
O        0.48369628       0.33334969       1.86049523
C        0.72274402       0.64009115      -1.83964808
C       -0.13759491      -0.74737040       1.22395054
O       -1.52294035      -0.61373587       1.26011168
H       -1.71494669       0.33178746       1.32953841
H       -1.17302653       0.00464955      -1.13751146
H        0.84760659       0.90317493       1.16865242
H        1.79791506       0.55121325      -1.75985478
H        0.12302788      -1.66755164       1.73884158
H        0.31637239       1.28944878      -2.60037973
12
Properties=species:S:1:pos:R:3 relative_energy_eV=0.7469071346531564 branch=right pbc="F F F"
C       -0.09307782      -0.03920757      -1.04711574
O        0.38709186      -0.89978899      -0.09492588
O        0.48296718       0.33280974       1.86116636
C        0.72298975       0.63965371      -1.84005863
C       -0.13726334      -0.74783513       1.22382028
O       -1.52277150      -0.61484275       1.25893751
H       -1.71531083       0.33059978       1.32847788
H       -1.17255813       0.00633655      -1.13694002
H        0.84503169       0.90455069       1.16976407
H        1.79801693       0.54928614      -1.76154545
H        0.12336151      -1.66793217       1.73886168
H        0.31691935       1.29049076      -2.59958046
12
Properties=species:S:1:pos:R:3 relative_energy_eV=0.7468552156824444 branch=right pbc="F F F"
C       -0.09232313      -0.03708418      -1.04609907
O        0.38845258      -0.89789913      -0.09448169
O        0.48133174       0.33237240       1.86256009
C        0.72369780       0.63922961      -1.84106499
C       -0.13699943      -0.74826217       1.22369832
O       -1.52268631      -0.61733864       1.25732921
H       -1.71690046       0.32766226       1.32732252
H       -1.17177522       0.01031538      -1.13487456
H        0.84193825       0.90615407       1.17198436
H        1.79860482       0.54621637      -1.76404501
H        0.12413060      -1.66836075       1.73835399
H        0.31792527       1.29111563      -2.59982147
12
Properties=species:S:1:pos:R:3 relative_energy_eV=0.7468316335634881 branch=right pbc="F F F"
C       -0.09150762      -0.03528683      -1.04554299
O        0.38961162      -0.89590494      -0.09399143
O        0.47988555       0.33187335       1.86424861
C        0.72437077       0.63900288      -1.84217650
C       -0.13691805      -0.74853050       1.22367609
O       -1.52266482      -0.61955854       1.25592484
H       -1.71851185       0.32496188       1.32637073
H       -1.17086677       0.01410372      -1.13267655
H        0.83961849       0.90730725       1.17454391
H        1.79922656       0.54371843      -1.76657532
H        0.12463728      -1.66872537       1.73778726
H        0.31851521       1.29115958      -2.60072686
12
Properties=species:S:1:pos:R:3 relative_energy_eV=0.7468175930407597 branch=right pbc="F F F"
C       -0.09087098      -0.03430570      -1.04539237
O        0.39045576      -0.89448432      -0.09361653
O        0.47903547       0.33144727       1.86561596
C        0.72486119       0.63902622      -1.84302665
C       -0.13696772      -0.74865755       1.22378012
O       -1.52274575      -0.62088018       1.25498789
H       -1.71955822       0.32332800       1.32572161
H       -1.17015120       0.01647489      -1.13101649
H        0.83829310       0.90777542       1.17643132
H        1.79968610       0.54234451      -1.76859743
H        0.12472279      -1.66896360       1.73752350
H        0.31863575       1.29101600      -2.60154909
12
Properties=species:S:1:pos:R:3 relative_energy_eV=0.7468116302425187 branch=right pbc="F F F"
C       -0.09057279      -0.03434395      -1.04555830
O        0.39073980      -0.89412530      -0.09340688
O        0.47910425       0.33108068       1.86619872
C        0.72496085       0.63919555      -1.84325942
C       -0.13702985      -0.74869949       1.22389439
O       -1.52277069      -0.62095242       1.25466215
H       -1.71962480       0.32321607       1.32532053
H       -1.16978876       0.01682170      -1.13053445
H        0.83794267       0.90773530       1.17706514
H        1.79977349       0.54222999      -1.76951818
H        0.12435991      -1.66902357       1.73772297
H        0.31830219       1.29098642      -2.60172482
12
Properties=species:S:1:pos:R:3 relative_energy_eV=0.7468053187349142 branch=right pbc="F F F"
C       -0.09054556      -0.03481548      -1.04575393
O        0.39074392      -0.89436400      -0.09334980
O        0.47957118       0.33089865       1.86615858
C        0.72490573       0.63941282      -1.84309915
C       -0.13704834      -0.74870793       1.22400224
O       -1.52277470      -0.62053263       1.25468882
H       -1.71926600       0.32374038       1.32502563
H       -1.16975293       0.01621159      -1.13065326
H        0.83799590       0.90746936       1.17673127
H        1.79970069       0.54258115      -1.76968253
H        0.12390933      -1.66897293       1.73815677
H        0.31795705       1.29120001      -2.60136280
12
Properties=species:S:1:pos:R:3 relative_energy_eV=0.7467964528714219 branch=right pbc="F F F"
C       -0.09071800      -0.03553015      -1.04595846
O        0.39048003      -0.89499877      -0.09337289
O        0.48035957       0.33078538       1.86571752
C        0.72468511       0.63960538      -1.84265008
C       -0.13701541      -0.74869230       1.22407345
O       -1.52269340      -0.61975696       1.25498919
H       -1.71860283       0.32470684       1.32473788
H       -1.16993188       0.01498801      -1.13127908
H        0.83834560       0.90714043       1.17584012
H        1.79947262       0.54321666      -1.76920976
H        0.12341760      -1.66886249       1.73867122
H        0.31759727       1.29151894      -2.60069727
12
Properties=species:S:1:pos:R:3 relative_energy_eV=0.7467888643786864 branch=right pbc="F F F"
C       -0.09099728      -0.03622231      -1.04608524
O        0.39016626      -0.89568552      -0.09342424
O        0.48125572       0.33070730       1.86515656
C        0.72443052       0.63978104      -1.84211794
C       -0.13694549      -0.74866399       1.22415831
O       -1.52258582      -0.61894795       1.25540067
H       -1.71792772       0.32573096       1.32428006
H       -1.17025140       0.01368512      -1.13198129
H        0.83878019       0.90678202       1.17475663
H        1.79921532       0.54383699      -1.76849062
H        0.12294617      -1.66876660       1.73915416
H        0.31730978       1.29188390      -2.59994524
12
Properties=species:S:1:pos:R:3 relative_energy_eV=0.746782366426487 branch=right pbc="F F F"
C       -0.09147853      -0.03715102      -1.04620290
O        0.38965588      -0.89661655      -0.09346094
O        0.48277199       0.33045511       1.86444581
C        0.72396200       0.63999162      -1.84133320
C       -0.13681525      -0.74859832       1.22431284
O       -1.52235995      -0.61764804       1.25611393
H       -1.71693334       0.32736416       1.32323891
H       -1.17079311       0.01175699      -1.13306151
H        0.83959592       0.90623997       1.17334949
H        1.79876401       0.54478593      -1.76725988
H        0.12219723      -1.66871112       1.73971804
H        0.31682939       1.29225226      -2.59899877
12
Properties=species:S:1:pos:R:3 relative_energy_eV=0.7467648847577948 branch=right pbc="F F F"
C       -0.09219403      -0.03814887      -1.04619259
O        0.38904984      -0.89754131      -0.09340049
O        0.48511103       0.32982503       1.86388265
C        0.72323576       0.64023724      -1.84039576
C       -0.13661827      -0.74847082       1.22464572
O       -1.52200823      -0.61579811       1.25718387
H       -1.71573188       0.32968140       1.32095200
H       -1.17161749       0.00935301      -1.13429023
H        0.84099350       0.90537505       1.17197497
H        1.79809690       0.54605714      -1.76559942
H        0.12103242      -1.66884827       1.74020965
H        0.31604659       1.29239949      -2.59810854
12
Properties=species:S:1:pos:R:3 relative_energy_eV=0.7467389042758441 branch=right pbc="F F F"
C       -0.09300509      -0.03882119      -1.04593764
O        0.38853853      -0.89795011      -0.09309864
O        0.48814644       0.32855101       1.86409586
C        0.72224410       0.64042532      -1.83964405
C       -0.13640515      -0.74826355       1.22521562
O       -1.52154150      -0.61352492       1.25848640
H       -1.71463786       0.33248435       1.31691974
H       -1.17254586       0.00709062      -1.13518930
H        0.84314260       0.90415927       1.17163351
H        1.79723417       0.54752929      -1.76395347
H        0.11942316      -1.66937722       1.74026705
H        0.31480236       1.29181817      -2.59793321
12
Properties=species:S:1:pos:R:3 relative_energy_eV=0.7467115783128975 branch=right pbc="F F F"
C       -0.09340700      -0.03843896      -1.04537704
O        0.38860707      -0.89713935      -0.09257231
O        0.49024781       0.32707187       1.86553820
C        0.72149218       0.64040334      -1.83975624
C       -0.13633842      -0.74805126       1.22584262
O       -1.52124548      -0.61209666       1.25927949
H       -1.71457127       0.33416732       1.31239472
H       -1.17301095       0.00674444      -1.13467752
H        0.84529823       0.90301079       1.17332752
H        1.79663988       0.54829930      -1.76360610
H        0.11810807      -1.67023263       1.73954632
H        0.31357546       1.29038292      -2.59907771
12
Properties=species:S:1:pos:R:3 relative_energy_eV=0.7466909935064905 branch=right pbc="F F F"
C       -0.09322897      -0.03740647      -1.04483157
O        0.38911468      -0.89576608      -0.09209956
O        0.49042825       0.32621885       1.86727326
C        0.72128562       0.64020897      -1.84051891
C       -0.13647600      -0.74792832       1.22620338
O       -1.52126050      -0.61205020       1.25925477
H       -1.71541800       0.33412424       1.30956269
H       -1.17279362       0.00820980      -1.13312380
H        0.84667203       0.90232361       1.17588210
H        1.79652785       0.54810120      -1.76464214
H        0.11765718      -1.67089936       1.73856892
H        0.31288686       1.28898496      -2.60066710
12
Properties=species:S:1:pos:R:3 relative_energy_eV=0.7466764778655488 branch=right pbc="F F F"
C       -0.09284837      -0.03649874      -1.04442382
O        0.38965206      -0.89470662      -0.09179542
O        0.48960866       0.32605151       1.86844276
C        0.72136470       0.64001655      -1.84124637
C       -0.13669594      -0.74788252       1.22634187
O       -1.52144207      -0.61261888       1.25890354
H       -1.71639860       0.33340033       1.30813478
H       -1.17234453       0.00999670      -1.13147910
H        0.84757137       0.90183679       1.17778442
H        1.79662576       0.54747729      -1.76605764
H        0.11768386      -1.67121224       1.73791480
H        0.31261834       1.28826106      -2.60165772
12
Properties=species:S:1:pos:R:3 relative_energy_eV=0.7466647168585041 branch=right pbc="F F F"
C       -0.09237938      -0.03569218      -1.04394905
O        0.39020851      -0.89387342      -0.09148769
O        0.48832673       0.32625220       1.86932121
C        0.72146187       0.63981580      -1.84188329
C       -0.13700533      -0.74785957       1.22643856
O       -1.52171442      -0.61333056       1.25847880
H       -1.71745362       0.33257309       1.30651020
H       -1.17179276       0.01199348      -1.12950728
H        0.84897284       0.90100436       1.17933954
H        1.79669580       0.54660439      -1.76781907
H        0.11773135      -1.67136413       1.73751978
H        0.31234348       1.28799784      -2.60209950
12
Properties=species:S:1:pos:R:3 relative_energy_eV=0.7466473767617572 branch=right pbc="F F F"
C       -0.09203536      -0.03527905      -1.04340692
O        0.39058651      -0.89362869      -0.09120549
O        0.48701860       0.32683630       1.86955421
C        0.72141309       0.63966588      -1.84212725
C       -0.13735151      -0.74783835       1.22654463
O       -1.52199673      -0.61381280       1.25823397
H       -1.71826416       0.33211330       1.30420767
H       -1.17138465       0.01363506      -1.12753491
H        0.85128429       0.89956956       1.17993548
H        1.79656491       0.54566617      -1.76945812
H        0.11757510      -1.67128911       1.73764928
H        0.31198478       1.28848313      -2.60153027
12
Properties=species:S:1:pos:R:3 relative_energy_eV=0.7466261090721673 branch=right pbc="F F F"
C       -0.09212850      -0.03560370      -1.04304928
O        0.39044797      -0.89428939      -0.09109334
O        0.48653742       0.32755127       1.86885307
C        0.72111758       0.63965660      -1.84169781
C       -0.13756132      -0.74780449       1.22664393
O       -1.52211346      -0.61361322       1.25844484
H       -1.71827351       0.33251588       1.30190624
H       -1.17148375       0.01387085      -1.12665302
H        0.85386696       0.89796884       1.17901067
H        1.79616839       0.54519109      -1.76992468
H        0.11716336      -1.67096658       1.73840256
H        0.31165354       1.28964435      -2.59998082
12
Properties=species:S:1:pos:R:3 relative_energy_eV=0.7466203755921015 branch=right pbc="F F F"
C       -0.09255091      -0.03626058      -1.04300354
O        0.38997875      -0.89522978      -0.09116463
O        0.48692109       0.32797559       1.86790198
C        0.72074642       0.63974602      -1.84102497
C       -0.13758133      -0.74775950       1.22671602
O       -1.52205028      -0.61299550       1.25889460
H       -1.71768761       0.33336676       1.30056201
H       -1.17196966       0.01300739      -1.12698397
H        0.85558365       0.89694181       1.17757592
H        1.79573953       0.54526132      -1.76926783
H        0.11676004      -1.67061733       1.73923388
H        0.31150488       1.29068532      -2.59857709
12
Properties=species:S:1:pos:R:3 relative_energy_eV=0.7466178972208581 branch=right pbc="F F F"
C       -0.09302288      -0.03679270      -1.04310685
O        0.38950871      -0.89591556      -0.09128467
O        0.48754889       0.32807728       1.86729254
C        0.72040786       0.63983500      -1.84052744
C       -0.13753555      -0.74771732       1.22677403
O       -1.52193297      -0.61236895       1.25927758
H       -1.71700279       0.33417805       1.29982821
H       -1.17251777       0.01202161      -1.12768947
H        0.85664262       0.89638150       1.17662457
H        1.79538549       0.54550344      -1.76835660
H        0.11646439      -1.67037009       1.73984107
H        0.31144854       1.29128930      -2.59781057
12
Properties=species:S:1:pos:R:3 relative_energy_eV=0.7466088645214768 branch=right pbc="F F F"
C       -0.09353932      -0.03712372      -1.04327451
O        0.38907561      -0.89630580      -0.09141596
O        0.48819645       0.32794953       1.86709001
C        0.72005139       0.63989552      -1.84025997
C       -0.13749719      -0.74767500       1.22685023
O       -1.52181734      -0.61178741       1.25955492
H       -1.71629090       0.33492454       1.29916646
H       -1.17311770       0.01120379      -1.12845119
H        0.85765371       0.89593053       1.17632296
H        1.79503685       0.54572937      -1.76743690
H        0.11622403      -1.67018888       1.74031332
H        0.31141891       1.29156912      -2.59759697
12
Properties=species:S:1:pos:R:3 relative_energy_eV=0.7466067545810802 branch=right pbc="F F F"
C       -0.09388346      -0.03701314      -1.04341120
O        0.38887220      -0.89613807      -0.09148553
O        0.48845069       0.32765787       1.86750916
C        0.71980316       0.63987693      -1.84042853
C       -0.13753230      -0.74764707       1.22692873
O       -1.52179407      -0.61154607       1.25957491
H       -1.71590503       0.33524935       1.29863526
H       -1.17351252       0.01112550      -1.12879454
H        0.85854214       0.89559567       1.17705054
H        1.79481497       0.54574815      -1.76703075
H        0.11613822      -1.67014616       1.74045706
H        0.31140040       1.29135865      -2.59814266
12
Properties=species:S:1:pos:R:3 relative_energy_eV=0.7466033297005197 branch=right pbc="F F F"
C       -0.09389557      -0.03658996      -1.04343255
O        0.38896087      -0.89561517      -0.09146755
O        0.48817770       0.32744229       1.86818254
C        0.71977945       0.63980173      -1.84085919
C       -0.13763158      -0.74764345       1.22696799
O       -1.52188476      -0.61172907       1.25937514
H       -1.71602257       0.33504468       1.29844200
H       -1.17351794       0.01176025      -1.12854688
H        0.85900392       0.89543713       1.17820590
H        1.79481354       0.54554536      -1.76731363
H        0.11621567      -1.67022633       1.74027723
H        0.31139559       1.29089416      -2.59896855
12
Properties=species:S:1:pos:R:3 relative_energy_eV=0.7466011358810647 branch=right pbc="F F F"
C       -0.09378127      -0.03626499      -1.04339463
O        0.38909541      -0.89524280      -0.09142736
O        0.48783614       0.32737985       1.86858631
C        0.71984917       0.63974764      -1.84115535
C       -0.13771745      -0.74765019       1.22697070
O       -1.52198283      -0.61196099       1.25920474
H       -1.71626624       0.33477010       1.29845854
H       -1.17337658       0.01235154      -1.12820147
H        0.85916234       0.89536455       1.17890913
H        1.79489059       0.54534989      -1.76771632
H        0.11629116      -1.67030797       1.74008215
H        0.31139387       1.29058502      -2.59945395
12
Properties=species:S:1:pos:R:3 relative_energy_eV=0.7465968566248193 branch=right pbc="F F F"
C       -0.09365527      -0.03598697      -1.04334134
O        0.38920948      -0.89495402      -0.09139230
O        0.48751370       0.32735748       1.86887332
C        0.71993427       0.63971294      -1.84137595
C       -0.13780518      -0.74765992       1.22696175
O       -1.52208562      -0.61215557       1.25905897
H       -1.71650431       0.33453753       1.29852235
H       -1.17322218       0.01288671      -1.12787285
H        0.85931040       0.89526430       1.17942075
H        1.79497726       0.54514800      -1.76810942
H        0.11632307      -1.67038616       1.73991003
H        0.31139863       1.29035737      -2.59979279
12
Properties=species:S:1:pos:R:3 relative_energy_eV=0.7465965326427977 branch=right pbc="F F F"
C       -0.09349712      -0.03561480      -1.04325809
O        0.38931443      -0.89461862      -0.09135827
O        0.48711260       0.32731670       1.86919540
C        0.72005733       0.63969214      -1.84161632
C       -0.13795058      -0.74767853       1.22693685
O       -1.52224475      -0.61234067       1.25887643
H       -1.71679166       0.33431457       1.29864799
H       -1.17302286       0.01359818      -1.12746431
H        0.85962329       0.89502821       1.18001454
H        1.79509437       0.54483034      -1.76862462
H        0.11627484      -1.67050437       1.73968911
H        0.31142426       1.29009855      -2.60017618
12
Properties=species:S:1:pos:R:3 relative_energy_eV=0.7465899592189089 branch=right pbc="F F F"
C       -0.09329985      -0.03503119      -1.04311468
O        0.38936097      -0.89419513      -0.09133874
O        0.48659047       0.32719034       1.86959877
C        0.72025646       0.63971318      -1.84188274
C       -0.13823458      -0.74772077       1.22687605
O       -1.52253467      -0.61244353       1.25860895
H       -1.71713256       0.33418122       1.29890116
H       -1.17276447       0.01468549      -1.12691905
H        0.86036491       0.89444405       1.18078951
H        1.79526987       0.54422980      -1.76936400
H        0.11599702      -1.67072084       1.73936360
H        0.31152036       1.28978916      -2.60065621
12
Properties=species:S:1:pos:R:3 relative_energy_eV=0.7465875895413774 branch=right pbc="F F F"
C       -0.09315056      -0.03421812      -1.04290230
O        0.38916172      -0.89380177      -0.09138135
O        0.48613317       0.32683013       1.86999337
C        0.72053250       0.63984101      -1.84203929
C       -0.13875482      -0.74780307       1.22675227
O       -1.52301556      -0.61215240       1.25828429
H       -1.71735380       0.33449992       1.29934184
H       -1.17253079       0.01613762      -1.12638005
H        0.86195012       0.89316918       1.18161427
H        1.79548333       0.54319026      -1.77022772
H        0.11516358      -1.67110417       1.73892347
H        0.31177450       1.28953338      -2.60111599
12
Properties=species:S:1:pos:R:3 relative_energy_eV=0.746572930516777 branch=right pbc="F F F"
C       -0.09322428      -0.03330123      -1.04264882
O        0.38843798      -0.89371333      -0.09155967
O        0.48613478       0.32604260       1.87015251
C        0.72085333       0.64014171      -1.84184328
C       -0.13958637      -0.74794912       1.22653534
O       -1.52371221      -0.61098146       1.25799077
H       -1.71710116       0.33582810       1.30001531
H       -1.17252131       0.01769964      -1.12616390
H        0.86475002       0.89086137       1.18210089
H        1.79567956       0.54162083      -1.77088530
H        0.11336183      -1.67171640       1.73841678
H        0.31232025       1.28958960      -2.60124751
12
Properties=species:S:1:pos:R:3 relative_energy_eV=0.7465539020504366 branch=right pbc="F F F"
C       -0.09372118      -0.03271183      -1.04249546
O        0.38703409      -0.89427804      -0.09191993
O        0.48711596       0.32474724       1.86980397
C        0.72108298       0.64056808      -1.84108875
C       -0.14060174      -0.74813803       1.22624815
O       -1.52445771      -0.60860049       1.25792025
H       -1.71598546       0.33855421       1.30082123
H       -1.17297452       0.01863751      -1.12672492
H        0.86844310       0.88772681       1.18171834
H        1.79572851       0.53988807      -1.77072700
H        0.11055259      -1.67248922       1.73798437
H        0.31317440       1.29021845      -2.60067675
12
Properties=species:S:1:pos:R:3 relative_energy_eV=0.7465313971279102 branch=right pbc="F F F"
C       -0.09462134      -0.03267252      -1.04254837
O        0.38511986      -0.89546291      -0.09242452
O        0.48910194       0.32298631       1.86903059
C        0.72117806       0.64094896      -1.83992520
C       -0.14164124      -0.74835683       1.22592091
O       -1.52511232      -0.60517991       1.25807470
H       -1.71399784       0.34247253       1.30168300
H       -1.17389221       0.01871939      -1.12804364
H        0.87229575       0.88429695       1.18052305
H        1.79562426       0.53835607      -1.76962904
H        0.10706198      -1.67337167       1.73761706
H        0.31427251       1.29138691      -2.59941456
12
Properties=species:S:1:pos:R:3 relative_energy_eV=0.746499572725952 branch=right pbc="F F F"
C       -0.09586450      -0.03304035      -1.04285313
O        0.38271667      -0.89706026      -0.09306891
O        0.49200663       0.32046734       1.86815733
C        0.72121998       0.64112486      -1.83859945
C       -0.14283108      -0.74864421       1.22550913
O       -1.52577187      -0.60056887       1.25828687
H       -1.71110163       0.34774500       1.30277869
H       -1.17518325       0.01842939      -1.12988999
H        0.87639048       0.88041068       1.17904734
H        1.79545230       0.53689090      -1.76783248
H        0.10264616      -1.67456874       1.73702350
H        0.31570755       1.29293819      -2.59769435
12
Properties=species:S:1:pos:R:3 relative_energy_eV=0.7464502026396076 branch=right pbc="F F F"
C       -0.09758644      -0.03346108      -1.04347590
O        0.37931560      -0.89897754      -0.09398666
O        0.49616029       0.31615186       1.86759066
C        0.72142356       0.64089439      -1.83727251
C       -0.14474093      -0.74914563       1.22482840
O       -1.52685280      -0.59353421       1.25825181
H       -1.70671911       0.35575052       1.30464456
H       -1.17694736       0.01889391      -1.13209586
H        0.88213214       0.87467193       1.17800071
H        1.79537328       0.53468336      -1.76556677
H        0.09581221      -1.67673877       1.73553486
H        0.31801384       1.29493625      -2.59558778
12
Properties=species:S:1:pos:R:3 relative_energy_eV=0.7463704021411104 branch=right pbc="F F F"
C       -0.09990095      -0.03328468      -1.04452465
O        0.37423651      -0.90089513      -0.09535366
O        0.50178594       0.30852394       1.86811001
C        0.72214706       0.63985251      -1.83638839
C       -0.14826168      -0.75006055       1.22360629
O       -1.52899897      -0.58239573       1.25748305
H       -1.70013321       0.36834732       1.30811031
H       -1.17920183       0.02216070      -1.13418097
H        0.89165700       0.86494806       1.17878940
H        1.79565907       0.53051729      -1.76338064
H        0.08442404      -1.68087128       1.73202882
H        0.32196581       1.29728433      -2.59343239
12
Properties=species:S:1:pos:R:3 relative_energy_eV=0.7462767472970881 branch=right pbc="F F F"
C       -0.10206312      -0.03163661      -1.04572639
O        0.36846819      -0.90161854      -0.09689973
O        0.50689874       0.29853024       1.87051371
C        0.72363152       0.63785143      -1.83689638
C       -0.15327719      -0.75127624       1.22194736
O       -1.53224776      -0.56921750       1.25568730
H       -1.69296123       0.38306483       1.31296753
H       -1.18108173       0.02992619      -1.13461482
H        0.90427472       0.85192128       1.18294861
H        1.79659232       0.52427505      -1.76288784
H        0.06998829      -1.68663819       1.72632818
H        0.32714876       1.29894727      -2.59249809
12
Properties=species:S:1:pos:R:3 relative_energy_eV=0.7462092174318968 branch=right pbc="F F F"
C       -0.10267966      -0.02914298      -1.04628886
O        0.36541945      -0.90044711      -0.09769387
O        0.50808192       0.29208698       1.87357099
C        0.72510954       0.63603319      -1.83868184
C       -0.15698817      -0.75203004       1.22082611
O       -1.53476454      -0.56191433       1.25395540
H       -1.68969363       0.39095843       1.31631546
H       -1.18128398       0.03835901      -1.13274265
H        0.91296014       0.84274798       1.18842233
H        1.79769887       0.51934381      -1.76479641
H        0.06094992      -1.69060204       1.72160008
H        0.33055678       1.29873796      -2.59361571
12
Properties=species:S:1:pos:R:3 relative_energy_eV=0.7461916305765044 branch=right pbc="F F F"
C       -0.10238949      -0.02727479      -1.04614233
O        0.36486076      -0.89901530      -0.09774467
O        0.50710532       0.29025996       1.87549482
C        0.72581624       0.63534430      -1.84003672
C       -0.15855415      -0.75221118       1.22048422
O       -1.53598646      -0.56036311       1.25315247
H       -1.68977934       0.39255376       1.31696103
H       -1.18074864       0.04308791      -1.13065821
H        0.91718134       0.83879304       1.19197499
H        1.79828759       0.51707159      -1.76706922
H        0.05814203      -1.69195759       1.71959307
H        0.33142972       1.29784286      -2.59513785
12
Properties=species:S:1:pos:R:3 relative_energy_eV=0.7461909804806055 branch=right pbc="F F F"
C       -0.10215400      -0.02647198      -1.04592070
O        0.36491810      -0.89839250      -0.09767071
O        0.50636653       0.29019118       1.87608133
C        0.72602545       0.63528267      -1.84049965
C       -0.15896846      -0.75220751       1.22046587
O       -1.53640957      -0.56050162       1.25295840
H       -1.69035541       0.39241118       1.31683388
H       -1.18044375       0.04468296      -1.12974733
H        0.91866462       0.83754761       1.19314140
H        1.79845845       0.51625770      -1.76816507
H        0.05773790      -1.69217849       1.71918076
H        0.33152471       1.29751039      -2.59578644
