12
Properties=species:S:1:pos:R:3 relative_energy_eV=0.0 branch=left pbc="F F F"
C        0.00550391       0.03981984      -0.64550498
O       -0.62512280       1.06098846      -0.83263690
O       -1.20394159       0.56911958       1.98181956
C        0.36893617      -0.95339874      -1.70308776
C        0.14116261       0.55643305       1.65566616
O        0.45087346      -0.35071457       0.57111492
H        1.35974931      -1.36531121      -1.53603246
H        0.51636705       1.54264458       1.38124395
H       -1.66250151       1.03842944       1.26900552
H       -0.34235735      -1.77848278      -1.67123980
H        0.68538552       0.15100092       2.50197769
H        0.30592424      -0.48235051      -2.67727340
12
Properties=species:S:1:pos:R:3 relative_energy_eV=3.463803295744583e-06 branch=left pbc="F F F"
C        0.00532810       0.03975538      -0.64554404
O       -0.62492658       1.06110814      -0.83280063
O       -1.20397705       0.56900622       1.98186167
C        0.36888398      -0.95341704      -1.70311734
C        0.14106837       0.55653168       1.65560239
O        0.45073411      -0.35062764       0.57109995
H        1.35962403      -1.36532623      -1.53586728
H        0.51654872       1.54276215       1.38146473
H       -1.66282378       1.03843810       1.26936951
H       -0.34223430      -1.77857335      -1.67128415
H        0.68561104       0.15098977       2.50163754
H        0.30614240      -0.48246913      -2.67736985
12
Properties=species:S:1:pos:R:3 relative_energy_eV=1.4366238247021101e-05 branch=left pbc="F F F"
C        0.00515030       0.03954578      -0.64559028
O       -0.62508210       1.06088773      -0.83291558
O       -1.20407871       0.56915315       1.98192836
C        0.36885809      -0.95349566      -1.70319404
C        0.14095487       0.55666140       1.65556381
O        0.45071788      -0.35048270       0.57112897
H        1.35956340      -1.36523236      -1.53575101
H        0.51699932       1.54294508       1.38194970
H       -1.66304031       1.03848211       1.26944671
H       -0.34216078      -1.77864727      -1.67143041
H        0.68575691       0.15082981       2.50132568
H        0.30634015      -0.48246903      -2.67740939
12
Properties=species:S:1:pos:R:3 relative_energy_eV=3.233892857679166e-05 branch=left pbc="F F F"
C        0.00492928       0.03907187      -0.64565619
O       -0.62570089       1.06018350      -0.83294774
O       -1.20419327       0.56985020       1.98222374
C        0.36890100      -0.95371006      -1.70335993
C        0.14084737       0.55682826       1.65552446
O        0.45055496      -0.35049498       0.57123661
H        1.35969061      -1.36494463      -1.53565066
H        0.51769693       1.54323474       1.38271309
H       -1.66310448       1.03865727       1.26928744
H       -0.34209480      -1.77885540      -1.67196929
H        0.68586990       0.15053485       2.50097277
H        0.30658241      -0.48217757      -2.67732179
12
Properties=species:S:1:pos:R:3 relative_energy_eV=5.8714191254694015e-05 branch=left pbc="F F F"
C        0.00457322       0.03834712      -0.64578654
O       -0.62664763       1.05914269      -0.83299930
O       -1.20412545       0.57132155       1.98311436
C        0.36910278      -0.95411877      -1.70361990
C        0.14081806       0.55698270       1.65544211
O        0.44965244      -0.35103933       0.57139980
H        1.36020533      -1.36445252      -1.53546073
H        0.51820592       1.54358921       1.38342987
H       -1.66299776       1.03915234       1.26936324
H       -0.34190017      -1.77943369      -1.67322242
H        0.68610125       0.15018395       2.50046390
H        0.30699100      -0.48149720      -2.67707189
12
Properties=species:S:1:pos:R:3 relative_energy_eV=0.00011765113595174626 branch=left pbc="F F F"
C        0.00404775       0.03773597      -0.64603306
O       -0.62726224       1.05849440      -0.83337261
O       -1.20371940       0.57308050       1.98468026
C        0.36948231      -0.95459370      -1.70387003
C        0.14088404       0.55704276       1.65533676
O        0.44775051      -0.35209490       0.57148553
H        1.36104504      -1.36401666      -1.53510571
H        0.51787315       1.54382286       1.38346446
H       -1.66292782       1.03997515       1.27043103
H       -0.34144200      -1.78034880      -1.67489854
H        0.68661574       0.14988934       2.49976816
H        0.30763193      -0.48080884      -2.67683375
12
Properties=species:S:1:pos:R:3 relative_energy_eV=0.00017987105275096837 branch=left pbc="F F F"
C        0.00335792       0.03750226      -0.64641784
O       -0.62718984       1.05863521      -0.83433039
O       -1.20306909       0.57456097       1.98668636
C        0.36997817      -0.95497838      -1.70402448
C        0.14094957       0.55702727       1.65529619
O        0.44521038      -0.35317559       0.57141152
H        1.36194657      -1.36385968      -1.53463463
H        0.51668179       1.54382062       1.38267505
H       -1.66313941       1.04097008       1.27271676
H       -0.34069520      -1.78132229      -1.67646856
H        0.68744876       0.14957057       2.49893666
H        0.30849939      -0.48057295      -2.67679414
12
Properties=species:S:1:pos:R:3 relative_energy_eV=0.0002746053014561767 branch=left pbc="F F F"
C        0.00250085       0.03764217      -0.64699130
O       -0.62650688       1.05946252      -0.83608566
O       -1.20236823       0.57567557       1.98907815
C        0.37056624      -0.95523540      -1.70408950
C        0.14086977       0.55702955       1.65545459
O        0.44238394      -0.35380916       0.57118756
H        1.36273805      -1.36403574      -1.53416754
H        0.51500915       1.54360769       1.38129724
H       -1.66378534       1.04202214       1.27614020
H       -0.33966091      -1.78213885      -1.67771684
H        0.68860273       0.14898809       2.49798643
H        0.30962966      -0.48103051      -2.67704082
12
Properties=species:S:1:pos:R:3 relative_energy_eV=0.00039461994492739905 branch=left pbc="F F F"
C        0.00160466       0.03793401      -0.64768425
O       -0.62572535       1.06037706      -0.83845108
O       -1.20193659       0.57654287       1.99158284
C        0.37117751      -0.95535877      -1.70411553
C        0.14052992       0.55715879       1.65589664
O        0.43989975      -0.35363805       0.57094817
H        1.36325224      -1.36444341      -1.53396159
H        0.51369559       1.54326734       1.37989546
H       -1.66476603       1.04293600       1.27986905
H       -0.33848921      -1.78255887      -1.67854822
H        0.68984468       0.14802842       2.49710918
H        0.31089183      -0.48206734      -2.67748814
12
Properties=species:S:1:pos:R:3 relative_energy_eV=0.0005340389270713786 branch=left pbc="F F F"
C        0.00088908       0.03800906      -0.64828837
O       -0.62554981       1.06059157      -0.84065674
O       -1.20198132       0.57742855       1.99378301
C        0.37172824      -0.95537668      -1.70419494
C        0.13996047       0.55744054       1.65653248
O        0.43824328      -0.35288694       0.57089377
H        1.36346485      -1.36483791      -1.53423025
H        0.51357514       1.54290554       1.37898710
H       -1.66566568       1.04355934       1.28266482
H       -0.33742337      -1.78253816      -1.67910540
H        0.69071786       0.14697891       2.49658423
H        0.31202025      -0.48309576      -2.67791717
12
Properties=species:S:1:pos:R:3 relative_energy_eV=0.0006821316910645692 branch=left pbc="F F F"
C        0.00028683       0.03757708      -0.64867172
O       -0.62650496       1.05964443      -0.84218083
O       -1.20238220       0.57878163       1.99578851
C        0.37230955      -0.95532624      -1.70442540
C        0.13926542       0.55782058       1.65716335
O        0.43696203      -0.35224845       0.57116347
H        1.36362330      -1.36504898      -1.53500222
H        0.51491836       1.54243270       1.37846028
H       -1.66613671       1.04411455       1.28428659
H       -0.33636125      -1.78231872      -1.67986353
H        0.69096293       0.14626375       2.49649505
H        0.31303571      -0.48351427      -2.67816100
12
Properties=species:S:1:pos:R:3 relative_energy_eV=0.0009220815427397611 branch=left pbc="F F F"
C       -0.00072389       0.03614620      -0.64884991
O       -0.62970944       1.05671415      -0.84295606
O       -1.20290611       0.58176134       1.99874877
C        0.37339383      -0.95516218      -1.70508689
C        0.13833039       0.55833421       1.65772904
O        0.43446089      -0.35267744       0.57199276
H        1.36423958      -1.36505667      -1.53657327
H        0.51851056       1.54138130       1.37758427
H       -1.66593401       1.04531086       1.28562785
H       -0.33450739      -1.78224502      -1.68180696
H        0.69025202       0.14637337       2.49692191
H        0.31457256      -0.48270206      -2.67827898
12
Properties=species:S:1:pos:R:3 relative_energy_eV=0.001384529037750326 branch=left pbc="F F F"
C       -0.00290783       0.03344845      -0.64870889
O       -0.63604814       1.05157407      -0.84247176
O       -1.20272308       0.58713377       2.00318754
C        0.37537627      -0.95479777      -1.70639708
C        0.13748549       0.55873653       1.65775944
O        0.42895922      -0.35575069       0.57342022
H        1.36601237      -1.36478207      -1.53863595
H        0.52426510       1.53919374       1.37536103
H       -1.66482137       1.04813972       1.28782354
H       -0.33112274      -1.78295238      -1.68578750
H        0.68829484       0.14814309       2.49791100
H        0.31720889      -0.47990840      -2.67840907
12
Properties=species:S:1:pos:R:3 relative_energy_eV=0.0020119624114158796 branch=left pbc="F F F"
C       -0.00616316       0.03044452      -0.64831671
O       -0.64340427       1.04641588      -0.84092647
O       -1.20123306       0.59326628       2.00768072
C        0.37772681      -0.95429532      -1.70798223
C        0.13732082       0.55866455       1.65708857
O        0.42151834      -0.36104672       0.57477505
H        1.36866209      -1.36422645      -1.53988253
H        0.52951803       1.53635651       1.37180218
H       -1.66357629       1.05236557       1.29132077
H       -0.32695512      -1.78454154      -1.69064326
H        0.68603612       0.15094142       2.49899915
H        0.32052872      -0.47616663      -2.67886271
12
Properties=species:S:1:pos:R:3 relative_energy_eV=0.0026357942406320944 branch=left pbc="F F F"
C       -0.00980699       0.02793088      -0.64784080
O       -0.64970884       1.04268954      -0.83915998
O       -1.19893284       0.59858168       2.01084888
C        0.37975220      -0.95379681      -1.70939792
C        0.13789672       0.55817641       1.65613220
O        0.41458320      -0.36658562       0.57564400
H        1.37133935      -1.36336373      -1.53980142
H        0.53276008       1.53365524       1.36796345
H       -1.66309376       1.05696595       1.29536352
H       -0.32316445      -1.78637216      -1.69489594
H        0.68454773       0.15329658       2.49990044
H        0.32380666      -0.47299989      -2.67970390
12
Properties=species:S:1:pos:R:3 relative_energy_eV=0.003287561530669336 branch=left pbc="F F F"
C       -0.01405769       0.02540362      -0.64726309
O       -0.65585417       1.03938895      -0.83730266
O       -1.19618475       0.60391441       2.01280240
C        0.38149209      -0.95327456      -1.71076368
C        0.13903727       0.55743940       1.65531698
O        0.40855617      -0.37192006       0.57625543
H        1.37396101      -1.36176840      -1.53863182
H        0.53501778       1.53100338       1.36411302
H       -1.66364955       1.06216241       1.29956018
H       -0.31964634      -1.78813576      -1.69887729
H        0.68396278       0.15454203       2.50087398
H        0.32734446      -0.47057734      -2.68103094
12
Properties=species:S:1:pos:R:3 relative_energy_eV=0.0041618339528213255 branch=left pbc="F F F"
C       -0.01982976       0.02157057      -0.64626675
O       -0.66429438       1.03419469      -0.83493046
O       -1.19326494       0.61134784       2.01388691
C        0.38323083      -0.95263277      -1.71230221
C        0.14066701       0.55653680       1.65494132
O        0.40311052      -0.37740190       0.57718382
H        1.37688731      -1.35830679      -1.53655812
H        0.53827422       1.52774575       1.36008069
H       -1.66527359       1.06914512       1.30339921
H       -0.31580565      -1.78970154      -1.70404413
H        0.68435924       0.15413296       2.50239967
H        0.33191827      -0.46845267      -2.68273744
12
Properties=species:S:1:pos:R:3 relative_energy_eV=0.00536597402242478 branch=left pbc="F F F"
C       -0.02684008       0.01567521      -0.64455481
O       -0.67611494       1.02536226      -0.83167465
O       -1.19122140       0.62154756       2.01440727
C        0.38484386      -0.95189190      -1.71369111
C        0.14216870       0.55573140       1.65537532
O        0.39891299      -0.38245641       0.57889655
H        1.37989564      -1.35226069      -1.53408877
H        0.54406820       1.52379644       1.35627770
H       -1.66680910       1.07788603       1.30505159
H       -0.31167049      -1.79081860      -1.71136884
H        0.68551575       0.15174988       2.50424838
H        0.33722995      -0.46614308      -2.68382613
12
Properties=species:S:1:pos:R:3 relative_energy_eV=0.006796746438340051 branch=left pbc="F F F"
C       -0.03394067       0.00824356      -0.64200338
O       -0.68991747       1.01352014      -0.82756456
O       -1.19070551       0.63307531       2.01498014
C        0.38618247      -0.95120816      -1.71427820
C        0.14288457       0.55519548       1.65617066
O        0.39576088      -0.38688451       0.58148669
H        1.38266650      -1.34443548      -1.53183695
H        0.55191083       1.51930021       1.35257863
H       -1.66640409       1.08730190       1.30368936
H       -0.30735633      -1.79167815      -1.72079369
H        0.68679151       0.14853937       2.50543523
H        0.34210642      -0.46279157      -2.68281143
12
Properties=species:S:1:pos:R:3 relative_energy_eV=0.008349691841431195 branch=left pbc="F F F"
C       -0.04057854       0.00001591      -0.63858863
O       -0.70371050       1.00056528      -0.82252594
O       -1.19119823       0.64448868       2.01620377
C        0.38726885      -0.95066712      -1.71378626
C        0.14256243       0.55477514       1.65672731
O        0.39219888      -0.39179384       0.58484103
H        1.38527949      -1.33597558      -1.52982483
H        0.55999053       1.51424403       1.34763204
H       -1.66297188       1.09683476       1.30040012
H       -0.30251368      -1.79294244      -1.73205517
H        0.68773152       0.14616325       2.50510958
H        0.34592025      -0.45752996      -2.67908054
12
Properties=species:S:1:pos:R:3 relative_energy_eV=0.010058633661174099 branch=left pbc="F F F"
C       -0.04691523      -0.00827629      -0.63439690
O       -0.71586918       0.98861057      -0.81682584
O       -1.19170752       0.65469444       2.01838764
C        0.38830643      -0.95032193      -1.71224447
C        0.14145453       0.55409494       1.65622713
O        0.38648143      -0.39844518       0.58876941
H        1.38809669      -1.32781972      -1.52762674
H        0.56630635       1.50837371       1.33998090
H       -1.65663514       1.10661019       1.29731373
H       -0.29667234      -1.79523181      -1.74470301
H        0.68846596       0.14589694       2.50290535
H        0.34866720      -0.45000775      -2.67273469
12
Properties=species:S:1:pos:R:3 relative_energy_eV=0.011747156006094883 branch=left pbc="F F F"
C       -0.05240474      -0.01489412      -0.63044164
O       -0.72404370       0.98071602      -0.81160657
O       -1.19127600       0.66176714       2.02106207
C        0.38925638      -0.95013439      -1.71033758
C        0.14012045       0.55302684       1.65471994
O        0.37892187      -0.40615836       0.59221535
H        1.39088986      -1.32165936      -1.52492542
H        0.56893372       1.50277579       1.33037820
H       -1.64940801       1.11543558       1.29657298
H       -0.29058784      -1.79850922      -1.75604107
H        0.68910307       0.14769321       2.49938956
H        0.35047416      -0.44188102      -2.66593332
12
Properties=species:S:1:pos:R:3 relative_energy_eV=0.013169348076189635 branch=left pbc="F F F"
C       -0.05691626      -0.01896363      -0.62758421
O       -0.72835312       0.97732194      -0.80805536
O       -1.18978974       0.66533419       2.02334577
C        0.39015122      -0.95005033      -1.70876542
C        0.13928685       0.55174347       1.65257023
O        0.37119772      -0.41305903       0.59443704
H        1.39329662      -1.31814643      -1.52180884
H        0.56835517       1.49836298       1.32125213
H       -1.64355493       1.12254083       1.29842221
H       -0.28521917      -1.80209090      -1.76398988
H        0.68980790       0.15013654       2.49582744
H        0.35171695      -0.43495151      -2.66059861
12
Properties=species:S:1:pos:R:3 relative_energy_eV=0.014165212687657913 branch=left pbc="F F F"
C       -0.06050704      -0.02106542      -0.62607522
O       -0.73069325       0.97651624      -0.80617524
O       -1.18781705       0.66668772       2.02453595
C        0.39083592      -0.94999632      -1.70798213
C        0.13903790       0.55066377       1.65087625
O        0.36518878      -0.41777877       0.59534029
H        1.39497472      -1.31668462      -1.51869481
H        0.56662547       1.49569434       1.31471862
H       -1.63967321       1.12762639       1.30108186
H       -0.28112205      -1.80526413      -1.76836925
H        0.69044261       0.15168732       2.49333023
H        0.35268645      -0.42990841      -2.65753406
12
Properties=species:S:1:pos:R:3 relative_energy_eV=0.015086778017575853 branch=left pbc="F F F"
C       -0.06505500      -0.02268164      -0.62543468
O       -0.73431119       0.97581544      -0.80551352
O       -1.18525600       0.66755898       2.02475240
C        0.39163818      -0.94997354      -1.70776516
C        0.13951209       0.54948455       1.64920910
O        0.35961430      -0.42107935       0.59536677
H        1.39636502      -1.31600099      -1.51455985
H        0.56515521       1.49372430       1.30987338
H       -1.63634776       1.13313444       1.30401970
H       -0.27665425      -1.80878350      -1.77118523
H        0.69131531       0.15174310       2.49157277
H        0.35400335      -0.42476367      -2.65528317
12
Properties=species:S:1:pos:R:3 relative_energy_eV=0.016018100099245203 branch=left pbc="F F F"
C       -0.07053763      -0.02466318      -0.62566818
O       -0.74131419       0.97295270      -0.80563577
O       -1.18283454       0.66932228       2.02353831
C        0.39229384      -0.94991922      -1.70821705
C        0.14051127       0.54864271       1.64858779
O        0.35593413      -0.42213552       0.59446353
H        1.39715402      -1.31538898      -1.50993230
H        0.56595689       1.49282690       1.30854635
H       -1.63269797       1.13872059       1.30482055
H       -0.27204123      -1.81213855      -1.77302440
H        0.69195740       0.14941321       2.49123852
H        0.35559727      -0.41945481      -2.65366487
12
Properties=species:S:1:pos:R:3 relative_energy_eV=0.017122372908488614 branch=left pbc="F F F"
C       -0.07774009      -0.02748663      -0.62671980
O       -0.75472270       0.96542294      -0.80683433
O       -1.18082141       0.67314869       2.02077988
C        0.39288949      -0.94965300      -1.70898537
C        0.14255124       0.54802936       1.64881217
O        0.35478839      -0.42016565       0.59252799
H        1.39712844      -1.31412966      -1.50465585
H        0.57097020       1.49271758       1.31237791
H       -1.62801166       1.14536806       1.30199182
H       -0.26668610      -1.81521503      -1.77461361
H        0.69188417       0.14372738       2.49221289
H        0.35774929      -0.41358589      -2.65184121
12
Properties=species:S:1:pos:R:3 relative_energy_eV=0.017873183409392368 branch=left pbc="F F F"
C       -0.08187179      -0.02979214      -0.62746115
O       -0.76512747       0.95840594      -0.80746530
O       -1.18023264       0.67687244       2.01829006
C        0.39290455      -0.94923741      -1.70946477
C        0.14398782       0.54828036       1.64988577
O        0.35626453      -0.41771958       0.59101531
H        1.39644023      -1.31313731      -1.50230400
H        0.57610173       1.49326493       1.31759275
H       -1.62441429       1.14850981       1.29739507
H       -0.26374706      -1.81641404      -1.77557863
H        0.69091790       0.13913221       2.49368424
H        0.35875576      -0.40998705      -2.65053686
12
Properties=species:S:1:pos:R:3 relative_energy_eV=0.019800238369498402 branch=left pbc="F F F"
C       -0.08658495      -0.03382464      -0.62834800
O       -0.78213163       0.94474229      -0.80989533
O       -1.18114340       0.68469832       2.01461667
C        0.39229517      -0.94760838      -1.70950507
C        0.14730071       0.54857558       1.65152736
O        0.36194281      -0.41427454       0.58911754
H        1.39270033      -1.31214460      -1.50129809
H        0.58607413       1.49506879       1.32797882
H       -1.61961721       1.15179469       1.28682808
H       -0.25855850      -1.81692972      -1.77621109
H        0.68834108       0.13140780       2.49652798
H        0.35936076      -0.40332742      -2.64628638
12
Properties=species:S:1:pos:R:3 relative_energy_eV=0.02219389536730887 branch=left pbc="F F F"
C       -0.08665184      -0.03695871      -0.62819147
O       -0.78847867       0.93861817      -0.81132554
O       -1.18245648       0.68942848       2.01282027
C        0.39135325      -0.94605288      -1.70905334
C        0.14868740       0.54956727       1.65275203
O        0.36632199      -0.41481586       0.58880599
H        1.38904709      -1.31253909      -1.50321359
H        0.59013586       1.49648098       1.33276169
H       -1.61720092       1.15099967       1.27983856
H       -0.25591521      -1.81658429      -1.77606769
H        0.68677278       0.12870949       2.49880357
H        0.35836404      -0.39867508      -2.64287799
12
Properties=species:S:1:pos:R:3 relative_energy_eV=0.02783263517449086 branch=left pbc="F F F"
C       -0.08165844      -0.03619704      -0.62772258
O       -0.77421875       0.95141225      -0.81932039
O       -1.18506395       0.68340937       2.01781602
C        0.38977673      -0.94458446      -1.70772751
C        0.14765273       0.54631204       1.65120411
O        0.36137843      -0.42791186       0.59391842
H        1.38465800      -1.31442694      -1.50551927
H        0.58002540       1.49721293       1.32120516
H       -1.62117658       1.15023954       1.28674721
H       -0.25355535      -1.81725187      -1.77400572
H        0.69464693       0.13700854       2.49908624
H        0.35751412      -0.39704437      -2.64062919
12
Properties=species:S:1:pos:R:3 relative_energy_eV=0.03169698705278279 branch=left pbc="F F F"
C       -0.09033076      -0.03998591      -0.62011177
O       -0.82196285       0.90767820      -0.82084890
O       -1.17892975       0.70325979       1.99919630
C        0.38669605      -0.94107639      -1.70547439
C        0.15390862       0.55205684       1.66139599
O        0.38169420      -0.40764161       0.59441762
H        1.38431624      -1.30951128      -1.51012848
H        0.60959508       1.49751690       1.36497103
H       -1.60278315       1.14906839       1.24643121
H       -0.25509937      -1.81594598      -1.78284324
H        0.67781554       0.12170295       2.50563799
H        0.35505947      -0.38894374      -2.63759087
12
Properties=species:S:1:pos:R:3 relative_energy_eV=0.042917712084090454 branch=left pbc="F F F"
C       -0.10699709      -0.03979402      -0.62172125
O       -0.86474163       0.89053274      -0.83272077
O       -1.17504505       0.70335524       1.99047410
C        0.38573135      -0.94076898      -1.70517547
C        0.15519978       0.55155611       1.66977407
O        0.38139751      -0.39858282       0.59332239
H        1.38798613      -1.29485863      -1.49653043
H        0.62567318       1.49653963       1.39459656
H       -1.58119798       1.16409622       1.23241496
H       -0.25437549      -1.81960049      -1.79515616
H        0.68220401       0.11342947       2.51145771
H        0.36414465      -0.39772628      -2.64568318
12
Properties=species:S:1:pos:R:3 relative_energy_eV=0.05632647073070984 branch=left pbc="F F F"
C       -0.12723353      -0.04218823      -0.62429788
O       -0.91932975       0.85779958      -0.83301786
O       -1.17005936       0.71383018       1.97727254
C        0.38733430      -0.94183796      -1.70613784
C        0.15942571       0.55437317       1.67695757
O        0.38923127      -0.37412548       0.58503426
H        1.39442708      -1.28160974      -1.48347364
H        0.65370217       1.49522415       1.43386423
H       -1.56013438       1.17758617       1.21141460
H       -0.25440096      -1.82104689      -1.80632950
H        0.67479242       0.09442216       2.51553238
H        0.37222444      -0.40424891      -2.65176635
12
Properties=species:S:1:pos:R:3 relative_energy_eV=0.06995539860690769 branch=left pbc="F F F"
C       -0.14888076      -0.04569998      -0.63199423
O       -0.97292390       0.82832117      -0.82738804
O       -1.16654037       0.72523799       1.96846905
C        0.39082744      -0.94349680      -1.70829978
C        0.16395538       0.55741545       1.68067250
O        0.39693514      -0.34843442       0.56989203
H        1.40045130      -1.26850041      -1.46530679
H        0.68124013       1.49467540       1.46700980
H       -1.54313869       1.19449574       1.19974148
H       -0.25106754      -1.82241592      -1.81453333
H        0.66559519       0.07024544       2.51560393
H        0.38352613      -0.41366543      -2.65881412
12
Properties=species:S:1:pos:R:3 relative_energy_eV=0.0786759663878911 branch=left pbc="F F F"
C       -0.16179640      -0.04811892      -0.63772437
O       -1.00479663       0.80868633      -0.82059935
O       -1.16528539       0.73514733       1.96413263
C        0.39366835      -0.94425510      -1.70967168
C        0.16832962       0.55911599       1.68080554
O        0.40391843      -0.33130925       0.55823818
H        1.40320010      -1.26207773      -1.45456420
H        0.69914259       1.49499177       1.48575396
H       -1.53565397       1.20420796       1.19421977
H       -0.24757096      -1.82238253      -1.81756174
H        0.65653740       0.05282789       2.51358210
H        0.39028634      -0.41865550      -2.66155832
12
Properties=species:S:1:pos:R:3 relative_energy_eV=0.08616095114484779 branch=left pbc="F F F"
C       -0.17193273      -0.04968749      -0.64439455
O       -1.02945221       0.79511796      -0.81336356
O       -1.16481008       0.74402754       1.96386588
C        0.39587321      -0.94374132      -1.71069157
C        0.17282753       0.55993860       1.67850363
O        0.41067893      -0.31987163       0.54602204
H        1.40316151      -1.25715425      -1.44349645
H        0.71172051       1.49629877       1.49697712
H       -1.53185407       1.21369614       1.19515529
H       -0.24151277      -1.82239585      -1.81835927
H        0.64755142       0.03644734       2.50896137
H        0.39772824      -0.42449756      -2.66412740
12
Properties=species:S:1:pos:R:3 relative_energy_eV=0.09095371437979338 branch=left pbc="F F F"
C       -0.17675174      -0.05011461      -0.64752758
O       -1.04348212       0.78615970      -0.80830925
O       -1.16355228       0.75104841       1.96413775
C        0.39668838      -0.94223312      -1.71069121
C        0.17660417       0.56016598       1.67564858
O        0.41682142      -0.31370388       0.53875310
H        1.40137189      -1.25524946      -1.43789111
H        0.71838245       1.49733492       1.50315772
H       -1.53086887       1.21844915       1.19604229
H       -0.23659985      -1.82200079      -1.81809833
H        0.63944551       0.02601293       2.50465605
H        0.40192055      -0.42769099      -2.66482546
12
Properties=species:S:1:pos:R:3 relative_energy_eV=0.10091041735176987 branch=left pbc="F F F"
C       -0.18021414      -0.05058799      -0.64778992
O       -1.06805506       0.76550725      -0.79732632
O       -1.15532909       0.76802846       1.96219569
C        0.39517628      -0.93631477      -1.70947993
C        0.18284260       0.56302674       1.67093122
O        0.43468420      -0.30341214       0.52864995
H        1.39423706      -1.25445453      -1.43261344
H        0.72874529       1.49946251       1.51588873
H       -1.52963426       1.22205567       1.19221541
H       -0.22701565      -1.82107502      -1.81718807
H        0.61739223       0.00623164       2.49534089
H        0.40715006      -0.43028954      -2.66577166
12
Properties=species:S:1:pos:R:3 relative_energy_eV=0.10625215826803469 branch=left pbc="F F F"
C       -0.17967177      -0.05119517      -0.64503227
O       -1.07724269       0.75452204      -0.79257341
O       -1.15041192       0.77643709       1.95871258
C        0.39402057      -0.93366181      -1.70889156
C        0.18501482       0.56501767       1.66986989
O        0.44360660      -0.29777829       0.52732783
H        1.39108271      -1.25536239      -1.43396479
H        0.73342208       1.50013954       1.52300135
H       -1.52867653       1.22018523       1.18629312
H       -0.22474670      -1.82035717      -1.81710308
H        0.60660125      -0.00094815       2.49277581
H        0.40698111      -0.42882032      -2.66536293
12
Properties=species:S:1:pos:R:3 relative_energy_eV=0.11038209429534618 branch=left pbc="F F F"
C       -0.17900060      -0.05041293      -0.64228465
O       -1.08406641       0.74664390      -0.79130499
O       -1.14524428       0.77980369       1.95952858
C        0.39338223      -0.93209767      -1.70872172
C        0.18567628       0.56681588       1.66818602
O        0.44912014      -0.29169185       0.52773701
H        1.38987726      -1.25657998      -1.43224228
H        0.73866319       1.49941509       1.52442127
H       -1.53430016       1.22411366       1.18400278
H       -0.22261798      -1.82223013      -1.81477435
H        0.59987527      -0.00988554       2.48773816
H        0.40861460      -0.42571585      -2.66723328
12
Properties=species:S:1:pos:R:3 relative_energy_eV=0.11488773212113301 branch=left pbc="F F F"
C       -0.17329512      -0.05472251      -0.63394957
O       -1.08992354       0.72972124      -0.78433729
O       -1.14108621       0.79143366       1.94845893
C        0.39181787      -0.93138362      -1.70950624
C        0.18476503       0.57337750       1.67356942
O        0.46120561      -0.28159273       0.53313522
H        1.38861778      -1.26060473      -1.44332109
H        0.74787496       1.50067747       1.53601548
H       -1.53114990       1.21202664       1.16368598
H       -0.22774272      -1.82097860      -1.81513634
H        0.58779853      -0.01493859       2.49181397
H        0.40109728      -0.41483746      -2.66537591
12
Properties=species:S:1:pos:R:3 relative_energy_eV=0.12639588417187042 branch=left pbc="F F F"
C       -0.16567449      -0.06128664      -0.62389699
O       -1.09655355       0.70645586      -0.77720532
O       -1.14147324       0.80498891       1.93714408
C        0.39195859      -0.93315345      -1.71144125
C        0.18430111       0.58270566       1.68108826
O        0.47624231      -0.26436387       0.54090278
H        1.39196995      -1.26861097      -1.45887805
H        0.76767503       1.50100117       1.54850925
H       -1.53574632       1.19906986       1.13466713
H       -0.23743179      -1.82034098      -1.81183655
H        0.57506321      -0.02416296       2.49626412
H        0.38964876      -0.39412431      -2.66026493
12
Properties=species:S:1:pos:R:3 relative_energy_eV=0.14387046394222125 branch=left pbc="F F F"
C       -0.15647466      -0.07131780      -0.61310148
O       -1.10278263       0.67818536      -0.76613835
O       -1.14814963       0.82454089       1.91980217
C        0.39237245      -0.93596297      -1.71352732
C        0.18510362       0.59450927       1.69294292
O        0.49633491      -0.24677958       0.54768536
H        1.39718500      -1.27923685      -1.48338076
H        0.79224984       1.50278976       1.56816207
H       -1.53529834       1.17569481       1.09432783
H       -0.25178715      -1.81604563      -1.80963099
H        0.55965360      -0.02950926       2.50671916
H        0.37157256      -0.36868971      -2.64880807
12
Properties=species:S:1:pos:R:3 relative_energy_eV=0.16256213153610588 branch=left pbc="F F F"
C       -0.14960575      -0.08042326      -0.60602255
O       -1.10866990       0.65524302      -0.75726596
O       -1.15819605       0.84205405       1.90534818
C        0.39376790      -0.93871017      -1.71306911
C        0.18885846       0.60314282       1.70142048
O        0.51439939      -0.23441946       0.54954555
H        1.40359487      -1.28963513      -1.50754812
H        0.81413416       1.50337199       1.58793604
H       -1.53463053       1.15396127       1.05872697
H       -0.26432618      -1.80906628      -1.80796394
H        0.54666019      -0.02959148       2.51664876
H        0.35399304      -0.34774906      -2.63270375
12
Properties=species:S:1:pos:R:3 relative_energy_eV=0.1849938548348291 branch=left pbc="F F F"
C       -0.14397029      -0.08896035      -0.59920487
O       -1.11491298       0.63222362      -0.74820151
O       -1.16620665       0.86103530       1.88734281
C        0.39545495      -0.94071544      -1.70883631
C        0.19344012       0.61069234       1.70807599
O        0.53421690      -0.22604705       0.54742037
H        1.40979365      -1.30078315      -1.53710527
H        0.83286355       1.50231507       1.61422956
H       -1.52936018       1.12759408       1.02090288
H       -0.27649721      -1.79710971      -1.80878114
H        0.53171075      -0.02208467       2.52887277
H        0.33344701      -0.32998172      -2.60966273
12
Properties=species:S:1:pos:R:3 relative_energy_eV=0.2081342558067263 branch=left pbc="F F F"
C       -0.13923710      -0.09549614      -0.59273381
O       -1.12185599       0.61424408      -0.74322680
O       -1.16621426       0.87606787       1.87026775
C        0.39760293      -0.94161443      -1.70085046
C        0.19827668       0.61336068       1.70841389
O        0.54965277      -0.21941123       0.54634001
H        1.41422221      -1.31036520      -1.56535449
H        0.84401655       1.49842816       1.64098094
H       -1.52363512       1.10435584       0.98921423
H       -0.28552146      -1.78341842      -1.81162815
H        0.51791709      -0.00930155       2.53919031
H        0.31475531      -0.31867135      -2.58556089
12
Properties=species:S:1:pos:R:3 relative_energy_eV=0.23029406439854938 branch=left pbc="F F F"
C       -0.13556491      -0.09982785      -0.58475957
O       -1.12572741       0.59741597      -0.73612943
O       -1.15735811       0.88902649       1.85185489
C        0.39769828      -0.94092968      -1.69376674
C        0.19652062       0.61784930       1.71134554
O        0.56411731      -0.21635710       0.54582581
H        1.41462650      -1.31700156      -1.59105145
H        0.84811806       1.49615570       1.66679964
H       -1.51173575       1.08033387       0.95865045
H       -0.29314208      -1.77106346      -1.81738923
H        0.50426445       0.00430802       2.55102139
H        0.29816270      -0.31173138      -2.56734879
12
Properties=species:S:1:pos:R:3 relative_energy_eV=0.2518793998497131 branch=left pbc="F F F"
C       -0.13038864      -0.10384630      -0.57579064
O       -1.12936872       0.58545869      -0.73327896
O       -1.14542179       0.89758513       1.83810427
C        0.39710248      -0.93965203      -1.68781608
C        0.19811442       0.61623029       1.70775658
O        0.57088579      -0.20893216       0.55430712
H        1.41316926      -1.32100241      -1.61071128
H        0.84734250       1.49440545       1.68729977
H       -1.50167572       1.06201116       0.93427485
H       -0.29887749      -1.76205143      -1.82386038
H        0.49340937       0.01611808       2.56081912
H        0.28568819      -0.30814615      -2.55605185
12
Properties=species:S:1:pos:R:3 relative_energy_eV=0.2738947428897518 branch=left pbc="F F F"
C       -0.12515800      -0.10795160      -0.56531733
O       -1.12846704       0.57264318      -0.72402082
O       -1.13327591       0.90678843       1.82286355
C        0.39291320      -0.93751274      -1.68826809
C        0.19355229       0.62006168       1.71310621
O        0.57907589      -0.20459010       0.56406665
H        1.40768878      -1.32170444      -1.62629508
H        0.84399440       1.49889520       1.70437786
H       -1.48286493       1.04046930       0.90773291
H       -0.30531724      -1.75721204      -1.83234329
H        0.48251096       0.02344301       2.57447021
H        0.27532727      -0.30515152      -2.55532025
12
Properties=species:S:1:pos:R:3 relative_energy_eV=0.303691929562774 branch=left pbc="F F F"
C       -0.11609781      -0.11552185      -0.55176488
O       -1.12603665       0.55829922      -0.70985695
O       -1.12655746       0.91934518       1.80252258
C        0.38505593      -0.93475056      -1.69422572
C        0.19288737       0.62420691       1.72262425
O        0.58707876      -0.19720533       0.58344024
H        1.39804121      -1.31977396      -1.64122089
H        0.83842202       1.50971404       1.72137578
H       -1.45337036       1.01250693       0.87665438
H       -0.31390379      -1.75529646      -1.84407248
H        0.46976210       0.02800951       2.59368313
H        0.26469835      -0.30135525      -2.56410694
12
Properties=species:S:1:pos:R:3 relative_energy_eV=0.3562835115335474 branch=left pbc="F F F"
C       -0.10469112      -0.12657850      -0.53647983
O       -1.11965338       0.53983815      -0.68352660
O       -1.13099925       0.93813412       1.77487495
C        0.37224736      -0.93127585      -1.70756273
C        0.19463421       0.63622000       1.74720030
O        0.60087342      -0.19399311       0.60294331
H        1.38344990      -1.31511616      -1.65661848
H        0.83175760       1.52906057       1.73943788
H       -1.40854512       0.97451818       0.83611242
H       -0.32547942      -1.75602566      -1.85929021
H        0.45359248       0.02900726       2.62086623
H        0.25279297      -0.29561062      -2.58290476
12
Properties=species:S:1:pos:R:3 relative_energy_eV=0.3852917773383524 branch=left pbc="F F F"
C       -0.09994144      -0.13130253      -0.53171192
O       -1.11731071       0.53376516      -0.67224721
O       -1.13785679       0.94558646       1.76370272
C        0.36736882      -0.93010099      -1.71304554
C        0.19883206       0.64183945       1.76021029
O        0.60624512      -0.19476053       0.60686760
H        1.37797858      -1.31313248      -1.66134491
H        0.82936528       1.53645419       1.74503041
H       -1.39172853       0.96108600       0.82252556
H       -0.32960603      -1.75677844      -1.86450582
H        0.44771336       0.02885686       2.63022171
H        0.24891995      -0.29333479      -2.59065039
12
Properties=species:S:1:pos:R:3 relative_energy_eV=0.4193524795482517 branch=left pbc="F F F"
C       -0.09140782      -0.13963698      -0.52935203
O       -1.11734312       0.52991428      -0.65299910
O       -1.14563472       0.95502232       1.76377172
C        0.36119740      -0.92873751      -1.72126770
C        0.19591879       0.65680194       1.78613622
O        0.61888747      -0.20598585       0.59680477
H        1.37144059      -1.31041811      -1.66499101
H        0.82826707       1.54705027       1.74997123
H       -1.37344971       0.94565909       0.79492903
H       -0.33392740      -1.75820047      -1.86908938
H        0.44055756       0.02706687       2.64111503
H        0.24547355      -0.29035749      -2.59997628
12
Properties=species:S:1:pos:R:3 relative_energy_eV=0.5166370370789082 branch=left pbc="F F F"
C       -0.08526889      -0.14716394      -0.53018540
O       -1.11576437       0.52539965      -0.63400324
O       -1.15028564       0.96639703       1.78958845
C        0.35536273      -0.92792439      -1.73090145
C        0.18597732       0.66798928       1.80322604
O        0.63508182      -0.21840734       0.58821917
H        1.36478302      -1.30749418      -1.66786238
H        0.83068344       1.56328573       1.75472214
H       -1.35841791       0.93043166       0.74903508
H       -0.33816455      -1.75989677      -1.87319914
H        0.43358066       0.02287791       2.65573013
H        0.24241206      -0.28731627      -2.60931688
12
Properties=species:S:1:pos:R:3 relative_energy_eV=0.5754963979361492 branch=left pbc="F F F"
C       -0.08723286      -0.14621751      -0.53115067
O       -1.11382018       0.52387713      -0.63905447
O       -1.15257015       0.96793270       1.80582651
C        0.35629557      -0.92865865      -1.73039386
C        0.19240369       0.65528213       1.78544569
O        0.63157327      -0.21015918       0.60210539
H        1.36456991      -1.30737554      -1.66814198
H        0.83272060       1.56750639       1.75549132
H       -1.36175341       0.93157028       0.73955940
H       -0.33849964      -1.76008078      -1.87389394
H        0.43413373       0.02178745       2.65916063
H        0.24215916      -0.28728605      -2.60990151
12
Properties=species:S:1:pos:R:3 relative_energy_eV=0.6261821908683487 branch=left pbc="F F F"
C       -0.07637415      -0.15646013      -0.53172401
O       -1.11906262       0.52493531      -0.60250925
O       -1.14871695       0.97457016       1.77914877
C        0.34773277      -0.92556208      -1.74155953
C        0.15616110       0.71061069       1.86044719
O        0.66307379      -0.25254809       0.54618002
H        1.35873779      -1.30489264      -1.66962970
H        0.82907040       1.56996667       1.75732314
H       -1.33501557       0.91249617       0.72619419
H       -0.34125862      -1.76104965      -1.87493677
H        0.42535471       0.02036200       2.66278692
H        0.24027700      -0.28425005      -2.61666845
12
Properties=species:S:1:pos:R:3 relative_energy_eV=0.6742924026148103 branch=left pbc="F F F"
C       -0.07586030      -0.15762236      -0.53165954
O       -1.11859264       0.52400822      -0.58755545
O       -1.14537513       0.97543897       1.76133145
C        0.34497695      -0.92445058      -1.74557825
C        0.14029192       0.73246533       1.88914219
O        0.67425528      -0.26792181       0.52539313
H        1.35682501      -1.30417851      -1.67013060
H        0.82740182       1.56899357       1.75769552
H       -1.32445414       0.90589775       0.72709524
H       -0.34206566      -1.76129484      -1.87498739
H        0.42285994       0.02009765       2.66280935
H        0.23971660      -0.28325504      -2.61850313
12
Properties=species:S:1:pos:R:3 relative_energy_eV=0.7015661510959035 branch=left pbc="F F F"
C       -0.07178306      -0.16000424      -0.53018375
O       -1.12106008       0.52558401      -0.58220651
O       -1.14229264       0.97463185       1.75003576
C        0.34335743      -0.92352558      -1.74712152
C        0.13200123       0.73921400       1.89822204
O        0.67609746      -0.27191767       0.51793131
H        1.35669684      -1.30411736      -1.67011166
H        0.82739495       1.56861997       1.75759308
H       -1.32064444       0.90426339       0.73198825
H       -0.34218453      -1.76133429      -1.87491276
H        0.42272792       0.02000319       2.66249513
H        0.23966853      -0.28323892      -2.61867685
12
Properties=species:S:1:pos:R:3 relative_energy_eV=0.7366759513733996 branch=ts pbc="F F F"
C       -0.06143428      -0.16657120      -0.52839426
O       -1.12450233       0.52759654      -0.57672219
O       -1.13676108       0.97613845       1.75395934
C        0.34101297      -0.92223176      -1.74924176
C        0.11926639       0.74891824       1.91215631
O        0.67733674      -0.27603505       0.50742987
H        1.35393844      -1.30267729      -1.67004216
H        0.82943971       1.56582275       1.75841418
H       -1.30927663       0.86462393       0.59097419
H       -0.34523198      -1.75982249      -1.87516420
H        0.42121825       0.01524302       2.66036390
H        0.23710748      -0.28229786      -2.62090927
12
Properties=species:S:1:pos:R:3 relative_energy_eV=0.7123489707209956 branch=right pbc="F F F"
C       -0.05108550      -0.17313816      -0.52660477
O       -1.12794459       0.52960907      -0.57123787
O       -1.13122952       0.97764505       1.75788292
C        0.33866851      -0.92093794      -1.75136199
C        0.10653155       0.75862247       1.92609059
O        0.67857603      -0.28015243       0.49692844
H        1.35118003      -1.30123721      -1.66997267
H        0.83148447       1.56302554       1.75923528
H       -1.29790882       0.82498448       0.44996013
H       -0.34827944      -1.75831070      -1.87541564
H        0.41970858       0.01048285       2.65823267
H        0.23454642      -0.28135679      -2.62314170
12
Properties=species:S:1:pos:R:3 relative_energy_eV=0.6979675392303761 branch=right pbc="F F F"
C       -0.04649066      -0.17627579      -0.52625006
O       -1.12779132       0.52764217      -0.57738563
O       -1.12850118       0.97906508       1.76277221
C        0.33826300      -0.92084884      -1.75248032
C        0.10184928       0.76268812       1.93370678
O        0.67912153      -0.28261380       0.49019073
H        1.35105334      -1.30124718      -1.67014343
H        0.83199109       1.56331940       1.75925844
H       -1.30122653       0.82689120       0.45119490
H       -0.34841315      -1.75820075      -1.87547201
H        0.42003993       0.01007004       2.65836395
H        0.23435240      -0.28125347      -2.62316018
12
Properties=species:S:1:pos:R:3 relative_energy_eV=0.672078696796234 branch=right pbc="F F F"
C       -0.04041350      -0.18376458      -0.53443062
O       -1.12583751       0.52189567      -0.58864688
O       -1.12772741       0.98476013       1.77674894
C        0.33860281      -0.92232019      -1.75687165
C        0.09644371       0.77713233       1.96049237
O        0.68616749      -0.29178793       0.47611335
H        1.35037867      -1.30141089      -1.67138136
H        0.83229062       1.56364831       1.75976053
H       -1.31091798       0.83127613       0.44874397
H       -0.34898818      -1.75801260      -1.87577154
H        0.42065081       0.00823476       2.65958809
H        0.23359821      -0.28041492      -2.62374979
12
Properties=species:S:1:pos:R:3 relative_energy_eV=0.647141766770801 branch=right pbc="F F F"
C       -0.03347114      -0.19183741      -0.54307865
O       -1.12485042       0.51687461      -0.59313769
O       -1.12823265       0.99271916       1.79394863
C        0.33947928      -0.92628396      -1.76645982
C        0.09050675       0.79703677       1.99470657
O        0.69498564      -0.30408925       0.45805796
H        1.35017881      -1.30220285      -1.67401165
H        0.83269413       1.56584633       1.76178461
H       -1.32086826       0.83394857       0.43732396
H       -0.35005089      -1.75866817      -1.87704424
H        0.42129010       0.00495070       2.66459794
H        0.23258638      -0.27905830      -2.62609219
12
Properties=species:S:1:pos:R:3 relative_energy_eV=0.6098473071306216 branch=right pbc="F F F"
C       -0.02126258      -0.20667785      -0.55874104
O       -1.12459250       0.50853027      -0.59276038
O       -1.12705686       1.00995607       1.83117311
C        0.33968888      -0.93429524      -1.78818096
C        0.07649158       0.83689409       2.06527348
O        0.71378274      -0.33004127       0.42264272
H        1.35110030      -1.30494860      -1.68156895
H        0.83401538       1.57382175       1.76908688
H       -1.33686866       0.83434382       0.40138369
H       -0.35321870      -1.76251679      -1.88203866
H        0.42165166      -0.00008328       2.67939458
H        0.23051650      -0.27574678      -2.63506903
12
Properties=species:S:1:pos:R:3 relative_energy_eV=0.578285357225468 branch=right pbc="F F F"
C       -0.01429998      -0.21487707      -0.56422672
O       -1.12675131       0.50478616      -0.58720031
O       -1.12724623       1.02299364       1.85905898
C        0.33791052      -0.93826782      -1.80261913
C        0.07191262       0.85722929       2.10368913
O        0.72567653      -0.34446307       0.40565584
H        1.35142423      -1.30714190      -1.68863278
H        0.83393990       1.58084100       1.77823810
H       -1.34190901       0.82902340       0.36681178
H       -0.35597896      -1.76716989      -1.88811904
H        0.42036933       0.00000613       2.69303105
H        0.22920013      -0.27372370      -2.64509144
12
Properties=species:S:1:pos:R:3 relative_energy_eV=0.546717311221073 branch=right pbc="F F F"
C       -0.01239717      -0.21941470      -0.56486529
O       -1.12800151       0.49921578      -0.58265128
O       -1.12585379       1.03835707       1.89228630
C        0.33347563      -0.93986284      -1.81517041
C        0.07003862       0.86767786       2.12538022
O        0.73742639      -0.35356485       0.40223524
H        1.34990983      -1.30952775      -1.69959601
H        0.83264800       1.59004442       1.79442439
H       -1.33865652       0.81743262       0.32612197
H       -0.35928091      -1.77424766      -1.89887242
H        0.41715230       0.00571226       2.71223613
H        0.22778689      -0.27258606      -2.66093335
12
Properties=species:S:1:pos:R:3 relative_energy_eV=0.5198291935557791 branch=right pbc="F F F"
C       -0.01319319      -0.21746269      -0.55728451
O       -1.12596208       0.49503177      -0.58989369
O       -1.12793494       1.04121525       1.89576066
C        0.33061687      -0.93739012      -1.81317001
C        0.07645296       0.85769117       2.11093148
O        0.73339264      -0.34749114       0.41190431
H        1.34747847      -1.30965051      -1.70430413
H        0.83157200       1.59253427       1.80226070
H       -1.33146876       0.81327009       0.32671551
H       -0.35952324      -1.77630065      -1.90423021
H        0.41526090       0.01188940       2.71857507
H        0.22755611      -0.27410070      -2.66666970
12
Properties=species:S:1:pos:R:3 relative_energy_eV=0.4867528689028404 branch=right pbc="F F F"
C       -0.00524992      -0.22614186      -0.55664771
O       -1.12152930       0.48000728      -0.60803548
O       -1.12371390       1.05672066       1.92664724
C        0.32482159      -0.93628850      -1.82010771
C        0.07299931       0.86104978       2.12051933
O        0.73452294      -0.34744450       0.41564200
H        1.34044961      -1.31106369      -1.72096694
H        0.83146346       1.60283568       1.82526607
H       -1.32605893       0.80506138       0.30894807
H       -0.36104465      -1.78139170      -1.92008029
H        0.41225806       0.02292981       2.74261771
H        0.22532948      -0.27703819      -2.68320679
12
Properties=species:S:1:pos:R:3 relative_energy_eV=0.46216198578440526 branch=right pbc="F F F"
C        0.00902938      -0.24238926      -0.56366555
O       -1.11713981       0.46032360      -0.62789300
O       -1.12443757       1.08081938       1.97064664
C        0.32007573      -0.93929791      -1.83696282
C        0.06988370       0.87884637       2.16003644
O        0.74011603      -0.35506358       0.40705979
H        1.33237030      -1.31398896      -1.74424269
H        0.83209393       1.61573355       1.85488407
H       -1.32570020       0.79631440       0.27871659
H       -0.36290884      -1.78613960      -1.94029231
H        0.40950397       0.03510078       2.77409490
H        0.22136114      -0.28102263      -2.70178649
12
Properties=species:S:1:pos:R:3 relative_energy_eV=0.43266277905240713 branch=right pbc="F F F"
C        0.02477062      -0.26641068      -0.58370712
O       -1.10919869       0.42783145      -0.65817622
O       -1.12352981       1.11959074       2.03968778
C        0.31637704      -0.94818601      -1.86704263
C        0.05915441       0.91492464       2.23227461
O        0.75285311      -0.36996451       0.39233781
H        1.32226619      -1.32094491      -1.78440352
H        0.83390241       1.63501022       1.90295565
H       -1.32702676       0.78383711       0.23288318
H       -0.36567946      -1.79167629      -1.97305353
H        0.40672156       0.05325646       2.82471818
H        0.21363717      -0.28803210      -2.72787859
12
Properties=species:S:1:pos:R:3 relative_energy_eV=0.41649844751736964 branch=right pbc="F F F"
C        0.03806926      -0.28721589      -0.60228803
O       -1.10469164       0.40034244      -0.68159937
O       -1.12799876       1.15659710       2.09986078
C        0.31593651      -0.95908876      -1.89543254
C        0.05381180       0.95051377       2.30414089
O        0.76146630      -0.38416061       0.37181082
H        1.31891421      -1.33114931      -1.82471366
H        0.83502384       1.65147824       1.94906820
H       -1.32743811       0.77213441       0.19188516
H       -0.36885318      -1.79632358      -2.00421223
H        0.40485014       0.07049667       2.87140280
H        0.20515741      -0.29438837      -2.74932717
12
Properties=species:S:1:pos:R:3 relative_energy_eV=0.40011577955738176 branch=right pbc="F F F"
C        0.03597085      -0.29019020      -0.61200455
O       -1.10562952       0.39445847      -0.68658737
O       -1.13044527       1.16549914       2.10699107
C        0.32008590      -0.96454620      -1.90094835
C        0.05501077       0.95607838       2.31634342
O        0.75670003      -0.38182057       0.37029873
H        1.32422289      -1.33884514      -1.84216665
H        0.83511936       1.65426956       1.96643505
H       -1.32327285       0.76932735       0.19285103
H       -0.36948586      -1.79587734      -2.01546694
H        0.40504382       0.07889573       2.88518148
H        0.20092768      -0.29801307      -2.75033125
12
Properties=species:S:1:pos:R:3 relative_energy_eV=0.37136682237905916 branch=right pbc="F F F"
C        0.03067664      -0.29549497      -0.62989373
O       -1.11258514       0.38444449      -0.69149316
O       -1.13054027       1.18619190       2.12378135
C        0.33231154      -0.97988002      -1.91601583
C        0.05235671       0.97120492       2.34479614
O        0.74113652      -0.37525784       0.36050663
H        1.34201929      -1.36105653      -1.88763567
H        0.83554806       1.66197155       2.01049800
H       -1.30951194       0.75964791       0.19235912
H       -0.37199264      -1.79679581      -2.04388834
H        0.40466695       0.09958952       2.92031641
H        0.19016205      -0.30532903      -2.75273521
12
Properties=species:S:1:pos:R:3 relative_energy_eV=0.36296622050394944 branch=right pbc="F F F"
C        0.02790238      -0.29738696      -0.63488570
O       -1.11946341       0.38323430      -0.69169581
O       -1.12825124       1.19243849       2.12563081
C        0.33703367      -0.98591447      -1.92153376
C        0.04954205       0.97429674       2.35223571
O        0.73221335      -0.36943199       0.35799208
H        1.35093608      -1.37191889      -1.90799205
H        0.83756149       1.66735174       2.02882915
H       -1.29985477       0.75431589       0.19609626
H       -0.37261737      -1.79884998      -2.05597574
H        0.40291372       0.10843294       2.93540915
H        0.18633184      -0.30733171      -2.75351437
12
Properties=species:S:1:pos:R:3 relative_energy_eV=0.35925954067351995 branch=right pbc="F F F"
C        0.02620120      -0.29839528      -0.63498666
O       -1.12381342       0.38333218      -0.69141120
O       -1.12629911       1.19320195       2.12318318
C        0.33794819      -0.98806279      -1.92417283
C        0.04854978       0.97587699       2.35469553
O        0.72826454      -0.36572567       0.35727677
H        1.35306256      -1.37641722      -1.91686237
H        0.83967791       1.67171094       2.03640163
H       -1.29328201       0.75101679       0.19937864
H       -0.37205385      -1.80160011      -2.06095655
H        0.40006282       0.11110385       2.94285072
H        0.18592919      -0.30680553      -2.75480112
12
Properties=species:S:1:pos:R:3 relative_energy_eV=0.3550362864189083 branch=right pbc="F F F"
C        0.02354610      -0.29975519      -0.63447932
O       -1.12850595       0.38343622      -0.69017139
O       -1.12346669       1.19145400       2.11601624
C        0.33673433      -0.98920339      -1.92683989
C        0.04885464       0.97794299       2.35720131
O        0.72498580      -0.36102148       0.35716561
H        1.35233148      -1.37998352      -1.92482212
H        0.84278967       1.67800899       2.04328589
H       -1.28448434       0.74686066       0.20470783
H       -0.37021978      -1.80635959      -2.06522480
H        0.39440063       0.11255306       2.95064803
H        0.18728191      -0.30469666      -2.75689164
12
Properties=species:S:1:pos:R:3 relative_energy_eV=0.3504977025295375 branch=right pbc="F F F"
C        0.01977987      -0.30100832      -0.63419983
O       -1.13239976       0.38289671      -0.68709454
O       -1.11946446       1.18682972       2.10268994
C        0.33353266      -0.98945190      -1.92938030
C        0.05087645       0.98085720       2.35986180
O        0.72255834      -0.35581371       0.35669214
H        1.34808299      -1.38188607      -1.93076914
H        0.84620095       1.68531387       2.04951158
H       -1.27407537       0.74231534       0.21276834
H       -0.36707527      -1.81267836      -2.06840707
H        0.38586393       0.11301751       2.95802491
H        0.19036746      -0.30115592      -2.75910208
12
Properties=species:S:1:pos:R:3 relative_energy_eV=0.34680739179566444 branch=right pbc="F F F"
C        0.01662194      -0.30196187      -0.63532685
O       -1.13391312       0.38096861      -0.68279257
O       -1.11521536       1.18184454       2.08783165
C        0.32919471      -0.98890248      -1.93148631
C        0.05370271       0.98387336       2.36258757
O        0.72230526      -0.35244359       0.35523235
H        1.34181920      -1.38141064      -1.93309308
H        0.84832131       1.69104742       2.05503735
H       -1.26551186       0.73858723       0.22029726
H       -0.36398379      -1.81815645      -2.07042307
H        0.37726415       0.11366856       2.96356810
H        0.19364265      -0.29787861      -2.76083663
12
Properties=species:S:1:pos:R:3 relative_energy_eV=0.3439982161471562 branch=right pbc="F F F"
C        0.01519033      -0.30244327      -0.63749718
O       -1.13345149       0.37790506      -0.67854148
O       -1.11160845       1.17864828       2.07521589
C        0.32537869      -0.98819166      -1.93299705
C        0.05590562       0.98594080       2.36424460
O        0.72408823      -0.35174854       0.35267729
H        1.33613376      -1.37924894      -1.93229151
H        0.84874648       1.69393604       2.06043672
H       -1.26040402       0.73629258       0.22582430
H       -0.36226409      -1.82112933      -2.07191668
H        0.37102723       0.11540028       2.96723204
H        0.19550551      -0.29612523      -2.76179116
12
Properties=species:S:1:pos:R:3 relative_energy_eV=0.34113724067719886 branch=right pbc="F F F"
C        0.01497470      -0.30272553      -0.64027114
O       -1.13270366       0.37390759      -0.67356944
O       -1.10811797       1.17684352       2.06171357
C        0.32186579      -0.98753270      -1.93439263
C        0.05732588       0.98695287       2.36427128
O        0.72775200      -0.35281546       0.34882224
H        1.33139560      -1.37608517      -1.92968035
H        0.84847009       1.69544024       2.06786020
H       -1.25648146       0.73437609       0.23130442
H       -0.36196004      -1.82243230      -2.07402886
H        0.36586127       0.11876508       2.97101858
H        0.19586560      -0.29545817      -2.76245208
12
Properties=species:S:1:pos:R:3 relative_energy_eV=0.33762062959431205 branch=right pbc="F F F"
C        0.01568198      -0.30347097      -0.64357588
O       -1.13279357       0.36817002      -0.66716065
O       -1.10411432       1.17658924       2.04434243
C        0.31832705      -0.98726206      -1.93668426
C        0.05756487       0.98769942       2.36343761
O        0.73422604      -0.35551674       0.34252899
H        1.32762051      -1.37221865      -1.92642087
H        0.84851495       1.69716302       2.08047947
H       -1.25184479       0.73169209       0.23815511
H       -0.36344949      -1.82271853      -2.07833274
H        0.36021502       0.12461918       2.97763354
H        0.19429957      -0.29550997      -2.76380695
12
Properties=species:S:1:pos:R:3 relative_energy_eV=0.3339407156017842 branch=right pbc="F F F"
C        0.01707895      -0.30543543      -0.64647686
O       -1.13443152       0.36097393      -0.66027564
O       -1.10004366       1.17848088       2.02510322
C        0.31540413      -0.98771820      -1.94032722
C        0.05599935       0.98886862       2.36274425
O        0.74342548      -0.35934613       0.33421477
H        1.32604298      -1.36876469      -1.92425270
H        0.84987929       1.70007085       2.09844025
H       -1.24636924       0.72783966       0.24549367
H       -0.36713948      -1.82208856      -2.08535795
H        0.35401034       0.13244761       2.98801670
H        0.19039120      -0.29609246      -2.76672666
12
Properties=species:S:1:pos:R:3 relative_energy_eV=0.33171873714127287 branch=right pbc="F F F"
C        0.01837452      -0.30823526      -0.64714573
O       -1.13654986       0.35568208      -0.65666034
O       -1.09786059       1.18154886       2.01438808
C        0.31468054      -0.98869695      -1.94371744
C        0.05353378       0.99062577       2.36347962
O        0.75078653      -0.36194848       0.32830479
H        1.32753136      -1.36779618      -1.92503151
H        0.85226375       1.70313255       2.11253964
H       -1.24295993       0.72454798       0.24922051
H       -0.37124452      -1.82084193      -2.09159684
H        0.34965471       0.13792976       2.99701424
H        0.18603751      -0.29671212      -2.77019917
12
Properties=species:S:1:pos:R:3 relative_energy_eV=0.3308245291809726 branch=right pbc="F F F"
C        0.01889480      -0.31026909      -0.64594068
O       -1.13773824       0.35387229      -0.65573660
O       -1.09738985       1.18297353       2.01143679
C        0.31532420      -0.98923474      -1.94506975
C        0.05223623       0.99183343       2.36408758
O        0.75390668      -0.36209607       0.32682163
H        1.32971553      -1.36842424      -1.92667318
H        0.85432164       1.70483385       2.11735142
H       -1.24223512       0.72300577       0.25018552
H       -0.37363582      -1.81961711      -2.09396431
H        0.34728939       0.13918120       3.00020920
H        0.18355839      -0.29682276      -2.77211176
12
Properties=species:S:1:pos:R:3 relative_energy_eV=0.33028331479908957 branch=right pbc="F F F"
C        0.01932475      -0.31173856      -0.64430681
O       -1.13797724       0.35292689      -0.65531520
O       -1.09724715       1.18342314       2.01037975
C        0.31614866      -0.98935430      -1.94538426
C        0.05185746       0.99269492       2.36427269
O        0.75562145      -0.36120707       0.32726240
H        1.33135697      -1.36917140      -1.92814861
H        0.85600633       1.70569072       2.11830024
H       -1.24272109       0.72212543       0.25049820
H       -0.37518983      -1.81817196      -2.09445532
H        0.34509524       0.13878814       3.00049333
H        0.18197225      -0.29676987      -2.77300056
12
Properties=species:S:1:pos:R:3 relative_energy_eV=0.32970425416715443 branch=right pbc="F F F"
C        0.02023730      -0.31307124      -0.64217437
O       -1.13751907       0.35128899      -0.65414216
O       -1.09674895       1.18350012       2.00792422
C        0.31704628      -0.98913964      -1.94511558
C        0.05201798       0.99344924       2.36356068
O        0.75778521      -0.35952814       0.32863224
H        1.33266526      -1.36976024      -1.92970490
H        0.85796552       1.70619264       2.11832173
H       -1.24385224       0.72100835       0.25144535
H       -0.37697189      -1.81581056      -2.09417493
H        0.34146256       0.13779352       2.99930318
H        0.18015984      -0.29668694      -2.77327960
12
Properties=species:S:1:pos:R:3 relative_energy_eV=0.3289912485979585 branch=right pbc="F F F"
C        0.02230871      -0.31423000      -0.63985865
O       -1.13627368       0.34783958      -0.65189205
O       -1.09559760       1.18411437       2.00354841
C        0.31791759      -0.98862427      -1.94448293
C        0.05254746       0.99436448       2.36224485
O        0.76116668      -0.35727155       0.33051001
H        1.33342875      -1.37020321      -1.93202574
H        0.86022839       1.70636640       2.11875205
H       -1.24560896       0.71910827       0.25301540
H       -0.37932930      -1.81225261      -2.09358113
H        0.33573727       0.13669064       2.99724956
H        0.17772248      -0.29666601      -2.77288395
12
Properties=species:S:1:pos:R:3 relative_energy_eV=0.3282060850997368 branch=right pbc="F F F"
C        0.02549522      -0.31456455      -0.63780087
O       -1.13476871       0.34267306      -0.64829037
O       -1.09370070       1.18555667       1.99639564
C        0.31848924      -0.98781751      -1.94342606
C        0.05323528       0.99505997       2.35991804
O        0.76559744      -0.35469817       0.33232338
H        1.33325588      -1.37049162      -1.93509178
H        0.86245625       1.70605808       2.12010602
H       -1.24730604       0.71626535       0.25576241
H       -0.38192286      -1.80813449      -2.09265297
H        0.32834064       0.13576187       2.99471591
H        0.17507614      -0.29643257      -2.77136356
12
Properties=species:S:1:pos:R:3 relative_energy_eV=0.3273786119243596 branch=right pbc="F F F"
C        0.02982786      -0.31417653      -0.63641194
O       -1.13342535       0.33581134      -0.64420675
O       -1.09143319       1.18909693       1.98860291
C        0.31878274      -0.98695214      -1.94240756
C        0.05349225       0.99590789       2.35778412
O        0.77105437      -0.35232263       0.33345066
H        1.33227643      -1.37110892      -1.93975012
H        0.86440054       1.70530266       2.12292073
H       -1.24881641       0.71233467       0.25859518
H       -0.38457634      -1.80409433      -2.09163995
H        0.32022706       0.13517683       2.99257749
H        0.17243779      -0.29573967      -2.76891898
12
Properties=species:S:1:pos:R:3 relative_energy_eV=0.32639763878978556 branch=right pbc="F F F"
C        0.03492339      -0.31294365      -0.63504596
O       -1.13285732       0.32762209      -0.63896632
O       -1.08882329       1.19465357       1.97826963
C        0.31884216      -0.98588514      -1.94106252
C        0.05312737       0.99643664       2.35458156
O        0.77784180      -0.34954055       0.33386387
H        1.33065242      -1.37229076      -1.94596824
H        0.86642876       1.70390316       2.12670383
H       -1.24967931       0.70701499       0.26280861
H       -0.38725944      -1.80032168      -2.08968966
H        0.31100447       0.13436313       2.99014694
H        0.17004670      -0.29377567      -2.76504595
12
Properties=species:S:1:pos:R:3 relative_energy_eV=0.3252456760765199 branch=right pbc="F F F"
C        0.04105649      -0.31189753      -0.63361161
O       -1.13282621       0.31753291      -0.63374118
O       -1.08648444       1.20418073       1.96885840
C        0.31900318      -0.98482942      -1.94001345
C        0.05147122       0.99754192       2.35200552
O        0.78666831      -0.34647815       0.33326576
H        1.32886887      -1.37470771      -1.95504313
H        0.86868127       1.70169248       2.13158261
H       -1.25067451       0.70002630       0.26658439
H       -0.39023980      -1.79675287      -2.08669457
H        0.30104634       0.13307164       2.98763434
H        0.16767697      -0.29014418      -2.76023133
12
Properties=species:S:1:pos:R:3 relative_energy_eV=0.3240812251387979 branch=right pbc="F F F"
C        0.04624884      -0.31120829      -0.63116307
O       -1.13370627       0.30815470      -0.62766252
O       -1.08474496       1.21464026       1.95765211
C        0.31917190      -0.98356254      -1.93859485
C        0.04908944       0.99789156       2.34745770
O        0.79627449      -0.34229697       0.33208302
H        1.32723696      -1.37760339      -1.96389628
H        0.87140889       1.69848394       2.13521078
H       -1.25100113       0.69251955       0.27213288
H       -0.39290130      -1.79396821      -2.08152599
H        0.29102933       0.13055569       2.98336671
H        0.16614147      -0.28437016      -2.75446479
12
Properties=species:S:1:pos:R:3 relative_energy_eV=0.32316713334330416 branch=right pbc="F F F"
C        0.04972114      -0.31252168      -0.62911249
O       -1.13402587       0.30124320      -0.62466331
O       -1.08488968       1.22515408       1.95455401
C        0.31963946      -0.98287727      -1.93833523
C        0.04622533       0.99891640       2.34548440
O        0.80410939      -0.33893942       0.33047324
H        1.32663490      -1.38043215      -1.97099469
H        0.87352691       1.69501831       2.13690434
H       -1.25212623       0.68694599       0.27424876
H       -0.39477094      -1.79240941      -2.07656206
H        0.28484579       0.12790835       2.97916705
H        0.16535747      -0.27877023      -2.75056836
12
Properties=species:S:1:pos:R:3 relative_energy_eV=0.3225888021315768 branch=right pbc="F F F"
C        0.04997594      -0.31408346      -0.62706151
O       -1.13449179       0.29900155      -0.62155293
O       -1.08559268       1.22961170       1.95019068
C        0.31967113      -0.98232285      -1.93782135
C        0.04483105       0.99845394       2.34164820
O        0.80828290      -0.33560288       0.32940777
H        1.32649545      -1.38132851      -1.97216468
H        0.87537776       1.69222219       2.13597729
H       -1.25181111       0.68430615       0.27803965
H       -0.39535748      -1.79215864      -2.07233575
H        0.28118247       0.12553490       2.97436047
H        0.16568399      -0.27439792      -2.74809221
12
Properties=species:S:1:pos:R:3 relative_energy_eV=0.32222878760330786 branch=right pbc="F F F"
C        0.04978506      -0.31630401      -0.62655017
O       -1.13388901       0.29791436      -0.62122223
O       -1.08695611       1.23274549       1.95298042
C        0.31975080      -0.98249724      -1.93845185
C        0.04395103       0.99911272       2.34136948
O        0.81002063      -0.33394943       0.32852716
H        1.32693019      -1.38145481      -1.97177906
H        0.87637821       1.69038240       2.13516258
H       -1.25217077       0.68367662       0.27810462
H       -0.39557553      -1.79227479      -2.07106012
H        0.28025755       0.12450501       2.97146815
H        0.16576560      -0.27262013      -2.74795336
12
Properties=species:S:1:pos:R:3 relative_energy_eV=0.3218999063010415 branch=right pbc="F F F"
C        0.04951828      -0.31764828      -0.62604121
O       -1.13365040       0.29644054      -0.61888237
O       -1.08752701       1.23436461       1.95145342
C        0.31944240      -0.98258910      -1.93860819
C        0.04377435       0.99926623       2.33937452
O        0.81175432      -0.33159098       0.32776725
H        1.32700300      -1.38076698      -1.97013471
H        0.87797356       1.68887817       2.13503176
H       -1.25124469       0.68278198       0.28071790
H       -0.39589788      -1.79227979      -2.07071974
H        0.27747232       0.12374979       2.96815052
H        0.16562939      -0.27137001      -2.74751353
12
Properties=species:S:1:pos:R:3 relative_energy_eV=0.32145470707655477 branch=right pbc="F F F"
C        0.05033710      -0.31896076      -0.62584685
O       -1.13336802       0.29215911      -0.61517532
O       -1.08787998       1.23866687       1.95029671
C        0.31898190      -0.98293202      -1.93900260
C        0.04326601       1.00038882       2.33760729
O        0.81514369      -0.32812628       0.32631182
H        1.32689181      -1.37986672      -1.96901606
H        0.88055572       1.68671340       2.13628067
H       -1.24978390       0.68061739       0.28406913
H       -0.39674806      -1.79201655      -2.07172199
H        0.27200078       0.12282916       2.96354748
H        0.16485058      -0.27023625      -2.74675466
12
Properties=species:S:1:pos:R:3 relative_energy_eV=0.3209248475595814 branch=right pbc="F F F"
C        0.05221217      -0.31950119      -0.62560999
O       -1.13401689       0.28488681      -0.60911130
O       -1.08753045       1.24596440       1.94695721
C        0.31828525      -0.98332541      -1.93910971
C        0.04235319       1.00206917       2.33521947
O        0.82062810      -0.32312496       0.32399819
H        1.32642447      -1.37898062      -1.96888433
H        0.88427614       1.68394348       2.13900946
H       -1.24711704       0.67660487       0.28951240
H       -0.39799039      -1.79164183      -2.07380801
H        0.26307111       0.12120895       2.95743208
H        0.16365199      -0.26886748      -2.74500989
12
Properties=species:S:1:pos:R:3 relative_energy_eV=0.32042186916805804 branch=right pbc="F F F"
C        0.05440968      -0.31920190      -0.62541733
O       -1.13576260       0.27652972      -0.60276316
O       -1.08674182       1.25539874       1.94442483
C        0.31766192      -0.98378812      -1.93892979
C        0.04105550       1.00412313       2.33365766
O        0.82663212      -0.31785824       0.32114277
H        1.32595893      -1.37843093      -1.96975727
H        0.88798012       1.68112584       2.14209802
H       -1.24409882       0.67200079       0.29485532
H       -0.39899874      -1.79150077      -2.07686412
H        0.25358772       0.11877922       2.95114782
H        0.16256361      -0.26794131      -2.74299920
12
Properties=species:S:1:pos:R:3 relative_energy_eV=0.3200252505030221 branch=right pbc="F F F"
C        0.05546718      -0.31845294      -0.62522136
O       -1.13822250       0.27064003      -0.59842228
O       -1.08588480       1.26349775       1.94398722
C        0.31733159      -0.98416134      -1.93845885
C        0.03998441       1.00557151       2.33344060
O        0.83061803      -0.31396469       0.31871132
H        1.32584701      -1.37821217      -1.97053739
H        0.89024713       1.67924295       2.14393173
H       -1.24179934       0.66888669       0.29822117
H       -0.39906551      -1.79183297      -2.07991490
H        0.24745212       0.11603473       2.94664274
H        0.16227230      -0.26801337      -2.74178445
12
Properties=species:S:1:pos:R:3 relative_energy_eV=0.31972587593554636 branch=right pbc="F F F"
C        0.05496029      -0.31783331      -0.62494659
O       -1.14077576       0.26809515      -0.59641381
O       -1.08519590       1.26890211       1.94547656
C        0.31731146      -0.98438776      -1.93781118
C        0.03947507       1.00606334       2.33404262
O        0.83202766      -0.31157754       0.31712011
H        1.32614492      -1.37799442      -1.97024033
H        0.89095719       1.67828969       2.14400482
H       -1.24072558       0.66794976       0.29951951
H       -0.39817785      -1.79246531      -2.08235565
H        0.24539746       0.11323343       2.94390529
H        0.16284864      -0.26903897      -2.74170584
12
Properties=species:S:1:pos:R:3 relative_energy_eV=0.3195065737781988 branch=right pbc="F F F"
C        0.05342740      -0.31767243      -0.62447656
O       -1.14305345       0.26764307      -0.59559723
O       -1.08458635       1.27210685       1.94714504
C        0.31746645      -0.98441656      -1.93709765
C        0.03955374       1.00571874       2.33447494
O        0.83192095      -0.30990848       0.31629489
H        1.32666998      -1.37756998      -1.96881356
H        0.89087707       1.67780042       2.14300571
H       -1.24082422       0.66851887       0.29991887
H       -0.39684353      -1.79299060      -2.08387960
H        0.24571984       0.11046685       2.94201264
H        0.16391970      -0.27046059      -2.74239198
12
Properties=species:S:1:pos:R:3 relative_energy_eV=0.3193313701722218 branch=right pbc="F F F"
C        0.05173623      -0.31791113      -0.62389655
O       -1.14469688       0.26775094      -0.59504972
O       -1.08393237       1.27384257       1.94790719
C        0.31766917      -0.98427502      -1.93650877
C        0.04007223       1.00495945       2.33426394
O        0.83133571      -0.30847079       0.31602116
H        1.32716726      -1.37693127      -1.96678365
H        0.89073250       1.67738608       2.14193130
H       -1.24189567       0.66969457       0.30015591
H       -0.39564058      -1.79316636      -2.08444364
H        0.24665907       0.10808707       2.94035874
H        0.16504091      -0.27172994      -2.74336038
12
Properties=species:S:1:pos:R:3 relative_energy_eV=0.3191807619314204 branch=right pbc="F F F"
C        0.05048108      -0.31832810      -0.62335443
O       -1.14597341       0.26692685      -0.59400319
O       -1.08298558       1.27544568       1.94728170
C        0.31780997      -0.98404392      -1.93618303
C        0.04078207       1.00427799       2.33353609
O        0.83117541      -0.30675007       0.31583751
H        1.32749119      -1.37623894      -1.96494331
H        0.89113497       1.67683785       2.14187652
H       -1.24351489       0.67055377       0.30072609
H       -0.39485322      -1.79304741      -2.08448138
H        0.24672054       0.10615816       2.93859686
H        0.16597943      -0.27255569      -2.74429392
12
Properties=species:S:1:pos:R:3 relative_energy_eV=0.31901218157145195 branch=right pbc="F F F"
C        0.04958437      -0.31870377      -0.62289071
O       -1.14753650       0.26435817      -0.59207136
O       -1.08140260       1.27796051       1.94538165
C        0.31788498      -0.98375464      -1.93610955
C        0.04166436       1.00385070       2.33246293
O        0.83161956      -0.30420971       0.31538927
H        1.32767065      -1.37550511      -1.96336887
H        0.89245645       1.67598535       2.14339883
H       -1.24574173       0.67084793       0.30173814
H       -0.39432052      -1.79284786      -2.08434707
H        0.24541486       0.10429218       2.93628063
H        0.16695368      -0.27303758      -2.74526838
12
Properties=species:S:1:pos:R:3 relative_energy_eV=0.31877241243091703 branch=right pbc="F F F"
C        0.04897635      -0.31885622      -0.62257177
O       -1.15019718       0.25896571      -0.58882298
O       -1.07875009       1.28251781       1.94203683
C        0.31788629      -0.98341823      -1.93633526
C        0.04275237       1.00390183       2.33117667
O        0.83291941      -0.30014927       0.31428411
H        1.32774709      -1.37478620      -1.96223398
H        0.89534190       1.67463737       2.14746236
H       -1.24877545       0.67017995       0.30330400
H       -0.39392348      -1.79276960      -2.08426465
H        0.24206061       0.10216563       2.93293051
H        0.16820972      -0.27315260      -2.74637032
12
Properties=species:S:1:pos:R:3 relative_energy_eV=0.31848023190286767 branch=right pbc="F F F"
C        0.04850650      -0.31847631      -0.62255297
O       -1.15445032       0.25075644      -0.58466816
O       -1.07506627       1.28927138       1.93804873
C        0.31785255      -0.98309962      -1.93681440
C        0.04396807       1.00464560       2.33007716
O        0.83477807      -0.29456482       0.31232267
H        1.32780351      -1.37422219      -1.96166314
H        0.90003451       1.67278860       2.15428262
H       -1.25246398       0.66837418       0.30494202
H       -0.39349957      -1.79309438      -2.08437930
H        0.23686995       0.09979146       2.92852962
H        0.16991450      -0.27293415      -2.74752936
12
Properties=species:S:1:pos:R:3 relative_energy_eV=0.3182028166465898 branch=right pbc="F F F"
C        0.04795099      -0.31754397      -0.62290744
O       -1.15963382       0.24207734      -0.58117512
O       -1.07139069       1.29654277       1.93520021
C        0.31785942      -0.98290142      -1.93725932
C        0.04501787       1.00595709       2.32972056
O        0.83635528      -0.28878943       0.30988422
H        1.32796651      -1.37398146      -1.96159663
H        0.90551696       1.67087816       2.16205330
H       -1.25581454       0.66581502       0.30572259
H       -0.39294871      -1.79384438      -2.08471498
H        0.23158379       0.09761640       2.92406114
H        0.17178444      -0.27258991      -2.74839307
12
Properties=species:S:1:pos:R:3 relative_energy_eV=0.3179977439867798 branch=right pbc="F F F"
C        0.04701817      -0.31649709      -0.62345802
O       -1.16395343       0.23663622      -0.58006987
O       -1.06907075       1.30131424       1.93485796
C        0.31799432      -0.98284534      -1.93728216
C        0.04576014       1.00711309       2.33015806
O        0.83652891      -0.28481136       0.30797226
H        1.32829450      -1.37392722      -1.96129842
H        0.90972143       1.66956626       2.16750542
H       -1.25793669       0.66374477       0.30499993
H       -0.39224234      -1.79462093      -2.08499873
H        0.22883017       0.09612563       2.92094245
H        0.17330304      -0.27256207      -2.74873343
12
Properties=species:S:1:pos:R:3 relative_energy_eV=0.3178321764298744 branch=right pbc="F F F"
C        0.04572942      -0.31571016      -0.62398454
O       -1.16723251       0.23405011      -0.58073337
O       -1.06781099       1.30387196       1.93568059
C        0.31823869      -0.98282600      -1.93682801
C        0.04640285       1.00780882       2.33075727
O        0.83572404      -0.28212110       0.30672061
H        1.32872932      -1.37379859      -1.96036974
H        0.91267887       1.66873809       2.17066926
H       -1.25920303       0.66218134       0.30350737
H       -0.39150439      -1.79503091      -2.08503277
H        0.22812109       0.09492597       2.91880332
H        0.17437409      -0.27285332      -2.74859452
12
Properties=species:S:1:pos:R:3 relative_energy_eV=0.31768265947721375 branch=right pbc="F F F"
C        0.04387785      -0.31509818      -0.62450661
O       -1.16987376       0.23356658      -0.58286081
O       -1.06700072       1.30467810       1.93707394
C        0.31860542      -0.98278984      -1.93588945
C        0.04730113       1.00792382       2.33119911
O        0.83378681      -0.27998159       0.30602822
H        1.32928534      -1.37331827      -1.95816149
H        0.91485009       1.66816737       2.17221645
H       -1.26039864       0.66109413       0.30130431
H       -0.39064787      -1.79505417      -2.08468227
H        0.22919494       0.09361429       2.91703576
H        0.17526687      -0.27356602      -2.74816169
12
Properties=species:S:1:pos:R:3 relative_energy_eV=0.31755545513624384 branch=right pbc="F F F"
C        0.04228207      -0.31494520      -0.62486604
O       -1.17163550       0.23345997      -0.58481156
O       -1.06615220       1.30524596       1.93730618
C        0.31891466      -0.98275045      -1.93490727
C        0.04827285       1.00765803       2.33112888
O        0.83222105      -0.27780616       0.30565429
H        1.32975686      -1.37259775      -1.95556927
H        0.91644824       1.66771566       2.17319109
H       -1.26150553       0.65990476       0.29971504
H       -0.39016448      -1.79458738      -2.08419167
H        0.23014483       0.09213676       2.91546126
H        0.17566458      -0.27419800      -2.74751545
12
Properties=species:S:1:pos:R:3 relative_energy_eV=0.3174787419357017 branch=right pbc="F F F"
C        0.04124303      -0.31495677      -0.62515337
O       -1.17227432       0.23358468      -0.58621808
O       -1.06518474       1.30543004       1.93687924
C        0.31908037      -0.98279241      -1.93429449
C        0.04917531       1.00719342       2.33085609
O        0.83094816      -0.27612303       0.30554679
H        1.33005853      -1.37183194      -1.95312475
H        0.91714452       1.66749307       2.17376786
H       -1.26257546       0.65902986       0.29870536
H       -0.39004941      -1.79413366      -2.08380644
H        0.23094902       0.09098341       2.91450057
H        0.17573243      -0.27464047      -2.74706330
12
Properties=species:S:1:pos:R:3 relative_energy_eV=0.317422805552269 branch=right pbc="F F F"
C        0.04122384      -0.31520306      -0.62533943
O       -1.17280419       0.23162822      -0.58583694
O       -1.06371698       1.30765011       1.93487427
C        0.31903324      -0.98294134      -1.93426224
C        0.04969061       1.00721417       2.33054141
O        0.83152146      -0.27376638       0.30496049
H        1.33015607      -1.37143525      -1.95219037
H        0.91817653       1.66715046       2.17578776
H       -1.26329608       0.65718142       0.29912158
H       -0.39051052      -1.79376967      -2.08391294
H        0.22937302       0.08990162       2.91346488
H        0.17540042      -0.27437411      -2.74661300
12
Properties=species:S:1:pos:R:3 relative_energy_eV=0.31738966444572725 branch=right pbc="F F F"
C        0.04136569      -0.31514472      -0.62562128
O       -1.17285240       0.23051984      -0.58567488
O       -1.06250184       1.30891342       1.93389374
C        0.31893226      -0.98319980      -1.93452211
C        0.05002816       1.00728824       2.33064427
O        0.83161689      -0.27239763       0.30451668
H        1.33020753      -1.37128724      -1.95167353
H        0.91849061       1.66709027       2.17729243
H       -1.26384102       0.65600084       0.29923833
H       -0.39088280      -1.79393139      -2.08419955
H        0.22849041       0.08948434       2.91318342
H        0.17519391      -0.27409997      -2.74648204
12
Properties=species:S:1:pos:R:3 relative_energy_eV=0.31738105577096576 branch=right pbc="F F F"
C        0.04189449      -0.31518165      -0.62574669
O       -1.17334149       0.22839724      -0.58463955
O       -1.06146699       1.31128156       1.93253962
C        0.31878445      -0.98342231      -1.93489746
C        0.04998447       1.00777104       2.33080154
O        0.83286614      -0.27080732       0.30375096
H        1.33017782      -1.37153128      -1.95237438
H        0.91932997       1.66688336       2.17940317
H       -1.26393347       0.65438076       0.30007320
H       -0.39132921      -1.79413458      -2.08470173
H        0.22634306       0.08911610       2.91266375
H        0.17493818      -0.27351673      -2.74627693
12
Properties=species:S:1:pos:R:3 relative_energy_eV=0.31737247858291084 branch=right pbc="F F F"
C        0.04195893      -0.31502003      -0.62585349
O       -1.17343057       0.22833061      -0.58468884
O       -1.06125578       1.31152041       1.93273557
C        0.31873803      -0.98355397      -1.93503311
C        0.04996465       1.00791963       2.33107888
O        0.83290644      -0.27059744       0.30352300
H        1.33018406      -1.37172068      -1.95258684
H        0.91938076       1.66694514       2.17985457
H       -1.26399130       0.65408911       0.30005273
H       -0.39133743      -1.79444626      -2.08492261
H        0.22615520       0.08919682       2.91273260
H        0.17497443      -0.27342717      -2.74629696
12
Properties=species:S:1:pos:R:3 relative_energy_eV=0.31736431205717963 branch=right pbc="F F F"
C        0.04196375      -0.31490764      -0.62589784
O       -1.17354939       0.22839851      -0.58475992
O       -1.06118329       1.31169138       1.93289370
C        0.31870906      -0.98364325      -1.93505583
C        0.04995227       1.00801804       2.33124297
O        0.83303819      -0.27036768       0.30331937
H        1.33017245      -1.37189336      -1.95273295
H        0.91949423       1.66697750       2.18016166
H       -1.26409197       0.65384670       0.30009204
H       -0.39129374      -1.79465003      -2.08507295
H        0.22600988       0.08918639       2.91268371
H        0.17502599      -0.27342036      -2.74627845
12
Properties=species:S:1:pos:R:3 relative_energy_eV=0.3173618159889884 branch=right pbc="F F F"
C        0.04189858      -0.31471239      -0.62596081
O       -1.17359352       0.22890474      -0.58503683
O       -1.06117253       1.31164559       1.93321592
C        0.31866357      -0.98377961      -1.93500339
C        0.04999528       1.00804894       2.33140542
O        0.83315056      -0.27004661       0.30305968
H        1.33012662      -1.37212382      -1.95271728
H        0.91957238       1.66705970       2.18042578
H       -1.26442247       0.65360661       0.30011754
H       -0.39117134      -1.79492985      -2.08524465
H        0.22606417       0.08911887       2.91259220
H        0.17513613      -0.27355600      -2.74625807
12
Properties=species:S:1:pos:R:3 relative_energy_eV=0.31735370541355223 branch=right pbc="F F F"
C        0.04183385      -0.31449834      -0.62601809
O       -1.17349895       0.22959785      -0.58533219
O       -1.06121629       1.31147008       1.93346547
C        0.31860595      -0.98391139      -1.93489255
C        0.05008308       1.00797750       2.33143291
O        0.83329376      -0.26966248       0.30282873
H        1.33003535      -1.37231199      -1.95250362
H        0.91960885       1.66713776       2.18060419
H       -1.26493671       0.65343257       0.30019653
H       -0.39104730      -1.79514731      -2.08535508
H        0.22622954       0.08895830       2.91242104
H        0.17525631      -0.27380637      -2.74625182
12
Properties=species:S:1:pos:R:3 relative_energy_eV=0.31735184794342786 branch=right pbc="F F F"
C        0.04181819      -0.31433376      -0.62605961
O       -1.17331525       0.23012706      -0.58549624
O       -1.06129807       1.31126540       1.93354971
C        0.31856026      -0.98398228      -1.93479093
C        0.05015811       1.00784888       2.33133319
O        0.83340306      -0.26937518       0.30272192
H        1.32993679      -1.37238894      -1.95221410
H        0.91958768       1.66717440       2.18065492
H       -1.26538303       0.65340416       0.30028573
H       -0.39099134      -1.79521685      -2.08535018
H        0.22642889       0.08877800       2.91224721
H        0.17534216      -0.27406474      -2.74628611
