12
Properties=species:S:1:pos:R:3 relative_energy_eV=0.7366759513733996 branch=ts pbc="F F F"
C       -0.06143428      -0.16657120      -0.52839426
O       -1.12450233       0.52759654      -0.57672219
O       -1.13676108       0.97613845       1.75395934
C        0.34101297      -0.92223176      -1.74924176
C        0.11926639       0.74891824       1.91215631
O        0.67733674      -0.27603505       0.50742987
H        1.35393844      -1.30267729      -1.67004216
H        0.82943971       1.56582275       1.75841418
H       -1.30927663       0.86462393       0.59097419
H       -0.34523198      -1.75982249      -1.87516420
H        0.42121825       0.01524302       2.66036390
H        0.23710748      -0.28229786      -2.62090927
