12
Properties=species:S:1:pos:R:3 relative_energy_eV=2.7940272308496787 branch=ts pbc="F F F"
C       -0.14230786      -1.42581154      -0.00029872
O       -0.80857718      -1.22035254       1.03060214
O       -0.15824845       1.30597304       1.85713619
C        0.88136030      -0.57708390      -0.49257140
C       -0.68766915       0.96707124      -1.73996605
O       -0.47962930       1.37210458      -2.80519238
H       -0.21986155       1.54156204       2.78881772
H       -0.38765249      -2.30910448      -0.61520888
H       -0.47262858       0.37585188       1.79795606
H        1.25055942       0.16632720       0.19516663
H       -0.22553101       0.95698160      -0.68034175
H        1.55074669      -0.95271469      -1.25085598
