12
Properties=species:S:1:pos:R:3 relative_energy_eV=3.0818322402810736 branch=ts pbc="F F F"
C        0.39351848       0.06718934      -0.59881391
O        1.16650686      -0.90739656      -0.23009846
O       -0.07082367       0.82149105       2.57803687
C       -0.42483947      -0.07083856      -1.81797187
C       -0.24970308      -0.21544178       1.66005103
O       -1.23355541      -0.89690489       1.78194726
H        0.07611427       0.47413685      -2.62958492
H        0.60479472       1.07817891      -0.25134381
H        0.79290823       1.22996074       2.42865063
H       -0.52579708      -1.11414626      -2.09454654
H        0.87597271      -0.85626209       0.85496188
H       -1.40510295       0.39009162      -1.68128527
