12
Properties=species:S:1:pos:R:3 relative_energy_eV=0.0 branch=left pbc="F F F"
C        0.03940393       0.48906286      -1.07639234
O       -1.04808885       0.85069672      -0.66123856
O       -1.10665037       0.77333551       2.09200599
C        0.26894633      -0.75520005      -1.85271526
C        0.03758048       0.13697394       2.32303477
O        0.83447162      -0.24299978       1.49019101
H        0.83326461      -1.45047839      -1.22806373
H        0.93897914       1.10049478      -0.89132119
H       -1.19768756       0.88133006       1.11318347
H       -0.66809780      -1.21589081      -2.15041386
H        0.17823517      -0.00636134       3.40554762
H        0.88750511      -0.54970361      -2.72662408
12
Properties=species:S:1:pos:R:3 relative_energy_eV=4.094245014130138e-06 branch=left pbc="F F F"
C        0.03936174       0.48906467      -1.07642870
O       -1.04809614       0.85081672      -0.66129957
O       -1.10658671       0.77318167       2.09201065
C        0.26877806      -0.75527734      -1.85268929
C        0.03773985       0.13702556       2.32301325
O        0.83498880      -0.24212872       1.49019599
H        0.83298457      -1.45056066      -1.22795559
H        0.93896588       1.10040435      -0.89134919
H       -1.19751787       0.88149190       1.11323976
H       -0.66829532      -1.21583338      -2.15042328
H        0.17808848      -0.00698423       3.40546242
H        0.88745046      -0.54994064      -2.72658261
12
Properties=species:S:1:pos:R:3 relative_energy_eV=5.660860551870428e-06 branch=left pbc="F F F"
C        0.03946229       0.48916219      -1.07653418
O       -1.04785489       0.85137388      -0.66142193
O       -1.10655337       0.77304402       2.09191731
C        0.26848826      -0.75547300      -1.85242638
C        0.03782268       0.13693507       2.32295720
O        0.83597307      -0.24058842       1.49033750
H        0.83361580      -1.45044209      -1.22807198
H        0.93922409       1.10037295      -0.89181308
H       -1.19710060       0.88218372       1.11321749
H       -0.66871815      -1.21632383      -2.14926285
H        0.17723724      -0.00876803       3.40528084
H        0.88626539      -0.55021657      -2.72698611
12
Properties=species:S:1:pos:R:3 relative_energy_eV=5.43415080755949e-06 branch=left pbc="F F F"
C        0.03971591       0.48935785      -1.07664749
O       -1.04741501       0.85214060      -0.66150143
O       -1.10659976       0.77310956       2.09172630
C        0.26827215      -0.75568136      -1.85203498
C        0.03757568       0.13664504       2.32286830
O        0.83649237      -0.23967734       1.49043513
H        0.83536120      -1.44979313      -1.22843223
H        0.93968943       1.10046756      -0.89254786
H       -1.19657959       0.88311851       1.11306346
H       -0.66900677      -1.21745011      -2.14695478
H        0.17602346      -0.01068817       3.40509453
H        0.88433273      -0.55028911      -2.72787513
12
Properties=species:S:1:pos:R:3 relative_energy_eV=1.3063563528703526e-05 branch=left pbc="F F F"
C        0.04042634       0.48968773      -1.07664779
O       -1.04640835       0.85345130      -0.66151661
O       -1.10710346       0.77293011       2.09138957
C        0.26813930      -0.75587169      -1.85142976
C        0.03694426       0.13615805       2.32266270
O        0.83669016      -0.23914293       1.49039703
H        0.83869284      -1.44867323      -1.22933180
H        0.94084098       1.10051641      -0.89338378
H       -1.19617565       0.88407633       1.11269886
H       -0.66951097      -1.21925908      -2.14283585
H        0.17447193      -0.01253657       3.40485904
H        0.88085440      -0.55007657      -2.72966778
12
Properties=species:S:1:pos:R:3 relative_energy_eV=2.8326548999757506e-05 branch=left pbc="F F F"
C        0.04154777       0.48957540      -1.07633675
O       -1.04519515       0.85394859      -0.66152233
O       -1.10756466       0.77441726       2.09111399
C        0.26886853      -0.75587550      -1.85142060
C        0.03516031       0.13558703       2.32294982
O        0.83392461      -0.24229501       1.49097164
H        0.84533010      -1.44650974      -1.23235342
H        0.94227014       1.10002167      -0.89305032
H       -1.19615288       0.88508418       1.11232662
H       -0.66894446      -1.22230579      -2.13749570
H        0.17264656      -0.01212350       3.40529343
H        0.87597093      -0.54826473      -2.73328251
12
Properties=species:S:1:pos:R:3 relative_energy_eV=4.020205778942909e-05 branch=left pbc="F F F"
C        0.04205947       0.48876688      -1.07570739
O       -1.04485631       0.85325551      -0.66147689
O       -1.10760957       0.77569929       2.09130378
C        0.26923961      -0.75592566      -1.85220892
C        0.03445935       0.13590803       2.32344666
O        0.83294799      -0.24312962       1.49153941
H        0.84830393      -1.44599791      -1.23499806
H        0.94284003       1.09840385      -0.89082398
H       -1.19611459       0.88559830       1.11243567
H       -0.66888298      -1.22360508      -2.13664896
H        0.17171665      -0.01110510       3.40591821
H        0.87375825      -0.54660864      -2.73558563
12
Properties=species:S:1:pos:R:3 relative_energy_eV=6.66361356707057e-05 branch=left pbc="F F F"
C        0.04228523       0.48724305      -1.07469830
O       -1.04528738       0.85083758      -0.66159285
O       -1.10686117       0.77975820       2.09165066
C        0.27086581      -0.75569106      -1.85358979
C        0.03286091       0.13626348       2.32432204
O        0.82815124      -0.24885049       1.49266143
H        0.85372526      -1.44496991      -1.23919608
H        0.94260257       1.09639659      -0.88691956
H       -1.19689739       0.88628425       1.11273818
H       -0.66693902      -1.22558565      -2.13666630
H        0.17135645      -0.00726021       3.40698986
H        0.87199938      -0.54316598      -2.73850531
12
Properties=species:S:1:pos:R:3 relative_energy_eV=9.811466406972613e-05 branch=left pbc="F F F"
C        0.04382871       0.49100267      -1.07659284
O       -1.04218961       0.85759898      -0.66192585
O       -1.10993768       0.77213612       2.09022116
C        0.26904765      -0.75572957      -1.84991241
C        0.03347736       0.13429392       2.32226373
O        0.83272811      -0.24347495       1.49009492
H        0.85226559      -1.44372769      -1.23379087
H        0.94567411       1.10075143      -0.89524525
H       -1.19657660       0.88471138       1.11131824
H       -0.66988616      -1.22493169      -2.12671506
H        0.17090613      -0.01305943       3.40478475
H        0.86852414      -0.54831132      -2.73730666
12
Properties=species:S:1:pos:R:3 relative_energy_eV=0.001345543030765839 branch=left pbc="F F F"
C        0.04975627       0.48809529      -1.07350775
O       -1.03457604       0.86011943      -0.65731243
O       -1.11219596       0.77208372       2.08862427
C        0.26790788      -0.75812411      -1.84982376
C        0.02845385       0.13453978       2.32483135
O        0.83167030      -0.23798613       1.49532747
H        0.86899218      -1.43647170      -1.25155801
H        0.95509361       1.09626927      -0.89760194
H       -1.18939747       0.89076333       1.10826966
H       -0.66956576      -1.23701695      -2.11050494
H        0.15976062      -0.01850863       3.40764526
H        0.84196230      -0.54250348      -2.74719525
12
Properties=species:S:1:pos:R:3 relative_energy_eV=0.0005251551938272314 branch=left pbc="F F F"
C        0.04324159       0.48407092      -1.07495309
O       -1.04661272       0.84462461      -0.66633888
O       -1.10717510       0.78607417       2.09534413
C        0.27433005      -0.75419297      -1.86091671
C        0.03071255       0.13864568       2.32980393
O        0.82050117      -0.26038281       1.49890171
H        0.85864951      -1.44689961      -1.24872594
H        0.94207279       1.09091559      -0.87498669
H       -1.20033273       0.88195553       1.11689743
H       -0.66440575      -1.22418283      -2.14310877
H        0.17242220       0.00719449       3.41298207
H        0.87445849      -0.53656292      -2.74770500
12
Properties=species:S:1:pos:R:3 relative_energy_eV=0.0011996468656434445 branch=left pbc="F F F"
C        0.04479502       0.48381948      -1.07546047
O       -1.04585903       0.84479661      -0.67111924
O       -1.10631976       0.79409158       2.09612451
C        0.27738848      -0.75351126      -1.86321447
C        0.02692105       0.13753283       2.33113731
O        0.81559599      -0.26734628       1.50057387
H        0.87582833      -1.44124425      -1.25975357
H        0.94294113       1.08654192      -0.86619199
H       -1.20164017       0.88622019       1.11874307
H       -0.65914645      -1.23113217      -2.13025656
H        0.16568189       0.00591884       3.41478149
H        0.86167562      -0.53442768      -2.75816965
12
Properties=species:S:1:pos:R:3 relative_energy_eV=0.002355954591621412 branch=left pbc="F F F"
C        0.04410229       0.47690364      -1.07095118
O       -1.05074471       0.82818160      -0.66948840
O       -1.09637941       0.83080790       2.09523671
C        0.29225637      -0.75189222      -1.86662129
C        0.01029171       0.13375896       2.33494610
O        0.76466607      -0.33006179       1.50721230
H        0.92617262      -1.42376551      -1.28199365
H        0.93778969       1.08596383      -0.85619293
H       -1.20502222       0.89743631       1.11706727
H       -0.63597987      -1.25356020      -2.11782398
H        0.16139616       0.02844584       3.42014063
H        0.84931367      -0.51095865      -2.77433694
12
Properties=species:S:1:pos:R:3 relative_energy_eV=0.003267183499701787 branch=left pbc="F F F"
C        0.04741758       0.47488955      -1.06836979
O       -1.04786743       0.82580891      -0.66721836
O       -1.09439639       0.84571614       2.09311967
C        0.29852097      -0.75201917      -1.86557078
C       -0.00025255       0.13028557       2.33618165
O        0.74094050      -0.35767753       1.51036566
H        0.96061461      -1.40992483      -1.29808731
H        0.94136566       1.08597245      -0.85621858
H       -1.20498651       0.90483353       1.11364115
H       -0.62539774      -1.27065835      -2.09652753
H        0.15393266       0.03367606       3.42240394
H        0.82797107      -0.49964271      -2.78652494
12
Properties=species:S:1:pos:R:3 relative_energy_eV=0.003771845158553333 branch=left pbc="F F F"
C        0.05173125       0.47471682      -1.06650896
O       -1.04264928       0.82886465      -0.66505474
O       -1.09641366       0.84955155       2.09126232
C        0.30049079      -0.75268042      -1.86343214
C       -0.00649012       0.12788798       2.33598440
O        0.73181511      -0.36698099       1.51093084
H        0.98242019      -1.40040597      -1.30945525
H        0.94761751       1.08525730      -0.85831516
H       -1.20417023       0.90923079       1.11060992
H       -0.62150442      -1.28229626      -2.07651672
H        0.14749991       0.03271652       3.42268513
H        0.80751537      -0.49460236      -2.79499478
12
Properties=species:S:1:pos:R:3 relative_energy_eV=0.0040582205165264895 branch=left pbc="F F F"
C        0.05616934       0.47560013      -1.06535856
O       -1.03683445       0.83413229      -0.66351345
O       -1.10028641       0.84740407       2.08979104
C        0.30040457      -0.75327075      -1.86120494
C       -0.01002067       0.12627567       2.33527111
O        0.72975661      -0.36781003       1.51047178
H        0.99530410      -1.39444988      -1.31688233
H        0.95443517       1.08450420      -0.86104443
H       -1.20395760       0.91050328       1.10825758
H       -0.62126653      -1.28932159      -2.06001878
H        0.14336861       0.03065979       3.42213082
H        0.79078964      -0.49296762      -2.80070494
12
Properties=species:S:1:pos:R:3 relative_energy_eV=0.004229501930240076 branch=left pbc="F F F"
C        0.05978660       0.47641292      -1.06421357
O       -1.03211417       0.83883687      -0.66239082
O       -1.10427952       0.84343461       2.08881404
C        0.29969409      -0.75366903      -1.85949485
C       -0.01179780       0.12547667       2.33418832
O        0.73023586      -0.36563718       1.50909826
H        1.00232746      -1.39121531      -1.32153825
H        0.96003346       1.08349314      -0.86229855
H       -1.20431722       0.91025050       1.10682336
H       -0.62244914      -1.29312097      -2.04850227
H        0.14161651       0.02962643       3.42096532
H        0.77912618      -0.49262910      -2.80425607
12
Properties=species:S:1:pos:R:3 relative_energy_eV=0.004345325634858455 branch=left pbc="F F F"
C        0.06322773       0.47737298      -1.06344004
O       -1.02769832       0.84351096      -0.66204395
O       -1.10845636       0.83803306       2.08823130
C        0.29863998      -0.75381514      -1.85840115
C       -0.01261414       0.12521398       2.33349155
O        0.73202475      -0.36224680       1.50826402
H        1.00586666      -1.38988985      -1.32499229
H        0.96524630       1.08243357      -0.86295942
H       -1.20557865       0.90802904       1.10601945
H       -0.62464659      -1.29452339      -2.04003302
H        0.14136556       0.03013826       3.42016045
H        0.77048535      -0.49299713      -2.80710192
12
Properties=species:S:1:pos:R:3 relative_energy_eV=0.004417247295350535 branch=left pbc="F F F"
C        0.06562003       0.47763106      -1.06245529
O       -1.02487198       0.84633161      -0.66197001
O       -1.11160156       0.83386922       2.08802424
C        0.29787429      -0.75381335      -1.85810693
C       -0.01280491       0.12556305       2.33297194
O        0.73359780      -0.35935244       1.50755392
H        1.00754675      -1.38991087      -1.32802908
H        0.96877444       1.08089845      -0.86169094
H       -1.20679574       0.90601515       1.10591100
H       -0.62651993      -1.29461475      -2.03535645
H        0.14184240       0.03176480       3.41950927
H        0.76520065      -0.49312239      -2.80916665
12
Properties=species:S:1:pos:R:3 relative_energy_eV=0.004486356498091482 branch=left pbc="F F F"
C        0.06815377       0.47753994      -1.06165276
O       -1.02202290       0.84877231      -0.66254273
O       -1.11479900       0.82930408       2.08820392
C        0.29699009      -0.75359099      -1.85885085
C       -0.01258983       0.12669908       2.33349978
O        0.73568811      -0.35637339       1.50862914
H        1.00793526      -1.39131055      -1.33231978
H        0.97242899       1.07838930      -0.85933633
H       -1.20893916       0.90232138       1.10617245
H       -0.62888617      -1.29306833      -2.03279939
H        0.14275607       0.03534051       3.41998541
H        0.76114702      -0.49276380      -2.81179380
12
Properties=species:S:1:pos:R:3 relative_energy_eV=0.004553319802653277 branch=left pbc="F F F"
C        0.06944616       0.47677725      -1.06119414
O       -1.02091097       0.84912333      -0.66324165
O       -1.11625645       0.82748108       2.08839886
C        0.29664482      -0.75325314      -1.86060938
C       -0.01249852       0.12798537       2.33507047
O        0.73735131      -0.35525750       1.51154567
H        1.00840827      -1.39279426      -1.33730725
H        0.97422976       1.07563905      -0.85627790
H       -1.20915699       0.90024282       1.10657421
H       -0.63017695      -1.29154088      -2.03301176
H        0.14195196       0.03875753       3.42168628
H        0.75882988      -0.49190110      -2.81443826
12
Properties=species:S:1:pos:R:3 relative_energy_eV=0.00461454030846653 branch=left pbc="F F F"
C        0.07022864       0.47658905      -1.06170499
O       -1.01971913       0.85053125      -0.66416931
O       -1.11635594       0.82706053       2.08820210
C        0.29596041      -0.75317577      -1.86156758
C       -0.01243958       0.12858415       2.33654585
O        0.74045952      -0.35308658       1.51487519
H        1.01010687      -1.39230291      -1.34153090
H        0.97587110       1.07316205      -0.85497406
H       -1.20872213       0.89966968       1.10613326
H       -0.63087830      -1.29170333      -2.03048804
H        0.13850488       0.03763110       3.42291233
H        0.75484594      -0.49169968      -2.81703868
12
Properties=species:S:1:pos:R:3 relative_energy_eV=0.004686868349381257 branch=left pbc="F F F"
C        0.07133197       0.47604420      -1.06253680
O       -1.01742067       0.85145975      -0.66369346
O       -1.11793125       0.82542850       2.08806753
C        0.29511557      -0.75291051      -1.86431331
C       -0.01253189       0.12974647       2.33913226
O        0.74318975      -0.35011332       1.51840777
H        1.01092587      -1.39154923      -1.34618653
H        0.97847237       1.06839660      -0.85209236
H       -1.20925410       0.89852029       1.10597768
H       -0.63222295      -1.29175108      -2.03134944
H        0.13690494       0.03914182       3.42692975
H        0.75128272      -0.49115394      -2.82114785
12
Properties=species:S:1:pos:R:3 relative_energy_eV=0.004796929208168876 branch=left pbc="F F F"
C        0.07265586       0.47862311      -1.06494766
O       -1.01471608       0.85698898      -0.66501881
O       -1.11830338       0.82365495       2.08608193
C        0.29381060      -0.75338792      -1.86276265
C       -0.01330640       0.12753725       2.33963328
O        0.74877554      -0.34473976       1.52075478
H        1.01550885      -1.38682932      -1.34745425
H        0.98117473       1.06901901      -0.85646248
H       -1.20524701       0.90123420       1.10434911
H       -0.63279977      -1.29552545      -2.02053078
H        0.12950128       0.02973481       3.42769737
H        0.74080802      -0.49505029      -2.82414465
12
Properties=species:S:1:pos:R:3 relative_energy_eV=0.004991827161575202 branch=left pbc="F F F"
C        0.07224096       0.48143271      -1.06754396
O       -1.01460777       0.86105909      -0.66688396
O       -1.11569066       0.82500584       2.08436717
C        0.29289314      -0.75384403      -1.86028304
C       -0.01418666       0.12401954       2.33899286
O        0.75320220      -0.34233126       1.52067796
H        1.02046079      -1.38049216      -1.34344254
H        0.98141280       1.07157445      -0.86172163
H       -1.19958132       0.90580316       1.10182999
H       -0.63300691      -1.30095695      -2.01027453
H        0.12076825       0.01839861       3.42754423
H        0.73395732      -0.49840944      -2.82606751
12
Properties=species:S:1:pos:R:3 relative_energy_eV=0.0053062784081703285 branch=left pbc="F F F"
C        0.07467767       0.48618792      -1.06644878
O       -1.01122263       0.87174295      -0.66816791
O       -1.11816307       0.81879979       2.08060790
C        0.29063064      -0.75541103      -1.85139432
C       -0.01354934       0.12011664       2.33064658
O        0.75957264      -0.32886151       1.50882837
H        1.02675860      -1.37487911      -1.33650497
H        0.98580143       1.07553373      -0.86635316
H       -1.19918227       0.91074721       1.09866070
H       -0.63462156      -1.30748088      -1.98629608
H        0.11895157      -0.00011195       3.41843766
H        0.71820823      -0.50512421      -2.82482110
12
Properties=species:S:1:pos:R:3 relative_energy_eV=0.006269369452638784 branch=left pbc="F F F"
C        0.07657334       0.49130346      -1.06614942
O       -1.00958722       0.88069859      -0.67103336
O       -1.11713996       0.81734506       2.07807683
C        0.28955325      -0.75779065      -1.84218859
C       -0.01472259       0.11489711       2.32391873
O        0.76626060      -0.31564338       1.49962121
H        1.03883553      -1.36832030      -1.33096745
H        0.98692898       1.08547893      -0.87734464
H       -1.19041008       0.92261900       1.09629685
H       -0.63529816      -1.31859184      -1.95686075
H        0.10772841      -0.02792981       3.41036414
H        0.69913961      -0.51280668      -2.82653897
12
Properties=species:S:1:pos:R:3 relative_energy_eV=0.0073748354570852825 branch=left pbc="F F F"
C        0.07921313       0.49248344      -1.06496633
O       -1.00541720       0.88541129      -0.67051203
O       -1.11701237       0.81953940       2.07938040
C        0.28901419      -0.76138848      -1.83584275
C       -0.01687967       0.11267267       2.31883577
O        0.77231776      -0.29675057       1.49163418
H        1.05456628      -1.36240363      -1.33742577
H        0.98910146       1.09040569      -0.88569277
H       -1.18386168       0.94022001       1.09876901
H       -0.63300321      -1.33175858      -1.92844214
H        0.09455465      -0.05889417       3.40202375
H        0.67526825      -0.51827763      -2.83056696
12
Properties=species:S:1:pos:R:3 relative_energy_eV=0.008609701506429701 branch=left pbc="F F F"
C        0.08100862       0.49144528      -1.06743804
O       -1.00117257       0.88692471      -0.67050451
O       -1.11386529       0.82877181       2.08220684
C        0.28892628      -0.76524242      -1.83507214
C       -0.02117592       0.11100609       2.32209556
O        0.78009195      -0.28129246       1.49859295
H        1.07361932      -1.35480750      -1.35676239
H        0.99041741       1.09249451      -0.89585957
H       -1.17023603       0.96093571       1.10317647
H       -0.62730275      -1.34671055      -1.90523773
H        0.06971905      -0.09006765       3.40100966
H        0.64783156      -0.52219814      -2.83901289
12
Properties=species:S:1:pos:R:3 relative_energy_eV=0.009469819755395292 branch=left pbc="F F F"
C        0.08164383       0.48716413      -1.06988759
O       -0.99826879       0.88215922      -0.66855796
O       -1.11139901       0.83809472       2.08672301
C        0.28940634      -0.76723786      -1.84041336
C       -0.02447983       0.11259882       2.32937148
O        0.78280483      -0.27445869       1.50947575
H        1.08348341      -1.35199625      -1.37525644
H        0.99125198       1.08812337      -0.89880966
H       -1.16339092       0.97254376       1.10820457
H       -0.62275458      -1.35419531      -1.90265929
H        0.05447203      -0.10181341       3.40641841
H        0.63509248      -0.51972316      -2.84741472
12
Properties=species:S:1:pos:R:3 relative_energy_eV=0.00997338547858817 branch=left pbc="F F F"
C        0.08110620       0.48217792      -1.07247754
O       -0.99773442       0.87415029      -0.66649200
O       -1.10849235       0.84767956       2.09083742
C        0.29033625      -0.76764619      -1.84883605
C       -0.02723992       0.11493781       2.33875123
O        0.78260178      -0.27523958       1.52324248
H        1.08788849      -1.35161708      -1.39071353
H        0.99064255       1.08211181      -0.89839034
H       -1.15767722       0.97830528       1.11223889
H       -0.61938189      -1.35702504      -1.91172993
H        0.04378258      -0.10180658       3.41571754
H        0.63202996      -0.51476888      -2.85495385
12
Properties=species:S:1:pos:R:3 relative_energy_eV=0.010155511630728142 branch=left pbc="F F F"
C        0.08091449       0.47911912      -1.07355583
O       -0.99745383       0.86906541      -0.66489123
O       -1.10733718       0.85228977       2.09325357
C        0.29082201      -0.76757718      -1.85386254
C       -0.02845590       0.11664959       2.34370122
O        0.78168709      -0.27628507       1.53007259
H        1.08861923      -1.35218145      -1.39792980
H        0.99063831       1.07783341      -0.89706556
H       -1.15637669       0.97984218       1.11438855
H       -0.61802930      -1.35734855      -1.91902348
H        0.04040490      -0.09908816       3.42097673
H        0.63242899      -0.51105975      -2.85886982
12
Properties=species:S:1:pos:R:3 relative_energy_eV=0.010369467381678987 branch=left pbc="F F F"
C        0.08012135       0.47349257      -1.07478988
O       -0.99848039       0.85871125      -0.66171263
O       -1.10489829       0.86095715       2.09707852
C        0.29174188      -0.76691730      -1.86309234
C       -0.03035772       0.11962535       2.35193770
O        0.77907936      -0.28016401       1.54146297
H        1.08890492      -1.35390126      -1.40897824
H        0.99008645       1.06967670      -0.89307179
H       -1.15376508       0.98166801       1.11767887
H       -0.61606677      -1.35699449      -1.93453342
H        0.03583333      -0.09132840       3.43014791
H        0.63566327      -0.50356626      -2.86493312
12
Properties=species:S:1:pos:R:3 relative_energy_eV=0.010473846716195112 branch=left pbc="F F F"
C        0.08005802       0.47116019      -1.07513305
O       -0.99897293       0.85440766      -0.66050432
O       -1.10419666       0.86428415       2.09903031
C        0.29211143      -0.76673567      -1.86670007
C       -0.03103951       0.12086125       2.35493985
O        0.77780831      -0.28116256       1.54524818
H        1.08886153      -1.35480053      -1.41306645
H        0.99020861       1.06607466      -0.89134910
H       -1.15366310       0.98250157       1.11941653
H       -0.61529672      -1.35679489      -1.94081591
H        0.03492294      -0.08828231       3.43349213
H        0.63706050      -0.50025420      -2.86736346
12
Properties=species:S:1:pos:R:3 relative_energy_eV=0.010563218425886589 branch=left pbc="F F F"
C        0.07962847       0.46845726      -1.07388179
O       -1.00072042       0.84990303      -0.65940520
O       -1.10338022       0.86781146       2.10060041
C        0.29246405      -0.76677420      -1.86948418
C       -0.03112891       0.12245769       2.35640367
O        0.77666616      -0.28154806       1.54673800
H        1.08933019      -1.35683131      -1.41683514
H        0.98994586       1.06234352      -0.88693993
H       -1.15377344       0.98421277       1.12078736
H       -0.61467593      -1.35720030      -1.94672246
H        0.03501249      -0.08550093       3.43513788
H        0.63849420      -0.49607161      -2.86920391
12
Properties=species:S:1:pos:R:3 relative_energy_eV=0.010671355796148418 branch=left pbc="F F F"
C        0.08212917       0.47012535      -1.07640868
O       -0.99581154       0.85138251      -0.65724585
O       -1.10554038       0.86385505       2.10059150
C        0.29103926      -0.76643740      -1.87248315
C       -0.03171224       0.12254878       2.36076758
O        0.77897914      -0.28086864       1.55447892
H        1.08789664      -1.35856202      -1.42011694
H        0.99348527       1.06438270      -0.89295553
H       -1.15326679       0.97981274       1.12096625
H       -0.61708059      -1.35609363      -1.94782653
H        0.03185516      -0.08193713       3.44051593
H        0.63588941      -0.49694899      -2.87308877
12
Properties=species:S:1:pos:R:3 relative_energy_eV=0.010965040341034182 branch=left pbc="F F F"
C        0.08149482       0.47028316      -1.07894645
O       -0.99703045       0.84772392      -0.65705818
O       -1.10432333       0.86449238       2.10025866
C        0.29068538      -0.76616912      -1.87491124
C       -0.03164289       0.12195412       2.36281145
O        0.78044874      -0.28261476       1.55812341
H        1.08636474      -1.35575645      -1.41898279
H        0.99458769       1.06767631      -0.89486598
H       -1.15027989       0.98216920       1.12071717
H       -0.61747501      -1.35534933      -1.94717427
H        0.02736824      -0.08402809       3.44284532
H        0.63766448      -0.49912200      -2.87562236
12
Properties=species:S:1:pos:R:3 relative_energy_eV=0.011408356334868586 branch=left pbc="F F F"
C        0.08107977       0.47038406      -1.08209682
O       -0.99798635       0.84130837      -0.65432700
O       -1.10190439       0.86634217       2.09971869
C        0.29300321      -0.76485696      -1.87666920
C       -0.03274775       0.12073874       2.36645577
O        0.77889437      -0.29006941       1.56294036
H        1.08557238      -1.35663960      -1.41543064
H        0.98910744       1.07343928      -0.90634626
H       -1.14580482       0.98684248       1.12042213
H       -0.61749127      -1.35029116      -1.94812918
H        0.02223163      -0.08579915       3.44784646
H        0.64390831      -0.50013950      -2.87718961
12
Properties=species:S:1:pos:R:3 relative_energy_eV=0.012472723057726398 branch=left pbc="F F F"
C        0.07698104       0.46970507      -1.08644825
O       -0.99919324       0.83461727      -0.65023491
O       -1.09764708       0.87240518       2.09889410
C        0.29546403      -0.76359202      -1.87915243
C       -0.03437713       0.11877297       2.36921326
O        0.77568071      -0.30264548       1.56688550
H        1.08293808      -1.34974124      -1.40863393
H        0.98153905       1.07865719      -0.91430376
H       -1.13879071       0.99165411       1.11938757
H       -0.61480389      -1.34906805      -1.95278504
H        0.01543398      -0.08642789       3.45144640
H        0.65463767      -0.50307777      -2.87707391
12
Properties=species:S:1:pos:R:3 relative_energy_eV=0.01744894739931624 branch=left pbc="F F F"
C        0.09418137       0.50877680      -1.11163276
O       -0.97969041       0.89522087      -0.68305237
O       -1.10873363       0.82947712       2.08743674
C        0.28267707      -0.76361537      -1.85913802
C       -0.03416573       0.09932742       2.37746043
O        0.81017867      -0.28603227       1.60016639
H        1.08327412      -1.34429988      -1.39519207
H        1.01174054       1.12265335      -0.97608253
H       -1.13231323       0.95348956       1.10722066
H       -0.63256389      -1.34705896      -1.88792407
H       -0.00821418      -0.11470620       3.45675252
H        0.61149097      -0.54197302      -2.87882086
12
Properties=species:S:1:pos:R:3 relative_energy_eV=0.022810890050095622 branch=left pbc="F F F"
C        0.10274877       0.47994501      -1.07335699
O       -0.97202762       0.86579342      -0.65241222
O       -1.12092265       0.82071468       2.08156548
C        0.27485131      -0.76683645      -1.87386855
C       -0.02559112       0.12779782       2.36600072
O        0.81385760      -0.24015053       1.57817143
H        1.08195363      -1.37836298      -1.44536620
H        1.03351965       1.07533581      -0.89072024
H       -1.15501963       0.95415346       1.10382362
H       -0.64161005      -1.34077878      -1.91219110
H        0.02132801      -0.08009873       3.44854823
H        0.58477451      -0.50625341      -2.89299918
12
Properties=species:S:1:pos:R:3 relative_energy_eV=0.02214184710101108 branch=left pbc="F F F"
C        0.07051674       0.45346817      -1.07461970
O       -1.00649781       0.79468147      -0.62000075
O       -1.09359942       0.88800564       2.10306960
C        0.30443196      -0.76294066      -1.88471289
C       -0.03524533       0.12727051       2.36028608
O        0.75490683      -0.30852279       1.53730233
H        1.08192944      -1.35559500      -1.40307160
H        0.96192459       1.07499655      -0.90603494
H       -1.13995720       1.01886992       1.12460273
H       -0.60988979      -1.33891441      -1.96915628
H        0.02685191      -0.08519499       3.44458971
H        0.68249084      -0.49486509      -2.87505969
12
Properties=species:S:1:pos:R:3 relative_energy_eV=0.03812237475904112 branch=left pbc="F F F"
C        0.07671166       0.47545848      -1.08413013
O       -0.99727041       0.83854165      -0.63610629
O       -1.09733990       0.85066931       2.06808146
C        0.29366594      -0.75637940      -1.84423635
C       -0.02907272       0.10941423       2.33250914
O        0.78134198      -0.29151654       1.51991084
H        1.08569438      -1.33413028      -1.36867298
H        0.97530824       1.09065838      -0.94028703
H       -1.13154170       1.00489669       1.09386326
H       -0.61719692      -1.31531459      -1.87225605
H        0.01836579      -0.12919306       3.41100332
H        0.63919554      -0.53184557      -2.84248535
12
Properties=species:S:1:pos:R:3 relative_energy_eV=0.023224201611810713 branch=left pbc="F F F"
C        0.09274956       0.51780733      -1.11538212
O       -0.97618638       0.89521426      -0.66193479
O       -1.10733716       0.82999215       2.07736875
C        0.28414222      -0.76445290      -1.84635420
C       -0.03527890       0.09238516       2.36570847
O        0.81390540      -0.28838929       1.58273699
H        1.07889967      -1.34143976      -1.36786568
H        0.99760559       1.16007467      -1.00872830
H       -1.12142409       0.96080424       1.09433042
H       -0.63185810      -1.34090236      -1.85173889
H       -0.01719553      -0.14612132       3.44160626
H        0.61983900      -0.56371278      -2.87255338
12
Properties=species:S:1:pos:R:3 relative_energy_eV=0.02659146570294979 branch=left pbc="F F F"
C        0.10409514       0.54749930      -1.14051758
O       -0.95021728       0.94346985      -0.67397898
O       -1.11827389       0.79666224       2.06976331
C        0.27764434      -0.76162158      -1.82795554
C       -0.03799172       0.07409702       2.36934938
O        0.82885700      -0.28766808       1.59864461
H        1.07587129      -1.32548294      -1.34181691
H        1.00918610       1.19149826      -1.08130403
H       -1.12028759       0.93235973       1.08747439
H       -0.64008810      -1.33521402      -1.80278870
H       -0.03077485      -0.16637979       3.44397445
H        0.59984013      -0.59796055      -2.86365153
12
Properties=species:S:1:pos:R:3 relative_energy_eV=0.030219694828701904 branch=left pbc="F F F"
C        0.11532400       0.58656167      -1.17283596
O       -0.92614567       1.00755592      -0.70071965
O       -1.13484763       0.75022451       2.06893068
C        0.27332708      -0.75812954      -1.79586505
C       -0.04067015       0.04719714       2.36312255
O        0.83674391      -0.28245628       1.59374504
H        1.07904413      -1.29853453      -1.29663577
H        1.02645520       1.22716700      -1.17311644
H       -1.13034662       0.91199907       1.09364865
H       -0.64621807      -1.33411464      -1.73535905
H       -0.03256685      -0.20053970       3.43544613
H        0.57776020      -0.64567115      -2.84316931
12
Properties=species:S:1:pos:R:3 relative_energy_eV=0.03288919971782889 branch=left pbc="F F F"
C        0.12674626       0.62035393      -1.20234837
O       -0.89491558       1.06324229      -0.71248982
O       -1.14950785       0.70687933       2.06074635
C        0.26982217      -0.75194330      -1.76617488
C       -0.04420846       0.02269635       2.35756499
O        0.84276420      -0.28562201       1.59198732
H        1.07927485      -1.27248344      -1.25260399
H        1.03330257       1.25716498      -1.26826493
H       -1.13568174       0.88957559       1.09142793
H       -0.65262008      -1.32283689      -1.67231060
H       -0.03737797      -0.22685440       3.42937707
H        0.56026022      -0.68891291      -2.81972028
12
Properties=species:S:1:pos:R:3 relative_energy_eV=0.03474992596784432 branch=left pbc="F F F"
C        0.13118880       0.64482606      -1.22275019
O       -0.87920222       1.10279015      -0.72404456
O       -1.15694570       0.67772991       2.05137549
C        0.26848555      -0.74710329      -1.73871142
C       -0.04582020       0.00245134       2.34549517
O        0.84578829      -0.28989753       1.57969063
H        1.08114616      -1.24630124      -1.21164864
H        1.03490002       1.27868166      -1.33329593
H       -1.13687533       0.88153197       1.08820437
H       -0.65425215      -1.31479624      -1.61709146
H       -0.03977074      -0.25466165       3.41574994
H        0.54921533      -0.72399159      -2.79578347
12
Properties=species:S:1:pos:R:3 relative_energy_eV=0.035783383285888704 branch=left pbc="F F F"
C        0.13993902       0.67367396      -1.24543539
O       -0.85116151       1.15487702      -0.73127559
O       -1.16685800       0.63465732       2.02711922
C        0.26218130      -0.73842360      -1.70150390
C       -0.04599372      -0.02123988       2.32773471
O        0.85759820      -0.29132403       1.56849034
H        1.08153678      -1.21500205      -1.16427965
H        1.03890600       1.29924085      -1.41358141
H       -1.13530301       0.86154720       1.07044005
H       -0.65981121      -1.29255319      -1.53545046
H       -0.04654229      -0.28716397       3.39609318
H        0.52336527      -0.76703008      -2.76116221
12
Properties=species:S:1:pos:R:3 relative_energy_eV=0.0363986506654328 branch=left pbc="F F F"
C        0.14374027       0.69023804      -1.26086224
O       -0.83431879       1.18264128      -0.73288387
O       -1.17045544       0.61333116       2.01277821
C        0.25973632      -0.73258739      -1.68108433
C       -0.04721583      -0.03586291       2.31954333
O        0.86265373      -0.29900512       1.56519433
H        1.08068524      -1.19503781      -1.13375813
H        1.03586191       1.31340522      -1.46677271
H       -1.13124043       0.85006787       1.05878715
H       -0.66172323      -1.27751421      -1.49048092
H       -0.05386512      -0.30586778       3.38703898
H        0.51399764      -0.79254879      -2.74031159
12
Properties=species:S:1:pos:R:3 relative_energy_eV=0.03674408249207772 branch=left pbc="F F F"
C        0.14532804       0.69986011      -1.27135858
O       -0.82402090       1.19743393      -0.73223730
O       -1.17138464       0.60314056       2.00444081
C        0.25888629      -0.72881129      -1.67037793
C       -0.04859855      -0.04464275       2.31670233
O        0.86477544      -0.30735919       1.56617936
H        1.07937526      -1.18278250      -1.11473385
H        1.03117704       1.32333874      -1.50184866
H       -1.12671674       0.84269928       1.05103749
H       -0.66226330      -1.26755642      -1.46609122
H       -0.06053646      -0.31645243       3.38378665
H        0.51183447      -0.80760847      -2.72831126
12
Properties=species:S:1:pos:R:3 relative_energy_eV=0.03691001843981212 branch=left pbc="F F F"
C        0.14588557       0.70439910      -1.27709728
O       -0.81885526       1.20339789      -0.73101420
O       -1.17102913       0.59974989       2.00067695
C        0.25885003      -0.72684852      -1.66609715
C       -0.04966524      -0.04880787       2.31665839
O        0.86533461      -0.31323912       1.56851441
H        1.07818215      -1.17703819      -1.10537561
H        1.02745976       1.32915419      -1.52058342
H       -1.12349915       0.83855021       1.04687590
H       -0.66230071      -1.26219539      -1.45589554
H       -0.06509499      -0.32116997       3.38361598
H        0.51258818      -0.81469263      -2.72309081
12
Properties=species:S:1:pos:R:3 relative_energy_eV=0.03698761679879681 branch=left pbc="F F F"
C        0.14626146       0.70636513      -1.27962140
O       -0.81617075       1.20592241      -0.72986325
O       -1.17087441       0.59842918       1.99873620
C        0.25864392      -0.72594596      -1.66435535
C       -0.05011444      -0.05044604       2.31690831
O        0.86588102      -0.31579585       1.57014446
H        1.07742599      -1.17474014      -1.10149180
H        1.02576391       1.33189738      -1.52923867
H       -1.12178918       0.83599686       1.04441376
H       -0.66248479      -1.25951626      -1.45133549
H       -0.06752197      -0.32323307       3.38374614
H        0.51283498      -0.81767406      -2.72085536
12
Properties=species:S:1:pos:R:3 relative_energy_eV=0.03701803655894764 branch=left pbc="F F F"
C        0.14625374       0.70709842      -1.28082459
O       -0.81525722       1.20635272      -0.72910252
O       -1.17029674       0.59876171       1.99804948
C        0.25874436      -0.72551566      -1.66380237
C       -0.05043433      -0.05110483       2.31738212
O        0.86584720      -0.31760804       1.57133070
H        1.07696702      -1.17384604      -1.09972633
H        1.02443621       1.33345744      -1.53337808
H       -1.12061600       0.83484888       1.04321112
H       -0.66242136      -1.25836607      -1.45008926
H       -0.06907491      -0.32411276       3.38417948
H        0.51370773      -0.81870620      -2.72004225
12
Properties=species:S:1:pos:R:3 relative_energy_eV=0.03703641425272508 branch=left pbc="F F F"
C        0.14642549       0.70744674      -1.28127831
O       -0.81449213       1.20675462      -0.72848297
O       -1.17019157       0.59873036       1.99741467
C        0.25854485      -0.72530149      -1.66341652
C       -0.05050561      -0.05132965       2.31757147
O        0.86622558      -0.31813207       1.57208392
H        1.07669245      -1.17350917      -1.09912000
H        1.02409107       1.33407681      -1.53537089
H       -1.12005991       0.83389102       1.04220621
H       -0.66259642      -1.25776710      -1.44918203
H       -0.06989560      -0.32457869       3.38429487
H        0.51361750      -0.81902181      -2.71953295
12
Properties=species:S:1:pos:R:3 relative_energy_eV=0.03704412369552301 branch=left pbc="F F F"
C        0.14631289       0.70755693      -1.28165340
O       -0.81443972       1.20648862      -0.72816428
O       -1.16968355       0.59942259       1.99721108
C        0.25864911      -0.72515791      -1.66331728
C       -0.05064731      -0.05150101       2.31792954
O        0.86612648      -0.31914767       1.57284279
H        1.07653303      -1.17328307      -1.09864885
H        1.02341973       1.33467568      -1.53668610
H       -1.11934344       0.83354378       1.04168248
H       -0.66254488      -1.25759896      -1.44935473
H       -0.07072983      -0.32476056       3.38465577
H        0.51420319      -0.81897885      -2.71930956
12
Properties=species:S:1:pos:R:3 relative_energy_eV=0.03705362221990072 branch=left pbc="F F F"
C        0.14636175       0.70768570      -1.28179157
O       -0.81436748       1.20669223      -0.72823054
O       -1.16930139       0.59964826       1.99640496
C        0.25845294      -0.72503902      -1.66280606
C       -0.05060173      -0.05173363       2.31794626
O        0.86680796      -0.31962371       1.57370297
H        1.07652228      -1.17311690      -1.09847673
H        1.02334023       1.33492224      -1.53720587
H       -1.11865200       0.83315371       1.04061128
H       -0.66272464      -1.25745968      -1.44872971
H       -0.07157879      -0.32515599       3.38458500
H        0.51359656      -0.81871363      -2.71882252
12
Properties=species:S:1:pos:R:3 relative_energy_eV=0.03706245678222331 branch=left pbc="F F F"
C        0.14611624       0.70775369      -1.28213690
O       -0.81487738       1.20654911      -0.72875642
O       -1.16864328       0.60031340       1.99599858
C        0.25860189      -0.72496766      -1.66271722
C       -0.05067884      -0.05207233       2.31822258
O        0.86698652      -0.32072058       1.57467941
H        1.07651979      -1.17275879      -1.09824107
H        1.02288454       1.33532728      -1.53747498
H       -1.11771649       0.83327808       1.04004678
H       -0.66269559      -1.25757682      -1.44872037
H       -0.07245690      -0.32534600       3.38480997
H        0.51381519      -0.81851981      -2.71852289
12
Properties=species:S:1:pos:R:3 relative_energy_eV=0.03709461003745673 branch=left pbc="F F F"
C        0.14483164       0.70796111      -1.28201665
O       -0.81815019       1.20676813      -0.73218959
O       -1.16658092       0.60188637       1.99425117
C        0.25884496      -0.72493524      -1.66161459
C       -0.05026995      -0.05318230       2.31750312
O        0.86867113      -0.32267969       1.57587097
H        1.07745985      -1.17215208      -1.09767163
H        1.02209044       1.33582296      -1.53417710
H       -1.11518197       0.83525094       1.03855355
H       -0.66200300      -1.25796337      -1.44731147
H       -0.07458857      -0.32686454       3.38377518
H        0.51273226      -0.81865268      -2.71778548
12
Properties=species:S:1:pos:R:3 relative_energy_eV=0.03713565262114571 branch=left pbc="F F F"
C        0.14371316       0.70805059      -1.28232319
O       -0.82075911       1.20638750      -0.73470083
O       -1.16513563       0.60350865       1.99406997
C        0.25940282      -0.72494260      -1.66169247
C       -0.05021820      -0.05393547       2.31759437
O        0.86905999      -0.32441352       1.57664255
H        1.07789252      -1.17136471      -1.09714907
H        1.02109854       1.33636421      -1.53252741
H       -1.11361504       0.83699914       1.03842944
H       -0.66136232      -1.25837402      -1.44717151
H       -0.07585074      -0.32797202       3.38367393
H        0.51362970      -0.81904818      -2.71765831
12
Properties=species:S:1:pos:R:3 relative_energy_eV=0.03718775199195079 branch=left pbc="F F F"
C        0.14013977       0.70684143      -1.28298085
O       -0.82623626       1.20117022      -0.73562221
O       -1.16194359       0.61126731       1.99776875
C        0.26203140      -0.72522710      -1.66355169
C       -0.05092309      -0.05452069       2.31852056
O        0.86450528      -0.33112897       1.57524167
H        1.07830137      -1.16961373      -1.09420673
H        1.01523110       1.33831163      -1.53258331
H       -1.11211792       0.84335264       1.04166560
H       -0.65762814      -1.26134209      -1.45419987
H       -0.07651687      -0.32955950       3.38477816
H        0.52301267      -0.81829156      -2.71764262
12
Properties=species:S:1:pos:R:3 relative_energy_eV=0.03724840273571317 branch=left pbc="F F F"
C        0.13740370       0.70624505      -1.28380332
O       -0.83021512       1.19810610      -0.73622997
O       -1.15931720       0.61725831       2.00015876
C        0.26351465      -0.72546797      -1.66504330
C       -0.05157962      -0.05469316       2.31971812
O        0.86223599      -0.33562669       1.57523509
H        1.07886831      -1.16731953      -1.09167707
H        1.01131044       1.33968797      -1.53292312
H       -1.10991384       0.84617324       1.04361839
H       -0.65612945      -1.26358988      -1.45879753
H       -0.07839245      -0.33114030       3.38550655
H        0.53007032      -0.81837356      -2.71857515
12
Properties=species:S:1:pos:R:3 relative_energy_eV=0.037383361954198335 branch=left pbc="F F F"
C        0.13241019       0.70412722      -1.28612175
O       -0.83631983       1.18886218      -0.73430905
O       -1.15473024       0.63003378       2.00735323
C        0.26770675      -0.72609409      -1.66903887
C       -0.05394156      -0.05489598       2.32279041
O        0.85302774      -0.34718111       1.57411967
H        1.07882958      -1.16400695      -1.08640462
H        1.00168154       1.34333016      -1.53731888
H       -1.10774639       0.85401030       1.04952005
H       -0.65139238      -1.26896714      -1.47257639
H       -0.07920642      -0.33188428       3.38856710
H        0.54753680      -0.81607449      -2.71939349
12
Properties=species:S:1:pos:R:3 relative_energy_eV=0.037581545882858336 branch=left pbc="F F F"
C        0.12843371       0.70256850      -1.28879958
O       -0.84013383       1.18078457      -0.73082105
O       -1.15091138       0.64069864       2.01311339
C        0.27161881      -0.72659958      -1.67258529
C       -0.05681393      -0.05533791       2.32631834
O        0.84402095      -0.35946036       1.57505282
H        1.07861044      -1.16193396      -1.08169132
H        0.99253828       1.34775174      -1.54338571
H       -1.10447454       0.86012272       1.05438474
H       -0.64740360      -1.27373322      -1.48629964
H       -0.08042172      -0.32998399       3.39226493
H        0.56279263      -0.81361753      -2.72036425
12
Properties=species:S:1:pos:R:3 relative_energy_eV=0.03771939551916148 branch=left pbc="F F F"
C        0.12700448       0.70200251      -1.29000159
O       -0.84142420       1.17676314      -0.72894485
O       -1.15006157       0.64402482       2.01566968
C        0.27370464      -0.72676374      -1.67416093
C       -0.05855954      -0.05604489       2.32798529
O        0.83940006      -0.36628550       1.57613538
H        1.07840725      -1.16171559      -1.07978328
H        0.98809551       1.35027748      -1.54653651
H       -1.10200172       0.86443880       1.05633734
H       -0.64569356      -1.27556387      -1.49268664
H       -0.08043098      -0.32753858       3.39411624
H        0.56941550      -0.81233497      -2.72094278
12
Properties=species:S:1:pos:R:3 relative_energy_eV=0.03802828302104899 branch=left pbc="F F F"
C        0.12577439       0.69986578      -1.28189451
O       -0.84761213       1.17192357      -0.72576616
O       -1.14972680       0.64552320       2.01303639
C        0.27414628      -0.72793563      -1.66928476
C       -0.05622363      -0.05532926       2.31734452
O        0.84108319      -0.35799495       1.55991479
H        1.08083430      -1.16458246      -1.07856236
H        0.98895136       1.34988448      -1.53099930
H       -1.10367876       0.87436586       1.05500755
H       -0.64535680      -1.27820841      -1.48670643
H       -0.07530449      -0.33419434       3.38280260
H        0.56496894      -0.81205824      -2.71770496
12
Properties=species:S:1:pos:R:3 relative_energy_eV=0.0383402431380091 branch=left pbc="F F F"
C        0.12247590       0.70166584      -1.29581828
O       -0.84685126       1.16440803      -0.72438259
O       -1.14146519       0.65964036       2.02505811
C        0.28181235      -0.72635821      -1.68096924
C       -0.06331012      -0.05913737       2.33669906
O        0.82625258      -0.38580241       1.58103393
H        1.07637649      -1.16345890      -1.07455295
H        0.97340617       1.36213103      -1.56277892
H       -1.09711384       0.87253341       1.06457043
H       -0.63831639      -1.27919381      -1.51550277
H       -0.08611619      -0.32334149       3.40629075
H        0.59070545      -0.81182685      -2.72246024
12
Properties=species:S:1:pos:R:3 relative_energy_eV=0.03894497940746078 branch=left pbc="F F F"
C        0.12385358       0.70504385      -1.30934471
O       -0.83665707       1.16214482      -0.72025566
O       -1.14144443       0.66419733       2.03472077
C        0.28783514      -0.72423878      -1.69270215
C       -0.06949842      -0.06221804       2.35649249
O        0.81557938      -0.40967052       1.60596987
H        1.07117578      -1.16366751      -1.07371336
H        0.96063056       1.37265582      -1.59710493
H       -1.09243642       0.86450190       1.07227960
H       -0.63637603      -1.27494325      -1.53937170
H       -0.09484939      -0.30805080       3.42988482
H        0.61004336      -0.81449516      -2.72966779
12
Properties=species:S:1:pos:R:3 relative_energy_eV=0.03977181375921646 branch=left pbc="F F F"
C        0.12681739       0.70552731      -1.30715676
O       -0.83698949       1.16678296      -0.72342308
O       -1.14812228       0.65700818       2.03672666
C        0.28537885      -0.72499169      -1.69024688
C       -0.06688418      -0.06193050       2.35267185
O        0.82471489      -0.39463601       1.59931247
H        1.07320897      -1.16675661      -1.07577826
H        0.96947239       1.37032893      -1.59310461
H       -1.09774786       0.86521026       1.07380130
H       -0.63969873      -1.27143694      -1.52994076
H       -0.09192801      -0.31533412       3.42524376
H        0.59963407      -0.81851212      -2.73091843
12
Properties=species:S:1:pos:R:3 relative_energy_eV=0.041691421167342924 branch=left pbc="F F F"
C        0.11935828       0.70753706      -1.34350045
O       -0.83136614       1.14586142      -0.72538861
O       -1.12624790       0.69557393       2.06777784
C        0.30305432      -0.72147604      -1.72015678
C       -0.08389649      -0.06757862       2.39964429
O        0.78155276      -0.46606290       1.65440539
H        1.06079483      -1.15604186      -1.06528758
H        0.92978427       1.39172700      -1.66569804
H       -1.08965834       0.85221977       1.09672619
H       -0.62383367      -1.27080448      -1.59658328
H       -0.11233115      -0.28723882       3.47749134
H        0.67064552      -0.81245674      -2.74224326
12
Properties=species:S:1:pos:R:3 relative_energy_eV=0.04291859824843414 branch=left pbc="F F F"
C        0.11836382       0.70795718      -1.35196246
O       -0.82885999       1.14237755      -0.72547294
O       -1.12460711       0.70288262       2.07548052
C        0.30634909      -0.72101737      -1.72678226
C       -0.08748811      -0.06820466       2.41002477
O        0.77182031      -0.48039829       1.66688052
H        1.05839776      -1.15365853      -1.06325758
H        0.92255438       1.39563592      -1.68254610
H       -1.08955143       0.84847760       1.10258512
H       -0.62071650      -1.27013380      -1.61078450
H       -0.11423261      -0.28130391       3.48813356
H        0.68582674      -0.81135455      -2.74511166
12
Properties=species:S:1:pos:R:3 relative_energy_eV=0.047600963906006655 branch=left pbc="F F F"
C        0.13105953       0.71216664      -1.35438669
O       -0.80455723       1.16203979      -0.72146630
O       -1.14404438       0.68152471       2.07810331
C        0.29666973      -0.72079972      -1.72709940
C       -0.08218747      -0.06506151       2.41122844
O        0.80298130      -0.44576470       1.66779776
H        1.05662452      -1.15560206      -1.07156139
H        0.94369836       1.38723241      -1.69350420
H       -1.10998732       0.82617944       1.10363853
H       -0.63773733      -1.25957820      -1.59251453
H       -0.11763991      -0.29080127       3.48952590
H        0.66297640      -0.82027576      -2.75257438
12
Properties=species:S:1:pos:R:3 relative_energy_eV=0.04560021420729754 branch=left pbc="F F F"
C        0.11412327       0.70921374      -1.37211163
O       -0.81579465       1.13620618      -0.71843038
O       -1.11284185       0.72083008       2.08775581
C        0.31372531      -0.71712854      -1.74412262
C       -0.09608364      -0.07017697       2.43861812
O        0.75055199      -0.52338724       1.70281073
H        1.04853166      -1.14503593      -1.05885558
H        0.89984375       1.40438493      -1.72912658
H       -1.08313494       0.83412810       1.10930564
H       -0.61303255      -1.27428112      -1.65148466
H       -0.13147484      -0.25927132       3.52320129
H        0.72344294      -0.80422210      -2.75037326
12
Properties=species:S:1:pos:R:3 relative_energy_eV=0.0469457766666892 branch=left pbc="F F F"
C        0.11036203       0.71229700      -1.38804707
O       -0.80533327       1.13174507      -0.71089032
O       -1.10656841       0.72868528       2.09169490
C        0.32203233      -0.71349162      -1.75798486
C       -0.10746385      -0.07511927       2.46510910
O        0.72515673      -0.57382027       1.74069265
H        1.04122401      -1.14217386      -1.05645377
H        0.87541495       1.41691793      -1.77000070
H       -1.06400624       0.82980552       1.11282427
H       -0.60352611      -1.27798083      -1.69026377
H       -0.14294882      -0.22698291       3.55540255
H        0.75351328      -0.79862219      -2.75489616
12
Properties=species:S:1:pos:R:3 relative_energy_eV=0.04778970689949347 branch=left pbc="F F F"
C        0.10463980       0.71266431      -1.39554411
O       -0.80747090       1.12255167      -0.70798454
O       -1.09722527       0.73979549       2.09323570
C        0.32996083      -0.71156354      -1.76526738
C       -0.11476952      -0.07846189       2.47835733
O        0.70171208      -0.61039929       1.75956845
H        1.03789159      -1.14011600      -1.05255337
H        0.85559773       1.42656115      -1.78747374
H       -1.04759643       0.83391340       1.11436454
H       -0.59402341      -1.28267282      -1.71592884
H       -0.14780337      -0.20732310       3.57173414
H        0.77694359      -0.79368951      -2.75532141
12
Properties=species:S:1:pos:R:3 relative_energy_eV=0.04831602541162283 branch=left pbc="F F F"
C        0.09986144       0.71208512      -1.39934720
O       -0.81230945       1.11477481      -0.70714196
O       -1.09043124       0.74793768       2.09440345
C        0.33569285      -0.71076718      -1.76924297
C       -0.11964461      -0.08083509       2.48534476
O        0.68468986      -0.63430058       1.76860134
H        1.03647222      -1.13933107      -1.04937096
H        0.84228689       1.43289870      -1.79579128
H       -1.03626536       0.84069378       1.11622136
H       -0.58617187      -1.28648300      -1.73237866
H       -0.14903420      -0.19559268       3.58048694
H        0.79271027      -0.78982062      -2.75459810
12
Properties=species:S:1:pos:R:3 relative_energy_eV=0.04869350049921195 branch=left pbc="F F F"
C        0.09557030       0.71078641      -1.40107675
O       -0.81932256       1.10565826      -0.70759372
O       -1.08491395       0.75584267       2.09628957
C        0.34103590      -0.71069543      -1.77174903
C       -0.12285707      -0.08239308       2.48831724
O        0.66990133      -0.65147768       1.77106283
H        1.03610849      -1.13900918      -1.04618548
H        0.83133453       1.43813345      -1.79792770
H       -1.02792667       0.84943264       1.11895832
H       -0.57949264      -1.28912226      -1.74411677
H       -0.14772184      -0.18866697       3.58466589
H        0.80614104      -0.78722896      -2.75345770
12
Properties=species:S:1:pos:R:3 relative_energy_eV=0.04896581586217508 branch=left pbc="F F F"
C        0.09154317       0.70874071      -1.40183310
O       -0.82735431       1.09694998      -0.70927297
O       -1.07959302       0.76370249       2.09878228
C        0.34535992      -0.71110442      -1.77332469
C       -0.12483480      -0.08325374       2.48895014
O        0.65841459      -0.66261284       1.76929582
H        1.03617603      -1.13827034      -1.04305255
H        0.82341626       1.44135719      -1.79671810
H       -1.02333373       0.85831083       1.12232711
H       -0.57373596      -1.29146322      -1.75185544
H       -0.14554633      -0.18638819       3.58570957
H        0.81734510      -0.78470856      -2.75182138
12
Properties=species:S:1:pos:R:3 relative_energy_eV=0.0491489358319086 branch=left pbc="F F F"
C        0.08804056       0.70655188      -1.40149177
O       -0.83524740       1.08844179      -0.71132388
O       -1.07536013       0.77135543       2.10172186
C        0.34872248      -0.71178295      -1.77402127
C       -0.12556095      -0.08335055       2.48743509
O        0.64933223      -0.66930485       1.76446246
H        1.03671881      -1.13752073      -1.04014264
H        0.81748171       1.44337540      -1.79247887
H       -1.02135578       0.86673955       1.12569963
H       -0.56889102      -1.29357302      -1.75709548
H       -0.14252735      -0.18702107       3.58440268
H        0.82650382      -0.78265103      -2.74998114
12
Properties=species:S:1:pos:R:3 relative_energy_eV=0.04931673479768506 branch=left pbc="F F F"
C        0.08381646       0.70377243      -1.40113550
O       -0.84438217       1.07989558      -0.71414512
O       -1.06931566       0.78067851       2.10480298
C        0.35200943      -0.71247734      -1.77462305
C       -0.12588035      -0.08315998       2.48551700
O        0.64091706      -0.67494805       1.75858499
H        1.03705802      -1.13562447      -1.03673224
H        0.81217828       1.44437931      -1.78698501
H       -1.02053136       0.87482989       1.12898704
H       -0.56390051      -1.29673337      -1.76146515
H       -0.14023151      -0.18962736       3.58203731
H        0.83611929      -0.77972531      -2.74765663
12
Properties=species:S:1:pos:R:3 relative_energy_eV=0.049584703947402886 branch=left pbc="F F F"
C        0.07926451       0.70064948      -1.39998345
O       -0.85438151       1.07081133      -0.71737631
O       -1.06427963       0.79096060       2.10907159
C        0.35485410      -0.71344456      -1.77475777
C       -0.12517195      -0.08232525       2.48202073
O        0.63362051      -0.67842914       1.74992099
H        1.03780169      -1.13357857      -1.03307901
H        0.80773784       1.44451098      -1.77895129
H       -1.02144316       0.88427665       1.13286802
H       -0.55852332      -1.30109565      -1.76552834
H       -0.13709608      -0.19469134       3.57797471
H        0.84547404      -0.77638468      -2.74499325
12
Properties=species:S:1:pos:R:3 relative_energy_eV=0.04991624925423821 branch=left pbc="F F F"
C        0.07907659       0.69999871      -1.40082434
O       -0.85547455       1.07083503      -0.71886115
O       -1.06704276       0.79094734       2.11201169
C        0.35484432      -0.71393868      -1.77555372
C       -0.12442718      -0.08172850       2.48192548
O        0.63554170      -0.67541362       1.74761472
H        1.03764256      -1.13259401      -1.03303851
H        0.80959450       1.44330125      -1.77824567
H       -1.02340534       0.88616356       1.13537269
H       -0.55882355      -1.30200857      -1.76472193
H       -0.13607299      -0.19792684       3.57714003
H        0.84640374      -0.77637582      -2.74563267
12
Properties=species:S:1:pos:R:3 relative_energy_eV=0.050680536247455166 branch=left pbc="F F F"
C        0.06154329       0.69290645      -1.39633863
O       -0.88720176       1.04534015      -0.72489591
O       -1.03227240       0.82876678       2.11183273
C        0.36439687      -0.71412329      -1.77359905
C       -0.12545722      -0.08205442       2.47565038
O        0.60364829      -0.70591565       1.73765387
H        1.03941355      -1.12538783      -1.02002699
H        0.78724675       1.44820590      -1.75803243
H       -1.01233176       0.90524256       1.13257069
H       -0.53916324      -1.31888922      -1.78335322
H       -0.13767026      -0.20053166       3.56993226
H        0.87570504      -0.76229994      -2.73420720
12
Properties=species:S:1:pos:R:3 relative_energy_eV=0.05103309527839883 branch=left pbc="F F F"
C        0.05779383       0.69151385      -1.39556998
O       -0.89384021       1.04068212      -0.72609298
O       -1.02488408       0.83634859       2.11146813
C        0.36634680      -0.71396581      -1.77330643
C       -0.12590150      -0.08235123       2.47495727
O        0.59652698      -0.71332911       1.73699807
H        1.03968467      -1.12361689      -1.01742453
H        0.78244974       1.44925096      -1.75470934
H       -1.00876133       0.90889795       1.13110851
H       -0.53494242      -1.32266757      -1.78760266
H       -0.13838025      -0.20024792       3.56916714
H        0.88176495      -0.75925511      -2.73180673
12
Properties=species:S:1:pos:R:3 relative_energy_eV=0.053256374507327564 branch=left pbc="F F F"
C        0.06575535       0.69312853      -1.39369389
O       -0.88093226       1.05201737      -0.72166826
O       -1.05141495       0.82083841       2.11929467
C        0.36017869      -0.71582217      -1.77300250
C       -0.12018570      -0.07964071       2.47141561
O        0.62408783      -0.68407340       1.72555617
H        1.04060707      -1.12790493      -1.02377263
H        0.79832538       1.44317288      -1.75539302
H       -1.02531647       0.90963048       1.13848532
H       -0.54504406      -1.32073857      -1.77717684
H       -0.13448860      -0.21377391       3.56461803
H        0.86628483      -0.76557413      -2.73747613
12
Properties=species:S:1:pos:R:3 relative_energy_eV=0.051983064113301225 branch=left pbc="F F F"
C        0.04858456       0.68907223      -1.39311098
O       -0.90956755       1.02810526      -0.72784394
O       -1.00221940       0.85735337       2.10745195
C        0.37070343      -0.71349498      -1.77161177
C       -0.12767087      -0.08332849       2.47291190
O        0.58036468      -0.73253350       1.73614405
H        1.04113736      -1.12037213      -1.01092445
H        0.76907654       1.45411890      -1.74671529
H       -0.99970646       0.91478400       1.12710992
H       -0.52531742      -1.33042590      -1.79859030
H       -0.14367718      -0.19914819       3.56787609
H        0.89614953      -0.75287076      -2.72551076
12
Properties=species:S:1:pos:R:3 relative_energy_eV=0.05508409830144956 branch=left pbc="F F F"
C        0.03699222       0.68427096      -1.38911436
O       -0.93249657       1.00503833      -0.72928144
O       -0.96764414       0.89152935       2.09962272
C        0.37878565      -0.71178725      -1.77055275
C       -0.13749458      -0.08809833       2.47132409
O        0.55261541      -0.76808055       1.74089118
H        1.04182336      -1.11459750      -1.00234120
H        0.74454983       1.46293166      -1.73852839
H       -0.97662952       0.92339771       1.11704989
H       -0.51157283      -1.33590999      -1.81563988
H       -0.15005040      -0.19299069       3.56906057
H        0.91897886      -0.74444389      -2.71530410
12
Properties=species:S:1:pos:R:3 relative_energy_eV=0.05719804716500221 branch=left pbc="F F F"
C        0.03144908       0.68211305      -1.38681692
O       -0.94269098       0.99256881      -0.72961554
O       -0.95068079       0.90707462       2.09482410
C        0.38425811      -0.71080436      -1.76948747
C       -0.14292327      -0.09091385       2.47107913
O        0.53223546      -0.79036386       1.74543607
H        1.04270482      -1.11406117      -0.99748622
H        0.73038616       1.46796646      -1.73499859
H       -0.96740481       0.92943369       1.11171714
H       -0.50335929      -1.33748784      -1.82501174
H       -0.14780621      -0.18565810       3.56739418
H        0.93168907      -0.73860766      -2.70984785
12
Properties=species:S:1:pos:R:3 relative_energy_eV=0.05973562020699319 branch=left pbc="F F F"
C        0.02559211       0.68115371      -1.38927907
O       -0.95377868       0.98492974      -0.73419469
O       -0.93519518       0.91690669       2.09067978
C        0.38903526      -0.70836557      -1.77090344
C       -0.14854459      -0.09361405       2.47635455
O        0.49949208      -0.81886062       1.76083750
H        1.04165982      -1.10920732      -0.99338807
H        0.71718838       1.47216591      -1.73840482
H       -0.94824795       0.92991631       1.10209358
H       -0.49232040      -1.34078206      -1.83658732
H       -0.14300580      -0.17007523       3.57454679
H        0.94598235      -0.73290776      -2.70456854
12
Properties=species:S:1:pos:R:3 relative_energy_eV=0.06361938355075836 branch=left pbc="F F F"
C        0.02254664       0.67702891      -1.38940647
O       -0.95990786       0.97490862      -0.73739650
O       -0.91555269       0.92938154       2.08646499
C        0.39046400      -0.70775306      -1.76988121
C       -0.14712093      -0.09065624       2.47114751
O        0.49301650      -0.81438591       1.74867328
H        1.04038950      -1.10517622      -0.98866934
H        0.71356685       1.47065995      -1.73643761
H       -0.95643649       0.92588318       1.10872348
H       -0.48832410      -1.34091834      -1.83781871
H       -0.14651704      -0.17881764       3.58010355
H        0.95173305      -0.72889506      -2.69831676
12
Properties=species:S:1:pos:R:3 relative_energy_eV=0.06778909851891513 branch=left pbc="F F F"
C        0.01877436       0.68175316      -1.39599407
O       -0.96505540       0.98090948      -0.74725085
O       -0.91231286       0.93342454       2.08541132
C        0.39159457      -0.70858379      -1.77184254
C       -0.15346864      -0.09744817       2.48155020
O        0.51659932      -0.82657668       1.76830614
H        1.04237595      -1.10612258      -0.98863731
H        0.71252835       1.47951660      -1.73312037
H       -0.92933712       0.92104613       1.10078083
H       -0.49456668      -1.33483866      -1.83575304
H       -0.17463058      -0.17479952       3.58246236
H        0.94535615      -0.73702071      -2.70872646
12
Properties=species:S:1:pos:R:3 relative_energy_eV=0.0664489996543125 branch=left pbc="F F F"
C        0.00323660       0.67890094      -1.40072465
O       -0.98711144       0.96006972      -0.75542669
O       -0.86820755       0.95726676       2.07340937
C        0.40644571      -0.70552658      -1.77216238
C       -0.16209136      -0.10046844       2.48799015
O        0.43886235      -0.88556853       1.79014476
H        1.04128003      -1.09992135      -0.97435513
H        0.68326353       1.49056727      -1.73090313
H       -0.90949769       0.92014082       1.09084443
H       -0.46985272      -1.34162388      -1.85835954
H       -0.15855868      -0.14008107       3.58389429
H        0.98008877      -0.72249594      -2.69716539
12
Properties=species:S:1:pos:R:3 relative_energy_eV=0.07074326773545181 branch=left pbc="F F F"
C       -0.01748315       0.67482361      -1.40132284
O       -1.01697483       0.93895901      -0.76200682
O       -0.80575453       0.98394406       2.05406083
C        0.41995860      -0.70210956      -1.76898376
C       -0.16377365      -0.10227097       2.49222571
O        0.36643567      -0.95185676       1.80912493
H        1.04141466      -1.09309845      -0.95828997
H        0.64651645       1.49955590      -1.72899663
H       -0.88345438       0.92323401       1.07480036
H       -0.44212548      -1.35277648      -1.88428132
H       -0.16312007      -0.10574257       3.59164039
H        1.01621842      -0.70140216      -2.68078494
12
Properties=species:S:1:pos:R:3 relative_energy_eV=0.07327055724999809 branch=left pbc="F F F"
C       -0.02813215       0.67088733      -1.40167990
O       -1.03244167       0.92187047      -0.76426098
O       -0.77415046       1.00029458       2.04547151
C        0.43074204      -0.69972387      -1.76791099
C       -0.16718707      -0.10214168       2.49311997
O        0.29982107      -0.99236185       1.81850748
H        1.04068816      -1.08873270      -0.94771904
H        0.62446392       1.50425731      -1.72871534
H       -0.87859340       0.92588285       1.06975743
H       -0.42087699      -1.36061449      -1.90264838
H       -0.14094760      -0.08144905       3.59120524
H        1.04447196      -0.68690937      -2.66794117
12
Properties=species:S:1:pos:R:3 relative_energy_eV=0.07496551693839137 branch=left pbc="F F F"
C       -0.03471703       0.66713244      -1.40013253
O       -1.04202955       0.90671248      -0.76270861
O       -0.75379094       1.01240177       2.03933385
C        0.43866091      -0.69744891      -1.76703357
C       -0.16929119      -0.10046438       2.49129555
O        0.24369106      -1.02099120       1.82208215
H        1.03966313      -1.08524962      -0.94015182
H        0.60784673       1.50689714      -1.72863824
H       -0.87969479       0.92873394       1.06732535
H       -0.40363324      -1.36745409      -1.91767331
H       -0.11602501      -0.06352632       3.58959052
H        1.06717780      -0.67548381      -2.65610357
12
Properties=species:S:1:pos:R:3 relative_energy_eV=0.07573748620598053 branch=left pbc="F F F"
C       -0.03714097       0.66483842      -1.39932397
O       -1.04563975       0.89749668      -0.76110699
O       -0.74670193       1.01855635       2.03751738
C        0.44369155      -0.69606689      -1.76699054
C       -0.17172569      -0.09919096       2.49009189
O        0.20595508      -1.03626427       1.82406973
H        1.03894868      -1.08352626      -0.93621593
H        0.59948373       1.50823171      -1.72905813
H       -0.88405645       0.93037766       1.06762961
H       -0.39313086      -1.37130639      -1.92658970
H       -0.09296251      -0.05263839       3.58618835
H        1.08113707      -0.66924828      -2.64902594
12
Properties=species:S:1:pos:R:3 relative_energy_eV=0.07621863649728766 branch=left pbc="F F F"
C       -0.03779067       0.66370210      -1.39853071
O       -1.04635788       0.89200388      -0.75889945
O       -0.74376830       1.02144118       2.03608413
C        0.44576620      -0.69485065      -1.76746567
C       -0.17329622      -0.09815469       2.48922782
O        0.18677807      -1.04398462       1.82475378
H        1.03752329      -1.08222124      -0.93458384
H        0.59506292       1.50911933      -1.72931225
H       -0.88546729       0.93076778       1.06704173
H       -0.38782389      -1.37352481      -1.93097824
H       -0.08108223      -0.04673739       3.58508343
H        1.08831395      -0.66630154      -2.64523498
12
Properties=species:S:1:pos:R:3 relative_energy_eV=0.07655569941744034 branch=left pbc="F F F"
C       -0.03769539       0.66288123      -1.39848411
O       -1.04575973       0.88733393      -0.75706711
O       -0.74261030       1.02343985       2.03533306
C        0.44782354      -0.69370604      -1.76840343
C       -0.17556473      -0.09741485       2.48902209
O        0.16838853      -1.05048271       1.82647714
H        1.03578213      -1.08117348      -0.93327144
H        0.59192866       1.51007842      -1.73021531
H       -0.88789252       0.93011919       1.06716340
H       -0.38329781      -1.37498266      -1.93430930
H       -0.06800817      -0.04088814       3.58333775
H        1.09476375      -0.66394543      -2.64239699
12
Properties=species:S:1:pos:R:3 relative_energy_eV=0.07694005665689474 branch=left pbc="F F F"
C       -0.03760838       0.66249974      -1.39988575
O       -1.04482603       0.88342717      -0.75651660
O       -0.74004938       1.02505037       2.03438323
C        0.44941155      -0.69250073      -1.77030424
C       -0.17829652      -0.09739159       2.49000971
O        0.15504133      -1.05589382       1.82897902
H        1.03260213      -1.07961433      -0.93203173
H        0.58971301       1.51140919      -1.73135799
H       -0.88832505       0.92819631       1.06679708
H       -0.38000882      -1.37597219      -1.93550734
H       -0.05996189      -0.03583494       3.58382658
H        1.10016601      -0.66211590      -2.64120626
12
Properties=species:S:1:pos:R:3 relative_energy_eV=0.07732739237326314 branch=left pbc="F F F"
C       -0.03802467       0.66162109      -1.40159996
O       -1.04473577       0.87930089      -0.75693553
O       -0.73703025       1.02751597       2.03456942
C        0.45206340      -0.69196774      -1.77180938
C       -0.18104591      -0.09769869       2.49021715
O        0.13896116      -1.06082241       1.83045255
H        1.03021361      -1.07854769      -0.92991430
H        0.58786901       1.51243817      -1.73155392
H       -0.89197168       0.92682871       1.06860922
H       -0.37612334      -1.37676271      -1.93665387
H       -0.04880375      -0.03089028       3.58178455
H        1.10648618      -0.65975607      -2.63998023
12
Properties=species:S:1:pos:R:3 relative_energy_eV=0.07771299305204593 branch=left pbc="F F F"
C       -0.03949287       0.66085912      -1.40337820
O       -1.04694467       0.87693072      -0.75961009
O       -0.73235806       1.03004216       2.03523088
C        0.45363100      -0.69215436      -1.77272691
C       -0.18231101      -0.09863160       2.49040340
O        0.13440314      -1.06203975       1.82900861
H        1.02871104      -1.07788022      -0.92809031
H        0.58712142       1.51297653      -1.72984778
H       -0.89355101       0.92778447       1.07019492
H       -0.37407502      -1.37773727      -1.93593113
H       -0.04708500      -0.03076613       3.58199747
H        1.10980908      -0.65812443      -2.64006518
12
Properties=species:S:1:pos:R:3 relative_energy_eV=0.07804325782672095 branch=left pbc="F F F"
C       -0.04129973       0.65948134      -1.40366126
O       -1.05020476       0.87422565      -0.76161469
O       -0.72889019       1.03328028       2.03695615
C        0.45565282      -0.69297039      -1.77240030
C       -0.18254523      -0.09906462       2.48851593
O        0.12810023      -1.06194491       1.82461638
H        1.02909201      -1.07801078      -0.92601056
H        0.58631619       1.51282984      -1.72625201
H       -0.89815881       0.93069767       1.07340714
H       -0.37141921      -1.37907615      -1.93631710
H       -0.04206746      -0.03172396       3.57903554
H        1.11328216      -0.65646474      -2.63908954
12
Properties=species:S:1:pos:R:3 relative_energy_eV=0.07846942853757355 branch=left pbc="F F F"
C       -0.04423676       0.65724417      -1.40209188
O       -1.05646218       0.87055632      -0.76431105
O       -0.72479792       1.03807635       2.03977860
C        0.45759513      -0.69446655      -1.77069175
C       -0.18136810      -0.09907867       2.48452576
O        0.12495486      -1.05882737       1.81418166
H        1.03120344      -1.07894871      -0.92372346
H        0.58514884       1.51192031      -1.71897482
H       -0.90417580       0.93804029       1.07759634
H       -0.36813925      -1.38173969      -1.93714297
H       -0.03811327      -0.03694316       3.57511344
H        1.11624906      -0.65457408      -2.63707421
12
Properties=species:S:1:pos:R:3 relative_energy_eV=0.07903744237955834 branch=left pbc="F F F"
C       -0.04703791       0.65411988      -1.39831223
O       -1.06326211       0.86477863      -0.76527145
O       -0.72265028       1.04394412       2.04345383
C        0.46027901      -0.69609697      -1.76784398
C       -0.17973615      -0.09789278       2.47822819
O        0.11535508      -1.05532609       1.80038325
H        1.03474751      -1.08050992      -0.92122081
H        0.58295040       1.51052752      -1.70995673
H       -0.91346984       0.94723624       1.08299246
H       -0.36315866      -1.38496245      -1.94015681
H       -0.02681696      -0.04221522       3.56782796
H        1.12065800      -0.65234378      -2.63293801
12
Properties=species:S:1:pos:R:3 relative_energy_eV=0.07968406519648852 branch=left pbc="F F F"
C       -0.04877865       0.65102147      -1.39350690
O       -1.06872992       0.85802025      -0.76467621
O       -0.72299543       1.04919409       2.04686967
C        0.46294322      -0.69715423      -1.76489028
C       -0.17852328      -0.09583908       2.47212143
O        0.10217088      -1.05268846       1.78738450
H        1.03830050      -1.08228357      -0.91930945
H        0.58003665       1.50930133      -1.70210767
H       -0.92226041       0.95578942       1.08734990
H       -0.35785517      -1.38756046      -1.94437807
H       -0.01174304      -0.04619332       3.56035253
H        1.12529272      -0.65034830      -2.62802378
12
Properties=species:S:1:pos:R:3 relative_energy_eV=0.0802022900479642 branch=left pbc="F F F"
C       -0.04885467       0.64922426      -1.39042756
O       -1.07059426       0.85297811      -0.76326948
O       -0.72538636       1.05183417       2.04888581
C        0.46512712      -0.69728960      -1.76331425
C       -0.17866484      -0.09401055       2.46893594
O        0.08798612      -1.05299008       1.78166839
H        1.04029737      -1.08328059      -0.91832227
H        0.57764102       1.50890705      -1.69891668
H       -0.92765141       0.95939978       1.08959256
H       -0.35406765      -1.38821966      -1.94819360
H        0.00280991      -0.04596611       3.55505789
H        1.12921576      -0.64932767      -2.62451106
12
Properties=species:S:1:pos:R:3 relative_energy_eV=0.08061050294963934 branch=left pbc="F F F"
C       -0.04816507       0.64836561      -1.38892581
O       -1.07066814       0.84948010      -0.76243894
O       -0.72861582       1.05255319       2.04989592
C        0.46676491      -0.69691313      -1.76278966
C       -0.17988454      -0.09269764       2.46827623
O        0.07545174      -1.05512412       1.78082149
H        1.04118865      -1.08350544      -0.91791456
H        0.57584969       1.50901539      -1.69860008
H       -0.92914992       0.96010092       1.09014025
H       -0.35170845      -1.38760194      -1.95122066
H        0.01466691      -0.04340253       3.55241869
H        1.13212815      -0.64901132      -2.62247719
12
Properties=species:S:1:pos:R:3 relative_energy_eV=0.08080954129945894 branch=left pbc="F F F"
C       -0.04750959       0.64832525      -1.38922687
O       -1.06991329       0.84845163      -0.76246105
O       -0.73101781       1.05206852       2.05021891
C        0.46776017      -0.69657334      -1.76300973
C       -0.18139751      -0.09226579       2.46920679
O        0.06668263      -1.05799361       1.78354707
H        1.04145107      -1.08323790      -0.91779159
H        0.57526533       1.50920703      -1.70012199
H       -0.92902781       0.95880349       1.09027193
H       -0.35060921      -1.38677062      -1.95290449
H        0.02218644      -0.03992861       3.55122426
H        1.13398768      -0.64882698      -2.62176754
12
Properties=species:S:1:pos:R:3 relative_energy_eV=0.0813461565921898 branch=left pbc="F F F"
C       -0.04813096       0.64771337      -1.38964520
O       -1.07111829       0.84784986      -0.76420060
O       -0.73506294       1.05025795       2.05132186
C        0.46792529      -0.69661373      -1.76372989
C       -0.18428223      -0.09315061       2.46972893
O        0.05977138      -1.06245110       1.78496481
H        1.04163225      -1.08031491      -0.91704871
H        0.57582082       1.50836952      -1.69840113
H       -0.92279532       0.96119626       1.08993036
H       -0.34899160      -1.38778817      -1.95523392
H        0.02812110      -0.03459522       3.55127577
H        1.13496863      -0.64921417      -2.62177659
12
Properties=species:S:1:pos:R:3 relative_energy_eV=0.08251185753215395 branch=left pbc="F F F"
C       -0.04862017       0.64713833      -1.39079137
O       -1.07061931       0.84872506      -0.76537922
O       -0.74120962       1.04731816       2.05343086
C        0.46882668      -0.69684083      -1.76470834
C       -0.18842743      -0.09573442       2.47042055
O        0.04592338      -1.07151459       1.79130112
H        1.04218380      -1.07724109      -0.91576622
H        0.57720283       1.50754162      -1.69786483
H       -0.92164377       0.96587200       1.09107508
H       -0.34537795      -1.39048926      -1.95963433
H        0.04193453      -0.02522841       3.54664548
H        1.13768518      -0.64828754      -2.62154306
12
Properties=species:S:1:pos:R:3 relative_energy_eV=0.08353242679186224 branch=left pbc="F F F"
C       -0.04831091       0.65033146      -1.39978524
O       -1.06879573       0.85633835      -0.77377126
O       -0.74101380       1.04254003       2.05187409
C        0.46785581      -0.69562652      -1.76821918
C       -0.19063200      -0.09953512       2.48053222
O        0.04149998      -1.07889454       1.81007898
H        1.04081246      -1.07021033      -0.91598823
H        0.57979242       1.50866684      -1.70835822
H       -0.91666383       0.96072730       1.08927884
H       -0.34531867      -1.39141111      -1.96334722
H        0.04056033      -0.02020727       3.55962940
H        1.13807209      -0.65146004      -2.62473846
12
Properties=species:S:1:pos:R:3 relative_energy_eV=0.08616537222223997 branch=left pbc="F F F"
C       -0.04665814       0.65212736      -1.40432290
O       -1.06453631       0.86078348      -0.77493163
O       -0.74542236       1.04005751       2.05427465
C        0.47060448      -0.69495674      -1.77030173
C       -0.19332003      -0.10186425       2.48375610
O        0.01567409      -1.08967404       1.82818740
H        1.04053716      -1.06763238      -0.91539073
H        0.58159748       1.50957949      -1.71509121
H       -0.92923697       0.95755955       1.09364923
H       -0.33953863      -1.39396103      -1.96905853
H        0.06378882      -0.00960418       3.55068973
H        1.14436862      -0.65115580      -2.62427465
12
Properties=species:S:1:pos:R:3 relative_energy_eV=0.08684748728410341 branch=left pbc="F F F"
C       -0.04797648       0.65061746      -1.40600269
O       -1.06591366       0.85527519      -0.77154842
O       -0.74955743       1.04028628       2.05207789
C        0.47048323      -0.69618161      -1.76968201
C       -0.19877127      -0.09801738       2.48586877
O        0.01432171      -1.09132236       1.82181145
H        1.04299095      -1.06944212      -0.91625532
H        0.58013271       1.51031144      -1.71497292
H       -0.90724640       0.95008002       1.08913818
H       -0.34561639      -1.38761255      -1.96675550
H        0.06023115      -0.00265918       3.55546700
H        1.14478009      -0.65007616      -2.62196067
12
Properties=species:S:1:pos:R:3 relative_energy_eV=0.09221020025688631 branch=left pbc="F F F"
C       -0.04068391       0.65528906      -1.41771190
O       -1.05274871       0.85668145      -0.76972408
O       -0.75626778       1.03731201       2.04704567
C        0.47758832      -0.69301843      -1.77367596
C       -0.20630729      -0.09424665       2.50230826
O       -0.03717440      -1.10807646       1.85739852
H        1.04281821      -1.07110603      -0.91837229
H        0.57667185       1.51498227      -1.74407859
H       -0.91170713       0.91649863       1.08940542
H       -0.34713056      -1.37302091      -1.97058059
H        0.09531510       0.02026040       3.55513421
H        1.15748452      -0.65029639      -2.61996293
12
Properties=species:S:1:pos:R:3 relative_energy_eV=0.09854233649275557 branch=left pbc="F F F"
C       -0.03348937       0.65567197      -1.41569534
O       -1.04150042       0.84865951      -0.76125476
O       -0.76508069       1.03596272       2.04582405
C        0.48442470      -0.69053864      -1.77312699
C       -0.21021922      -0.09006275       2.50486070
O       -0.07472922      -1.11780110       1.86984948
H        1.04298638      -1.08033862      -0.91892097
H        0.56987564       1.51809593      -1.75847077
H       -0.91762041       0.90022239       1.08702324
H       -0.34878147      -1.35937066      -1.97135459
H        0.12641408       0.03713433       3.54642428
H        1.16557823      -0.64637620      -2.61797257
12
Properties=species:S:1:pos:R:3 relative_energy_eV=0.1050562748714583 branch=left pbc="F F F"
C       -0.02377185       0.65650776      -1.41151313
O       -1.02521288       0.84305188      -0.75078589
O       -0.77755509       1.03429467       2.04967583
C        0.49532791      -0.68753145      -1.77276188
C       -0.21282898      -0.08896216       2.50194902
O       -0.14002750      -1.13521018       1.89442792
H        1.04253771      -1.08983940      -0.91720772
H        0.56450234       1.52163473      -1.77297493
H       -0.95513231       0.89011046       1.09468350
H       -0.33982295      -1.35238827      -1.97880137
H        0.18947399       0.05995568       3.51544331
H        1.18036791      -0.64036502      -2.61494887
12
Properties=species:S:1:pos:R:3 relative_energy_eV=0.10775339980136778 branch=left pbc="F F F"
C       -0.02095940       0.65652619      -1.40897582
O       -1.02019168       0.84242563      -0.74735039
O       -0.78302016       1.03360017       2.05322698
C        0.49909657      -0.68676154      -1.77274113
C       -0.21332330      -0.08958830       2.49886931
O       -0.16479917      -1.14192867       1.90329799
H        1.04204485      -1.09277702      -0.91613582
H        0.56369781       1.52268575      -1.77529382
H       -0.97239119       0.89060100       1.09870060
H       -0.33362201      -1.35355296      -1.98251653
H        0.21547710       0.06783271       3.50023336
H        1.18584888      -0.63780432      -2.61412893
12
Properties=species:S:1:pos:R:3 relative_energy_eV=0.11041441053021117 branch=left pbc="F F F"
C       -0.02043290       0.65528134      -1.40160327
O       -1.01605253       0.84292118      -0.73698544
O       -0.79025194       1.03286593       2.05341725
C        0.50005524      -0.68739419      -1.77165758
C       -0.21304652      -0.08994345       2.49328993
O       -0.17060215      -1.14340901       1.89780373
H        1.04001768      -1.09806475      -0.91566751
H        0.55996192       1.52198144      -1.77283127
H       -0.97539609       0.89731428       1.09291216
H       -0.32939131      -1.35825138      -1.98368984
H        0.22711332       0.07128906       3.49669593
H        1.18588359      -0.63333184      -2.61449828
12
Properties=species:S:1:pos:R:3 relative_energy_eV=0.11581815668432682 branch=left pbc="F F F"
C       -0.01954154       0.65180226      -1.38994802
O       -1.00930626       0.84405287      -0.71954333
O       -0.80085864       1.03582577       2.05868603
C        0.50619252      -0.68981024      -1.76887346
C       -0.21255745      -0.09185672       2.47578953
O       -0.20986972      -1.15144464       1.89625297
H        1.04036412      -1.10431715      -0.91180419
H        0.55918391       1.51869409      -1.76329381
H       -1.02341937       0.91641908       1.10730474
H       -0.31025795      -1.37308162      -1.99232767
H        0.28196493       0.07847874       3.45332511
H        1.19596376      -0.62350399      -2.60838204
12
Properties=species:S:1:pos:R:3 relative_energy_eV=0.1249693081354053 branch=left pbc="F F F"
C       -0.01914629       0.64827918      -1.38111613
O       -1.00669042       0.84333836      -0.70449555
O       -0.80908930       1.04071569       2.06601515
C        0.51303213      -0.69233413      -1.76602393
C       -0.21301368      -0.09321928       2.45848607
O       -0.24988546      -1.15915715       1.89465455
H        1.04268045      -1.10901446      -0.90832214
H        0.56061566       1.51472453      -1.75016870
H       -1.07655511       0.93736796       1.12938230
H       -0.29071730      -1.38731720      -2.00028293
H        0.33773985       0.08316967       3.39915761
H        1.20888786      -0.61529488      -2.60010043
12
Properties=species:S:1:pos:R:3 relative_energy_eV=0.13026680495568144 branch=left pbc="F F F"
C       -0.01859162       0.64576095      -1.37531374
O       -1.00653965       0.83959947      -0.69222033
O       -0.81303274       1.04291818       2.06623340
C        0.51477395      -0.69346379      -1.76295739
C       -0.21423959      -0.09222282       2.45290832
O       -0.25139014      -1.15975387       1.88394472
H        1.04406310      -1.11610468      -0.90786221
H        0.55791569       1.51227600      -1.74520391
H       -1.08838307       0.95066533       1.13287449
H       -0.28723770      -1.39005814      -2.00020250
H        0.34893327       0.08110785       3.38152879
H        1.21158687      -0.60946622      -2.59654372
12
Properties=species:S:1:pos:R:3 relative_energy_eV=0.13840123842237517 branch=left pbc="F F F"
C       -0.02242392       0.64813179      -1.37356982
O       -1.00609691       0.85118222      -0.68788574
O       -0.82247886       1.03426822       2.06758654
C        0.50825352      -0.69439573      -1.76538326
C       -0.21607869      -0.09523989       2.46002158
O       -0.22350788      -1.16081266       1.88297242
H        1.03845309      -1.12064103      -0.91355149
H        0.55569776       1.51175403      -1.75178442
H       -1.05225734       0.95868855       1.10150738
H       -0.28846208      -1.39768397      -1.99750373
H        0.32522976       0.08097408       3.41677505
H        1.20152992      -0.60496725      -2.60199858
12
Properties=species:S:1:pos:R:3 relative_energy_eV=0.13910374951046833 branch=left pbc="F F F"
C       -0.02108764       0.64880416      -1.38290914
O       -1.00573829       0.85254976      -0.71022843
O       -0.81283954       1.04128935       2.07322989
C        0.51732985      -0.69367546      -1.76699726
C       -0.21438503      -0.09562774       2.45261197
O       -0.29181851      -1.16961117       1.91802917
H        1.04535697      -1.10856631      -0.90805942
H        0.56929417       1.51462859      -1.75245318
H       -1.12448547       0.94458000       1.15200621
H       -0.27074793      -1.40041772      -2.00878733
H        0.38705498       0.08663088       3.36434480
H        1.21992488      -0.60932621      -2.59360137
12
Properties=species:S:1:pos:R:3 relative_energy_eV=0.14509135680782492 branch=left pbc="F F F"
C       -0.02259477       0.64412766      -1.38139580
O       -0.99301210       0.84396358      -0.68895463
O       -0.81127138       1.05036562       2.07294219
C        0.51579874      -0.69404566      -1.76587237
C       -0.21191717      -0.09206352       2.44132299
O       -0.31107388      -1.17366211       1.90438213
H        1.04652316      -1.09698753      -0.90113498
H        0.57292312       1.51215554      -1.73831235
H       -1.15636707       0.94187082       1.16192827
H       -0.26460546      -1.40383702      -2.02308742
H        0.40723700       0.09531159       3.33928668
H        1.22621822      -0.61594090      -2.58391880
12
Properties=species:S:1:pos:R:3 relative_energy_eV=0.15083205031442048 branch=left pbc="F F F"
C       -0.01929779       0.64756857      -1.39362546
O       -0.99034124       0.84769771      -0.70586225
O       -0.80731664       1.04935101       2.08013686
C        0.51872618      -0.69147351      -1.76960892
C       -0.21283910      -0.09566255       2.45092373
O       -0.33724416      -1.18482002       1.93627931
H        1.04802376      -1.08711171      -0.89962855
H        0.57959268       1.51600790      -1.74509025
H       -1.17905416       0.93255226       1.17484098
H       -0.26097997      -1.40289397      -2.03067924
H        0.42504920       0.10199067       3.32446038
H        1.23353970      -0.62194835      -2.58496068
12
Properties=species:S:1:pos:R:3 relative_energy_eV=0.15770913023879984 branch=left pbc="F F F"
C       -0.00992291       0.65858788      -1.42467121
O       -0.98090647       0.86550225      -0.73207843
O       -0.79283762       1.04016164       2.07381811
C        0.52404710      -0.68612128      -1.77615938
C       -0.21512933      -0.10061159       2.47566727
O       -0.38141493      -1.20166808       2.00315577
H        1.04713108      -1.07102554      -0.89827267
H        0.58775231       1.51588480      -1.79075524
H       -1.21044544       0.89628919       1.19517143
H       -0.26033546      -1.39488767      -2.03958952
H        0.44664270       0.11487279       3.33758040
H        1.24327747      -0.62572648      -2.58668066
12
Properties=species:S:1:pos:R:3 relative_energy_eV=0.16501184674598335 branch=left pbc="F F F"
C       -0.00334231       0.66742239      -1.44702595
O       -0.98092466       0.87962892      -0.75781194
O       -0.78446207       1.03512437       2.07418247
C        0.52952446      -0.68231512      -1.78284967
C       -0.21726313      -0.10530317       2.49603070
O       -0.41292226      -1.21185669       2.05541562
H        1.04652580      -1.06010761      -0.89900314
H        0.59336443       1.51765123      -1.81795276
H       -1.23064024       0.87363155       1.21241120
H       -0.25849381      -1.39066265      -2.04224015
H        0.46323881       0.11900776       3.33724221
H        1.25325350      -0.63096314      -2.59121275
12
Properties=species:S:1:pos:R:3 relative_energy_eV=0.17391200044767174 branch=left pbc="F F F"
C       -0.00589855       0.67063224      -1.43919033
O       -0.98421743       0.87283809      -0.75515532
O       -0.78823589       1.03715818       2.08333712
C        0.52959206      -0.68408080      -1.79019153
C       -0.21551352      -0.10303971       2.49090146
O       -0.42560535      -1.21773478       2.04478747
H        1.04386654      -1.05474487      -0.89987486
H        0.59627022       1.53246623      -1.79935970
H       -1.22668889       0.87107996       1.21762478
H       -0.25597841      -1.39659747      -2.04610946
H        0.46863619       0.13253523       3.32371640
H        1.26163157      -0.64925447      -2.59330019
12
Properties=species:S:1:pos:R:3 relative_energy_eV=0.18189463321141375 branch=left pbc="F F F"
C       -0.00207152       0.67753251      -1.45251510
O       -0.99635665       0.87964953      -0.79679854
O       -0.77948753       1.03913885       2.08169645
C        0.54027207      -0.68164688      -1.79307775
C       -0.21517234      -0.10586124       2.49798084
O       -0.47410981      -1.22072324       2.09097699
H        1.04995116      -1.05414418      -0.90110789
H        0.60479729       1.54068718      -1.81317518
H       -1.26707825       0.85487063       1.26514097
H       -0.24579609      -1.39303832      -2.04238006
H        0.50742035       0.12699112       3.29487158
H        1.27548998      -0.65219832      -2.59442647
12
Properties=species:S:1:pos:R:3 relative_energy_eV=0.1876892111831694 branch=left pbc="F F F"
C        0.00510681       0.68961214      -1.48341806
O       -0.99243898       0.91530727      -0.83169357
O       -0.76789412       1.02451424       2.07694713
C        0.54259917      -0.67577643      -1.80037177
C       -0.22149207      -0.11352614       2.53922900
O       -0.49397187      -1.23889345       2.17160166
H        1.04725788      -1.04756783      -0.90736877
H        0.61079699       1.53176825      -1.88191532
H       -1.27241846       0.81949471       1.25946424
H       -0.24752905      -1.38348866      -2.04163258
H        0.50960509       0.13243955       3.33732783
H        1.27823726      -0.64262605      -2.60098402
12
Properties=species:S:1:pos:R:3 relative_energy_eV=0.1928869878884143 branch=left pbc="F F F"
C        0.00666116       0.68308545      -1.48052103
O       -1.01085111       0.90809668      -0.85786675
O       -0.75942667       1.03174435       2.08574866
C        0.55405938      -0.67667967      -1.79207966
C       -0.22141509      -0.11159732       2.51904249
O       -0.53135323      -1.23095323       2.17571071
H        1.05916288      -1.05199679      -0.90229236
H        0.61692568       1.52097491      -1.86379848
H       -1.32066167       0.82999341       1.30811040
H       -0.23613407      -1.38299150      -2.03431365
H        0.55322845       0.12060887       3.27262427
H        1.28766302      -0.62902773      -2.59317881
12
Properties=species:S:1:pos:R:3 relative_energy_eV=0.19912648860736226 branch=left pbc="F F F"
C        0.01185134       0.67616235      -1.47573321
O       -1.01587477       0.89056456      -0.87244861
O       -0.75099055       1.04311660       2.07987053
C        0.56534247      -0.67709902      -1.78117994
C       -0.21888023      -0.11125943       2.50465678
O       -0.55950783      -1.22172244       2.17769146
H        1.07136224      -1.06305520      -0.89716888
H        0.61773474       1.52189598      -1.85995490
H       -1.37621379       0.83934672       1.35577466
H       -0.23256839      -1.37287705      -2.03085149
H        0.59052974       0.10308755       3.22136378
H        1.29507382      -0.61690335      -2.58483436
12
Properties=species:S:1:pos:R:3 relative_energy_eV=0.20312103775904689 branch=left pbc="F F F"
C        0.01224560       0.66805927      -1.46446895
O       -1.02097165       0.87117240      -0.86592069
O       -0.74848298       1.05377324       2.07848269
C        0.57088250      -0.67913927      -1.77321862
C       -0.21591648      -0.10697934       2.48101652
O       -0.57122730      -1.20990479       2.15011091
H        1.07835461      -1.06821849      -0.89114911
H        0.61621018       1.51975053      -1.83408221
H       -1.40559646       0.85348430       1.38488421
H       -0.22913833      -1.37078726      -2.02852025
H        0.61167961       0.09343394       3.17709218
H        1.29981950      -0.61338735      -2.57704085
12
Properties=species:S:1:pos:R:3 relative_energy_eV=0.20635008561112045 branch=left pbc="F F F"
C        0.01446778       0.66408773      -1.45827434
O       -1.01069278       0.85920428      -0.84069610
O       -0.74688893       1.05661003       2.07210487
C        0.57151316      -0.68019256      -1.77130296
C       -0.21433447      -0.10370060       2.47252607
O       -0.56357626      -1.20554266       2.12895364
H        1.07698612      -1.06905087      -0.88712212
H        0.60920134       1.51998462      -1.83451676
H       -1.41188604       0.85506788       1.38071383
H       -0.23634561      -1.36219191      -2.03108368
H        0.60820069       0.09357033       3.18085028
H        1.30121378      -0.61658908      -2.57496690
12
Properties=species:S:1:pos:R:3 relative_energy_eV=0.21598309668661386 branch=left pbc="F F F"
C        0.01324274       0.65365007      -1.42957887
O       -1.01470117       0.81420103      -0.81353334
O       -0.74842829       1.07835805       2.07069436
C        0.58079699      -0.68623003      -1.76390986
C       -0.20579155      -0.09521260       2.42465576
O       -0.57694282      -1.18490715       2.06192969
H        1.08512975      -1.07625703      -0.87751452
H        0.60037866       1.53132723      -1.77153696
H       -1.45153824       0.88108354       1.42246390
H       -0.23492572      -1.35579626      -2.02928148
H        0.63699638       0.08280450       3.10871674
H        1.31364206      -0.63176426      -2.56591954
12
Properties=species:S:1:pos:R:3 relative_energy_eV=0.2200815476862772 branch=left pbc="F F F"
C        0.01325805       0.65271962      -1.42363281
O       -1.01191152       0.80579855      -0.80112667
O       -0.74888038       1.08237845       2.06870010
C        0.58166386      -0.68784269      -1.76354671
C       -0.20407675      -0.09314861       2.41728401
O       -0.57499356      -1.18189081       2.04630951
H        1.08508140      -1.07770838      -0.87605450
H        0.59663943       1.53377792      -1.76329053
H       -1.45497459       0.88341433       1.42301671
H       -0.23697886      -1.35284769      -2.02984322
H        0.63755562       0.08287454       3.10376255
H        1.31547607      -0.63626814      -2.56439256
12
Properties=species:S:1:pos:R:3 relative_energy_eV=0.22433886030921713 branch=left pbc="F F F"
C        0.00717122       0.64393038      -1.40872150
O       -1.04119802       0.78816980      -0.83371528
O       -0.74989281       1.09448683       2.08544383
C        0.58924783      -0.69122938      -1.75469566
C       -0.20122566      -0.08980918       2.37983414
O       -0.60547140      -1.16814400       2.02167640
H        1.09921061      -1.08086509      -0.87087514
H        0.60589460       1.53009975      -1.69520402
H       -1.48584166       0.91240750       1.47811205
H       -0.21806391      -1.36727237      -2.02117362
H        0.67727895       0.07048202       3.01283136
H        1.32074911      -0.63099928      -2.55632662
12
Properties=species:S:1:pos:R:3 relative_energy_eV=0.22894650073612866 branch=left pbc="F F F"
C        0.00970892       0.64600766      -1.40980571
O       -1.05335490       0.77754861      -0.84427048
O       -0.75290039       1.09807145       2.09402675
C        0.59878636      -0.68784805      -1.75397697
C       -0.19917866      -0.09114616       2.36888219
O       -0.62826046      -1.16449694       2.02579700
H        1.10038523      -1.09239332      -0.87253605
H        0.60649159       1.54695004      -1.68333852
H       -1.50778612       0.92105652       1.50593496
H       -0.20818982      -1.36526817      -2.01743854
H        0.70316729       0.06475121       2.98289494
H        1.32898987      -0.64197597      -2.55898361
12
Properties=species:S:1:pos:R:3 relative_energy_eV=0.23485109869034204 branch=left pbc="F F F"
C        0.00474399       0.63900424      -1.40215520
O       -1.08430017       0.77023465      -0.88510975
O       -0.75315775       1.10749134       2.11148827
C        0.60584800      -0.68884474      -1.74612003
C       -0.19781046      -0.08959234       2.34279920
O       -0.66134099      -1.15346830       2.01748714
H        1.11361627      -1.09489077      -0.86947211
H        0.61697652       1.54176417      -1.62675743
H       -1.53645690       0.94394823       1.55754697
H       -0.18783854      -1.38182078      -2.00820475
H        0.74306212       0.05199643       2.89921385
H        1.33451692      -0.63456537      -2.55353015
12
Properties=species:S:1:pos:R:3 relative_energy_eV=0.23856262019762653 branch=left pbc="F F F"
C        0.00261523       0.63702781      -1.39828783
O       -1.09449610       0.76975840      -0.89497626
O       -0.75334714       1.11141973       2.11475339
C        0.60727252      -0.68945130      -1.74229521
C       -0.19714958      -0.08785608       2.33463951
O       -0.67249422      -1.14844283       2.01123568
H        1.11801771      -1.09926015      -0.86911412
H        0.62020774       1.54029005      -1.61255016
H       -1.54601651       0.94889970       1.57238842
H       -0.18024100      -1.38923033      -2.00511823
H        0.75804301       0.04742232       2.87682936
H        1.33544738      -0.62932062      -2.55031852
12
Properties=species:S:1:pos:R:3 relative_energy_eV=0.2413418854757765 branch=left pbc="F F F"
C       -0.00580627       0.62711753      -1.38618759
O       -1.12169854       0.76776730      -0.93800284
O       -0.75083993       1.12107893       2.12843315
C        0.60917749      -0.69398373      -1.73359942
C       -0.19645436      -0.08462637       2.30950863
O       -0.69584039      -1.13747878       1.99676097
H        1.13405053      -1.09377378      -0.86438265
H        0.63106319       1.52286356      -1.54926568
H       -1.56486595       0.96958004       1.61525126
H       -0.16375984      -1.40996242      -1.99640498
H        0.78684741       0.03628240       2.79665699
H        1.33598578      -0.61360808      -2.54158179
12
Properties=species:S:1:pos:R:3 relative_energy_eV=0.24508612312092737 branch=left pbc="F F F"
C       -0.01292974       0.61820505      -1.37321218
O       -1.13934499       0.76126610      -0.94340487
O       -0.75200952       1.12988008       2.13775495
C        0.60824015      -0.69872505      -1.72879175
C       -0.19557682      -0.07975789       2.28913419
O       -0.70431726      -1.12517790       1.96939820
H        1.14177310      -1.08986635      -0.86009049
H        0.64013255       1.51076395      -1.51280008
H       -1.57849499       0.98740277       1.63844305
H       -0.15396570      -1.42654791      -1.99310162
H        0.80482166       0.02627016       2.74583086
H        1.33953070      -0.60245645      -2.53197418
12
Properties=species:S:1:pos:R:3 relative_energy_eV=0.2487149217104161 branch=left pbc="F F F"
C       -0.02166818       0.60678359      -1.35871998
O       -1.16038618       0.75406203      -0.97016685
O       -0.75089405       1.13858026       2.14869492
C        0.60826853      -0.70407941      -1.72024176
C       -0.19505668      -0.07573023       2.26072785
O       -0.71655546      -1.11496041       1.94347689
H        1.15517132      -1.08244619      -0.85388941
H        0.64976833       1.49099642      -1.45313437
H       -1.59043274       1.01069353       1.67251411
H       -0.14211338      -1.44361032      -1.98671754
H        0.82338232       0.01836522       2.67636127
H        1.33837534      -0.58739799      -2.52171899
12
Properties=species:S:1:pos:R:3 relative_energy_eV=0.25109385429641407 branch=left pbc="F F F"
C       -0.02475867       0.60052265      -1.35083319
O       -1.16897593       0.74524787      -0.97508494
O       -0.75198121       1.14175983       2.15729142
C        0.60877420      -0.70658969      -1.71718719
C       -0.19483997      -0.07453714       2.24478292
O       -0.71801421      -1.11070607       1.92683944
H        1.15969870      -1.07775070      -0.84983901
H        0.65400531       1.48233227      -1.42466305
H       -1.59636936       1.02750661       1.68596650
H       -0.13856422      -1.44908446      -1.98503521
H        0.82973108       0.01536349       2.64247732
H        1.33915346      -0.58280820      -2.51752885
12
Properties=species:S:1:pos:R:3 relative_energy_eV=0.2539249350738828 branch=left pbc="F F F"
C       -0.02797631       0.59292360      -1.34159982
O       -1.17821468       0.73421518      -0.98966532
O       -0.75236529       1.14447387       2.16703329
C        0.61011693      -0.70901780      -1.71131219
C       -0.19453202      -0.07393757       2.22341973
O       -0.72041704      -1.10813485       1.90952391
H        1.16667160      -1.07332013      -0.84471000
H        0.65768160       1.47078296      -1.38459707
H       -1.60144287       1.04858265       1.70409700
H       -0.13391748      -1.45328199      -1.98197891
H        0.83592794       0.01422258       2.60031307
H        1.33632682      -0.57625206      -2.51333753
12
Properties=species:S:1:pos:R:3 relative_energy_eV=0.25541788137888943 branch=left pbc="F F F"
C       -0.02841921       0.59019883      -1.33791797
O       -1.18016887       0.72846894      -0.99151789
O       -0.75293270       1.14525867       2.17117680
C        0.61086260      -0.70957539      -1.70910421
C       -0.19422161      -0.07369309       2.21487899
O       -0.71908955      -1.10759807       1.90125380
H        1.16837747      -1.07260466      -0.84267516
H        0.65773157       1.46718266      -1.37016702
H       -1.60292519       1.05749300       1.70837784
H       -0.13293174      -1.45323508      -1.98126230
H        0.83660436       0.01436381       2.58641315
H        1.33497207      -0.57500319      -2.51226985
12
Properties=species:S:1:pos:R:3 relative_energy_eV=0.25667535953834886 branch=left pbc="F F F"
C       -0.02953083       0.58809642      -1.33255386
O       -1.18006954       0.72438652      -0.98721861
O       -0.75319955       1.14877648       2.17342430
C        0.61089160      -0.70979853      -1.70614642
C       -0.19328466      -0.07129714       2.20733044
O       -0.71456244      -1.10634200       1.88797190
H        1.17029504      -1.07651550      -0.84216608
H        0.65445326       1.46513202      -1.35655204
H       -1.60327878       1.06267121       1.70648951
H       -0.13246098      -1.45334643      -1.98031376
H        0.83531124       0.01391386       2.57756003
H        1.33329483      -0.57442048      -2.51063923
12
Properties=species:S:1:pos:R:3 relative_energy_eV=0.25872010716011573 branch=left pbc="F F F"
C       -0.03043494       0.58314694      -1.32000557
O       -1.17468602       0.71299143      -0.94852049
O       -0.75767040       1.15068561       2.17113617
C        0.60773190      -0.71178951      -1.70220470
C       -0.19114395      -0.06670596       2.19699661
O       -0.70204599      -1.10209890       1.85232442
H        1.16528708      -1.08608184      -0.84023588
H        0.65390450       1.46723482      -1.36795505
H       -1.59963675       1.06859223       1.69144072
H       -0.13451963      -1.45269998      -1.98446372
H        0.83095591       0.01752674       2.59367098
H        1.33011747      -0.56954511      -2.50499731
12
Properties=species:S:1:pos:R:3 relative_energy_eV=0.2598564962136152 branch=left pbc="F F F"
C       -0.02643487       0.58665335      -1.33602302
O       -1.18102682       0.71992900      -1.00420445
O       -0.75426416       1.14154968       2.17553045
C        0.61210062      -0.70975479      -1.70587927
C       -0.19326071      -0.07658042       2.20631351
O       -0.72025171      -1.10893655       1.90195959
H        1.16948823      -1.07030927      -0.83928389
H        0.66043800       1.46535542      -1.35837332
H       -1.60616644       1.07075020       1.71928596
H       -0.13086041      -1.45100359      -1.98147571
H        0.83814836       0.01495242       2.57229714
H        1.32994914      -0.57134903      -2.51296081
12
Properties=species:S:1:pos:R:3 relative_energy_eV=0.2622186232893 branch=left pbc="F F F"
C       -0.02573307       0.58218586      -1.32855401
O       -1.18773716       0.71764226      -1.01943054
O       -0.75143715       1.14118251       2.18553127
C        0.61520731      -0.71175248      -1.70259524
C       -0.19292109      -0.07926286       2.19660668
O       -0.73049324      -1.11206561       1.89559152
H        1.17365816      -1.06776954      -0.83534164
H        0.65957473       1.45637806      -1.33412837
H       -1.60640572       1.07955167       1.72509769
H       -0.12863920      -1.45218195      -1.97841389
H        0.84562980       0.02374016       2.54623511
H        1.32715588      -0.56639170      -2.51341240
12
Properties=species:S:1:pos:R:3 relative_energy_eV=0.2672039816625329 branch=left pbc="F F F"
C       -0.02665137       0.58469335      -1.34054811
O       -1.19842263       0.73066301      -1.07996745
O       -0.74585361       1.13744425       2.19125500
C        0.61863104      -0.71121873      -1.70476146
C       -0.19563732      -0.08683625       2.20949210
O       -0.75349679      -1.11979537       1.94391871
H        1.18232242      -1.05738549      -0.83639749
H        0.66886737       1.45701611      -1.32439507
H       -1.61184171       1.07449900       1.75025585
H       -0.12420474      -1.45606075      -1.97475713
H        0.85645590       0.02174413       2.52271859
H        1.32769077      -0.56350691      -2.51962738
12
Properties=species:S:1:pos:R:3 relative_energy_eV=0.2712044292857172 branch=left pbc="F F F"
C       -0.02520926       0.58756910      -1.34910033
O       -1.20343706       0.73449113      -1.09460409
O       -0.74464487       1.13468317       2.19490249
C        0.62008106      -0.71071725      -1.70756772
C       -0.19783874      -0.09074039       2.21840687
O       -0.76190354      -1.12425637       1.96462113
H        1.18296296      -1.05229793      -0.83613540
H        0.67462509       1.45837976      -1.33063639
H       -1.61224642       1.07171335       1.75617651
H       -0.12383451      -1.45637343      -1.97525913
H        0.85920170       0.02282255       2.51901959
H        1.33010297      -0.56401737      -2.52263737
12
Properties=species:S:1:pos:R:3 relative_energy_eV=0.2756315991118754 branch=left pbc="F F F"
C       -0.02746889       0.59585822      -1.37288149
O       -1.21413469       0.75871563      -1.19103403
O       -0.73504632       1.13525056       2.19186113
C        0.62451607      -0.70617587      -1.70795702
C       -0.20071618      -0.09566357       2.23250562
O       -0.78580673      -1.12940308       2.03459225
H        1.19962834      -1.03959277      -0.84061933
H        0.67595134       1.45239664      -1.29116337
H       -1.62074246       1.05949104       1.79869832
H       -0.11352160      -1.46142414      -1.96434369
H        0.86782399       0.00790322       2.47812334
H        1.32737657      -0.56609964      -2.53059557
12
Properties=species:S:1:pos:R:3 relative_energy_eV=0.2827218195416208 branch=left pbc="F F F"
C       -0.02740102       0.60604962      -1.40188301
O       -1.22174897       0.77711941      -1.25865797
O       -0.73025006       1.13143875       2.19000651
C        0.62756007      -0.70097445      -1.71324216
C       -0.20450124      -0.10165455       2.25665212
O       -0.80151133      -1.13563833       2.10642461
H        1.20708299      -1.02855055      -0.84488302
H        0.68515272       1.45811743      -1.29038925
H       -1.62903037       1.04642966       1.82769263
H       -0.10732476      -1.46208560      -1.96104804
H        0.87132826      -0.00748525       2.46630479
H        1.32850324      -0.57150995      -2.53979106
12
Properties=species:S:1:pos:R:3 relative_energy_eV=0.2898942794490722 branch=left pbc="F F F"
C       -0.02902502       0.60519341      -1.39985328
O       -1.22731755       0.77442241      -1.24315655
O       -0.73044357       1.13572456       2.19608896
C        0.62741838      -0.70116854      -1.71063794
C       -0.20476759      -0.09900194       2.25693321
O       -0.80010825      -1.13794769       2.09522465
H        1.20652622      -1.03720223      -0.84359461
H        0.69025782       1.45960758      -1.29826041
H       -1.62752347       1.04601665       1.81665475
H       -0.10570287      -1.46235084      -1.96364117
H        0.87144007      -0.00441739       2.46918429
H        1.32710535      -0.56761979      -2.53775574
12
Properties=species:S:1:pos:R:3 relative_energy_eV=0.29108090365662065 branch=left pbc="F F F"
C       -0.02982147       0.61288873      -1.41945433
O       -1.22697952       0.79758398      -1.34043670
O       -0.72299712       1.13194784       2.18371636
C        0.63098069      -0.69649348      -1.71270044
C       -0.20562385      -0.10516682       2.26551913
O       -0.81713239      -1.13783815       2.16244700
H        1.22191420      -1.01952792      -0.85047815
H        0.68143515       1.45217173      -1.25265046
H       -1.63829921       1.03848829       1.86406610
H       -0.09872497      -1.46472145      -1.95005873
H        0.87759373      -0.02348962       2.43288514
H        1.32551434      -0.57458702      -2.54566876
12
Properties=species:S:1:pos:R:3 relative_energy_eV=0.2948166454407328 branch=left pbc="F F F"
C       -0.03313328       0.61490521      -1.42843954
O       -1.22359832       0.81241890      -1.40300253
O       -0.71871913       1.12899345       2.17440198
C        0.63244429      -0.69455693      -1.71373545
C       -0.20552671      -0.10850674       2.27071191
O       -0.82722341      -1.13633816       2.20399895
H        1.23167915      -1.00905658      -0.85519196
H        0.67707136       1.45130709      -1.22767921
H       -1.64586475       1.03319976       1.89486482
H       -0.09474815      -1.46704991      -1.94227020
H        0.88170096      -0.03681590       2.41428415
H        1.32377761      -0.57724413      -2.55075677
12
Properties=species:S:1:pos:R:3 relative_energy_eV=0.3228940245553531 branch=left pbc="F F F"
C       -0.02051709       0.62992040      -1.47774329
O       -1.20924230       0.81471623      -1.43183183
O       -0.72779189       1.10653326       2.16385442
C        0.63503359      -0.68839121      -1.73086753
C       -0.21576487      -0.12339367       2.31460616
O       -0.82515764      -1.14376556       2.29349749
H        1.21721860      -0.98548907      -0.85177541
H        0.69250214       1.47836326      -1.28832497
H       -1.64150167       1.02245207       1.91789902
H       -0.10069469      -1.45634243      -1.95404545
H        0.86558981      -0.04991295       2.45285679
H        1.32818563      -0.59343422      -2.57093924
12
Properties=species:S:1:pos:R:3 relative_energy_eV=0.30245913820908754 branch=left pbc="F F F"
C       -0.02813160       0.61886109      -1.43735393
O       -1.23258480       0.80152375      -1.35047972
O       -0.72340294       1.13000865       2.18704649
C        0.63249524      -0.69274947      -1.71559625
C       -0.20822973      -0.10667262       2.28282822
O       -0.81823687      -1.14271025       2.19374284
H        1.21981908      -1.02057327      -0.85099271
H        0.69270342       1.46218754      -1.27586409
H       -1.64264798       1.03216480       1.86508864
H       -0.09613683      -1.46211779      -1.95427847
H        0.87627748      -0.03127743       2.44398299
H        1.32593512      -0.57738886      -2.55093786
12
Properties=species:S:1:pos:R:3 relative_energy_eV=0.30361587497463915 branch=left pbc="F F F"
C       -0.03520986       0.61462910      -1.42113290
O       -1.22650964       0.81636467      -1.42780953
O       -0.71557068       1.13591183       2.17295411
C        0.63603476      -0.69206357      -1.70322257
C       -0.20380553      -0.10585319       2.25889536
O       -0.82733864      -1.13810456       2.19690265
H        1.24398586      -1.02295330      -0.85644599
H        0.66388240       1.43809708      -1.18933172
H       -1.65072393       1.04148808       1.90265001
H       -0.08849009      -1.46573836      -1.93292257
H        0.88669679      -0.04006690       2.38501661
H        1.31490819      -0.57045486      -2.54836732
12
Properties=species:S:1:pos:R:3 relative_energy_eV=0.3054702484587324 branch=left pbc="F F F"
C       -0.03299742       0.62612859      -1.45442920
O       -1.22508106       0.83956935      -1.50980722
O       -0.71552358       1.12011775       2.15733617
C        0.63614708      -0.68689234      -1.71657754
C       -0.20525500      -0.11809121       2.28874412
O       -0.84361724      -1.13778473       2.29081757
H        1.24780592      -0.99610916      -0.86612382
H        0.67287321       1.44856707      -1.20445954
H       -1.66335682       1.02723501       1.94654627
H       -0.08707218      -1.46570371      -1.92846060
H        0.89131496      -0.06356326       2.39236218
H        1.32262181      -0.58221739      -2.55876225
12
Properties=species:S:1:pos:R:3 relative_energy_eV=0.3101137143239612 branch=left pbc="F F F"
C       -0.03468323       0.62709694      -1.45737879
O       -1.22103673       0.85319775      -1.56498627
O       -0.70942324       1.11803158       2.14736394
C        0.63670456      -0.68717778      -1.71855338
C       -0.20436148      -0.12085581       2.28490770
O       -0.85549174      -1.13251035       2.31712211
H        1.25672174      -0.97767205      -0.87016905
H        0.66225302       1.43900010      -1.16330665
H       -1.66744164       1.02240561       1.97715623
H       -0.08496517      -1.47099797      -1.91833525
H        0.89568701      -0.07157920       2.36483092
H        1.32389661      -0.58768291      -2.56146537
12
Properties=species:S:1:pos:R:3 relative_energy_eV=0.3146436102579173 branch=left pbc="F F F"
C       -0.03420732       0.62988032      -1.46862878
O       -1.21147353       0.86735073      -1.63169882
O       -0.70485286       1.11212984       2.13373837
C        0.63824754      -0.68668232      -1.72277475
C       -0.20554117      -0.12613170       2.28656663
O       -0.86689226      -1.12772194       2.35937957
H        1.26414436      -0.95330181      -0.87227346
H        0.65111823       1.43304148      -1.12321404
H       -1.66908604       1.01610716       2.01617828
H       -0.08376460      -1.47495265      -1.90933342
H        0.89603685      -0.08223802       2.33839378
H        1.32413052      -0.59622526      -2.56914721
12
Properties=species:S:1:pos:R:3 relative_energy_eV=0.3181177090773417 branch=left pbc="F F F"
C       -0.03358770       0.63059635      -1.47341032
O       -1.20140729       0.87533471      -1.68036833
O       -0.70117088       1.10991882       2.12344562
C        0.64038690      -0.68648013      -1.72326843
C       -0.20673546      -0.12901093       2.28251309
O       -0.87317770      -1.12446991       2.38203476
H        1.27095054      -0.93767017      -0.87158472
H        0.63734466       1.42555927      -1.08070626
H       -1.66779720       1.01445795       2.04499144
H       -0.08263552      -1.47741902      -1.90160071
H        0.89458086      -0.08799086       2.31045974
H        1.32110853      -0.60157028      -2.57531973
12
Properties=species:S:1:pos:R:3 relative_energy_eV=0.32038329612078087 branch=left pbc="F F F"
C       -0.03279804       0.63062968      -1.47568154
O       -1.19363263       0.87884389      -1.71029298
O       -0.69871770       1.10971841       2.11690696
C        0.64233075      -0.68595799      -1.72227252
C       -0.20783491      -0.13030528       2.27816596
O       -0.87575539      -1.12314769       2.39320742
H        1.27561374      -0.92975014      -0.86982073
H        0.62648406       1.42001023      -1.04915375
H       -1.66596872       1.01478903       2.06270493
H       -0.08154082      -1.47832358      -1.89662411
H        0.89254134      -0.09081327       2.28978182
H        1.31713809      -0.60443751      -2.57973529
12
Properties=species:S:1:pos:R:3 relative_energy_eV=0.3217966527954559 branch=left pbc="F F F"
C       -0.03172679       0.63094908      -1.47813740
O       -1.18817061       0.88028722      -1.72883290
O       -0.69733699       1.10975099       2.11249283
C        0.64393764      -0.68492096      -1.72108579
C       -0.20889451      -0.13113506       2.27572492
O       -0.87644088      -1.12318324       2.40073485
H        1.27846052      -0.92632173      -0.86809431
H        0.61924022       1.41661308      -1.02958595
H       -1.66468685       1.01569604       2.07366228
H       -0.08044333      -1.47795440      -1.89371564
H        0.89059189      -0.09263684       2.27692996
H        1.31332946      -0.60588841      -2.58290668
12
Properties=species:S:1:pos:R:3 relative_energy_eV=0.3228155964970938 branch=left pbc="F F F"
C       -0.03062292       0.63170418      -1.48182723
O       -1.18364531       0.88139112      -1.74401653
O       -0.69680318       1.10887837       2.10835292
C        0.64553262      -0.68329518      -1.72000206
C       -0.20998345      -0.13225342       2.27540215
O       -0.87628296      -1.12402459       2.40959231
H        1.28051280      -0.92508907      -0.86674639
H        0.61425586       1.41462596      -1.01826028
H       -1.66428296       1.01698265       2.08264365
H       -0.07924321      -1.47632769      -1.89166446
H        0.88885332      -0.09482904       2.26935921
H        1.30956917      -0.60650753      -2.58564712
12
Properties=species:S:1:pos:R:3 relative_energy_eV=0.323660394138642 branch=left pbc="F F F"
C       -0.02949398       0.63325446      -1.48729218
O       -1.17960234       0.88293059      -1.75941256
O       -0.69716066       1.10630399       2.10383698
C        0.64729508      -0.68109167      -1.71944566
C       -0.21118171      -0.13430578       2.27766977
O       -0.87578411      -1.12551561       2.42254375
H        1.28209120      -0.92465167      -0.86609999
H        0.61102646       1.41373130      -1.01410875
H       -1.66498789       1.01871547       2.09171935
H       -0.07815187      -1.47322854      -1.88989520
H        0.88745499      -0.09794864       2.26613876
H        1.30635464      -0.60693817      -2.58846809
12
Properties=species:S:1:pos:R:3 relative_energy_eV=0.3244812663524499 branch=left pbc="F F F"
C       -0.02866831       0.63533649      -1.49385259
O       -1.17628589       0.88509600      -1.77533977
O       -0.69841821       1.10215463       2.09922339
C        0.64911675      -0.67864638      -1.71970028
C       -0.21226363      -0.13722036       2.28226160
O       -0.87531892      -1.12728427       2.43928215
H        1.28316357      -0.92420621      -0.86618172
H        0.60982158       1.41410962      -1.01651772
H       -1.66677252       1.02054597       2.10098310
H       -0.07733444      -1.46906069      -1.88842465
H        0.88660731      -0.10203531       2.26702025
H        1.30421250      -0.60753378      -2.59156758
12
Properties=species:S:1:pos:R:3 relative_energy_eV=0.32516966213370324 branch=left pbc="F F F"
C       -0.02859459       0.63668816      -1.49733145
O       -1.17439157       0.88678323      -1.78702746
O       -0.69955369       1.09886664       2.09592374
C        0.65051757      -0.67700881      -1.71971750
C       -0.21273741      -0.13948168       2.28520099
O       -0.87495743      -1.12843354       2.45062840
H        1.28415695      -0.92436945      -0.86656218
H        0.60917279       1.41398541      -1.01899258
H       -1.66857837       1.02252712       2.10763062
H       -0.07677444      -1.46562698      -1.88701394
H        0.88660373      -0.10502597       2.26807827
H        1.30299628      -0.60764842      -2.59363074
12
Properties=species:S:1:pos:R:3 relative_energy_eV=0.3256062078235118 branch=left pbc="F F F"
C       -0.02914589       0.63685376      -1.49707887
O       -1.17367169       0.88751755      -1.79297289
O       -0.70011567       1.09746167       2.09438470
C        0.65124539      -0.67647705      -1.71919857
C       -0.21260452      -0.14041885       2.28536461
O       -0.87468530      -1.12875904       2.45401982
H        1.28518029      -0.92518111      -0.86696057
H        0.60840855       1.41331412      -1.01873326
H       -1.66964581       1.02425669       2.11080395
H       -0.07649693      -1.46388874      -1.88584036
H        0.88704130      -0.10624691       2.26770045
H        1.30235009      -0.60717638      -2.59430283
12
Properties=species:S:1:pos:R:3 relative_energy_eV=0.3260182465401158 branch=left pbc="F F F"
C       -0.03014777       0.63608599      -1.49320169
O       -1.17313989       0.88743321      -1.79682043
O       -0.70012404       1.09741521       2.09357679
C        0.65164150      -0.67679334      -1.71759150
C       -0.21205480      -0.14047774       2.28256412
O       -0.87413016      -1.12861470       2.45104652
H        1.28716944      -0.92744308      -0.86757840
H        0.60615515       1.41173701      -1.01373853
H       -1.67031787       1.02689587       2.11242750
H       -0.07646137      -1.46318353      -1.88415055
H        0.88782980      -0.10616713       2.26442183
H        1.30143984      -0.60563209      -2.59376950
12
Properties=species:S:1:pos:R:3 relative_energy_eV=0.32661271786309953 branch=left pbc="F F F"
C       -0.03153084       0.63414123      -1.48517435
O       -1.17183519       0.88632555      -1.80018835
O       -0.69977943       1.09884367       2.09326418
C        0.65177651      -0.67817585      -1.71426833
C       -0.21104251      -0.13966842       2.27606941
O       -0.87282672      -1.12836742       2.44144271
H        1.29122753      -0.93240441      -0.86883604
H        0.60094778       1.40978181      -1.00152442
H       -1.67040143       1.03148291       2.11304378
H       -0.07713066      -1.46358490      -1.88151771
H        0.88872396      -0.10476672       2.25664235
H        1.29973083      -0.60235176      -2.59176706
12
Properties=species:S:1:pos:R:3 relative_energy_eV=0.3277091131276393 branch=left pbc="F F F"
C       -0.03272333       0.63107089      -1.47287173
O       -1.16865340       0.88381204      -1.80335208
O       -0.69853243       1.10247399       2.09297997
C        0.65158198      -0.68099446      -1.70829043
C       -0.20995205      -0.13784334       2.26493704
O       -0.87028872      -1.12838945       2.42373091
H        1.29852667      -0.94160460      -0.87072201
H        0.59073308       1.40743430      -0.97869287
H       -1.66974330       1.03877819       2.11274484
H       -0.07887274      -1.46571598      -1.87760118
H        0.88955801      -0.10158901       2.24203948
H        1.29622605      -0.59617689      -2.58771575
12
Properties=species:S:1:pos:R:3 relative_energy_eV=0.32846954183332855 branch=left pbc="F F F"
C       -0.03285302       0.62953193      -1.46760162
O       -1.16655291       0.88246889      -1.80477506
O       -0.69806106       1.10463586       2.09274486
C        0.65139189      -0.68254952      -1.70506286
C       -0.20955699      -0.13689400       2.25938158
O       -0.86885456      -1.12877730       2.41510532
H        1.30269480      -0.94684376      -0.87167924
H        0.58493326       1.40696017      -0.96642916
H       -1.66892074       1.04247419       2.11247355
H       -0.08012400      -1.46720466      -1.87576330
H        0.88964308      -0.09987241       2.23424958
H        1.29412008      -0.59267372      -2.58545746
12
Properties=species:S:1:pos:R:3 relative_energy_eV=0.32949242728318495 branch=left pbc="F F F"
C       -0.03177742       0.62884088      -1.46638542
O       -1.16386670       0.88174017      -1.80603367
O       -0.69727575       1.10654612       2.09154975
C        0.65096875      -0.68398888      -1.70221902
C       -0.21001913      -0.13646430       2.25621978
O       -0.86764684      -1.12968489       2.41045476
H        1.30673069      -0.95183885      -0.87222973
H        0.57951828       1.40777816      -0.95729924
H       -1.66813334       1.04488018       2.11274649
H       -0.08160076      -1.46918947      -1.87466835
H        0.88934508      -0.09861201       2.22836336
H        1.29161700      -0.58875145      -2.58331253
12
Properties=species:S:1:pos:R:3 relative_energy_eV=0.33046673279386596 branch=left pbc="F F F"
C       -0.03068182       0.62856049      -1.46820932
O       -1.16250856       0.88190199      -1.80632789
O       -0.69748768       1.10682519       2.09086465
C        0.65075842      -0.68454064      -1.70128267
C       -0.21043401      -0.13644106       2.25566180
O       -0.86709003      -1.13032450       2.41033984
H        1.30871533      -0.95392279      -0.87227076
H        0.57704027       1.40872392      -0.95460617
H       -1.66728391       1.04575672       2.11307129
H       -0.08263734      -1.47001860      -1.87437462
H        0.88889720      -0.09827552       2.22665609
H        1.29057199      -0.58698956      -2.58233607
12
Properties=species:S:1:pos:R:3 relative_energy_eV=0.3321881471802044 branch=left pbc="F F F"
C       -0.03472311       0.62062536      -1.45160369
O       -1.16400363       0.87912124      -1.79233967
O       -0.69356939       1.11290661       2.09222409
C        0.65036739      -0.68658158      -1.69242383
C       -0.20851350      -0.12996504       2.23323651
O       -0.86500939      -1.12466066       2.36666669
H        1.31424974      -0.96084980      -0.86981838
H        0.56596334       1.39149907      -0.91960722
H       -1.66255879       1.05206098       2.10749601
H       -0.08003727      -1.47331218      -1.86834764
H        0.89030604      -0.08965370       2.20548575
H        1.28538840      -0.57993466      -2.57378243
12
Properties=species:S:1:pos:R:3 relative_energy_eV=0.3340330572809762 branch=left pbc="F F F"
C       -0.03962901       0.61704782      -1.44007355
O       -1.16565552       0.87820952      -1.79140826
O       -0.68934346       1.12258796       2.08814371
C        0.64844128      -0.68784539      -1.68477652
C       -0.20691688      -0.12688587       2.22221745
O       -0.86801911      -1.12500456       2.34664188
H        1.31801836      -0.96811839      -0.87065972
H        0.56485396       1.38411479      -0.90359264
H       -1.65858076       1.04983839       2.10711060
H       -0.07506466      -1.47674327      -1.86584197
H        0.89100538      -0.08418541       2.19659637
H        1.27875026      -0.57175996      -2.56717114
12
Properties=species:S:1:pos:R:3 relative_energy_eV=0.33658021770861524 branch=left pbc="F F F"
C       -0.04675093       0.60767441      -1.41298688
O       -1.16853984       0.87324627      -1.77706498
O       -0.68512370       1.13312743       2.09097033
C        0.64847254      -0.69024280      -1.67414457
C       -0.20306536      -0.11846409       2.19426294
O       -0.86647801      -1.11866248       2.29265235
H        1.32264137      -0.97610124      -0.86755104
H        0.55434236       1.36441744      -0.86035031
H       -1.65373608       1.05630463       2.09960334
H       -0.07000347      -1.48035479      -1.85951312
H        0.89384388      -0.07468545       2.17086317
H        1.27225708      -0.56500370      -2.55955504
12
Properties=species:S:1:pos:R:3 relative_energy_eV=0.33942213056070614 branch=left pbc="F F F"
C       -0.05233552       0.59978267      -1.38565974
O       -1.16928446       0.86726113      -1.76516439
O       -0.68210276       1.14426704       2.09504832
C        0.64961668      -0.69299515      -1.66521181
C       -0.19918200      -0.11058323       2.16984594
O       -0.86390414      -1.11236714       2.24462583
H        1.32529077      -0.98323687      -0.86241070
H        0.54400125       1.34993930      -0.81983901
H       -1.65178401       1.06234073       2.09194802
H       -0.06539812      -1.48429574      -1.85562519
H        0.89754861      -0.06864803       2.14664053
H        1.26539353      -0.56020909      -2.55701158
12
Properties=species:S:1:pos:R:3 relative_energy_eV=0.3430123319012637 branch=left pbc="F F F"
C       -0.05726530       0.58920932      -1.35287756
O       -1.16904110       0.85903445      -1.74636896
O       -0.68027090       1.15489702       2.10352589
C        0.65247832      -0.69655799      -1.65548288
C       -0.19450228      -0.09980049       2.13784117
O       -0.85777564      -1.10249851       2.18211302
H        1.32844482      -0.99096646      -0.85405704
H        0.52710653       1.33153063      -0.76519099
H       -1.64984719       1.07356141       2.08044207
H       -0.06175661      -1.48845672      -1.85070436
H        0.90217382      -0.06197356       2.11356775
H        1.25811534      -0.55672349      -2.55562190
12
Properties=species:S:1:pos:R:3 relative_energy_eV=0.34663311781332595 branch=left pbc="F F F"
C       -0.05761006       0.58329511      -1.33358006
O       -1.16699516       0.85273652      -1.73320695
O       -0.67998246       1.16167376       2.11072317
C        0.65561965      -0.69912154      -1.65023933
C       -0.19220869      -0.09286695       2.11799656
O       -0.85210456      -1.09662957       2.14382889
H        1.33015862      -0.99602262      -0.84691667
H        0.51290520       1.32152660      -0.72743558
H       -1.64969067       1.08244877       2.07190373
H       -0.06062815      -1.49076822      -1.84841989
H        0.90532818      -0.05887825       2.08978125
H        1.25306790      -0.55613800      -2.55724889
12
Properties=species:S:1:pos:R:3 relative_energy_eV=0.35047051303627086 branch=left pbc="F F F"
C       -0.05491063       0.57980335      -1.32586879
O       -1.16394136       0.84866968      -1.72401436
O       -0.68116643       1.16551100       2.11658727
C        0.65896292      -0.70103780      -1.64820747
C       -0.19143135      -0.08866770       2.10706008
O       -0.84715675      -1.09413492       2.12409341
H        1.33123126      -0.99924752      -0.84107685
H        0.50103850       1.31793080      -0.70307486
H       -1.64999127       1.08929156       2.06593265
H       -0.06131495      -1.49131994      -1.84785507
H        0.90697001      -0.05823560       2.07380505
H        1.24956983      -0.55730729      -2.56019485
12
Properties=species:S:1:pos:R:3 relative_energy_eV=0.3542982898889022 branch=left pbc="F F F"
C       -0.05014506       0.57927141      -1.32724173
O       -1.16113005       0.84665154      -1.71904527
O       -0.68183996       1.16763021       2.12036888
C        0.66173522      -0.70185414      -1.64872792
C       -0.19204316      -0.08807937       2.10444321
O       -0.84415492      -1.09595335       2.12066269
H        1.33171469      -1.00061947      -0.83818145
H        0.49218575       1.31796762      -0.69158303
H       -1.65087633       1.09382459       2.06246325
H       -0.06308288      -1.48955573      -1.84780177
H        0.90704746      -0.05798442       2.06458608
H        1.24844901      -0.56004326      -2.56275673
12
Properties=species:S:1:pos:R:3 relative_energy_eV=0.3588222323523951 branch=left pbc="F F F"
C       -0.04672452       0.57787001      -1.32947489
O       -1.15970044       0.84495303      -1.71398362
O       -0.68167983       1.16765534       2.12675122
C        0.66488845      -0.70143468      -1.65072556
C       -0.19203543      -0.08753176       2.10110569
O       -0.84176050      -1.10194239       2.11986761
H        1.33310008      -1.00085400      -0.83917464
H        0.48261250       1.31640473      -0.68000898
H       -1.65136056       1.10109152       2.05796228
H       -0.06669860      -1.48299465      -1.84538122
H        0.90506747      -0.05494226       2.05405160
H        1.25215115      -0.56701925      -2.56380328
12
Properties=species:S:1:pos:R:3 relative_energy_eV=0.3651159598975937 branch=left pbc="F F F"
C       -0.04891166       0.56938010      -1.30889873
O       -1.16209041       0.83799950      -1.68951334
O       -0.67817572       1.16766378       2.13681117
C        0.66625101      -0.70064440      -1.64531448
C       -0.19055084      -0.08396951       2.07435852
O       -0.83459019      -1.09492328       2.06345246
H        1.33678874      -1.00265831      -0.84128654
H        0.46270387       1.28848571      -0.63123278
H       -1.64618031       1.11891853       2.04583811
H       -0.06715622      -1.47769944      -1.83367638
H        0.90388089      -0.03998718       2.01921791
H        1.25589061      -0.57130986      -2.55256969
12
Properties=species:S:1:pos:R:3 relative_energy_eV=0.373337523860755 branch=left pbc="F F F"
C       -0.05171233       0.56558638      -1.29366826
O       -1.16653811       0.83201826      -1.67782714
O       -0.67621584       1.16718453       2.14701201
C        0.66710266      -0.69839757      -1.64388773
C       -0.18910973      -0.08173930       2.05718263
O       -0.83115970      -1.09737359       2.03326972
H        1.33975124      -1.00259762      -0.84724672
H        0.45149666       1.27147447      -0.59917043
H       -1.64256858       1.13323874       2.03681090
H       -0.06991642      -1.46953970      -1.82454109
H        0.90193310      -0.02825150       1.99561809
H        1.26479681      -0.58034748      -2.54636575
12
Properties=species:S:1:pos:R:3 relative_energy_eV=0.3823054954664258 branch=left pbc="F F F"
C       -0.06126869       0.55786626      -1.27001377
O       -1.17250531       0.82600119      -1.66357216
O       -0.67356230       1.16756521       2.15488278
C        0.66604030      -0.69760510      -1.63844656
C       -0.18650738      -0.07644754       2.03242681
O       -0.82698858      -1.09006316       1.98461738
H        1.34328335      -1.00376214      -0.85008337
H        0.44517584       1.25101197      -0.56165160
H       -1.63828046       1.14505494       2.02854542
H       -0.06959538      -1.46832241      -1.81570402
H        0.90248110      -0.01754985       1.97378580
H        1.26958722      -0.58249370      -2.53760046
12
Properties=species:S:1:pos:R:3 relative_energy_eV=0.3900591837191314 branch=left pbc="F F F"
C       -0.06793617       0.55583802      -1.25487656
O       -1.17839524       0.82162613      -1.65753763
O       -0.67246279       1.17060250       2.15964679
C        0.66458808      -0.69662519      -1.63494488
C       -0.18608217      -0.07468891       2.01756369
O       -0.82569258      -1.08823398       1.95723069
H        1.34634539      -1.00468243      -0.85153308
H        0.44405909       1.23915242      -0.53864321
H       -1.63531202       1.15166036       2.02374604
H       -0.07047531      -1.46860051      -1.81060606
H        0.90480241      -0.01066557       1.96109013
H        1.27442101      -0.58412717      -2.53394968
12
Properties=species:S:1:pos:R:3 relative_energy_eV=0.40533133035751234 branch=left pbc="F F F"
C       -0.08435975       0.54550065      -1.23100523
O       -1.18809357       0.81908180      -1.64118275
O       -0.66967748       1.17700001       2.16534442
C        0.66355604      -0.69693938      -1.62609751
C       -0.18433079      -0.06729566       1.98527591
O       -0.82381386      -1.07937570       1.90025126
H        1.35535953      -1.00901699      -0.84581953
H        0.44269895       1.21744475      -0.49881047
H       -1.63072807       1.15977127       2.01667566
H       -0.07227992      -1.47512638      -1.80304021
H        0.91173793      -0.00108627       1.94331785
H        1.27779069      -0.57870241      -2.52772315
12
Properties=species:S:1:pos:R:3 relative_energy_eV=0.420978125079273 branch=left pbc="F F F"
C       -0.09240212       0.54033054      -1.21744236
O       -1.19399294       0.81953737      -1.62646199
O       -0.66769004       1.18469723       2.16658140
C        0.66400513      -0.69769817      -1.61899392
C       -0.18420288      -0.06454414       1.96429057
O       -0.82432727      -1.07596469       1.86228604
H        1.36281252      -1.01290420      -0.83863184
H        0.43729561       1.19847823      -0.47359208
H       -1.62649927       1.16464238       2.01202195
H       -0.07449067      -1.48033131      -1.79743592
H        0.91819210       0.00723161       1.92872240
H        1.27915951      -0.57221917      -2.52415798
12
Properties=species:S:1:pos:R:3 relative_energy_eV=0.45197619214195583 branch=left pbc="F F F"
C       -0.10292781       0.52085327      -1.18816314
O       -1.20093878       0.82645106      -1.58060193
O       -0.66000077       1.19421518       2.16292688
C        0.66756412      -0.70621337      -1.60056164
C       -0.17784378      -0.04876098       1.91488330
O       -0.82484590      -1.05845712       1.76383191
H        1.37622974      -1.02197368      -0.81777493
H        0.41330400       1.14837318      -0.42173464
H       -1.61766999       1.17335912       2.00256369
H       -0.07222442      -1.49310790      -1.78453391
H        0.92803832       0.02380025       1.89560952
H        1.26917491      -0.54728331      -2.50925881
12
Properties=species:S:1:pos:R:3 relative_energy_eV=0.49075324280784116 branch=left pbc="F F F"
C       -0.10761335       0.50400485      -1.15988450
O       -1.20439107       0.83120796      -1.53583878
O       -0.65247613       1.19972430       2.15610323
C        0.66919584      -0.71586060      -1.58232431
C       -0.17178299      -0.03531272       1.87203279
O       -0.82287126      -1.03377457       1.66694604
H        1.38433206      -1.02958220      -0.79961096
H        0.38864425       1.10001086      -0.37436429
H       -1.60911085       1.18029423       1.99457003
H       -0.06459203      -1.50654234      -1.77305809
H        0.93487202       0.03810323       1.86385913
H        1.25365314      -0.52101730      -2.49124398
12
Properties=species:S:1:pos:R:3 relative_energy_eV=0.5369999880040268 branch=left pbc="F F F"
C       -0.11140316       0.48521533      -1.13287743
O       -1.20681479       0.83546340      -1.49303568
O       -0.64477933       1.19960650       2.14933138
C        0.67052953      -0.72710767      -1.56444862
C       -0.16349757      -0.01952323       1.83048515
O       -0.81850917      -1.00329065       1.57180560
H        1.38926610      -1.03602350      -0.78406227
H        0.36632710       1.05637310      -0.33003340
H       -1.60232112       1.18628828       1.98766694
H       -0.05375502      -1.51965682      -1.76298727
H        0.93789288       0.04879768       1.83662538
H        1.23492416      -0.49488673      -2.47128348
12
Properties=species:S:1:pos:R:3 relative_energy_eV=0.5853359620141418 branch=left pbc="F F F"
C       -0.11118224       0.47016316      -1.10352103
O       -1.20791937       0.83665118      -1.45853804
O       -0.63814847       1.19813774       2.14156102
C        0.66921019      -0.73642889      -1.54841805
C       -0.15650893      -0.00782784       1.79850656
O       -0.81305266      -0.97298050       1.48883678
H        1.38920054      -1.04004844      -0.77405978
H        0.34775563       1.01912555      -0.29407144
H       -1.59666021       1.19098145       1.98236885
H       -0.04067064      -1.53104545      -1.75464703
H        0.93862256       0.05727620       1.81211919
H        1.21721318      -0.47274848      -2.45295073
12
Properties=species:S:1:pos:R:3 relative_energy_eV=0.6302782050352107 branch=left pbc="F F F"
C       -0.11711528       0.44985546      -1.06427701
O       -1.20876538       0.83201872      -1.43114218
O       -0.63218313       1.19567919       2.13478259
C        0.66209833      -0.74219920      -1.53140146
C       -0.14901361       0.00605394       1.76594468
O       -0.80431963      -0.93413726       1.39710382
H        1.38461770      -1.04282747      -0.76881346
H        0.34047975       0.98917847      -0.25203484
H       -1.59247621       1.19407732       1.97790406
H       -0.02302688      -1.54651057      -1.74838017
H        0.93936345       0.06192355       1.79121877
H        1.19820043      -0.45185649      -2.43371847
12
Properties=species:S:1:pos:R:3 relative_energy_eV=0.6850581272319687 branch=left pbc="F F F"
C       -0.12823729       0.43039189      -1.01904406
O       -1.20727410       0.82139888      -1.41117330
O       -0.62774849       1.19765535       2.12831061
C        0.64995647      -0.74288858      -1.51540546
C       -0.14544166       0.01617857       1.73614896
O       -0.79506021      -0.89468468       1.30568305
H        1.37730470      -1.04483998      -0.76680096
H        0.34218022       0.96527572      -0.20656062
H       -1.58812195       1.19548325       1.97412232
H       -0.00384997      -1.56515208      -1.74375054
H        0.94378243       0.06576097       1.77120197
H        1.18036938      -0.43332364      -2.41554563
12
Properties=species:S:1:pos:R:3 relative_energy_eV=0.7266645394010993 branch=left pbc="F F F"
C       -0.14074898       0.41508734      -0.99066534
O       -1.20495373       0.81308465      -1.40060453
O       -0.62601906       1.20029352       2.12532989
C        0.64175382      -0.74075527      -1.50477180
C       -0.14265001       0.02439342       1.71570583
O       -0.79020382      -0.87088331       1.24655605
H        1.37216436      -1.04611903      -0.76649423
H        0.34836222       0.95442495      -0.17398721
H       -1.58513565       1.19567453       1.97194599
H        0.00784555      -1.57907666      -1.74177064
H        0.94804146       0.06730125       1.76042623
H        1.16940334      -0.42216971      -2.40448388
12
Properties=species:S:1:pos:R:3 relative_energy_eV=0.7948818722416036 branch=left pbc="F F F"
C       -0.14425708       0.41772780      -0.96369052
O       -1.20118596       0.79725124      -1.39888624
O       -0.62279124       1.21703301       2.12071464
C        0.63144392      -0.72702670      -1.49609787
C       -0.14750134       0.02278263       1.70997470
O       -0.79375346      -0.86734571       1.20320584
H        1.36441031      -1.04673586      -0.76902826
H        0.35592988       0.94340638      -0.14331630
H       -1.58262498       1.19386359       1.96953077
H        0.01530059      -1.59834110      -1.74191993
H        0.96068964       0.07416092       1.74306885
H        1.16219919      -0.41552052      -2.39636934
12
Properties=species:S:1:pos:R:3 relative_energy_eV=0.8713350339257886 branch=left pbc="F F F"
C       -0.14793869       0.42645555      -0.95596710
O       -1.19930181       0.78601675      -1.39838836
O       -0.62366842       1.22892328       2.11974210
C        0.62403099      -0.72117146      -1.49367101
C       -0.14644498       0.02324331       1.70610748
O       -0.79907362      -0.87003274       1.18052150
H        1.36257831      -1.04825400      -0.76877650
H        0.36269189       0.93854246      -0.12200554
H       -1.58002601       1.19241850       1.96847364
H        0.01898669      -1.61079249      -1.74303739
H        0.96827394       0.07766251       1.73545945
H        1.15775117      -0.41175600      -2.39127191
12
Properties=species:S:1:pos:R:3 relative_energy_eV=0.9926213868511695 branch=left pbc="F F F"
C       -0.13763823       0.45742945      -0.98265559
O       -1.22282194       0.76999991      -1.39302931
O       -0.62021745       1.23225253       2.12266717
C        0.61153928      -0.73443760      -1.48629572
C       -0.15023424       0.02727346       1.67270785
O       -0.79381619      -0.84736343       1.14564264
H        1.36809775      -1.05539717      -0.76155558
H        0.37685514       0.92673259      -0.06328115
H       -1.57835400       1.19001579       1.96656077
H        0.02938244      -1.63572840      -1.74686938
H        0.97561351       0.07654295       1.73649899
H        1.13945336      -0.39606437      -2.37320433
12
Properties=species:S:1:pos:R:3 relative_energy_eV=1.20671024319563 branch=left pbc="F F F"
C       -0.16146551       0.43260712      -0.98643593
O       -1.24458034       0.76815730      -1.37359691
O       -0.62152387       1.21126499       2.13501427
C        0.60817379      -0.75609127      -1.47284613
C       -0.12601211       0.07183360       1.59841762
O       -0.78016672      -0.79423644       1.06202916
H        1.37674292      -1.06330946      -0.75135964
H        0.39691658       0.92254802       0.00389424
H       -1.57853916       1.19025448       1.96472177
H        0.04318610      -1.65864179      -1.74970303
H        0.97074565       0.06081512       1.75730472
H        1.11438206      -0.37394589      -2.35025375
12
Properties=species:S:1:pos:R:3 relative_energy_eV=1.5417959958940628 branch=left pbc="F F F"
C       -0.18794511       0.40920548      -0.98592328
O       -1.26376953       0.76787485      -1.35203028
O       -0.62324636       1.17995898       2.14463384
C        0.60883529      -0.78421510      -1.46064016
C       -0.09668116       0.11836123       1.52283516
O       -0.76386944      -0.73368007       0.98413612
H        1.38513265      -1.07053770      -0.74155533
H        0.41441125       0.91852914       0.06137681
H       -1.57942278       1.19169023       1.96362437
H        0.05718445      -1.67776790      -1.75200703
H        0.95836651       0.04378577       1.78001769
H        1.08886357      -0.35194908      -2.32728153
12
Properties=species:S:1:pos:R:3 relative_energy_eV=1.6746056139218126 branch=left pbc="F F F"
C       -0.19513814       0.39431739      -0.98010808
O       -1.27366900       0.77095247      -1.34542545
O       -0.62337598       1.16636642       2.14725436
C        0.60907326      -0.79680157      -1.45655159
C       -0.08380011       0.13546640       1.49752496
O       -0.75757554      -0.71066405       0.95666142
H        1.38744335      -1.07222129      -0.73867432
H        0.42020225       0.91870143       0.07797787
H       -1.58081635       1.19266763       1.96336656
H        0.06275027      -1.68094222      -1.75188419
H        0.95143498       0.03787038       1.78802758
H        1.08133033      -0.34445715      -2.32098273
12
Properties=species:S:1:pos:R:3 relative_energy_eV=1.7606275726247986 branch=left pbc="F F F"
C       -0.21943141       0.35118042      -0.95027482
O       -1.27195217       0.77922673      -1.33766136
O       -0.62576377       1.16036261       2.15639356
C        0.61152099      -0.79849410      -1.45173250
C       -0.08086880       0.14812350       1.46582900
O       -0.74379922      -0.68143536       0.91725042
H        1.38832731      -1.07247424      -0.73713353
H        0.42582638       0.92383020       0.08287970
H       -1.58216538       1.19298878       1.96249071
H        0.06572229      -1.68178850      -1.75105195
H        0.95215741       0.02983276       1.79931979
H        1.07828564      -0.34009695      -2.31912264
12
Properties=species:S:1:pos:R:3 relative_energy_eV=1.922805700887693 branch=left pbc="F F F"
C       -0.26678848       0.27879220      -0.90010259
O       -1.25885963       0.78999858      -1.32632325
O       -0.63235751       1.15658326       2.17028744
C        0.61299154      -0.79497356      -1.44708732
C       -0.06128079       0.18071814       1.43609398
O       -0.73738307      -0.65893966       0.84552569
H        1.38950627      -1.07228242      -0.73531779
H        0.43640119       0.93634384       0.08750991
H       -1.58316575       1.19352710       1.96133107
H        0.06886587      -1.68094256      -1.74925129
H        0.95333585       0.01873846       1.81319500
H        1.07659379      -0.33630754      -2.31867448
12
Properties=species:S:1:pos:R:3 relative_energy_eV=2.1664208374204463 branch=left pbc="F F F"
C       -0.31711930       0.20784881      -0.85076857
O       -1.24116826       0.79951536      -1.31320265
O       -0.63892676       1.15410991       2.18471418
C        0.61490041      -0.78975354      -1.44219473
C       -0.04210103       0.21423717       1.41069618
O       -0.73233650      -0.63997353       0.77261367
H        1.39051899      -1.07194538      -0.73362853
H        0.44547132       0.94820547       0.08770624
H       -1.58389393       1.19407949       1.96022666
H        0.07147481      -1.67971502      -1.74731667
H        0.95548412       0.00765946       1.82715910
H        1.07555539      -0.33301237      -2.31881849
12
Properties=species:S:1:pos:R:3 relative_energy_eV=2.2157515491417143 branch=left pbc="F F F"
C       -0.32547809       0.19379527      -0.83999736
O       -1.23831170       0.80215572      -1.31108877
O       -0.64021835       1.15416229       2.18776124
C        0.61570045      -0.78794843      -1.44101586
C       -0.03845737       0.22098874       1.40761621
O       -0.73199654      -0.63750453       0.75769965
H        1.39060267      -1.07181817      -0.73338827
H        0.44644324       0.95001478       0.08565516
H       -1.58389455       1.19411427       1.96004555
H        0.07163339      -1.67968505      -1.74702927
H        0.95627495       0.00554044       1.82996287
H        1.07556116      -0.33255949      -2.31903477
12
Properties=species:S:1:pos:R:3 relative_energy_eV=2.282113980734721 branch=ts pbc="F F F"
C       -0.35102956       0.16209162      -0.82770067
O       -1.23052279       0.80504043      -1.30525803
O       -0.64313575       1.15420828       2.19249421
C        0.61891802      -0.78267088      -1.43750812
C       -0.02098010       0.24140711       1.39307439
O       -0.73344649      -0.63526748       0.73526136
H        1.38926600      -1.06619443      -0.72628447
H        0.47878986       0.95207225       0.20716145
H       -1.58370693       1.19667790       1.96061950
H        0.07199692      -1.67400520      -1.73950610
H        0.93237862      -0.03064730       1.86245946
H        1.07145931      -0.32273311      -2.31480974
12
Properties=species:S:1:pos:R:3 relative_energy_eV=2.174765607343943 branch=right pbc="F F F"
C       -0.37658104       0.13038798      -0.81540397
O       -1.22273388       0.80792515      -1.29942730
O       -0.64605315       1.15425428       2.19722718
C        0.62213559      -0.77739332      -1.43400038
C       -0.00350282       0.26182547       1.37853257
O       -0.73489644      -0.63303044       0.71282307
H        1.38792934      -1.06057070      -0.71918068
H        0.51113647       0.95412973       0.32866775
H       -1.58351931       1.19924154       1.96119344
H        0.07236044      -1.66832536      -1.73198293
H        0.90848229      -0.06683504       1.89495605
H        1.06735746      -0.31290673      -2.31058470
12
Properties=species:S:1:pos:R:3 relative_energy_eV=2.076978321902061 branch=right pbc="F F F"
C       -0.39185909       0.11596583      -0.81101942
O       -1.21578462       0.80905128      -1.29401216
O       -0.64814403       1.15420372       2.20018032
C        0.62452390      -0.77418896      -1.43205079
C        0.01002317       0.27450463       1.36916089
O       -0.73528844      -0.63014101       0.69792870
H        1.38806158      -1.06059189      -0.71889415
H        0.50880957       0.94957888       0.33715014
H       -1.58360200       1.19922410       1.96106082
H        0.07240468      -1.66828140      -1.73173541
H        0.90570405      -0.06793769       1.89542955
H        1.06726621      -0.31268492      -2.31037840
12
Properties=species:S:1:pos:R:3 relative_energy_eV=1.9763208791991929 branch=right pbc="F F F"
C       -0.47542775       0.06733981      -0.79224032
O       -1.16812232       0.80347198      -1.26124358
O       -0.66413749       1.15651888       2.21748825
C        0.64266272      -0.75554352      -1.42036596
C        0.08416964       0.33165839       1.33400768
O       -0.74347269      -0.62424150       0.62685817
H        1.38755814      -1.06047944      -0.71907415
H        0.49522048       0.92560798       0.36009800
H       -1.58318737       1.19948409       1.96156025
H        0.06935228      -1.67070761      -1.73155613
H        0.89030802      -0.07175550       1.89672159
H        1.06719132      -0.31265101      -2.30943374
12
Properties=species:S:1:pos:R:3 relative_energy_eV=1.5876900480798213 branch=right pbc="F F F"
C       -0.43942412      -0.00870564      -0.79457857
O       -1.22457555       0.83726800      -1.28584438
O       -0.63753358       1.14480100       2.20117866
C        0.61328625      -0.77202960      -1.43213676
C        0.04048399       0.34586459       1.28732638
O       -0.71269041      -0.58822199       0.62968263
H        1.39189356      -1.06125572      -0.71263107
H        0.50750088       0.93746842       0.44867622
H       -1.58560620       1.19804934       1.95697669
H        0.08417825      -1.65882932      -1.72695742
H        0.89955244      -0.07757951       1.90004627
H        1.06504949      -0.30812702      -2.30891854
12
Properties=species:S:1:pos:R:3 relative_energy_eV=1.3680666923337412 branch=right pbc="F F F"
C       -0.46282630      -0.00842062      -0.77672355
O       -1.20572819       0.83691272      -1.27749369
O       -0.64988970       1.14731610       2.20606327
C        0.62565882      -0.76675525      -1.42727869
C        0.06946265       0.34961408       1.32031690
O       -0.72561043      -0.59407728       0.60012201
H        1.38999607      -1.06097287      -0.71479150
H        0.50720606       0.93790370       0.41924395
H       -1.58181428       1.19889889       1.95750932
H        0.08203653      -1.66789467      -1.73082960
H        0.88990560      -0.07581262       1.89470042
H        1.06371816      -0.30800965      -2.30801878
12
Properties=species:S:1:pos:R:3 relative_energy_eV=1.3069867091908236 branch=right pbc="F F F"
C       -0.47239914      -0.00275306      -0.77205324
O       -1.19533254       0.82837383      -1.26889391
O       -0.64655677       1.14490559       2.20658788
C        0.61912027      -0.77290407      -1.42770382
C        0.05948988       0.34871505       1.33178975
O       -0.72433358      -0.58383130       0.58734069
H        1.39104511      -1.06157798      -0.71426327
H        0.51361663       0.94562794       0.41202250
H       -1.58189531       1.19897054       1.95398510
H        0.08790188      -1.67240864      -1.73377724
H        0.89041653      -0.07931446       1.89482172
H        1.06104203      -0.30510091      -2.30703611
12
Properties=species:S:1:pos:R:3 relative_energy_eV=1.2497274426586955 branch=right pbc="F F F"
C       -0.47722922      -0.01012822      -0.76397061
O       -1.18903280       0.82611098      -1.25994859
O       -0.65109131       1.14316297       2.21052647
C        0.61330528      -0.77740401      -1.42703205
C        0.05886090       0.35165525       1.33347922
O       -0.72568775      -0.56831561       0.57038325
H        1.39038520      -1.06195329      -0.71497065
H        0.52199941       0.95512706       0.41242931
H       -1.57816429       1.19964009       1.95009946
H        0.09555972      -1.68245142      -1.73928426
H        0.88819197      -0.08532045       1.89452894
H        1.05501789      -0.30142085      -2.30342050
12
Properties=species:S:1:pos:R:3 relative_energy_eV=1.1163776280664024 branch=right pbc="F F F"
C       -0.48751662      -0.04201878      -0.74336317
O       -1.17451767       0.82416123      -1.23164624
O       -0.65703602       1.13096839       2.22565950
C        0.59524833      -0.79736162      -1.42692297
C        0.06221496       0.37229626       1.32904168
O       -0.73257961      -0.51255755       0.52234575
H        1.38554404      -1.06324349      -0.71935825
H        0.55473193       0.99208874       0.43182410
H       -1.57379676       1.20405696       1.93169014
H        0.12638025      -1.72284946      -1.76134700
H        0.87535780      -0.10976816       1.89171734
H        1.02808438      -0.28707012      -2.28682097
12
Properties=species:S:1:pos:R:3 relative_energy_eV=1.012405425652105 branch=right pbc="F F F"
C       -0.48680748      -0.04989649      -0.75281102
O       -1.17334544       0.82584548      -1.22516270
O       -0.66185642       1.12293191       2.23063024
C        0.58737394      -0.81090420      -1.42953072
C        0.06673839       0.38448799       1.31931173
O       -0.73513960      -0.49301323       0.52682615
H        1.38239055      -1.06420083      -0.72193665
H        0.56978417       1.01017011       0.45525179
H       -1.56919093       1.20749456       1.92262523
H        0.14290854      -1.74237290      -1.77230947
H        0.86646460      -0.12200183       1.88801307
H        1.01279474      -0.27983819      -2.27808780
12
Properties=species:S:1:pos:R:3 relative_energy_eV=0.8233173656535655 branch=right pbc="F F F"
C       -0.49975486      -0.07217972      -0.77480068
O       -1.16710784       0.83703942      -1.22045133
O       -0.66763977       1.09893880       2.24982935
C        0.57179769      -0.84904517      -1.43915871
C        0.09260663       0.42485060       1.30021137
O       -0.73764401      -0.44587187       0.54402652
H        1.37108894      -1.06759084      -0.73012018
H        0.60972389       1.06175252       0.53104146
H       -1.56267332       1.22080248       1.89069929
H        0.19153654      -1.80395543      -1.80685055
H        0.83413312      -0.15643894       1.87246287
H        0.96604807      -0.25959960      -2.25406973
12
Properties=species:S:1:pos:R:3 relative_energy_eV=0.7698895236953831 branch=right pbc="F F F"
C       -0.51300303      -0.07458884      -0.77987176
O       -1.16411812       0.83990876      -1.23212362
O       -0.67066644       1.09494247       2.25269148
C        0.56723788      -0.85956710      -1.44359482
C        0.09966574       0.43310719       1.30527855
O       -0.73161980      -0.44281396       0.55171558
H        1.36732856      -1.06918640      -0.73196844
H        0.61903170       1.07809088       0.56025085
H       -1.55577020       1.22632707       1.88235652
H        0.20536562      -1.81839475      -1.81605984
H        0.82497198      -0.16374434       1.86541011
H        0.95369120      -0.25537876      -2.25126500
12
Properties=species:S:1:pos:R:3 relative_energy_eV=0.7016173874835658 branch=right pbc="F F F"
C       -0.54061264      -0.08134539      -0.78365377
O       -1.15644855       0.83982794      -1.25885064
O       -0.67282141       1.09307677       2.26078602
C        0.55715540      -0.87015544      -1.44909558
C        0.10632884       0.44229424       1.32414867
O       -0.71687233      -0.44342795       0.55170842
H        1.35935081      -1.07196676      -0.73528434
H        0.63359213       1.10854485       0.61335484
H       -1.54412746       1.23846299       1.86696817
H        0.22653716      -1.83999889      -1.83133762
H        0.81514143      -0.17523989       1.85587615
H        0.93489171      -0.25137033      -2.25180081
12
Properties=species:S:1:pos:R:3 relative_energy_eV=0.6765686178405304 branch=right pbc="F F F"
C       -0.55031941      -0.08538304      -0.78652645
O       -1.15409846       0.83487106      -1.27576370
O       -0.67486783       1.09593377       2.26649490
C        0.55137869      -0.87091390      -1.45195781
C        0.10572998       0.44311850       1.33514195
O       -0.70807511      -0.44782626       0.54705980
H        1.35376355      -1.07256828      -0.73718239
H        0.63688223       1.12208808       0.64235603
H       -1.53752403       1.24694043       1.86058953
H        0.23285539      -1.84370687      -1.83644992
H        0.81753434      -0.18047378       1.85595897
H        0.92885574      -0.25337757      -2.25690144
12
Properties=species:S:1:pos:R:3 relative_energy_eV=0.6522362645573594 branch=right pbc="F F F"
C       -0.55355685      -0.09090396      -0.79307398
O       -1.15431549       0.82356919      -1.29396670
O       -0.67744545       1.09964564       2.27467431
C        0.54619053      -0.86870742      -1.45619796
C        0.10393615       0.44053359       1.34715253
O       -0.69863490      -0.45169188       0.53924561
H        1.34565286      -1.07194916      -0.74002085
H        0.63664033       1.13509409       0.67661239
H       -1.53168127       1.25991056       1.85412365
H        0.23494508      -1.84183511      -1.84007847
H        0.82539793      -0.18546765       1.86122778
H        0.92498615      -0.25949579      -2.26687887
12
Properties=species:S:1:pos:R:3 relative_energy_eV=0.6327038416548021 branch=right pbc="F F F"
C       -0.54861517      -0.09554904      -0.80128359
O       -1.15857376       0.80866802      -1.30728857
O       -0.68132409       1.10077560       2.28196392
C        0.54527195      -0.86513921      -1.46188748
C        0.10277944       0.43548619       1.35650016
O       -0.69122046      -0.45205319       0.53211736
H        1.33795972      -1.07003226      -0.74294909
H        0.63289557       1.14325953       0.70576668
H       -1.52757502       1.27448210       1.85022125
H        0.23062751      -1.83510612      -1.84120978
H        0.83485906      -0.18796294       1.87067268
H        0.92503032      -0.26812661      -2.27980414
12
Properties=species:S:1:pos:R:3 relative_energy_eV=0.6156864803378994 branch=right pbc="F F F"
C       -0.53916610      -0.09908868      -0.80929135
O       -1.16674089       0.79155547      -1.31561100
O       -0.68670524       1.09626022       2.28908620
C        0.54875318      -0.86254412      -1.46948616
C        0.10319962       0.43099741       1.36336375
O       -0.68500695      -0.44686368       0.52616171
H        1.33212605      -1.06742846      -0.74596721
H        0.62909588       1.14946725       0.73109475
H       -1.52462555       1.29113617       1.84740874
H        0.22168929      -1.82820731      -1.84197268
H        0.84211573      -0.18907449       1.88299911
H        0.92738007      -0.27750772      -2.29496648
12
Properties=species:S:1:pos:R:3 relative_energy_eV=0.5999489465229999 branch=right pbc="F F F"
C       -0.52910970      -0.10011135      -0.81594380
O       -1.17877753       0.77388340      -1.32102598
O       -0.69419266       1.08534926       2.29571933
C        0.55564230      -0.86153107      -1.47859800
C        0.10471423       0.42813423       1.36914586
O       -0.67823486      -0.43847204       0.52261282
H        1.33025166      -1.06504595      -0.74893400
H        0.62736738       1.15520690       0.75239092
H       -1.52135756       1.30934608       1.84580182
H        0.20899471      -1.82265231      -1.84282148
H        0.84479824      -0.18856737       1.89665407
H        0.93201886      -0.28683773      -2.31218218
12
Properties=species:S:1:pos:R:3 relative_energy_eV=0.5821657197720924 branch=right pbc="F F F"
C       -0.52004576      -0.09947333      -0.82215660
O       -1.19642910       0.75304793      -1.32715259
O       -0.70590267       1.06546653       2.30497124
C        0.56463303      -0.86224132      -1.49015659
C        0.10733541       0.42843522       1.37678701
O       -0.66751897      -0.42680090       0.51944205
H        1.33289747      -1.06341291      -0.75348135
H        0.63023544       1.16498154       0.77693634
H       -1.51563819       1.33338706       1.84371739
H        0.19244583      -1.81954823      -1.84511884
H        0.84166681      -0.18755718       1.91325961
H        0.93843580      -0.29758236      -2.33422829
12
Properties=species:S:1:pos:R:3 relative_energy_eV=0.5641731651212467 branch=right pbc="F F F"
C       -0.51414128      -0.09666808      -0.82794394
O       -1.21851231       0.73092750      -1.33606919
O       -0.72239006       1.03901106       2.31620862
C        0.57295771      -0.86380852      -1.50240579
C        0.10958018       0.43218258       1.38751921
O       -0.65152607      -0.41612965       0.51632581
H        1.34075731      -1.06351966      -0.76099802
H        0.63831824       1.17902382       0.80366382
H       -1.50588807       1.36139775       1.84207401
H        0.17425202      -1.81790171      -1.84802661
H        0.83259425      -0.18591158       1.93120270
H        0.94611319      -0.30990149      -2.35873126
12
Properties=species:S:1:pos:R:3 relative_energy_eV=0.5499153775708692 branch=right pbc="F F F"
C       -0.51325145      -0.09328483      -0.83191394
O       -1.23786914       0.71402170      -1.34559126
O       -0.73973941       1.01478332       2.32645722
C        0.57642194      -0.86547960      -1.51109536
C        0.11035939       0.43905375       1.39866850
O       -0.63405729      -0.40993893       0.51223362
H        1.35102433      -1.06594273      -0.77168326
H        0.64968176       1.19426790       0.82635598
H       -1.49403003       1.38538373       1.84145073
H        0.16194053      -1.81837057      -1.85079217
H        0.82032903      -0.18502853       1.94529487
H        0.95130542      -0.32076319      -2.37656558
12
Properties=species:S:1:pos:R:3 relative_energy_eV=0.5413631974915916 branch=right pbc="F F F"
C       -0.51518399      -0.09059422      -0.83399919
O       -1.24849322       0.70659024      -1.35244697
O       -0.75167865       1.00185185       2.33165018
C        0.57474812      -0.86580050      -1.51388276
C        0.10911727       0.44466346       1.40638184
O       -0.62075564      -0.40998310       0.50859248
H        1.35917931      -1.06963509      -0.78310780
H        0.65816119       1.20426811       0.83862447
H       -1.48506831       1.39861298       1.84270480
H        0.15869098      -1.81889602      -1.85165122
H        0.81081577      -0.18470767       1.95229894
H        0.95258228      -0.32766801      -2.38234546
12
Properties=species:S:1:pos:R:3 relative_energy_eV=0.5369857349032827 branch=right pbc="F F F"
C       -0.51617672      -0.09028448      -0.83614780
O       -1.25377143       0.70236355      -1.35718561
O       -0.75869723       0.99512485       2.33599146
C        0.57152860      -0.86574273      -1.51500527
C        0.10796028       0.44808886       1.41135361
O       -0.61094403      -0.41045417       0.50441288
H        1.36354609      -1.07316494      -0.79462273
H        0.66303337       1.21160871       0.84959867
H       -1.48036750       1.40903814       1.84276020
H        0.16013630      -1.81978313      -1.85220690
H        0.80521055      -0.18568552       1.95704376
H        0.95065682      -0.33240713      -2.38317295
12
Properties=species:S:1:pos:R:3 relative_energy_eV=0.5341758131398819 branch=right pbc="F F F"
C       -0.51505690      -0.08923550      -0.83728976
O       -1.25508591       0.70224536      -1.35834037
O       -0.76211226       0.99542765       2.33551305
C        0.56895192      -0.86431925      -1.51433503
C        0.10597088       0.44753430       1.41299537
O       -0.60520701      -0.41395618       0.50280960
H        1.36698889      -1.07663610      -0.80505140
H        0.66228834       1.21179800       0.85158712
H       -1.47934327       1.41388437       1.84578774
H        0.16240068      -1.81812501      -1.85014299
H        0.80329740      -0.18494840       1.95973997
H        0.94902233      -0.33496726      -2.38045399
12
Properties=species:S:1:pos:R:3 relative_energy_eV=0.5320010641480621 branch=right pbc="F F F"
C       -0.51244539      -0.08975544      -0.83900689
O       -1.25735239       0.69856538      -1.35903650
O       -0.76651984       0.99212741       2.33827910
C        0.56773030      -0.86457409      -1.51664343
C        0.10528698       0.44766639       1.41526877
O       -0.59867741      -0.41322709       0.49983392
H        1.37031359      -1.08007267      -0.81671207
H        0.66199839       1.21495575       0.86049214
H       -1.47898394       1.42499640       1.84644522
H        0.16360221      -1.81872781      -1.84992661
H        0.80100380      -0.18556509       1.96563536
H        0.94615878      -0.33768715      -2.38180973
12
Properties=species:S:1:pos:R:3 relative_energy_eV=0.5295304580286029 branch=right pbc="F F F"
C       -0.50904165      -0.08964272      -0.83862954
O       -1.25594568       0.69841067      -1.35570199
O       -0.76880257       0.99357538       2.33677722
C        0.56807434      -0.86479945      -1.51839638
C        0.10412014       0.44571589       1.41512328
O       -0.59620192      -0.41431776       0.49979133
H        1.37433359      -1.08339529      -0.82592004
H        0.65796578       1.21263975       0.86122754
H       -1.48095205       1.43139307       1.84967121
H        0.16435149      -1.81899520      -1.84852536
H        0.80048531      -0.18463426       1.96989156
H        0.94372828      -0.33724810      -2.38248953
12
Properties=species:S:1:pos:R:3 relative_energy_eV=0.5256999744615314 branch=right pbc="F F F"
C       -0.50334518      -0.09043999      -0.83756379
O       -1.25386602       0.69626377      -1.34998657
O       -0.77512692       0.99345152       2.33538249
C        0.57034799      -0.86661434      -1.52429471
C        0.10199662       0.44355964       1.41713620
O       -0.59051456      -0.41572534       0.50041102
H        1.38373580      -1.08953386      -0.84242219
H        0.65193449       1.21091419       0.86685595
H       -1.48302808       1.44687348       1.85489089
H        0.16336960      -1.82150610      -1.84782231
H        0.79761369      -0.18264263       1.97957796
H        0.93899760      -0.33589837      -2.38934565
12
Properties=species:S:1:pos:R:3 relative_energy_eV=0.5215925820029952 branch=right pbc="F F F"
C       -0.49813134      -0.09311970      -0.83553680
O       -1.24996257       0.69412579      -1.34355014
O       -0.78444903       0.99279599       2.33466050
C        0.57324764      -0.86986169      -1.53249889
C        0.09870380       0.44309251       1.42162408
O       -0.58286490      -0.41903307       0.50154031
H        1.39636359      -1.09687277      -0.86200229
H        0.64674163       1.21129405       0.87606020
H       -1.48342158       1.46627905       1.86051812
H        0.16211011      -1.82644972      -1.84894704
H        0.79204464      -0.18007539       1.99113706
H        0.93173303      -0.33347309      -2.40018581
12
Properties=species:S:1:pos:R:3 relative_energy_eV=0.5160761682400334 branch=right pbc="F F F"
C       -0.49163531      -0.09918089      -0.83253703
O       -1.24271205       0.69136174      -1.33535200
O       -0.79989936       0.99134528       2.33540473
C        0.57725734      -0.87541138      -1.54526062
C        0.09244652       0.44451115       1.43073403
O       -0.56991051      -0.42685594       0.50372133
H        1.41526897      -1.10687937      -0.89072480
H        0.64170733       1.21495668       0.89280129
H       -1.48135791       1.49532369       1.86741898
H        0.16037743      -1.83445488      -1.85289079
H        0.78157691      -0.17570036       2.00778796
H        0.91899562      -0.33031377      -2.41828379
12
Properties=species:S:1:pos:R:3 relative_energy_eV=0.5103521967575944 branch=right pbc="F F F"
C       -0.48535589      -0.10778777      -0.82838560
O       -1.23135692       0.69098904      -1.32615814
O       -0.81638480       0.99135959       2.33716421
C        0.58065811      -0.88171437      -1.55787521
C        0.08441336       0.44780055       1.44089557
O       -0.55634498      -0.43863204       0.50683878
H        1.43368816      -1.11537165      -0.91910180
H        0.63831793       1.22001051       0.90922097
H       -1.47748348       1.52237418       1.87291000
H        0.15990210      -1.84287034      -1.85942186
H        0.76909979      -0.17024547       2.02315634
H        0.90296157      -0.32721030      -2.43642401
12
Properties=species:S:1:pos:R:3 relative_energy_eV=0.5042233601270709 branch=right pbc="F F F"
C       -0.47774717      -0.11766216      -0.82367914
O       -1.21687064       0.69224090      -1.31614481
O       -0.83309186       0.99168580       2.34009084
C        0.58306335      -0.88784132      -1.56945461
C        0.07506775       0.45189132       1.45135549
O       -0.54176555      -0.45370080       0.51084837
H        1.44956015      -1.12078380      -0.94577214
H        0.63596925       1.22553805       0.92384055
H       -1.47241643       1.54644462       1.87599649
H        0.15986402      -1.84947537      -1.86826609
H        0.75565667      -0.16329718       2.03736879
H        0.88482539      -0.32633813      -2.45336450
12
Properties=species:S:1:pos:R:3 relative_energy_eV=0.49746778716325935 branch=right pbc="F F F"
C       -0.46761960      -0.12782692      -0.81727747
O       -1.19768961       0.69645558      -1.30288786
O       -0.84903391       0.99309661       2.34271739
C        0.58383556      -0.89355523      -1.57899106
C        0.06536397       0.45581982       1.46032783
O       -0.52709482      -0.47120041       0.51562730
H        1.46176744      -1.12234127      -0.96993500
H        0.63265840       1.22910698       0.93266603
H       -1.46793316       1.56566466       1.87637729
H        0.16076636      -1.85392813      -1.87925425
H        0.74257574      -0.15485149       2.05044868
H        0.86451853      -0.32773828      -2.46699964
12
Properties=species:S:1:pos:R:3 relative_energy_eV=0.4897792696792749 branch=right pbc="F F F"
C       -0.45210071      -0.13762807      -0.80946035
O       -1.17442559       0.70126522      -1.28508212
O       -0.86848881       0.99225440       2.34506424
C        0.58343852      -0.89957905      -1.58948138
C        0.05504496       0.45859577       1.47023456
O       -0.50685510      -0.49103177       0.52119859
H        1.47373198      -1.12166832      -0.99869695
H        0.62616867       1.23161587       0.94074383
H       -1.46404083       1.58886390       1.87448884
H        0.16070703      -1.85684438      -1.89293812
H        0.72855553      -0.14394650       2.06863995
H        0.84037920      -0.33319514      -2.48189186
12
Properties=species:S:1:pos:R:3 relative_energy_eV=0.48144846118702844 branch=right pbc="F F F"
C       -0.43415469      -0.14622822      -0.79603919
O       -1.13929520       0.71719170      -1.25700745
O       -0.88404255       0.99767843       2.34043471
C        0.58014740      -0.90579492      -1.59514296
C        0.04591026       0.45893054       1.47470879
O       -0.48932427      -0.51370240       0.53001197
H        1.48005944      -1.11563869      -1.02143476
H        0.61338638       1.22578938       0.93138104
H       -1.46512933       1.59866262       1.86902249
H        0.16385768      -1.85951256      -1.90870493
H        0.71841412      -0.13111340       2.08409822
H        0.81228559      -0.33756054      -2.48850869
12
Properties=species:S:1:pos:R:3 relative_energy_eV=0.4739946242862061 branch=right pbc="F F F"
C       -0.40158333      -0.15739980      -0.78148271
O       -1.09948154       0.72542494      -1.21944931
O       -0.92610066       0.98710655       2.33889134
C        0.57712087      -0.91811299      -1.61689784
C        0.03250228       0.45938536       1.49390089
O       -0.44097394      -0.54171744       0.53909303
H        1.50309150      -1.11528875      -1.08197380
H        0.59412637       1.22937414       0.94974853
H       -1.46126258       1.65083668       1.86202302
H        0.16067933      -1.86758385      -1.93290442
H        0.69621955      -0.11166740       2.12996619
H        0.76777688      -0.35165552      -2.51809567
12
Properties=species:S:1:pos:R:3 relative_energy_eV=0.4609470417835837 branch=right pbc="F F F"
C       -0.39909367      -0.15402348      -0.77623732
O       -1.08728163       0.73835662      -1.20697788
O       -0.92594894       0.98870351       2.32849603
C        0.57242854      -0.91984365      -1.61403961
C        0.03589544       0.45565675       1.49095041
O       -0.43644247      -0.54132001       0.54298786
H        1.49723146      -1.10995756      -1.07923841
H        0.58612955       1.22325165       0.93681923
H       -1.46660742       1.64031916       1.85434476
H        0.16301162      -1.87109099      -1.93547638
H        0.70094455      -0.10963756       2.13271931
H        0.76184769      -0.35171252      -2.51152877
12
Properties=species:S:1:pos:R:3 relative_energy_eV=0.4364854384075443 branch=right pbc="F F F"
C       -0.37594341      -0.15698021      -0.75558122
O       -1.03536719       0.77369910      -1.15523164
O       -0.96405230       0.98327186       2.30241977
C        0.56073050      -0.93598001      -1.62939618
C        0.03377187       0.45146194       1.50427892
O       -0.38604053      -0.56088170       0.55704215
H        1.50896586      -1.10597835      -1.12569449
H        0.55789910       1.21929298       0.93659444
H       -1.47120085       1.66186424       1.83463189
H        0.16527429      -1.89326595      -1.95538128
H        0.69259628      -0.09197624       2.17629886
H        0.71548101      -0.35582575      -2.52716200
12
Properties=species:S:1:pos:R:3 relative_energy_eV=0.40759345503647637 branch=right pbc="F F F"
C       -0.34466633      -0.16062591      -0.73255207
O       -0.97097791       0.81439996      -1.09044383
O       -1.02694022       0.96501412       2.26951715
C        0.54341925      -0.95765160      -1.65619962
C        0.02973409       0.44976577       1.53169686
O       -0.30525242      -0.58566489       0.57257229
H        1.52282611      -1.10084327      -1.19417793
H        0.52796874       1.22690809       0.95585694
H       -1.46819990       1.69761011       1.80260667
H        0.16400851      -1.92544792      -1.98207671
H        0.67783666      -0.06720307       2.24180158
H        0.65235792      -0.36755950      -2.55578215
12
Properties=species:S:1:pos:R:3 relative_energy_eV=0.37403211211676535 branch=right pbc="F F F"
C       -0.32170459      -0.15194480      -0.71594485
O       -0.91616606       0.85874688      -1.02965944
O       -1.09849446       0.92790512       2.22014560
C        0.51488641      -0.97870790      -1.68296836
C        0.03672670       0.44921935       1.56644745
O       -0.20590284      -0.59094639       0.58266023
H        1.51403794      -1.08955110      -1.24736096
H        0.50772003       1.25019518       0.99225108
H       -1.45756455       1.70964888       1.74786028
H        0.15678636      -1.96680553      -1.99935868
H        0.67428146      -0.04455433       2.31079156
H        0.59750798      -0.38450351      -2.58204485
12
Properties=species:S:1:pos:R:3 relative_energy_eV=0.3483799342993734 branch=right pbc="F F F"
C       -0.33769084      -0.13557196      -0.72751441
O       -0.94148875       0.85773520      -1.04672813
O       -1.09697575       0.90856788       2.20103895
C        0.50428316      -0.97315369      -1.67875968
C        0.04943143       0.45065147       1.57015136
O       -0.19546417      -0.56438391       0.57247442
H        1.48474844      -1.08621887      -1.21676692
H        0.52464330       1.26703194       1.01309228
H       -1.44977373       1.67084952       1.72611179
H        0.14641785      -1.97128987      -1.97634064
H        0.69244759      -0.04923950       2.30405388
H        0.62153588      -0.38627638      -2.57799387
12
Properties=species:S:1:pos:R:3 relative_energy_eV=0.29885424633539515 branch=right pbc="F F F"
C       -0.30936479      -0.13533722      -0.71610422
O       -0.90621516       0.88152303      -1.00340645
O       -1.16701103       0.87238503       2.15420461
C        0.48233907      -0.98460256      -1.71012508
C        0.03830938       0.45863999       1.60577569
O       -0.09664643      -0.57962503       0.57081272
H        1.47921201      -1.08993205      -1.27477056
H        0.52308327       1.29794863       1.07954751
H       -1.42882218       1.67871794       1.68470129
H        0.12404043      -1.99467320      -1.96579879
H        0.68069594      -0.01658099       2.36379009
H        0.58249376      -0.39976177      -2.62580787
12
Properties=species:S:1:pos:R:3 relative_energy_eV=0.2552031687755516 branch=right pbc="F F F"
C       -0.30132354      -0.13524057      -0.72306858
O       -0.93342438       0.86091930      -1.01694232
O       -1.16722252       0.85950470       2.15169159
C        0.48490936      -0.97144863      -1.71289411
C        0.03030614       0.46432109       1.60016185
O       -0.09056345      -0.57176255       0.55708125
H        1.47523024      -1.10307131      -1.27417078
H        0.54494883       1.30678067       1.10736083
H       -1.42057823       1.66628368       1.68841382
H        0.10417007      -1.97597070      -1.93243580
H        0.67300201      -0.00762540       2.35595155
H        0.60265979      -0.40398847      -2.63833041
12
Properties=species:S:1:pos:R:3 relative_energy_eV=0.21202783503940736 branch=right pbc="F F F"
C       -0.27000587      -0.12846346      -0.71797831
O       -0.92295235       0.86678757      -0.98676794
O       -1.19798197       0.83373321       2.12114042
C        0.47582054      -0.96540883      -1.72513713
C        0.02750213       0.46350730       1.59897695
O       -0.03436099      -0.57077490       0.55555811
H        1.46949269      -1.11397988      -1.30637059
H        0.55141118       1.31549440       1.13873063
H       -1.41969066       1.65483759       1.66579198
H        0.07799883      -1.96802869      -1.90126870
H        0.65625943       0.01899190       2.37819720
H        0.58862132      -0.41799441      -2.65805377
12
Properties=species:S:1:pos:R:3 relative_energy_eV=0.15810583661004785 branch=right pbc="F F F"
C       -0.22688330      -0.11798314      -0.70479756
O       -0.89296471       0.88103788      -0.93398571
O       -1.21901614       0.81296959       2.07797665
C        0.46944109      -0.95900888      -1.72970689
C        0.02825453       0.45778497       1.58029565
O        0.02473622      -0.56725811       0.56048134
H        1.46758965      -1.13484600      -1.34847682
H        0.55571319       1.31472412       1.15724401
H       -1.43918441       1.62996697       1.63837948
H        0.04788797      -1.95231457      -1.85612600
H        0.62722432       0.05094295       2.39242275
H        0.55931581      -0.42731400      -2.67088808
12
Properties=species:S:1:pos:R:3 relative_energy_eV=0.1279096230846335 branch=right pbc="F F F"
C       -0.18673595      -0.10138806      -0.69029693
O       -0.85672364       0.89063145      -0.88181125
O       -1.26012576       0.77568816       2.02884443
C        0.46035754      -0.95887829      -1.74053097
C        0.03428967       0.45467207       1.58284192
O        0.10903108      -0.55493508       0.56286037
H        1.46816604      -1.15198224      -1.40543558
H        0.55643467       1.33010555       1.19619035
H       -1.45170867       1.62507298       1.59867147
H        0.01444504      -1.94995536      -1.82486754
H        0.59872090       0.07579658       2.42971856
H        0.51596324      -0.44612598      -2.69336610
12
Properties=species:S:1:pos:R:3 relative_energy_eV=0.09453773521454423 branch=right pbc="F F F"
C       -0.18025277      -0.09805361      -0.68409649
O       -0.83160967       0.89807633      -0.86723920
O       -1.24667618       0.77715076       2.01215340
C        0.46289616      -0.95801309      -1.72911388
C        0.04278166       0.45544067       1.57487536
O        0.11894328      -0.54841136       0.56773831
H        1.47283063      -1.16171632      -1.41432470
H        0.55654896       1.32956457       1.19313127
H       -1.47558084       1.60868206       1.58498462
H        0.00640413      -1.93968031      -1.81277903
H        0.58492893       0.07226035       2.42121794
H        0.49089986      -0.44659827      -2.68372893
12
Properties=species:S:1:pos:R:3 relative_energy_eV=0.06433461960477871 branch=right pbc="F F F"
C       -0.16506230      -0.09745830      -0.67164737
O       -0.78303047       0.92512814      -0.83429133
O       -1.25924488       0.76372003       1.96950436
C        0.45452848      -0.96395143      -1.72824562
C        0.05016549       0.46452810       1.58672089
O        0.17345498      -0.54505876       0.57149695
H        1.47463402      -1.16704952      -1.44099035
H        0.55466820       1.34641373       1.21604691
H       -1.49560877       1.58550322       1.54376680
H       -0.01341859      -1.94155680      -1.80282415
H        0.57101465       0.07398545       2.44158190
H        0.44001331      -0.45550209      -2.68830038
12
Properties=species:S:1:pos:R:3 relative_energy_eV=0.03137787233936251 branch=right pbc="F F F"
C       -0.16159656      -0.09006399      -0.67372956
O       -0.77025109       0.92638370      -0.84454872
O       -1.25206609       0.74086469       1.94113588
C        0.45298385      -0.96243120      -1.71829338
C        0.06616727       0.47786009       1.59745018
O        0.20977046      -0.51639371       0.56535727
H        1.47349992      -1.16902876      -1.43922829
H        0.56893143       1.37614769       1.25240991
H       -1.51505919       1.55393150       1.50257497
H       -0.04733686      -1.92570669      -1.78711282
H        0.56620102       0.05218824       2.45091454
H        0.41086996      -0.47504984      -2.68411146
12
Properties=species:S:1:pos:R:3 relative_energy_eV=0.006731137633323669 branch=right pbc="F F F"
C       -0.14496757      -0.08215344      -0.66974171
O       -0.75615923       0.93775417      -0.84072936
O       -1.25920909       0.71777789       1.91175669
C        0.44403628      -0.96554459      -1.71857785
C        0.07506417       0.48714238       1.60380253
O        0.25594089      -0.49652147       0.56226125
H        1.47444972      -1.17108105      -1.44874270
H        0.57997925       1.40045291       1.28964196
H       -1.52867138       1.52273215       1.46078984
H       -0.08077849      -1.91455271      -1.76897196
H        0.55961469       0.04501519       2.46944353
H        0.38281490      -0.49231969      -2.68811375
12
Properties=species:S:1:pos:R:3 relative_energy_eV=-0.02198826154562994 branch=right pbc="F F F"
C       -0.12411188      -0.06454823      -0.67276420
O       -0.76427485       0.94118910      -0.86091881
O       -1.25726709       0.69240021       1.89032831
C        0.43765791      -0.96605488      -1.71613890
C        0.08651222       0.49359931       1.61056303
O        0.30016718      -0.46751144       0.55587413
H        1.47235700      -1.17374678      -1.44795815
H        0.59639290       1.42697394       1.34283099
H       -1.54330304       1.47838274       1.41238249
H       -0.12922067      -1.89150783      -1.73900120
H        0.55872853       0.03345784       2.48248857
H        0.36847595      -0.51393223      -2.69486780
12
Properties=species:S:1:pos:R:3 relative_energy_eV=-0.04386623780010268 branch=right pbc="F F F"
C       -0.10811635      -0.04893373      -0.67463006
O       -0.77363323       0.94627570      -0.87728282
O       -1.25152322       0.68069709       1.88609781
C        0.43129320      -0.97001445      -1.71325735
C        0.09599449       0.49867934       1.61352794
O        0.32252367      -0.44019935       0.54842641
H        1.47241311      -1.18172404      -1.45109063
H        0.60788796       1.44086169       1.38016936
H       -1.55555225       1.44363384       1.37692861
H       -0.15563837      -1.88097789      -1.71690201
H        0.55701088       0.02245351       2.48406878
H        0.35945429      -0.52204993      -2.69323760
12
Properties=species:S:1:pos:R:3 relative_energy_eV=-0.0712661581892462 branch=right pbc="F F F"
C       -0.07915746      -0.02012507      -0.67625773
O       -0.77215839       0.96003089      -0.88822333
O       -1.24935448       0.66869170       1.87692204
C        0.42239356      -0.97365641      -1.71053437
C        0.10540700       0.50220894       1.62301719
O        0.36777488      -0.40792007       0.54274181
H        1.46689353      -1.19931770      -1.47095676
H        0.61655162       1.45509645       1.43450093
H       -1.57583942       1.39186376       1.31834409
H       -0.19112949      -1.87229294      -1.68156499
H        0.55319548       0.01549061       2.49021090
H        0.33753735      -0.53136833      -2.69538134
12
Properties=species:S:1:pos:R:3 relative_energy_eV=-0.09787780914848554 branch=right pbc="F F F"
C       -0.06231619      -0.00120640      -0.67688638
O       -0.75847955       0.98027202      -0.89479535
O       -1.23730010       0.67820768       1.89287272
C        0.41296666      -0.98089857      -1.70502649
C        0.10947358       0.50937094       1.63077639
O        0.37965595      -0.37855843       0.53848774
H        1.45771835      -1.21782522      -1.48801442
H        0.61944332       1.45699813       1.46271378
H       -1.59276239       1.34558177       1.26998398
H       -0.19268295      -1.88057239      -1.66629135
H        0.55174429       0.00224946       2.48089642
H        0.31465320      -0.52491715      -2.68189860
12
Properties=species:S:1:pos:R:3 relative_energy_eV=-0.11848080938398198 branch=right pbc="F F F"
C       -0.04261760       0.01366402      -0.67251745
O       -0.72730688       1.00051190      -0.87441435
O       -1.24837193       0.67792839       1.88368218
C        0.40353078      -0.97814606      -1.70736488
C        0.10840284       0.51413550       1.64148203
O        0.41573242      -0.36396533       0.53871616
H        1.44684820      -1.23982479      -1.52243228
H        0.61988355       1.46147653       1.48740548
H       -1.60378239       1.30854758       1.22776317
H       -0.19970852      -1.89103025      -1.64292487
H        0.54317951       0.00835419       2.48896546
H        0.28632417      -0.52294983      -2.68554224
12
Properties=species:S:1:pos:R:3 relative_energy_eV=-0.1308222174520779 branch=right pbc="F F F"
C       -0.04682390       0.01011369      -0.67184338
O       -0.71142079       1.00608277      -0.87147358
O       -1.24492769       0.69125136       1.89728974
C        0.40390154      -0.97336282      -1.70598998
C        0.10085116       0.51756420       1.64433849
O        0.40211009      -0.36928935       0.54420986
H        1.43851438      -1.24222185      -1.52472376
H        0.61600840       1.45584138       1.47113574
H       -1.60049482       1.29861736       1.22603977
H       -0.18525563      -1.89458024      -1.64958554
H        0.54578490       0.00755763       2.48602507
H        0.28386652      -0.51887229      -2.68260401
12
Properties=species:S:1:pos:R:3 relative_energy_eV=-0.14042115164920688 branch=right pbc="F F F"
C       -0.03618673       0.01278331      -0.66632476
O       -0.68503713       1.01746900      -0.86362014
O       -1.24722221       0.69049797       1.89519757
C        0.39890747      -0.96937951      -1.70516315
C        0.10087844       0.52424943       1.65167049
O        0.41541535      -0.36212769       0.54847049
H        1.43341525      -1.24901968      -1.53870929
H        0.61795150       1.46380276       1.47506447
H       -1.60685269       1.26729303       1.19776017
H       -0.19373180      -1.88614469      -1.64187862
H        0.54035310       0.00616010       2.49574063
H        0.26422358      -0.52688218      -2.68538945
12
Properties=species:S:1:pos:R:3 relative_energy_eV=-0.14911924551051925 branch=right pbc="F F F"
C       -0.02864834       0.01427200      -0.66134512
O       -0.66741747       1.02523150      -0.85980430
O       -1.24989900       0.69176001       1.89944026
C        0.39663058      -0.96215081      -1.70721328
C        0.09902119       0.52759592       1.65706268
O        0.41341265      -0.36534013       0.55680296
H        1.43131589      -1.25381490      -1.54885061
H        0.61713854       1.46568798       1.46354845
H       -1.60559724       1.23992307       1.18414260
H       -0.20076143      -1.87124367      -1.63496022
H        0.53695954       0.01161703       2.50600490
H        0.25995923      -0.53483614      -2.69200989
12
Properties=species:S:1:pos:R:3 relative_energy_eV=-0.15378313483051897 branch=right pbc="F F F"
C       -0.01571208       0.02225914      -0.65779673
O       -0.65129932       1.03733997      -0.86007735
O       -1.24863020       0.69083286       1.90324152
C        0.39516621      -0.95977054      -1.70737228
C        0.10194556       0.53051838       1.66311302
O        0.41543530      -0.36109146       0.56377595
H        1.42764191      -1.26044929      -1.55947692
H        0.61722311       1.47065316       1.46440631
H       -1.60992451       1.20217166       1.15744428
H       -0.21534019      -1.85676778      -1.62238717
H        0.53430510       0.01456200       2.51554044
H        0.25130325      -0.54155620      -2.69759263
12
Properties=species:S:1:pos:R:3 relative_energy_eV=-0.15693385100712476 branch=right pbc="F F F"
C       -0.01415871       0.02292858      -0.65629927
O       -0.64880078       1.04014457      -0.85817690
O       -1.24920893       0.69182336       1.90535085
C        0.39745490      -0.95891048      -1.70919801
C        0.10208782       0.52834426       1.66200669
O        0.40254031      -0.37030296       0.56807688
H        1.43193025      -1.26295768      -1.56452358
H        0.61409076       1.46869569       1.45218806
H       -1.60697609       1.19749736       1.16311135
H       -0.21666436      -1.85090340      -1.61946970
H        0.53323713       0.02227081       2.52039091
H        0.25658188      -0.53992818      -2.70063881
12
Properties=species:S:1:pos:R:3 relative_energy_eV=-0.1589514378883905 branch=right pbc="F F F"
C       -0.01215376       0.02637584      -0.65714262
O       -0.64540059       1.04462710      -0.85911776
O       -1.24726138       0.69244064       1.90664907
C        0.39747234      -0.95939084      -1.70870008
C        0.10359158       0.52760941       1.66193229
O        0.39731294      -0.37316751       0.56879861
H        1.43219102      -1.26596423      -1.56862501
H        0.61268294       1.46961135       1.45181182
H       -1.60822905       1.19001486       1.15924383
H       -0.21769047      -1.85078366      -1.61608321
H        0.53386274       0.02485318       2.52171666
H        0.25573586      -0.53752422      -2.69766514
12
Properties=species:S:1:pos:R:3 relative_energy_eV=-0.16115386238925566 branch=right pbc="F F F"
C       -0.00902654       0.02718493      -0.65681311
O       -0.63335780       1.05192233      -0.85564029
O       -1.24581098       0.69369265       1.90731690
C        0.39903246      -0.96095010      -1.70748249
C        0.10455404       0.52609430       1.66054383
O        0.38691371      -0.38232102       0.57010430
H        1.43211701      -1.26743981      -1.57487723
H        0.60860144       1.47027971       1.44776361
H       -1.60989731       1.18441146       1.15622508
H       -0.21672456      -1.85354183      -1.61600503
H        0.53484952       0.03145697       2.52455815
H        0.25086316      -0.53208767      -2.69287526
12
Properties=species:S:1:pos:R:3 relative_energy_eV=-0.1622169437341654 branch=right pbc="F F F"
C       -0.00703106       0.02612752      -0.65561889
O       -0.62236100       1.05583509      -0.85282335
O       -1.24592599       0.69501363       1.90869623
C        0.39865021      -0.96065282      -1.70716010
C        0.10299449       0.52557757       1.65989520
O        0.38101105      -0.38971098       0.57219271
H        1.43346951      -1.26783078      -1.58002682
H        0.60568162       1.46952725       1.44319728
H       -1.61088917       1.18311662       1.15533564
H       -0.21487602      -1.85535211      -1.61785838
H        0.53514022       0.03620860       2.52631100
H        0.24625031      -0.52915767      -2.68932203
12
Properties=species:S:1:pos:R:3 relative_energy_eV=-0.16350082262761134 branch=right pbc="F F F"
C       -0.00531497       0.02223201      -0.65286449
O       -0.60558228       1.06048002      -0.84832371
O       -1.24834374       0.69481434       1.90984402
C        0.39801224      -0.96042237      -1.70718512
C        0.10072705       0.52451565       1.65902768
O        0.37250977      -0.39994452       0.57590242
H        1.43321436      -1.26437386      -1.58332209
H        0.60183423       1.46776965       1.43439539
H       -1.61100915       1.18320900       1.15502023
H       -0.21248036      -1.85837829      -1.62277411
H        0.53743442       0.04418133       2.52878831
H        0.24111260      -0.52538101      -2.68569004
12
Properties=species:S:1:pos:R:3 relative_energy_eV=-0.16443986420927104 branch=right pbc="F F F"
C       -0.00308738       0.01894944      -0.64972966
O       -0.59165959       1.06328215      -0.84547019
O       -1.25095184       0.69394599       1.91054410
C        0.39699653      -0.96017356      -1.70722999
C        0.09762821       0.52377312       1.65879326
O        0.36750213      -0.40681414       0.57964856
H        1.43492410      -1.26189101      -1.58682864
H        0.59907960       1.46472324       1.42702972
H       -1.61226130       1.18402370       1.15534283
H       -0.21239627      -1.85960599      -1.62529895
H        0.53920511       0.05072986       2.53041716
H        0.23713487      -0.52224083      -2.68439970
12
Properties=species:S:1:pos:R:3 relative_energy_eV=-0.16514452661795076 branch=right pbc="F F F"
C       -0.00272346       0.01675650      -0.64764390
O       -0.58262245       1.06535543      -0.84549265
O       -1.25364254       0.69153104       1.91077537
C        0.39542952      -0.96081446      -1.70709342
C        0.09574675       0.52269876       1.65875513
O        0.36353899      -0.41053159       0.58255633
H        1.43462256      -1.25820077      -1.58666161
H        0.59756234       1.46154501       1.42032263
H       -1.61314875       1.18461970       1.15632657
H       -0.21251411      -1.86076192      -1.62660764
H        0.54283351       0.05572504       2.53049810
H        0.23703181      -0.51922077      -2.68291640
12
Properties=species:S:1:pos:R:3 relative_energy_eV=-0.1655133970816678 branch=right pbc="F F F"
C       -0.00150171       0.01670077      -0.64678805
O       -0.57896934       1.06644371      -0.84673370
O       -1.25470876       0.68963301       1.91035553
C        0.39504117      -0.96132097      -1.70660817
C        0.09475578       0.52214238       1.65865548
O        0.36287453      -0.41072722       0.58363479
H        1.43523385      -1.25783540      -1.58783553
H        0.59716943       1.45944261       1.41761166
H       -1.61528221       1.18401419       1.15717567
H       -0.21445836      -1.86026519      -1.62420247
H        0.54438037       0.05773222       2.53013243
H        0.23757942      -0.51725814      -2.68257912
12
Properties=species:S:1:pos:R:3 relative_energy_eV=-0.16576734078626032 branch=right pbc="F F F"
C       -0.00044540       0.01755961      -0.64693726
O       -0.57744458       1.06760925      -0.84849327
O       -1.25523432       0.68814032       1.91010063
C        0.39473015      -0.96200803      -1.70612216
C        0.09458389       0.52181293       1.65855838
O        0.36332769      -0.40998149       0.58375730
H        1.43486495      -1.25832943      -1.58894148
H        0.59708489       1.45866155       1.41638482
H       -1.61727506       1.18285121       1.15797484
H       -0.21558468      -1.85960754      -1.62140233
H        0.54518527       0.05811915       2.52957889
H        0.23832137      -0.51612555      -2.68163986
12
Properties=species:S:1:pos:R:3 relative_energy_eV=-0.1660210677800933 branch=right pbc="F F F"
C        0.00181449       0.01870467      -0.64739510
O       -0.57512705       1.06887255      -0.85023759
O       -1.25563077       0.68671378       1.90987438
C        0.39497487      -0.96247786      -1.70571993
C        0.09441956       0.52175125       1.65829418
O        0.36466219      -0.40900334       0.58342660
H        1.43465203      -1.26007675      -1.59153072
H        0.59675465       1.45863043       1.41584396
H       -1.62017912       1.18162932       1.15932458
H       -0.21702332      -1.85858729      -1.61766143
H        0.54485091       0.05785572       2.52922524
H        0.23794575      -0.51531052      -2.68062565
12
Properties=species:S:1:pos:R:3 relative_energy_eV=-0.16633286043361295 branch=right pbc="F F F"
C        0.00568012       0.01979583      -0.64792488
O       -0.56939676       1.07108966      -0.85176733
O       -1.25650220       0.68513411       1.91007548
C        0.39523353      -0.96311374      -1.70562665
C        0.09396724       0.52188241       1.65808360
O        0.36631996      -0.40871460       0.58334687
H        1.43426339      -1.26254274      -1.59594111
H        0.59541781       1.45935951       1.41483508
H       -1.62403874       1.18049098       1.16155310
H       -0.21800531      -1.85762104      -1.61388197
H        0.54359734       0.05753632       2.52928712
H        0.23557780      -0.51459473      -2.67922077
12
Properties=species:S:1:pos:R:3 relative_energy_eV=-0.1666686946991831 branch=right pbc="F F F"
C        0.01067161       0.02056496      -0.64837674
O       -0.56076906       1.07366765      -0.85296473
O       -1.25775433       0.68335312       1.91070767
C        0.39555002      -0.96352674      -1.70606574
C        0.09320898       0.52220750       1.65799074
O        0.36780195      -0.40902898       0.58355742
H        1.43387658      -1.26519264      -1.60105880
H        0.59296209       1.46074790       1.41363866
H       -1.62806810       1.18004326       1.16472515
H       -0.21864154      -1.85713862      -1.61092974
H        0.54173229       0.05729254       2.52974526
H        0.23154365      -0.51428795      -2.67815062
12
Properties=species:S:1:pos:R:3 relative_energy_eV=-0.16696003478682542 branch=right pbc="F F F"
C        0.01547788       0.02098459      -0.64851997
O       -0.55072936       1.07667412      -0.85345669
O       -1.25921311       0.68145366       1.91151913
C        0.39533352      -0.96393796      -1.70689829
C        0.09229468       0.52255376       1.65823443
O        0.36867144      -0.40985510       0.58424758
H        1.43341606      -1.26706494      -1.60537503
H        0.58964038       1.46245338       1.41249959
H       -1.63096957       1.18008712       1.16776653
H       -0.21857434      -1.85756669      -1.60989028
H        0.54005577       0.05748475       2.53054625
H        0.22671082      -0.51456470      -2.67785470
12
Properties=species:S:1:pos:R:3 relative_energy_eV=-0.16723552020266652 branch=right pbc="F F F"
C        0.01940567       0.02169341      -0.64865157
O       -0.54161966       1.07971620      -0.85404980
O       -1.26049717       0.67887623       1.91202126
C        0.39462311      -0.96414357      -1.70774924
C        0.09152341       0.52280071       1.65864506
O        0.36936854      -0.41005320       0.58478250
H        1.43270381      -1.26817733      -1.60786276
H        0.58605569       1.46424069       1.41219955
H       -1.63257578       1.18017080       1.17039505
H       -0.21861808      -1.85857076      -1.60969994
H        0.53915704       0.05783991       2.53121392
H        0.22258755      -0.51569108      -2.67842549
12
Properties=species:S:1:pos:R:3 relative_energy_eV=-0.16755942152849457 branch=right pbc="F F F"
C        0.02320286       0.02326810      -0.64885484
O       -0.53183727       1.08412324      -0.85488198
O       -1.26182465       0.67476193       1.91191383
C        0.39310236      -0.96451467      -1.70836785
C        0.09080760       0.52288169       1.65919410
O        0.37054068      -0.40934329       0.58511747
H        1.43151740      -1.26906376      -1.60945808
H        0.58169986       1.46630751       1.41274880
H       -1.63354369       1.17939706       1.17256150
H       -0.21912023      -1.85986296      -1.60928888
H        0.53898497       0.05859797       2.53179850
H        0.21858426      -0.51785081      -2.67966402
12
Properties=species:S:1:pos:R:3 relative_energy_eV=-0.16794033523183316 branch=right pbc="F F F"
C        0.02709974       0.02655254      -0.64962382
O       -0.52195152       1.09011244      -0.85676689
O       -1.26309682       0.66812072       1.91081378
C        0.39090389      -0.96486965      -1.70845706
C        0.09028459       0.52273363       1.65961471
O        0.37313937      -0.40666356       0.58452982
H        1.42952724      -1.27035083      -1.61015234
H        0.57658437       1.46880684       1.41486744
H       -1.63434850       1.17717116       1.17450720
H       -0.22102165      -1.86069914      -1.60692338
H        0.53968609       0.05947621       2.53192558
H        0.21530735      -0.52168830      -2.68151647
12
Properties=species:S:1:pos:R:3 relative_energy_eV=-0.16835474454819632 branch=right pbc="F F F"
C        0.03095458       0.03130513      -0.65096424
O       -0.51249990       1.09766015      -0.85912609
O       -1.26427669       0.65964619       1.90870695
C        0.38841118      -0.96538087      -1.70780486
C        0.08996358       0.52233734       1.65966797
O        0.37728013      -0.40241432       0.58299451
H        1.42703022      -1.27244562      -1.61080875
H        0.57128519       1.47138224       1.41812657
H       -1.63545067       1.17305441       1.17567096
H       -0.22437174      -1.86020069      -1.60183118
H        0.54097970       0.06056107       2.53160201
H        0.21280855      -0.52680294      -2.68341526
12
Properties=species:S:1:pos:R:3 relative_energy_eV=-0.16867729060322745 branch=right pbc="F F F"
C        0.03351862       0.03607740      -0.65287117
O       -0.50726185       1.10370882      -0.86156487
O       -1.26491160       0.65209476       1.90646037
C        0.38689083      -0.96560490      -1.70670720
C        0.08997990       0.52185562       1.65911987
O        0.38186423      -0.39767804       0.58053480
H        1.42484147      -1.27499798      -1.61100499
H        0.56760552       1.47327104       1.42174232
H       -1.63671728       1.16872136       1.17621839
H       -0.22840372      -1.85790748      -1.59498167
H        0.54242314       0.06104269       2.53058236
H        0.21228487      -0.53188119      -2.68470962
12
Properties=species:S:1:pos:R:3 relative_energy_eV=-0.1688790421558224 branch=right pbc="F F F"
C        0.03491048       0.03881166      -0.65433594
O       -0.50459821       1.10737805      -0.86251477
O       -1.26529480       0.64807571       1.90526580
C        0.38661762      -0.96577571      -1.70592235
C        0.08997082       0.52151477       1.65837501
O        0.38466668      -0.39513675       0.57872657
H        1.42386490      -1.27712313      -1.61163740
H        0.56571096       1.47407553       1.42352550
H       -1.63802255       1.16558974       1.17617740
H       -0.23124483      -1.85506469      -1.58948665
H        0.54332100       0.06129824       2.52965262
H        0.21221206      -0.53494128      -2.68500719
12
Properties=species:S:1:pos:R:3 relative_energy_eV=-0.16898008197313175 branch=right pbc="F F F"
C        0.03537853       0.03976946      -0.65536481
O       -0.50399543       1.10837630      -0.86281187
O       -1.26548444       0.64698512       1.90535313
C        0.38721205      -0.96565614      -1.70572775
C        0.08987929       0.52134380       1.65772223
O        0.38542081      -0.39443583       0.57760405
H        1.42379099      -1.27836870      -1.61172381
H        0.56499458       1.47422979       1.42386461
H       -1.63890385       1.16444233       1.17650468
H       -0.23270127      -1.85278612      -1.58636056
H        0.54393300       0.06108100       2.52873403
H        0.21258986      -0.53627888      -2.68497531
12
Properties=species:S:1:pos:R:3 relative_energy_eV=-0.16904142172643333 branch=right pbc="F F F"
C        0.03598095       0.03983137      -0.65582758
O       -0.50196473       1.10929523      -0.86241459
O       -1.26589521       0.64700289       1.90617171
C        0.38776610      -0.96564364      -1.70590996
C        0.08954518       0.52122564       1.65730983
O        0.38465525      -0.39518740       0.57735773
H        1.42411865      -1.27901799      -1.61189990
H        0.56400586       1.47421262       1.42282074
H       -1.63967095       1.16390062       1.17701400
H       -0.23320035      -1.85142990      -1.58495699
H        0.54455720       0.06113369       2.52806273
H        0.21221620      -0.53662101      -2.68490911
12
Properties=species:S:1:pos:R:3 relative_energy_eV=-0.16909085203769791 branch=right pbc="F F F"
C        0.03621649       0.03978411      -0.65620194
O       -0.50063705       1.10960625      -0.86230005
O       -1.26617700       0.64737185       1.90730931
C        0.38823937      -0.96546786      -1.70617799
C        0.08923011       0.52110757       1.65700111
O        0.38325270      -0.39604253       0.57718047
H        1.42446743      -1.27916595      -1.61104219
H        0.56308555       1.47419456       1.42159677
H       -1.64008022       1.16400701       1.17795851
H       -0.23331820      -1.85077338      -1.58448996
H        0.54551476       0.06083086       2.52709205
H        0.21232019      -0.53675035      -2.68510747
12
Properties=species:S:1:pos:R:3 relative_energy_eV=-0.1691159254987724 branch=right pbc="F F F"
C        0.03641019       0.03982040      -0.65626671
O       -0.49898381       1.11041216      -0.86208354
O       -1.26642047       0.64758075       1.90821589
C        0.38827690      -0.96542061      -1.70631124
C        0.08896756       0.52099052       1.65683480
O        0.38179231      -0.39687624       0.57726564
H        1.42466471      -1.27900499      -1.61000551
H        0.56211281       1.47423825       1.42025882
H       -1.64037674       1.16390160       1.17866444
H       -0.23319235      -1.85081342      -1.58459114
H        0.54656017       0.06062194       2.52620633
H        0.21230284      -0.53674824      -2.68536917
12
Properties=species:S:1:pos:R:3 relative_energy_eV=-0.1691299623453233 branch=right pbc="F F F"
C        0.03615618       0.04008456      -0.65634360
O       -0.49908556       1.11067503      -0.86222499
O       -1.26635621       0.64765887       1.90866002
C        0.38819362      -0.96529321      -1.70622149
C        0.08894106       0.52091065       1.65669192
O        0.38100369      -0.39700317       0.57711488
H        1.42464723      -1.27873984      -1.60864007
H        0.56180719       1.47430572       1.41969185
H       -1.64044496       1.16390076       1.17915395
H       -0.23313204      -1.85104038      -1.58471749
H        0.54742903       0.06013047       2.52532159
H        0.21295489      -0.53688735      -2.68566793
12
Properties=species:S:1:pos:R:3 relative_energy_eV=-0.1691382714507199 branch=right pbc="F F F"
C        0.03592451       0.04029503      -0.65631066
O       -0.49945776       1.11091712      -0.86223784
O       -1.26624331       0.64766522       1.90872135
C        0.38806310      -0.96525650      -1.70605518
C        0.08899493       0.52088244       1.65659576
O        0.38075955      -0.39696624       0.57703777
H        1.42456042      -1.27859086      -1.60796245
H        0.56185073       1.47433759       1.41947132
H       -1.64054301       1.16375889       1.17925261
H       -0.23309526      -1.85121209      -1.58475447
H        0.54783659       0.05985985       2.52485523
H        0.21346362      -0.53698831      -2.68579480
12
Properties=species:S:1:pos:R:3 relative_energy_eV=-0.16913846536772326 branch=right pbc="F F F"
C        0.03567794       0.04039599      -0.65632156
O       -0.50016059       1.11082655      -0.86226937
O       -1.26611240       0.64773376       1.90871013
C        0.38805716      -0.96520823      -1.70594671
C        0.08906680       0.52088916       1.65651509
O        0.38075164      -0.39685699       0.57692631
H        1.42450460      -1.27854968      -1.60764671
H        0.56210213       1.47433271       1.41950750
H       -1.64062571       1.16380580       1.17933774
H       -0.23307493      -1.85123240      -1.58473557
H        0.54795931       0.05965421       2.52460682
H        0.21396817      -0.53708874      -2.68586503
12
Properties=species:S:1:pos:R:3 relative_energy_eV=-0.16914302209988819 branch=right pbc="F F F"
C        0.03549624       0.04038930      -0.65632279
O       -0.50060386       1.11074806      -0.86222192
O       -1.26602964       0.64785310       1.90877635
C        0.38810653      -0.96518560      -1.70591496
C        0.08909220       0.52090325       1.65645071
O        0.38064206      -0.39689735       0.57688689
H        1.42449883      -1.27855273      -1.60757905
H        0.56230198       1.47429660       1.41945783
H       -1.64076901       1.16395557       1.17952176
H       -0.23300089      -1.85122087      -1.58477845
H        0.54800283       0.05957452       2.52447619
H        0.21437685      -0.53716173      -2.68593394
