12
Properties=species:S:1:pos:R:3 relative_energy_eV=1.9275459417858656 branch=ts pbc="F F F"
C       -0.06257017      -0.28735524      -1.22487043
O        0.45298242      -0.97788064      -0.20440825
O        0.74379248       0.32352332       1.65716546
C        0.54932606       0.73081762      -1.84055798
C       -0.22434154      -0.52385740       1.65562052
O       -1.48787131      -0.13188832       1.66985794
H       -1.52944022       0.81045741       1.43852294
H       -1.05279094      -0.61024393      -1.55034846
H        1.07852969      -0.05062021       0.64195280
H        1.55429583       1.02746300      -1.56798098
H       -0.10024947      -1.54828911       1.99745148
H        0.07833206       1.23787855      -2.67239968
