12
Properties=species:S:1:pos:R:3 relative_energy_eV=0.0 branch=left pbc="F F F"
C        0.00064538      -1.54762840       0.14097423
O       -0.46409032      -1.52735794       1.26163353
O        0.15934783       1.20485096       1.26006206
C        0.61021861      -0.36768192      -0.55358035
C        0.05409501       0.97983193      -0.11512868
O       -1.28697741       1.01806283      -0.57437718
H       -1.69878281       1.78730814      -0.15822184
H        0.01199404      -2.49765626      -0.42936557
H       -0.16960849       0.39556391       1.69222480
H        1.68557411      -0.39638656      -0.35511994
H        0.62764785       1.78319557      -0.58808457
H        0.48908677      -0.48574008      -1.63078284
12
Properties=species:S:1:pos:R:3 relative_energy_eV=2.7084424800705165e-06 branch=left pbc="F F F"
C        0.00017482      -1.54717078       0.14086298
O       -0.46112923      -1.52740618       1.26302304
O        0.15890124       1.20507727       1.25995175
C        0.61089557      -0.36754228      -0.55329143
C        0.05406538       0.97979408      -0.11519047
O       -1.28694437       1.01690474      -0.57479845
H       -1.69942923       1.78605370      -0.15918063
H        0.00717736      -2.49631903      -0.43102168
H       -0.16843927       0.39510889       1.69219818
H        1.68600053      -0.39612655      -0.35350947
H        0.62715372       1.78343259      -0.58820793
H        0.49072406      -0.48544428      -1.63060228
12
Properties=species:S:1:pos:R:3 relative_energy_eV=9.968725862563588e-06 branch=left pbc="F F F"
C       -0.00047467      -1.54665194       0.14064713
O       -0.45897296      -1.52722541       1.26400011
O        0.15869408       1.20526398       1.25977351
C        0.61158016      -0.36739295      -0.55304585
C        0.05392353       0.97972912      -0.11529108
O       -1.28714338       1.01555403      -0.57484416
H       -1.69998379       1.78489782      -0.16003390
H        0.00280351      -2.49506500      -0.43252537
H       -0.16663069       0.39452210       1.69213496
H        1.68636596      -0.39590282      -0.35152928
H        0.62621413       1.78378700      -0.58854313
H        0.49277470      -0.48515373      -1.63050933
12
Properties=species:S:1:pos:R:3 relative_energy_eV=1.715964390314184e-05 branch=left pbc="F F F"
C       -0.00090225      -1.54634666       0.14045798
O       -0.45861008      -1.52690238       1.26414287
O        0.15874598       1.20533161       1.25964854
C        0.61197615      -0.36729147      -0.55295008
C        0.05378133       0.97965682      -0.11537420
O       -1.28741559       1.01469088      -0.57456145
H       -1.70017445       1.78433784      -0.16035747
H        0.00091996      -2.49443656      -0.43313276
H       -0.16523590       0.39411489       1.69207569
H        1.68659141      -0.39583039      -0.35032223
H        0.62535712       1.78406967      -0.58886181
H        0.49411691      -0.48503204      -1.63053147
12
Properties=species:S:1:pos:R:3 relative_energy_eV=1.960379995580297e-05 branch=left pbc="F F F"
C       -0.00103276      -1.54626515       0.14038192
O       -0.45929419      -1.52664202       1.26380717
O        0.15890631       1.20530172       1.25960769
C        0.61202269      -0.36725931      -0.55297207
C        0.05370269       0.97962742      -0.11539999
O       -1.28759061       1.01447121      -0.57426814
H       -1.70011317       1.78434632      -0.16030557
H        0.00118635      -2.49445476      -0.43300786
H       -0.16466022       0.39394959       1.69204095
H        1.68659731      -0.39587720      -0.35005783
H        0.62497411       1.78418635      -0.58900922
H        0.49445207      -0.48502195      -1.63058343
12
Properties=species:S:1:pos:R:3 relative_energy_eV=1.9431679902481847e-05 branch=left pbc="F F F"
C       -0.00108816      -1.54623302       0.14031511
O       -0.46030745      -1.52639995       1.26332262
O        0.15911336       1.20530692       1.25955873
C        0.61204564      -0.36724285      -0.55299829
C        0.05368037       0.97962453      -0.11544222
O       -1.28770726       1.01439275      -0.57400574
H       -1.70009870       1.78429234      -0.15998100
H        0.00186100      -2.49452180      -0.43276195
H       -0.16428658       0.39394292       1.69199017
H        1.68660419      -0.39598912      -0.34998906
H        0.62472922       1.78427421      -0.58916764
H        0.49460496      -0.48508469      -1.63060711
12
Properties=species:S:1:pos:R:3 relative_energy_eV=2.6700441594584845e-05 branch=left pbc="F F F"
C       -0.00106382      -1.54604780       0.14038887
O       -0.46208494      -1.52570915       1.26252427
O        0.15959167       1.20508387       1.25964214
C        0.61200755      -0.36715302      -0.55311247
C        0.05384472       0.97971501      -0.11540012
O       -1.28763912       1.01437206      -0.57381492
H       -1.70022067       1.78407596      -0.15960397
H        0.00345316      -2.49478725      -0.43195521
H       -0.16430667       0.39375720       1.69187747
H        1.68670832      -0.39639216      -0.35050419
H        0.62470801       1.78455471      -0.58908708
H        0.49415236      -0.48510719      -1.63072114
12
Properties=species:S:1:pos:R:3 relative_energy_eV=3.5173587093595415e-05 branch=left pbc="F F F"
C       -0.00152235      -1.54561186       0.14021284
O       -0.46197253      -1.52555495       1.26249021
O        0.16009809       1.20547499       1.25931745
C        0.61256328      -0.36704897      -0.55289957
C        0.05413551       0.97990433      -0.11567056
O       -1.28744063       1.01370431      -0.57408226
H       -1.70149922       1.78206596      -0.15864886
H        0.00125080      -2.49377003      -0.43284997
H       -0.16347006       0.39418200       1.69168151
H        1.68696088      -0.39671124      -0.34924026
H        0.62459332       1.78492412      -0.58961481
H        0.49545350      -0.48519642      -1.63046206
12
Properties=species:S:1:pos:R:3 relative_energy_eV=4.3136507883900777e-05 branch=left pbc="F F F"
C       -0.00188920      -1.54509894       0.14022043
O       -0.45974639      -1.52554114       1.26348320
O        0.16018805       1.20568946       1.25918729
C        0.61322122      -0.36693237      -0.55269207
C        0.05450964       0.98009349      -0.11579142
O       -1.28696868       1.01293450      -0.57485091
H       -1.70278252       1.77999975      -0.15863628
H       -0.00273248      -2.49244231      -0.43408438
H       -0.16338575       0.39429845       1.69157372
H        1.68747311      -0.39686171      -0.34818443
H        0.62477665       1.78532171      -0.58966232
H        0.49648693      -0.48509863      -1.63032919
12
Properties=species:S:1:pos:R:3 relative_energy_eV=8.917637569538783e-05 branch=left pbc="F F F"
C       -0.00285275      -1.54440826       0.14007622
O       -0.45378362      -1.52643044       1.26640424
O        0.15976348       1.20665806       1.25869949
C        0.61444241      -0.36681081      -0.55207393
C        0.05508934       0.98047387      -0.11621584
O       -1.28603898       1.01177940      -0.57684309
H       -1.70558177       1.77593248      -0.15854634
H       -0.01199787      -2.48988008      -0.43770684
H       -0.16256432       0.39499238       1.69146179
H        1.68814164      -0.39680481      -0.34525588
H        0.62532744       1.78581476      -0.58997930
H        0.49920561      -0.48495427      -1.62978688
12
Properties=species:S:1:pos:R:3 relative_energy_eV=0.00011085751611972228 branch=left pbc="F F F"
C       -0.00301668      -1.54430428       0.14009324
O       -0.45244362      -1.52655606       1.26716895
O        0.15959199       1.20684179       1.25865722
C        0.61466793      -0.36679945      -0.55197639
C        0.05525427       0.98058714      -0.11626185
O       -1.28574798       1.01164603      -0.57737542
H       -1.70615640       1.77512917      -0.15860175
H       -0.01383320      -2.48951308      -0.43842165
H       -0.16261396       0.39510043       1.69145298
H        1.68833299      -0.39681956      -0.34487341
H        0.62556809       1.78595199      -0.58989956
H        0.49954716      -0.48490185      -1.62972875
12
Properties=species:S:1:pos:R:3 relative_energy_eV=0.00014095692677074112 branch=left pbc="F F F"
C       -0.00247706      -1.54490583       0.14037639
O       -0.45904780      -1.52526197       1.26507568
O        0.16015367       1.20649647       1.25912056
C        0.61358722      -0.36683412      -0.55238170
C        0.05554123       0.98089430      -0.11596628
O       -1.28547592       1.01350498      -0.57704233
H       -1.70555768       1.77677382      -0.15740862
H       -0.00465749      -2.49253364      -0.43547821
H       -0.16338293       0.39499638       1.69134147
H        1.68794771      -0.39777373      -0.34827178
H        0.62639386       1.78614023      -0.58919927
H        0.49612578      -0.48513460      -1.62993224
12
Properties=species:S:1:pos:R:3 relative_energy_eV=0.00018208637811767403 branch=left pbc="F F F"
C       -0.00438532      -1.54323703       0.13945776
O       -0.43796550      -1.52942363       1.27270650
O        0.15809541       1.20809699       1.25759535
C        0.61699645      -0.36674847      -0.55097636
C        0.05498982       0.98024476      -0.11701236
O       -1.28574201       1.00825240      -0.57906079
H       -1.70853248       1.77056053      -0.16045481
H       -0.03401982      -2.48334393      -0.44564838
H       -0.16088350       0.39585252       1.69161808
H        1.68925172      -0.39501632      -0.33759937
H        0.62456426       1.78567808      -0.59125119
H        0.50678158      -0.48455364      -1.62914088
12
Properties=species:S:1:pos:R:3 relative_energy_eV=0.00023724522907286882 branch=left pbc="F F F"
C       -0.00519864      -1.54259331       0.13884703
O       -0.43188092      -1.53076667       1.27482385
O        0.15825416       1.20893716       1.25686741
C        0.61856826      -0.36684512      -0.55053666
C        0.05483993       0.97995378      -0.11742293
O       -1.28604178       1.00580619      -0.57886627
H       -1.70958193       1.76793554      -0.16082260
H       -0.04407229      -2.47969669      -0.44947276
H       -0.16017705       0.39670314       1.69177471
H        1.68987164      -0.39410167      -0.33353117
H        0.62331142       1.78546324      -0.59255096
H        0.51125783      -0.48443333      -1.62887614
12
Properties=species:S:1:pos:R:3 relative_energy_eV=0.0008219964056479512 branch=left pbc="F F F"
C       -0.00072362      -1.54540779       0.14204206
O       -0.46915036      -1.52199695       1.26428801
O        0.16156791       1.20286787       1.26131733
C        0.60936710      -0.36670650      -0.55395980
C        0.05591802       0.98145622      -0.11420901
O       -1.28459266       1.01895002      -0.57750104
H       -1.70465361       1.78382740      -0.16023551
H        0.01737044      -2.49926384      -0.42861368
H       -0.16736114       0.39201134       1.69124939
H        1.68555726      -0.39947930      -0.35780934
H        0.63049586       1.78521655      -0.58516498
H        0.48535536      -0.48511274      -1.63116968
12
Properties=species:S:1:pos:R:3 relative_energy_eV=0.0004405177660373738 branch=left pbc="F F F"
C       -0.00448416      -1.54132633       0.13975109
O       -0.42093937      -1.53170714       1.27925634
O        0.15606021       1.20605109       1.25757631
C        0.61847575      -0.36659724      -0.55012314
C        0.05383525       0.97936256      -0.11711054
O       -1.28659744       1.00540359      -0.58131502
H       -1.71036451       1.76958878      -0.16687989
H       -0.05361590      -2.47500727      -0.45078910
H       -0.15895601       0.39279876       1.69117198
H        1.68962509      -0.39241372      -0.33174717
H        0.62377721       1.78471225      -0.59111747
H        0.51233452      -0.48450307      -1.62843999
12
Properties=species:S:1:pos:R:3 relative_energy_eV=0.0007825905177014647 branch=left pbc="F F F"
C       -0.00742162      -1.54089346       0.13698476
O       -0.39987312      -1.53617786       1.28671527
O        0.15589116       1.21134807       1.25458024
C        0.62307349      -0.36687148      -0.54811538
C        0.05337494       0.97860379      -0.11905020
O       -1.28792447       0.99805882      -0.58030498
H       -1.71251158       1.76046309      -0.16427830
H       -0.08818554      -2.46803890      -0.46722529
H       -0.15736130       0.39873556       1.69167325
H        1.69162537      -0.38910416      -0.31589731
H        0.61964013       1.78416360      -0.59730543
H        0.52882321      -0.48392484      -1.62754332
12
Properties=species:S:1:pos:R:3 relative_energy_eV=0.0010912387770076748 branch=left pbc="F F F"
C       -0.01095749      -1.53834103       0.13453058
O       -0.37069810      -1.54352241       1.29445681
O        0.15340842       1.21589763       1.25110413
C        0.63098458      -0.36702236      -0.54536052
C        0.05258662       0.97737613      -0.12152688
O       -1.28893441       0.98690112      -0.58134922
H       -1.71669629       1.74722364      -0.16547434
H       -0.13776709      -2.45049410      -0.48276705
H       -0.15111409       0.40198931       1.69212179
H        1.69550824      -0.38489222      -0.29703841
H        0.61340284       1.78465789      -0.60291862
H        0.54942752      -0.48341136      -1.62554516
12
Properties=species:S:1:pos:R:3 relative_energy_eV=0.0012716451801679796 branch=left pbc="F F F"
C       -0.01258531      -1.53766159       0.13349747
O       -0.36086184      -1.54637804       1.29679235
O        0.15133085       1.21876570       1.24944977
C        0.63430591      -0.36711198      -0.54448753
C        0.05252024       0.97706936      -0.12281229
O       -1.28884932       0.98332174      -0.58222598
H       -1.71844857       1.74154658      -0.16410585
H       -0.15564388      -2.44529788      -0.48836049
H       -0.14850431       0.40429505       1.69281739
H        1.69743370      -0.38402312      -0.29026800
H        0.61138198       1.78507519      -0.60491059
H        0.55707131      -0.48323877      -1.62515320
12
Properties=species:S:1:pos:R:3 relative_energy_eV=0.0014002568714204244 branch=left pbc="F F F"
C       -0.01469695      -1.53572190       0.13234294
O       -0.34342758      -1.55111913       1.30063540
O        0.14822073       1.22134264       1.24734615
C        0.63994785      -0.36725333      -0.54300529
C        0.05207813       0.97637540      -0.12445150
O       -1.28893780       0.97675289      -0.58399493
H       -1.72155966       1.73294506      -0.16512817
H       -0.18626209      -2.43305143      -0.49553764
H       -0.14351178       0.40537538       1.69333607
H        1.70060487      -0.38200511      -0.27995503
H        0.60765129       1.78585601      -0.60729188
H        0.56904383      -0.48313423      -1.62406324
12
Properties=species:S:1:pos:R:3 relative_energy_eV=0.0014740667829755694 branch=left pbc="F F F"
C       -0.01553385      -1.53484256       0.13203923
O       -0.33597452      -1.55321372       1.30214039
O        0.14637926       1.22220580       1.24653730
C        0.64221292      -0.36726157      -0.54242485
C        0.05186604       0.97607423      -0.12518060
O       -1.28886436       0.97437710      -0.58523634
H       -1.72292118       1.72961551      -0.16584053
H       -0.19874693      -2.42791096      -0.49785062
H       -0.14111537       0.40543483       1.69360263
H        1.70191949      -0.38125091      -0.27600666
H        0.60633525       1.78623991      -0.60790091
H        0.57359410      -0.48310539      -1.62364622
12
Properties=species:S:1:pos:R:3 relative_energy_eV=0.0015674357946409145 branch=left pbc="F F F"
C       -0.01616699      -1.53421532       0.13171740
O       -0.33181288      -1.55420163       1.30270419
O        0.14486798       1.22287269       1.24585965
C        0.64422731      -0.36749039      -0.54233056
C        0.05167304       0.97598041      -0.12575320
O       -1.28876165       0.97304398      -0.58615775
H       -1.72424320       1.72695449      -0.16547773
H       -0.20700308      -2.42391915      -0.49854280
H       -0.13933574       0.40519738       1.69368801
H        1.70326632      -0.38098558      -0.27341730
H        0.60533075       1.78654562      -0.60831056
H        0.57710900      -0.48342020      -1.62374659
12
Properties=species:S:1:pos:R:3 relative_energy_eV=0.0016353890732716536 branch=left pbc="F F F"
C       -0.01506135      -1.53510164       0.13195984
O       -0.33416319      -1.55358124       1.30341500
O        0.14791367       1.22201147       1.24708270
C        0.64308111      -0.36743735      -0.54195029
C        0.05217626       0.97592790      -0.12454766
O       -1.28882415       0.97176935      -0.58378458
H       -1.72186062       1.72925225      -0.16793539
H       -0.20256448      -2.42708881      -0.50029023
H       -0.14320878       0.40658398       1.69382734
H        1.70274609      -0.38054321      -0.27674414
H        0.60490158       1.78711315      -0.60802153
H        0.57401472      -0.48254358      -1.62277826
12
Properties=species:S:1:pos:R:3 relative_energy_eV=0.0017731857751641655 branch=left pbc="F F F"
C       -0.01643078      -1.53272998       0.13171565
O       -0.31438730      -1.55981920       1.30775341
O        0.14711826       1.22128050       1.24632375
C        0.64659039      -0.36704590      -0.53957724
C        0.05130962       0.97481047      -0.12513713
O       -1.28962951       0.96420804      -0.58535731
H       -1.72387889       1.72376802      -0.17564491
H       -0.23201367      -2.41233294      -0.50643388
H       -0.13765431       0.40493959       1.69353217
H        1.70371541      -0.37687311      -0.26723543
H        0.60102624       1.78773595      -0.60963750
H        0.58338543      -0.48157915      -1.62006897
12
Properties=species:S:1:pos:R:3 relative_energy_eV=0.0021737394599767867 branch=left pbc="F F F"
C       -0.01668659      -1.52917602       0.13207150
O       -0.29409306      -1.56194072       1.31381220
O        0.14523812       1.21815606       1.24562787
C        0.64942675      -0.36674715      -0.53823054
C        0.04944185       0.97349664      -0.12591554
O       -1.29165115       0.95956007      -0.58757092
H       -1.72642625       1.72121192      -0.18249613
H       -0.25850140      -2.39796443      -0.51169796
H       -0.13301837       0.39881328       1.69143102
H        1.70412759      -0.37286659      -0.25774574
H        0.59877181       1.78645145      -0.61069832
H        0.59252163      -0.48263222      -1.61835501
12
Properties=species:S:1:pos:R:3 relative_energy_eV=0.002694951812372892 branch=left pbc="F F F"
C       -0.01953260      -1.52402078       0.13169116
O       -0.26180167      -1.56940625       1.32031916
O        0.13936019       1.21716226       1.24305508
C        0.65624916      -0.36648254      -0.53598709
C        0.04710749       0.97183268      -0.12829464
O       -1.29314713       0.95133154      -0.59303183
H       -1.73265404       1.71141918      -0.19002514
H       -0.30624750      -2.37239690      -0.51817016
H       -0.12110028       0.39268163       1.69003072
H        1.70653671      -0.36808495      -0.24000019
H        0.59436433       1.78572006      -0.61293493
H        0.61001636      -0.48339361      -1.61642002
12
Properties=species:S:1:pos:R:3 relative_energy_eV=0.0030892943796061445 branch=left pbc="F F F"
C       -0.02192523      -1.52079067       0.13126960
O       -0.24157931      -1.57467900       1.32375866
O        0.13440345       1.21774896       1.24095490
C        0.66107557      -0.36629079      -0.53472865
C        0.04582069       0.97088818      -0.13015879
O       -1.29351111       0.94626038      -0.59718144
H       -1.73725123       1.70369316      -0.19344103
H       -0.33718617      -2.35607996      -0.52184778
H       -0.11245560       0.38973022       1.68974658
H        1.70847172      -0.36579314      -0.22813117
H        0.59188075       1.78531469      -0.61430380
H        0.62140750      -0.48363968      -1.61570514
12
Properties=species:S:1:pos:R:3 relative_energy_eV=0.0033139448041765718 branch=left pbc="F F F"
C       -0.02331666      -1.51912647       0.13096772
O       -0.23131608      -1.57746106       1.32532209
O        0.13099245       1.21878439       1.23960823
C        0.66393908      -0.36615383      -0.53421253
C        0.04532480       0.97049198      -0.13130672
O       -1.29327351       0.94367624      -0.59974740
H       -1.73997136       1.69871999      -0.19434489
H       -0.35370231      -2.34775577      -0.52361768
H       -0.10760173       0.38872748       1.69001167
H        1.70985323      -0.36513726      -0.22189000
H        0.59086219       1.78522096      -0.61489053
H        0.62736097      -0.48362428      -1.61566812
12
Properties=species:S:1:pos:R:3 relative_energy_eV=0.0034635905976756476 branch=left pbc="F F F"
C       -0.02418351      -1.51817718       0.13072577
O       -0.22512949      -1.57938212       1.32615276
O        0.12833545       1.21995428       1.23865782
C        0.66610951      -0.36605218      -0.53391664
C        0.04523949       0.97034963      -0.13208976
O       -1.29271345       0.94184268      -0.60158654
H       -1.74178578       1.69479690      -0.19446456
H       -0.36470474      -2.34259122      -0.52460692
H       -0.10452851       0.38860341       1.69055515
H        1.71119601      -0.36508506      -0.21827594
H        0.59024396       1.78553659      -0.61515436
H        0.63107213      -0.48343334      -1.61576499
12
Properties=species:S:1:pos:R:3 relative_energy_eV=0.0035868930990545778 branch=left pbc="F F F"
C       -0.02489615      -1.51754528       0.13048835
O       -0.21986182      -1.58159446       1.32675147
O        0.12597461       1.22122769       1.23789471
C        0.66840257      -0.36598836      -0.53349893
C        0.04543856       0.97033711      -0.13272020
O       -1.29186726       0.93966296      -0.60320238
H       -1.74322362       1.69073347      -0.19469475
H       -0.37536404      -2.33782642      -0.52535802
H       -0.10204977       0.38896052       1.69129721
H        1.71292313      -0.36507369      -0.21566964
H        0.58930527       1.78650355      -0.61540102
H        0.63436963      -0.48303468      -1.61565509
12
Properties=species:S:1:pos:R:3 relative_energy_eV=0.0037270344291755464 branch=left pbc="F F F"
C       -0.02554777      -1.51719675       0.13027023
O       -0.21506501      -1.58431553       1.32721878
O        0.12437597       1.22226353       1.23740472
C        0.67072755      -0.36599092      -0.53281578
C        0.04582051       0.97039846      -0.13315631
O       -1.29097616       0.93697920      -0.60442340
H       -1.74419080       1.68684986      -0.19553299
H       -0.38606270      -2.33305421      -0.52601557
H       -0.10008354       0.38951618       1.69196065
H        1.71485825      -0.36469821      -0.21377294
H        0.58773537       1.78810650      -0.61581484
H        0.63755948      -0.48249571      -1.61509091
12
Properties=species:S:1:pos:R:3 relative_energy_eV=0.0038426062201324385 branch=left pbc="F F F"
C       -0.02602180      -1.51711058       0.13013666
O       -0.21165825      -1.58670453       1.32753961
O        0.12398420       1.22264737       1.23729429
C        0.67238160      -0.36604898      -0.53207653
C        0.04616242       0.97046915      -0.13330545
O       -1.29043434       0.93464549      -0.60495395
H       -1.74452406       1.68437776      -0.19684568
H       -0.39401812      -2.32945351      -0.52647651
H       -0.09898262       0.38985881       1.69221803
H        1.71631048      -0.36396236      -0.21274424
H        0.58600534       1.78969501      -0.61628996
H        0.63994632      -0.48205121      -1.61426466
12
Properties=species:S:1:pos:R:3 relative_energy_eV=0.0039212979027070105 branch=left pbc="F F F"
C       -0.02627945      -1.51715142       0.13009221
O       -0.20983560      -1.58818666       1.32773295
O        0.12438585       1.22248649       1.23743451
C        0.67315526      -0.36611136      -0.53153823
C        0.04633548       0.97051026      -0.13324534
O       -1.29029640       0.93324183      -0.60497402
H       -1.74443705       1.68350400      -0.19813037
H       -0.39820943      -2.32753273      -0.52666503
H       -0.09863327       0.38985647       1.69210401
H        1.71702502      -0.36319596      -0.21239830
H        0.58468833       1.79075613      -0.61662404
H        0.64125242      -0.48181463      -1.61355675
12
Properties=species:S:1:pos:R:3 relative_energy_eV=0.003950881606215262 branch=left pbc="F F F"
C       -0.02641019      -1.51721252       0.13008335
O       -0.20895677      -1.58897143       1.32784318
O        0.12502565       1.22211470       1.23764586
C        0.67337709      -0.36614964      -0.53121835
C        0.04636370       0.97052483      -0.13310881
O       -1.29038524       0.93257833      -0.60481952
H       -1.74421808       1.68353686      -0.19916876
H       -0.39998080      -2.32674193      -0.52664011
H       -0.09861600       0.38964626       1.69181663
H        1.71724781      -0.36257007      -0.21234440
H        0.58382232       1.79133377      -0.61677152
H        0.64188171      -0.48172672      -1.61308596
12
Properties=species:S:1:pos:R:3 relative_energy_eV=0.003980841267548385 branch=left pbc="F F F"
C       -0.02650874      -1.51726027       0.13005935
O       -0.20839260      -1.58945987       1.32790288
O        0.12576748       1.22167349       1.23786597
C        0.67334049      -0.36616035      -0.53103893
C        0.04627586       0.97051708      -0.13294227
O       -1.29061022       0.93229226      -0.60464774
H       -1.74397968       1.68400215      -0.20011644
H       -0.40076042      -2.32649131      -0.52642481
H       -0.09865770       0.38931782       1.69142015
H        1.71722003      -0.36202152      -0.21232925
H        0.58314201       1.79166067      -0.61672693
H        0.64231469      -0.48170772      -1.61279040
12
Properties=species:S:1:pos:R:3 relative_energy_eV=0.00401781346045027 branch=left pbc="F F F"
C       -0.02668287      -1.51727916       0.12989925
O       -0.20773167      -1.58996140       1.32784611
O        0.12688819       1.22122590       1.23806015
C        0.67315687      -0.36613406      -0.53100691
C        0.04597525       0.97044017      -0.13273109
O       -1.29110129       0.93212017      -0.60444154
H       -1.74377138       1.68483009      -0.20126597
H       -0.40141791      -2.32654656      -0.52591383
H       -0.09853371       0.38896650       1.69085614
H        1.71697369      -0.36144923      -0.21206062
H        0.58228494       1.79185602      -0.61629932
H        0.64311109      -0.48170599      -1.61271080
12
Properties=species:S:1:pos:R:3 relative_energy_eV=0.00409971175758983 branch=left pbc="F F F"
C       -0.02708285      -1.51723091       0.12930869
O       -0.20707805      -1.59061189       1.32735382
O        0.12858929       1.22143662       1.23793852
C        0.67313316      -0.36608749      -0.53128680
C        0.04540923       0.97014255      -0.13258782
O       -1.29199121       0.93146644      -0.60386617
H       -1.74392609       1.68534905      -0.20227197
H       -0.40273739      -2.32660004      -0.52550163
H       -0.09789304       0.38951337       1.69061245
H        1.71660622      -0.36124553      -0.21090946
H        0.58107761       1.79181093      -0.61537569
H        0.64504431      -0.48158066      -1.61318235
12
Properties=species:S:1:pos:R:3 relative_energy_eV=0.00425208848901093 branch=left pbc="F F F"
C       -0.02785462      -1.51717583       0.12801254
O       -0.20716257      -1.59154618       1.32604322
O        0.13093561       1.22321612       1.23718844
C        0.67382212      -0.36615188      -0.53175838
C        0.04487012       0.96951727      -0.13266450
O       -1.29314497       0.92920236      -0.60202639
H       -1.74484383       1.68423329      -0.20238286
H       -0.40538005      -2.32582944      -0.52660515
H       -0.09657566       0.39250428       1.69171694
H        1.71646986      -0.36194800      -0.20831707
H        0.57948430       1.79145333      -0.61480778
H        0.64853090      -0.48111286      -1.61416742
12
Properties=species:S:1:pos:R:3 relative_energy_eV=0.004449174988621962 branch=left pbc="F F F"
C       -0.02899989      -1.51725424       0.12610824
O       -0.20842367      -1.59285603       1.32396064
O        0.13392696       1.22641438       1.23595641
C        0.67530912      -0.36643745      -0.53198630
C        0.04472564       0.96867109      -0.13292287
O       -1.29428956       0.92494802      -0.59838577
H       -1.74642576       1.68121252      -0.20158184
H       -0.40909537      -2.32377476      -0.53010624
H       -0.09487364       0.39814429       1.69443567
H        1.71674009      -0.36338097      -0.20452759
H        0.57752495       1.79094387      -0.61571054
H        0.65303235      -0.48026826      -1.61500822
12
Properties=species:S:1:pos:R:3 relative_energy_eV=0.004685787227572291 branch=left pbc="F F F"
C       -0.03025847      -1.51748395       0.12410431
O       -0.21038521      -1.59422034       1.32169836
O        0.13728676       1.22970465       1.23481820
C        0.67704963      -0.36688856      -0.53175688
C        0.04506115       0.96786997      -0.13314088
O       -1.29521004       0.91975240      -0.59357857
H       -1.74808105       1.67752912      -0.20068641
H       -0.41279228      -2.32100508      -0.53505154
H       -0.09353393       0.40460792       1.69781298
H        1.71725409      -0.36480842      -0.20068824
H        0.57545153       1.79056550      -0.61811536
H        0.65730906      -0.47926074      -1.61518435
12
Properties=species:S:1:pos:R:3 relative_energy_eV=0.004897905771940714 branch=left pbc="F F F"
C       -0.03129212      -1.51773832       0.12253462
O       -0.21211353      -1.59518637       1.31992717
O        0.14043827       1.23178917       1.23429188
C        0.67834343      -0.36730865      -0.53122746
C        0.04564184       0.96734513      -0.13312458
O       -1.29583658       0.91529734      -0.58902590
H       -1.74922640       1.67480015      -0.20047815
H       -0.41539121      -2.31862809      -0.53948702
H       -0.09307595       0.40955072       1.70052268
H        1.71768369      -0.36560947      -0.19794732
H        0.57365325       1.79045675      -0.62103153
H        0.66032657      -0.47840589      -1.61472277
12
Properties=species:S:1:pos:R:3 relative_energy_eV=0.0050637652220757445 branch=left pbc="F F F"
C       -0.03205593      -1.51789177       0.12143211
O       -0.21317254      -1.59569488       1.31873522
O        0.14309497       1.23258868       1.23438883
C        0.67898221      -0.36756190      -0.53063139
C        0.04618695       0.96713291      -0.13286969
O       -1.29626916       0.91228238      -0.58551256
H       -1.74982150       1.67344589      -0.20093824
H       -0.41682485      -2.31714177      -0.54248951
H       -0.09323153       0.41232397       1.70210943
H        1.71782168      -0.36575685      -0.19630919
H        0.57221705       1.79049367      -0.62373035
H        0.66222394      -0.47785788      -1.61395303
12
Properties=species:S:1:pos:R:3 relative_energy_eV=0.005214470169448759 branch=left pbc="F F F"
C       -0.03274858      -1.51790942       0.12046218
O       -0.21368680      -1.59604726       1.31775930
O        0.14544674       1.23275157       1.23489490
C        0.67912649      -0.36760796      -0.53001980
C        0.04656598       0.96715846      -0.13243667
O       -1.29666657       0.91038436      -0.58286639
H       -1.75015505       1.67305334      -0.20170371
H       -0.41762146      -2.31639242      -0.54438101
H       -0.09337399       0.41363611       1.70290405
H        1.71759943      -0.36550001      -0.19502889
H        0.57086942       1.79045087      -0.62630342
H        0.66379570      -0.47761520      -1.61304891
12
Properties=species:S:1:pos:R:3 relative_energy_eV=0.005362253157727537 branch=left pbc="F F F"
C       -0.03360205      -1.51773901       0.11927106
O       -0.21399067      -1.59663071       1.31658416
O        0.14766834       1.23304554       1.23555857
C        0.67903550      -0.36740948      -0.52934219
C        0.04671000       0.96737590      -0.13190816
O       -1.29712127       0.90922083      -0.58086483
H       -1.75055058       1.67294797      -0.20216330
H       -0.41834892      -2.31602641      -0.54574746
H       -0.09280308       0.41435139       1.70331936
H        1.71702627      -0.36509685      -0.19325994
H        0.56927498       1.79004319      -0.62916539
H        0.66585282      -0.47771993      -1.61205024
12
Properties=species:S:1:pos:R:3 relative_energy_eV=0.005545843538129702 branch=left pbc="F F F"
C       -0.03468462      -1.51741648       0.11774377
O       -0.21460120      -1.59797942       1.31497265
O        0.14964180       1.23427006       1.23599135
C        0.67905799      -0.36697977      -0.52851310
C        0.04653940       0.96766960      -0.13144492
O       -1.29764995       0.90848827      -0.57947352
H       -1.75121090       1.67255093      -0.20165056
H       -0.41932686      -2.31559797      -0.54725058
H       -0.09084881       0.41538674       1.70376519
H        1.71631830      -0.36482312      -0.19042322
H        0.56719839       1.78899426      -0.63248693
H        0.66871781      -0.47820066      -1.61099847
12
Properties=species:S:1:pos:R:3 relative_energy_eV=0.005767814433056628 branch=left pbc="F F F"
C       -0.03590741      -1.51703389       0.11611325
O       -0.21618966      -1.60035159       1.31302082
O        0.15113435       1.23688087       1.23567033
C        0.67965083      -0.36649151      -0.52744446
C        0.04613001       0.96785660      -0.13133957
O       -1.29814776       0.90782660      -0.57868674
H       -1.75216319       1.67102579      -0.19940477
H       -0.42074749      -2.31440279      -0.54958570
H       -0.08744535       0.41758114       1.70445099
H        1.71598570      -0.36489684      -0.18646685
H        0.56470528       1.78729905      -0.63616652
H        0.67214605      -0.47893100      -1.60992909
12
Properties=species:S:1:pos:R:3 relative_energy_eV=0.006059237037334242 branch=left pbc="F F F"
C       -0.03718837      -1.51687476       0.11470222
O       -0.21934265      -1.60392510       1.31094728
O        0.15233923       1.24080774       1.23418297
C        0.68104606      -0.36623455      -0.52590966
C        0.04559245       0.96772762      -0.13187963
O       -1.29866773       0.90673498      -0.57806061
H       -1.75324421       1.66819425      -0.19522052
H       -0.42249598      -2.31190074      -0.55348878
H       -0.08282205       0.42145127       1.70529410
H        1.71640084      -0.36519102      -0.18146791
H        0.56176751       1.78522275      -0.64026025
H        0.67576626      -0.47965000      -1.60860753
12
Properties=species:S:1:pos:R:3 relative_energy_eV=0.006487765185738681 branch=left pbc="F F F"
C       -0.03871487      -1.51703740       0.11374193
O       -0.22456895      -1.60829342       1.30896872
O        0.15379530       1.24555029       1.23102636
C        0.68339182      -0.36650988      -0.52368413
C        0.04515471       0.96722332      -0.13359175
O       -1.29931107       0.90497152      -0.57726802
H       -1.75438566       1.66315180      -0.18810904
H       -0.42490921      -2.30747428      -0.55942195
H       -0.07738965       0.42697011       1.70556955
H        1.71767310      -0.36531157      -0.17505930
H        0.55845139       1.78325355      -0.64527662
H        0.67996448      -0.48013159      -1.60666403
12
Properties=species:S:1:pos:R:3 relative_energy_eV=0.007068851755320793 branch=left pbc="F F F"
C       -0.04029406      -1.51787893       0.11338986
O       -0.23049344      -1.61231767       1.30761757
O        0.15618371       1.24914246       1.22692075
C        0.68562752      -0.36744924      -0.52108989
C        0.04476282       0.96652161      -0.13630895
O       -1.30057992       0.90289027      -0.57561126
H       -1.75520539       1.65848042      -0.18032365
H       -0.42714302      -2.30278896      -0.56600291
H       -0.07225576       0.43197466       1.70440858
H        1.71877105      -0.36441651      -0.16803755
H        0.55520853       1.78238428      -0.65064539
H        0.68456937      -0.48017992      -1.60408539
12
Properties=species:S:1:pos:R:3 relative_energy_eV=0.007485184081815532 branch=left pbc="F F F"
C       -0.04153284      -1.51827870       0.11340933
O       -0.23372533      -1.61345206       1.30728477
O        0.15801668       1.25004270       1.22402844
C        0.68663375      -0.36816640      -0.51969980
C        0.04476158       0.96643181      -0.13872562
O       -1.30159759       0.90236542      -0.57480556
H       -1.75594568       1.65447952      -0.17437052
H       -0.42929382      -2.30006691      -0.56916212
H       -0.06966342       0.43346461       1.70212140
H        1.71875451      -0.36315426      -0.16323005
H        0.55415892       1.78285186      -0.65415996
H        0.68858466      -0.48015510      -1.60245850
12
Properties=species:S:1:pos:R:3 relative_energy_eV=0.0078080519087961875 branch=left pbc="F F F"
C       -0.04245380      -1.51992847       0.11303493
O       -0.23497365      -1.61550281       1.30692355
O        0.16020065       1.24998789       1.22230661
C        0.68575608      -0.36894157      -0.51853766
C        0.04376523       0.96655180      -0.14039025
O       -1.30398630       0.90196215      -0.57253131
H       -1.75641154       1.65721905      -0.17341367
H       -0.42928084      -2.30079684      -0.57130250
H       -0.06550675       0.43321617       1.70017896
H        1.71656334      -0.36089635      -0.15847480
H        0.55284235       1.78388107      -0.65681143
H        0.69263669      -0.48038960      -1.60075062
12
Properties=species:S:1:pos:R:3 relative_energy_eV=0.008124881353069213 branch=left pbc="F F F"
C       -0.04387866      -1.52028203       0.11252119
O       -0.23522544      -1.61564926       1.30668712
O        0.16098311       1.24978629       1.22052639
C        0.68498258      -0.36914595      -0.51823317
C        0.04339322       0.96745731      -0.14248958
O       -1.30547169       0.90329853      -0.57250456
H       -1.75797976       1.65514888      -0.16945408
H       -0.43160871      -2.30099187      -0.57152495
H       -0.06181977       0.43184681       1.69747783
H        1.71403062      -0.35914036      -0.15361361
H        0.55361001       1.78516127      -0.65921958
H        0.69813596      -0.48112714      -1.59994118
12
Properties=species:S:1:pos:R:3 relative_energy_eV=0.00853324770287145 branch=left pbc="F F F"
C       -0.04544684      -1.52123493       0.11123658
O       -0.23434750      -1.61735927       1.30578601
O        0.16077280       1.25063678       1.21928923
C        0.68324581      -0.36909180      -0.51816328
C        0.04218504       0.96871458      -0.14408824
O       -1.30760641       0.90484283      -0.57233100
H       -1.76008377       1.65612140      -0.16754239
H       -0.43329678      -2.30309277      -0.57156017
H       -0.05512628       0.43070859       1.69599470
H        1.70996916      -0.35734047      -0.14782586
H        0.55439694       1.78615423      -0.66120532
H        0.70448928      -0.48269668      -1.59935845
12
Properties=species:S:1:pos:R:3 relative_energy_eV=0.009025641014886787 branch=left pbc="F F F"
C       -0.04719881      -1.52133751       0.10967980
O       -0.23341531      -1.61908015       1.30448569
O        0.15861260       1.25304797       1.21809809
C        0.68212645      -0.36853580      -0.51850556
C        0.04127548       0.97017027      -0.14548682
O       -1.30862107       0.90669716      -0.57387691
H       -1.76282155       1.65383283      -0.16385188
H       -0.43616779      -2.30422130      -0.57146796
H       -0.04793628       0.43100055       1.69576068
H        1.70655672      -0.35675008      -0.14244420
H        0.55611032       1.78641535      -0.66259049
H        0.71063070      -0.48487679      -1.59956863
12
Properties=species:S:1:pos:R:3 relative_energy_eV=0.009477815403442946 branch=left pbc="F F F"
C       -0.04851002      -1.52104337       0.10834231
O       -0.23312374      -1.62074664       1.30315525
O        0.15571339       1.25629094       1.21725039
C        0.68186716      -0.36797045      -0.51883756
C        0.04069447       0.97107802      -0.14619821
O       -1.30856203       0.90754846      -0.57583784
H       -1.76490031       1.65068902      -0.16032907
H       -0.43852947      -2.30421625      -0.57207440
H       -0.04225910       0.43301168       1.69704200
H        1.70485642      -0.35726280      -0.13910287
H        0.55747270       1.78590604      -0.66305414
H        0.71443198      -0.48692212      -1.60012402
12
Properties=species:S:1:pos:R:3 relative_energy_eV=0.009858115341558005 branch=left pbc="F F F"
C       -0.04957798      -1.52020834       0.10739340
O       -0.23365786      -1.62147609       1.30206389
O        0.15270713       1.25963757       1.21642927
C        0.68248557      -0.36757809      -0.51908861
C        0.04068016       0.97141798      -0.14668739
O       -1.30747941       0.90753127      -0.57821365
H       -1.76623129       1.64570646      -0.15591602
H       -0.44081455      -2.30270510      -0.57327397
H       -0.03886615       0.43610968       1.69886294
H        1.70482961      -0.35849550      -0.13762622
H        0.55858521       1.78507009      -0.66298040
H        0.71649101      -0.48864739      -1.60073138
12
Properties=species:S:1:pos:R:3 relative_energy_eV=0.010278053350702976 branch=left pbc="F F F"
C       -0.05079225      -1.51886457       0.10655389
O       -0.23498794      -1.62080556       1.30109432
O        0.14970647       1.26306737       1.21535999
C        0.68380313      -0.36761455      -0.51922769
C        0.04112390       0.97122387      -0.14727683
O       -1.30557309       0.90666698      -0.58112653
H       -1.76692825       1.63858969      -0.14967024
H       -0.44339574      -2.29978612      -0.57524007
H       -0.03717794       0.44021397       1.70087317
H        1.70597775      -0.36019340      -0.13733360
H        0.55941797       1.78414732      -0.66265900
H        0.71797743      -0.49028245      -1.60111556
12
Properties=species:S:1:pos:R:3 relative_energy_eV=0.010818735312568606 branch=left pbc="F F F"
C       -0.05244455      -1.51690571       0.10566164
O       -0.23677825      -1.61767420       1.30032634
O        0.14725870       1.26577464       1.21382393
C        0.68561755      -0.36826980      -0.51931983
C        0.04213069       0.97050988      -0.14844236
O       -1.30312616       0.90547330      -0.58478441
H       -1.76712241       1.62884429      -0.14061338
H       -0.44684827      -2.29575434      -0.57741544
H       -0.03741726       0.44441631       1.70213003
H        1.70775737      -0.36211810      -0.13749109
H        0.56000728       1.78354539      -0.66257769
H        0.72011676      -0.49147909      -1.60106585
12
Properties=species:S:1:pos:R:3 relative_energy_eV=0.011427777824792429 branch=left pbc="F F F"
C       -0.05413164      -1.51499672       0.10466366
O       -0.23802564      -1.61252499       1.29987016
O        0.14624136       1.26655974       1.21214208
C        0.68725500      -0.36948977      -0.51954024
C        0.04323919       0.96961195      -0.15002940
O       -1.30129875       0.90498111      -0.58824358
H       -1.76715183       1.61969943      -0.13106322
H       -0.45055962      -2.29253747      -0.57846889
H       -0.03894501       0.44676819       1.70184684
H        1.70897750      -0.36383341      -0.13691564
H        0.56006708       1.78351924      -0.66328011
H        0.72348378      -0.49139470      -1.60074975
12
Properties=species:S:1:pos:R:3 relative_energy_eV=0.012261189909622772 branch=left pbc="F F F"
C       -0.05572370      -1.51328645       0.10330411
O       -0.23806945      -1.60545283       1.29950453
O        0.14657972       1.26508839       1.21020867
C        0.68865632      -0.37110056      -0.52019850
C        0.04434519       0.96853002      -0.15225403
O       -1.30053577       0.90620023      -0.59177608
H       -1.76758691       1.61181487      -0.12111826
H       -0.45491649      -2.29111491      -0.57741128
H       -0.04090375       0.44674770       1.70011408
H        1.70897171      -0.36588628      -0.13416544
H        0.55935419       1.78390999      -0.66533545
H        0.72898036      -0.48908754      -1.60064042
12
Properties=species:S:1:pos:R:3 relative_energy_eV=0.013364702890612534 branch=left pbc="F F F"
C       -0.05624759      -1.51272794       0.10169757
O       -0.23670311      -1.59908330       1.29900262
O        0.14784421       1.26193569       1.20859300
C        0.68965201      -0.37254902      -0.52148604
C        0.04462064       0.96760299      -0.15418102
O       -1.30153676       0.90940587      -0.59416999
H       -1.76876103       1.60937936      -0.11465317
H       -0.45840839      -2.29288714      -0.57415368
H       -0.04144339       0.44434096       1.69834856
H        1.70746993      -0.36819994      -0.12893790
H        0.55736044       1.78418808      -0.66834643
H        0.73530449      -0.48504296      -1.60148160
12
Properties=species:S:1:pos:R:3 relative_energy_eV=0.015280054632967222 branch=left pbc="F F F"
C       -0.05487082      -1.51357353       0.09990535
O       -0.23411391      -1.59440095       1.29789197
O        0.14961039       1.25727669       1.20729905
C        0.69064625      -0.37305651      -0.52382156
C        0.04380226       0.96672398      -0.15583111
O       -1.30449874       0.91533797      -0.59550804
H       -1.77102620       1.61372480      -0.11258541
H       -0.46093006      -2.29843227      -0.56847700
H       -0.03949081       0.43983654       1.69814945
H        1.70469889      -0.37107423      -0.12023508
H        0.55329083       1.78397825      -0.67213802
H        0.74203337      -0.47997805      -1.60441770
12
Properties=species:S:1:pos:R:3 relative_energy_eV=0.01736655047898239 branch=left pbc="F F F"
C       -0.05230678      -1.51519851       0.09911622
O       -0.23296571      -1.59298454       1.29683120
O        0.15085675       1.25414161       1.20687130
C        0.69153188      -0.37248687      -0.52596704
C        0.04203873       0.96635352      -0.15612145
O       -1.30736365       0.92012799      -0.59507374
H       -1.77285917       1.62152445      -0.11484345
H       -0.46113855      -2.30347152      -0.56476182
H       -0.03668454       0.43611833       1.70009466
H        1.70322578      -0.37237753      -0.11414101
H        0.54909447       1.78351522      -0.67401714
H        0.74572223      -0.47889949      -1.60775582
12
Properties=species:S:1:pos:R:3 relative_energy_eV=0.01983655130788975 branch=left pbc="F F F"
C       -0.05170679      -1.51084418       0.10127989
O       -0.23507415      -1.58613516       1.29811315
O        0.14952211       1.25158674       1.20482082
C        0.69562211      -0.36960029      -0.52871035
C        0.04428851       0.96873808      -0.15852036
O       -1.30465943       0.92621065      -0.60065737
H       -1.77577670       1.60245371      -0.10219492
H       -0.46959751      -2.29747126      -0.56011192
H       -0.04265270       0.43189244       1.69660815
H        1.70704954      -0.37334161      -0.11306693
H        0.55351686       1.78426234      -0.67526015
H        0.74861959      -0.48138876      -1.61206811
12
Properties=species:S:1:pos:R:3 relative_energy_eV=0.023270773148396984 branch=left pbc="F F F"
C       -0.05488769      -1.50358399       0.10295530
O       -0.24644440      -1.57608751       1.29874296
O        0.15485237       1.24759439       1.20137327
C        0.70102526      -0.36586972      -0.53342671
C        0.04589382       0.97034902      -0.16325952
O       -1.30572932       0.91762950      -0.59516164
H       -1.77436944       1.59196283      -0.07909319
H       -0.47354319      -2.29229942      -0.55467668
H       -0.05722438       0.42787902       1.68675005
H        1.71111660      -0.37709753      -0.11045012
H        0.55405501       1.78385774      -0.68467142
H        0.76440681      -0.47797158      -1.61885034
12
Properties=species:S:1:pos:R:3 relative_energy_eV=0.027931308755796636 branch=left pbc="F F F"
C       -0.05970370      -1.49313893       0.10611063
O       -0.25287385      -1.56302610       1.30209430
O        0.15364859       1.24661929       1.19769122
C        0.70658658      -0.36348302      -0.53521107
C        0.05253222       0.97403072      -0.16782002
O       -1.29852493       0.91644322      -0.60140124
H       -1.77582044       1.55191531      -0.04999668
H       -0.48670744      -2.27686161      -0.55085247
H       -0.07407591       0.42509927       1.67320751
H        1.71787614      -0.37830404      -0.11516417
H        0.56607773       1.78558453      -0.68783977
H        0.77013647      -0.47851583      -1.62058623
12
Properties=species:S:1:pos:R:3 relative_energy_eV=0.03293136178581335 branch=left pbc="F F F"
C       -0.06531612      -1.48561005       0.10729133
O       -0.25653119      -1.55366534       1.30461878
O        0.15346623       1.24703928       1.19482417
C        0.70897461      -0.36406523      -0.53497668
C        0.05842111       0.97556795      -0.17116404
O       -1.29305496       0.91222417      -0.60388620
H       -1.77651238       1.52509259      -0.02869613
H       -0.49476257      -2.26654646      -0.54850039
H       -0.08677153       0.42387969       1.66056583
H        1.72042608      -0.37991057      -0.11944953
H        0.57485849       1.78655211      -0.69126702
H        0.77595372      -0.47419532      -1.61912809
12
Properties=species:S:1:pos:R:3 relative_energy_eV=0.03672778831969481 branch=left pbc="F F F"
C       -0.06896081      -1.48124436       0.10789839
O       -0.25501908      -1.54799865       1.30693409
O        0.15081044       1.24846813       1.19303515
C        0.70933728      -0.36598520      -0.53362559
C        0.06361308       0.97648732      -0.17255412
O       -1.28712941       0.91361031      -0.60842219
H       -1.77911266       1.50323510      -0.01708700
H       -0.50180920      -2.25912702      -0.54667778
H       -0.09300680       0.42274969       1.65153406
H        1.72081013      -0.38054728      -0.12366960
H        0.58292566       1.78730304      -0.69132159
H        0.77669287      -0.47058822      -1.61581178
12
Properties=species:S:1:pos:R:3 relative_energy_eV=0.04062964776130684 branch=left pbc="F F F"
C       -0.07181881      -1.48105263       0.10745998
O       -0.25075075      -1.55007963       1.30847205
O        0.14854543       1.25017555       1.19232946
C        0.70636073      -0.36975822      -0.53196702
C        0.06550775       0.97547526      -0.17222579
O       -1.28475750       0.91463351      -0.60757172
H       -1.78202758       1.50237749      -0.01794771
H       -0.50151775      -2.25945460      -0.54364307
H       -0.09176800       0.42246023       1.64725810
H        1.71620416      -0.38422282      -0.12533006
H        0.58490190       1.78556108      -0.69330692
H        0.78027190      -0.45975235      -1.61329527
12
Properties=species:S:1:pos:R:3 relative_energy_eV=0.0459924562019296 branch=left pbc="F F F"
C       -0.07327483      -1.48002862       0.10936002
O       -0.24105388      -1.55452130       1.31180734
O        0.14049981       1.25235455       1.19211361
C        0.70308160      -0.37154293      -0.52959805
C        0.06903217       0.97608716      -0.17210228
O       -1.27791852       0.92731629      -0.61668578
H       -1.78789406       1.48473867      -0.02119987
H       -0.50739751      -2.25486340      -0.53943470
H       -0.08759148       0.42199566       1.64625824
H        1.71311349      -0.38669988      -0.12952430
H        0.59308298       1.78463104      -0.68993459
H        0.77547170      -0.45310438      -1.61082766
12
Properties=species:S:1:pos:R:3 relative_energy_eV=0.049651375658868346 branch=left pbc="F F F"
C       -0.07085393      -1.47513414       0.10677431
O       -0.25111386      -1.52956356       1.30687244
O        0.14683448       1.25147232       1.18901299
C        0.71149683      -0.36798004      -0.52932708
C        0.07743239       0.97706143      -0.17385094
O       -1.27305877       0.91678736      -0.61670547
H       -1.78525912       1.46162972       0.00534456
H       -0.51925364      -2.24798875      -0.54628727
H       -0.10541577       0.41842906       1.62900474
H        1.72186559      -0.37398185      -0.12712421
H        0.59686190       1.79123470      -0.68602487
H        0.76961541      -0.47560337      -1.60745716
12
Properties=species:S:1:pos:R:3 relative_energy_eV=0.05404363659363298 branch=left pbc="F F F"
C       -0.06926909      -1.47107743       0.10978277
O       -0.24706555      -1.52339093       1.30978341
O        0.13962638       1.25171720       1.18853985
C        0.71448493      -0.36570582      -0.52902073
C        0.08166372       0.98120220      -0.17428358
O       -1.26444817       0.93119812      -0.63183463
H       -1.78938696       1.42510773       0.01297529
H       -0.53296562      -2.23605546      -0.54597977
H       -0.10829203       0.41599495       1.62682690
H        1.72781524      -0.36924420      -0.13241449
H        0.60907658       1.79434804      -0.67779910
H        0.75791206      -0.48773144      -1.60634389
12
Properties=species:S:1:pos:R:3 relative_energy_eV=0.06219114702071238 branch=left pbc="F F F"
C       -0.06827117      -1.46473993       0.11373070
O       -0.25025404      -1.51707614       1.31246375
O        0.13435580       1.25158007       1.18844274
C        0.72086134      -0.36116176      -0.53014730
C        0.08460314       0.98606309      -0.17689068
O       -1.25750588       0.93974714      -0.64947515
H       -1.78882078       1.38353557       0.02714575
H       -0.54597532      -2.21861741      -0.55004667
H       -0.11555609       0.41823889       1.63175660
H        1.74054303      -0.36370830      -0.14007971
H        0.62106632       1.79930348      -0.66972696
H        0.74410515      -0.50680171      -1.60694105
12
Properties=species:S:1:pos:R:3 relative_energy_eV=0.0655959820960561 branch=left pbc="F F F"
C       -0.06818852      -1.46232026       0.11589138
O       -0.24997482      -1.51750147       1.31501259
O        0.12991156       1.25197876       1.18878143
C        0.72292385      -0.36049757      -0.53046989
C        0.08486213       0.98848128      -0.17735676
O       -1.25434045       0.94629268      -0.65835541
H       -1.78971920       1.36553814       0.03011126
H       -0.55083207      -2.21051044      -0.55077039
H       -0.11618476       0.41981349       1.63633357
H        1.74538157      -0.36337765      -0.14506831
H        0.62697216       1.80057244      -0.66632282
H        0.73834005      -0.51210639      -1.60755466
12
Properties=species:S:1:pos:R:3 relative_energy_eV=0.07348113061925687 branch=left pbc="F F F"
C       -0.07067394      -1.45442690       0.12300597
O       -0.23778560      -1.53486161       1.32340389
O        0.10782187       1.25551448       1.18943853
C        0.72372934      -0.36199595      -0.52924772
C        0.08836578       0.99269796      -0.17910933
O       -1.24092490       0.97600780      -0.68838351
H       -1.79716145       1.31075497       0.02530919
H       -0.56317770      -2.18700567      -0.54533775
H       -0.10768877       0.42836708       1.65560438
H        1.75169678      -0.36883149      -0.16046541
H        0.64817419       1.80168603      -0.65575076
H        0.71677582      -0.51154365      -1.60823556
12
Properties=species:S:1:pos:R:3 relative_energy_eV=0.07584271375162643 branch=left pbc="F F F"
C       -0.07100135      -1.45279892       0.12350805
O       -0.23693744      -1.53758431       1.32489173
O        0.10397297       1.25650772       1.18932460
C        0.72484941      -0.36320104      -0.52910524
C        0.08882787       0.99324388      -0.17891302
O       -1.23885633       0.97996566      -0.69275600
H       -1.79855985       1.30233168       0.02522907
H       -0.56456789      -2.18261633      -0.54458636
H       -0.10660385       0.43023324       1.65915996
H        1.75318673      -0.37008970      -0.16347371
H        0.65140867       1.80189414      -0.65441425
H        0.71343249      -0.51152297      -1.60863293
12
Properties=species:S:1:pos:R:3 relative_energy_eV=0.08315958362254605 branch=left pbc="F F F"
C       -0.07393920      -1.44801867       0.11483314
O       -0.26066868      -1.52994856       1.31296632
O        0.12035784       1.25647427       1.18562367
C        0.73415961      -0.36583337      -0.53188081
C        0.09116379       0.98719129      -0.18312987
O       -1.24872029       0.94061755      -0.67340066
H       -1.78466411       1.33014592       0.04496859
H       -0.55019992      -2.18577702      -0.55219704
H       -0.12248749       0.43867086       1.65989661
H        1.75898558      -0.36540872      -0.15357250
H        0.63707247       1.80643776      -0.66401163
H        0.71809185      -0.51818829      -1.60986379
12
Properties=species:S:1:pos:R:3 relative_energy_eV=0.08191342784630251 branch=left pbc="F F F"
C       -0.07354376      -1.44779936       0.12306691
O       -0.23138965      -1.54299064       1.32203594
O        0.09984736       1.25411919       1.18742836
C        0.72420667      -0.36574961      -0.53133120
C        0.09272870       0.99262362      -0.18223293
O       -1.23444795       0.98840114      -0.69569083
H       -1.79900386       1.29137822       0.02092095
H       -0.56543619      -2.17841660      -0.53565818
H       -0.10439780       0.42842594       1.66130639
H        1.75013368      -0.36625744      -0.15896054
H        0.65555933       1.80466690      -0.65110181
H        0.70489489      -0.51203829      -1.60955119
12
Properties=species:S:1:pos:R:3 relative_energy_eV=0.08593172625296575 branch=left pbc="F F F"
C       -0.07060037      -1.45138675       0.13157305
O       -0.21717062      -1.55664942       1.33262574
O        0.08060332       1.26352504       1.18891823
C        0.71895087      -0.36612070      -0.52766716
C        0.09534465       0.99457799      -0.17668900
O       -1.22169795       1.01466756      -0.71661908
H       -1.81339027       1.26255794       0.01085737
H       -0.57547998      -2.16750875      -0.53452368
H       -0.09217595       0.43243898       1.67063884
H        1.74907298      -0.37769067      -0.17541651
H        0.66779465       1.79868112      -0.64453297
H        0.69790005      -0.50072922      -1.60893306
12
Properties=species:S:1:pos:R:3 relative_energy_eV=0.09000242093316047 branch=left pbc="F F F"
C       -0.06820605      -1.45430949       0.13979468
O       -0.19285077      -1.56443869       1.34349942
O        0.06356744       1.26187055       1.19196175
C        0.71014256      -0.36461484      -0.52631003
C        0.09377060       1.00072360      -0.17351712
O       -1.21139233       1.05631955      -0.73497622
H       -1.82664577       1.23227220      -0.01022422
H       -0.58980834      -2.16291911      -0.52371807
H       -0.07627576       0.42228028       1.66981046
H        1.74263901      -0.38006302      -0.18352739
H        0.68274188       1.79550073      -0.63394206
H        0.69146887      -0.49625862      -1.60861953
12
Properties=species:S:1:pos:R:3 relative_energy_eV=0.093733134557624 branch=left pbc="F F F"
C       -0.06641185      -1.45754161       0.14673542
O       -0.17084540      -1.56967810       1.35280923
O        0.05031377       1.25917191       1.19581889
C        0.70200565      -0.36184955      -0.52452711
C        0.09071059       1.00721755      -0.17134596
O       -1.20464839       1.09191157      -0.75071009
H       -1.83725441       1.20776067      -0.02888433
H       -0.60289119      -2.16139181      -0.51502512
H       -0.06244850       0.41263041       1.66729069
H        1.73775001      -0.38181463      -0.18948182
H        0.69619917       1.79266230      -0.62497494
H        0.68667187      -0.49271557      -1.60747327
12
Properties=species:S:1:pos:R:3 relative_energy_eV=0.09626873901106592 branch=left pbc="F F F"
C       -0.06555607      -1.45918723       0.15067567
O       -0.15475148      -1.57102017       1.35871132
O        0.04219988       1.25487023       1.19884681
C        0.69676557      -0.36040048      -0.52386872
C        0.08743449       1.01290159      -0.17031686
O       -1.20205416       1.11810033      -0.76010816
H       -1.84384367       1.19181215      -0.04308389
H       -0.61220976      -2.16180429      -0.50723378
H       -0.05290557       0.40302925       1.66326361
H        1.73432235      -0.38103037      -0.19170882
H        0.70592547       1.79149096      -0.61841312
H        0.68382423      -0.49239881      -1.60653256
12
Properties=species:S:1:pos:R:3 relative_energy_eV=0.09833227069066197 branch=left pbc="F F F"
C       -0.06610502      -1.46007862       0.15257499
O       -0.14230046      -1.57283606       1.36170143
O        0.03711248       1.25210198       1.20126828
C        0.69286554      -0.35914219      -0.52248374
C        0.08501398       1.01706841      -0.17051113
O       -1.20081606       1.13481396      -0.76792550
H       -1.84811816       1.18096560      -0.05253632
H       -0.61863888      -2.16349621      -0.50197265
H       -0.04611632       0.39753618       1.66052643
H        1.73228045      -0.38105623      -0.19181328
H        0.71384448       1.79064616      -0.61415534
H        0.68012924      -0.49015982      -1.60444173
12
Properties=species:S:1:pos:R:3 relative_energy_eV=0.10012439137062756 branch=left pbc="F F F"
C       -0.06724641      -1.45991586       0.15299591
O       -0.13112872      -1.57406397       1.36303541
O        0.03332532       1.24896760       1.20267347
C        0.68995647      -0.35909393      -0.52161799
C        0.08314429       1.02070062      -0.17110092
O       -1.20008875       1.14872759      -0.77347824
H       -1.85107979       1.17231405      -0.06114443
H       -0.62360197      -2.16566329      -0.49594007
H       -0.04047107       0.39196741       1.65742175
H        1.72980964      -0.37993751      -0.18963726
H        0.72080655       1.79060650      -0.61049637
H        0.67572569      -0.48824604      -1.60247987
12
Properties=species:S:1:pos:R:3 relative_energy_eV=0.10190028905344661 branch=left pbc="F F F"
C       -0.06898314      -1.45922207       0.15269935
O       -0.12024618      -1.57696152       1.36282443
O        0.03040057       1.24650796       1.20287478
C        0.68677242      -0.35873626      -0.52078943
C        0.08264286       1.02295827      -0.17243842
O       -1.19781122       1.15957268      -0.77848045
H       -1.85312227       1.16475286      -0.06884388
H       -0.62745616      -2.16824136      -0.48964589
H       -0.03543194       0.38793001       1.65494740
H        1.72598189      -0.37850103      -0.18504910
H        0.72700652       1.79100366      -0.60732984
H        0.66939788      -0.48470001      -1.60053761
12
Properties=species:S:1:pos:R:3 relative_energy_eV=0.10361095553525956 branch=left pbc="F F F"
C       -0.07006798      -1.45823553       0.15230598
O       -0.11080147      -1.57942239       1.36232774
O        0.02797272       1.24383381       1.20201966
C        0.68392747      -0.35855083      -0.52101380
C        0.08297394       1.02446853      -0.17349727
O       -1.19479363       1.16950780      -0.78127096
H       -1.85443433       1.15840234      -0.07643371
H       -0.63058048      -2.17033326      -0.48270417
H       -0.03112345       0.38309780       1.65217308
H        1.72103774      -0.37580269      -0.17940039
H        0.73163050       1.79191006      -0.60425972
H        0.66341020      -0.48251243      -1.60001515
12
Properties=species:S:1:pos:R:3 relative_energy_eV=0.10516889299651666 branch=left pbc="F F F"
C       -0.07031200      -1.45764748       0.15242497
O       -0.10364836      -1.58190185       1.36212057
O        0.02633827       1.24169131       1.20073254
C        0.68113247      -0.35751563      -0.52190886
C        0.08398878       1.02495786      -0.17422531
O       -1.19080183       1.17709686      -0.78302777
H       -1.85514772       1.15363730      -0.08245546
H       -0.63295121      -2.17175384      -0.47685654
H       -0.02787810       0.37894895       1.64990954
H        1.71568525      -0.37282568      -0.17388995
H        0.73427079       1.79289986      -0.60173573
H        0.65847487      -0.48122448      -1.60085672
12
Properties=species:S:1:pos:R:3 relative_energy_eV=0.1065015644144296 branch=left pbc="F F F"
C       -0.06949288      -1.45754564       0.15318029
O       -0.09903015      -1.58294539       1.36281066
O        0.02530167       1.23944818       1.19981045
C        0.67887837      -0.35637469      -0.52357949
C        0.08488918       1.02538529      -0.17422502
O       -1.18745173       1.18353389      -0.78342940
H       -1.85531148       1.15040840      -0.08735813
H       -0.63488812      -2.17232629      -0.47221009
H       -0.02564206       0.37450620       1.64759521
H        1.71091024      -0.36951396      -0.16964322
H        0.73517408       1.79385795      -0.59963244
H        0.65581408      -0.48207074      -1.60308759
12
Properties=species:S:1:pos:R:3 relative_energy_eV=0.1077861222820502 branch=left pbc="F F F"
C       -0.06814617      -1.45808556       0.15466430
O       -0.09581430      -1.58325810       1.36454130
O        0.02499954       1.23695480       1.19969815
C        0.67653703      -0.35490549      -0.52569363
C        0.08539822       1.02586771      -0.17374562
O       -1.18418932       1.18902460      -0.78412770
H       -1.85497812       1.14806110      -0.09115301
H       -0.63659286      -2.17235062      -0.46886739
H       -0.02403197       0.37025211       1.64543643
H        1.70631392      -0.36605519      -0.16634181
H        0.73495032       1.79484618      -0.59790695
H        0.65470491      -0.48398833      -1.60627283
12
Properties=species:S:1:pos:R:3 relative_energy_eV=0.1094022599481832 branch=left pbc="F F F"
C       -0.06650642      -1.45908565       0.15707062
O       -0.09312847      -1.58222982       1.36755702
O        0.02548027       1.23316611       1.20103477
C        0.67380121      -0.35390310      -0.52842956
C        0.08521573       1.02700332      -0.17303101
O       -1.18181378       1.19508933      -0.78526580
H       -1.85370736       1.14609971      -0.09500592
H       -0.63828386      -2.17181092      -0.46616118
H       -0.02271986       0.36508115       1.64295033
H        1.70151517      -0.36174545      -0.16391457
H        0.73393216       1.79617688      -0.59617950
H        0.65536642      -0.48747837      -1.61039398
12
Properties=species:S:1:pos:R:3 relative_energy_eV=0.11142579968327482 branch=left pbc="F F F"
C       -0.06582796      -1.46007455       0.15967287
O       -0.09058750      -1.58059138       1.37125410
O        0.02707435       1.22865200       1.20356647
C        0.67076997      -0.35405349      -0.53086058
C        0.08409447       1.02837333      -0.17273640
O       -1.18037666       1.20049145      -0.78802685
H       -1.85166310       1.14455965      -0.09794357
H       -0.63936112      -2.17092851      -0.46461608
H       -0.02184042       0.36022201       1.64126457
H        1.69691925      -0.35741539      -0.16277165
H        0.73272991       1.79796241      -0.59479424
H        0.65722001      -0.49083432      -1.61377741
12
Properties=species:S:1:pos:R:3 relative_energy_eV=0.11423233739878924 branch=left pbc="F F F"
C       -0.06678337      -1.46019762       0.16254247
O       -0.08774515      -1.57829148       1.37465587
O        0.02984410       1.22311568       1.20667631
C        0.66740823      -0.35592082      -0.53243688
C        0.08229631       1.02961385      -0.17388072
O       -1.18079302       1.20597689      -0.79195285
H       -1.84879805       1.14334675      -0.10050747
H       -0.63964769      -2.16981021      -0.46362478
H       -0.02140425       0.35500858       1.64089192
H        1.69262658      -0.35283509      -0.16342706
H        0.73159119       1.80046719      -0.59344010
H        0.66055630      -0.49411050      -1.61526547
12
Properties=species:S:1:pos:R:3 relative_energy_eV=0.11971135578278336 branch=left pbc="F F F"
C       -0.07063607      -1.45817672       0.16497805
O       -0.08371539      -1.57537484       1.37848471
O        0.03457588       1.21523417       1.20845557
C        0.66320138      -0.35871580      -0.53276835
C        0.07965467       1.02959050      -0.17797225
O       -1.18279052       1.21421285      -0.79773253
H       -1.84594484       1.14216131      -0.10267556
H       -0.63907046      -2.16835851      -0.46183837
H       -0.02154130       0.34687031       1.64301415
H        1.68800162      -0.34671048      -0.16735082
H        0.73029344       1.80455076      -0.59124230
H        0.66712279      -0.49892033      -1.61312107
12
Properties=species:S:1:pos:R:3 relative_energy_eV=0.12879692083151895 branch=left pbc="F F F"
C       -0.07443762      -1.45341645       0.16829733
O       -0.08061334      -1.57008383       1.37947071
O        0.03876929       1.20568957       1.20641505
C        0.66017449      -0.36071918      -0.53245808
C        0.07715846       1.02861174      -0.18374386
O       -1.18609295       1.22759449      -0.80070270
H       -1.84662512       1.14131033      -0.10455836
H       -0.63906993      -2.16699804      -0.45708030
H       -0.02218217       0.33365761       1.64523842
H        1.68577048      -0.33914925      -0.17449258
H        0.72864295       1.80882857      -0.58748603
H        0.67765667      -0.50896233      -1.60866834
12
Properties=species:S:1:pos:R:3 relative_energy_eV=0.14314850548180402 branch=left pbc="F F F"
C       -0.07640392      -1.44664100       0.16778648
O       -0.07991156      -1.56341647       1.38205646
O        0.04046350       1.19396449       1.19916885
C        0.65982111      -0.35716499      -0.53343863
C        0.07554845       1.02653047      -0.18930298
O       -1.18921669       1.24739613      -0.79758061
H       -1.85313322       1.14090014      -0.10630799
H       -0.64088923      -2.16579174      -0.44777192
H       -0.02302514       0.31620929       1.64480173
H        1.68752630      -0.33047952      -0.18408883
H        0.72616163       1.81187606      -0.58178628
H        0.69220996      -0.52701962      -1.60330501
12
Properties=species:S:1:pos:R:3 relative_energy_eV=0.16385833423373697 branch=left pbc="F F F"
C       -0.07274458      -1.43986455       0.17053971
O       -0.08342766      -1.55099134       1.38050487
O        0.03738271       1.17887216       1.19122526
C        0.66381320      -0.35217996      -0.53876838
C        0.07257753       1.02696219      -0.18959090
O       -1.19161011       1.27297962      -0.78684607
H       -1.86605032       1.14096164      -0.10809247
H       -0.64548180      -2.16462013      -0.43437267
H       -0.02322210       0.29605936       1.63600564
H        1.69485680      -0.32098610      -0.19330526
H        0.72369211       1.81306492      -0.57533048
H        0.70936543      -0.55389455      -1.60173798
12
Properties=species:S:1:pos:R:3 relative_energy_eV=0.19472962126565108 branch=left pbc="F F F"
C       -0.06622870      -1.43533655       0.16839733
O       -0.08954004      -1.53912416       1.38338479
O        0.03069459       1.16181988       1.18730681
C        0.66989673      -0.34248735      -0.54703868
C        0.07044548       1.02779293      -0.18779832
O       -1.19380957       1.29871406      -0.77091078
H       -1.88100968       1.14153133      -0.11063055
H       -0.65152936      -2.16313913      -0.41949095
H       -0.02257602       0.28087530       1.62041916
H        1.70574946      -0.31254435      -0.20041094
H        0.72124563       1.81217121      -0.56930375
H        0.72581269      -0.58390990      -1.60369285
12
Properties=species:S:1:pos:R:3 relative_energy_eV=0.24261538577775354 branch=left pbc="F F F"
C       -0.05503091      -1.43267072       0.16917260
O       -0.09842521      -1.51770702       1.38377705
O        0.02044583       1.14278124       1.19448254
C        0.68145515      -0.34490192      -0.55989729
C        0.06342457       1.03529496      -0.18094893
O       -1.19635811       1.32610396      -0.75329920
H       -1.89880081       1.14215105      -0.11257317
H       -0.65807792      -2.16018105      -0.40355143
H       -0.02083906       0.26467046       1.59513432
H        1.71934323      -0.30327851      -0.20436428
H        0.72060827       1.81137523      -0.56473772
H        0.74140618      -0.61727442      -1.61296319
12
Properties=species:S:1:pos:R:3 relative_energy_eV=0.2866994495725521 branch=left pbc="F F F"
C       -0.04836662      -1.43253903       0.16680797
O       -0.10378294      -1.50153256       1.38629122
O        0.01401253       1.13197351       1.20712583
C        0.69171953      -0.35522591      -0.56747186
C        0.05781953       1.04320138      -0.17827722
O       -1.19929772       1.34070004      -0.74437939
H       -1.90835065       1.14252803      -0.11362983
H       -0.66059956      -2.15715371      -0.39484485
H       -0.01953763       0.25585393       1.57811131
H        1.72589322      -0.29779465      -0.20525015
H        0.72115042       1.81133898      -0.56297100
H        0.74849111      -0.63498672      -1.62128073
12
Properties=species:S:1:pos:R:3 relative_energy_eV=0.415701586571231 branch=left pbc="F F F"
C       -0.02892665      -1.43739388       0.16546658
O       -0.11709700      -1.45123436       1.38548283
O       -0.00085773       1.14933154       1.23355563
C        0.71796430      -0.39875806      -0.58349248
C        0.04325628       1.05969329      -0.16813538
O       -1.21200910       1.37407058      -0.72820715
H       -1.92941079       1.14333446      -0.11534575
H       -0.66403979      -2.14650092      -0.37579398
H       -0.01729587       0.19627141       1.54935309
H        1.74054024      -0.28450164      -0.20329641
H        0.72612361       1.81539592      -0.56006118
H        0.76090374      -0.67334501      -1.64929441
12
Properties=species:S:1:pos:R:3 relative_energy_eV=0.5476297868335678 branch=left pbc="F F F"
C       -0.02173795      -1.44162002       0.16384455
O       -0.12205199      -1.43757473       1.38477138
O       -0.00664670       1.16872017       1.24576449
C        0.72370416      -0.40921945      -0.58709393
C        0.04095597       1.05530909      -0.16849529
O       -1.21833935       1.38631481      -0.72310766
H       -1.93661260       1.14367176      -0.11586101
H       -0.66505080      -2.14157556      -0.36858473
H       -0.01632791       0.17011997       1.54045023
H        1.74729256      -0.28027993      -0.20176067
H        0.72917824       1.81923079      -0.55941525
H        0.76478758      -0.68673358      -1.66028071
12
Properties=species:S:1:pos:R:3 relative_energy_eV=0.7324842803263891 branch=left pbc="F F F"
C       -0.02271626      -1.44875511       0.16515390
O       -0.12186927      -1.46762069       1.37807214
O       -0.00725194       1.19954098       1.25626408
C        0.70487509      -0.36589895      -0.57883049
C        0.05856237       1.00812838      -0.19215489
O       -1.22117990       1.38607050      -0.72470590
H       -1.93618609       1.14391437      -0.11494460
H       -0.66692908      -2.14050250      -0.36682642
H       -0.01672058       0.17662067       1.54641657
H        1.75319528      -0.28487937      -0.20082105
H        0.73106929       1.82587004      -0.56014345
H        0.76430231      -0.68612502      -1.65724851
12
Properties=species:S:1:pos:R:3 relative_energy_eV=0.712397097817302 branch=left pbc="F F F"
C       -0.01409182      -1.43894016       0.16332525
O       -0.12661819      -1.39897592       1.38747330
O       -0.01152687       1.16897741       1.24827318
C        0.74259418      -0.45678075      -0.59665654
C        0.02142441       1.08302679      -0.14610466
O       -1.22356037       1.39870565      -0.71729563
H       -1.94194287       1.14389719      -0.11762164
H       -0.66391091      -2.13766063      -0.36370386
H       -0.01474785       0.13459508       1.52682937
H        1.74966744      -0.27213059      -0.20035568
H        0.73310992       1.82096250      -0.55945045
H        0.76875414      -0.69931324      -1.67448117
12
Properties=species:S:1:pos:R:3 relative_energy_eV=0.8758233229200414 branch=left pbc="F F F"
C       -0.00818693      -1.42750272       0.15856236
O       -0.12980656      -1.32685091       1.40154363
O       -0.01441371       1.12345715       1.23455800
C        0.78077676      -0.54492576      -0.61306672
C       -0.01310586       1.16505938      -0.10051613
O       -1.22261815       1.40715432      -0.70983826
H       -1.94658773       1.14385120      -0.12028591
H       -0.66017396      -2.13653247      -0.36261245
H       -0.01350245       0.09995863       1.50950057
H        1.74248835      -0.26073246      -0.20111971
H        0.73192570       1.81234176      -0.55742624
H        0.77235575      -0.70891478      -1.68906761
12
Properties=species:S:1:pos:R:3 relative_energy_eV=0.9329882482088578 branch=left pbc="F F F"
C       -0.00701337      -1.42400017       0.16156103
O       -0.13014681      -1.30455023       1.40219955
O       -0.01466029       1.10134933       1.22844210
C        0.79245913      -0.57031789      -0.61898826
C       -0.02370193       1.19263290      -0.08447495
O       -1.22180294       1.40805231      -0.70810915
H       -1.94732426       1.14408164      -0.12125230
H       -0.65920313      -2.13691086      -0.36308402
H       -0.01317990       0.09596238       1.50420297
H        1.73963490      -0.25796008      -0.20146765
H        0.73107039       1.80861062      -0.55676186
H        0.77301942      -0.71058659      -1.69203589
12
Properties=species:S:1:pos:R:3 relative_energy_eV=0.978967476172329 branch=left pbc="F F F"
C       -0.00444061      -1.42170041       0.15780382
O       -0.13074827      -1.29494083       1.40620924
O       -0.01415826       1.08353929       1.22514108
C        0.79409815      -0.58101395      -0.62097729
C       -0.02854411       1.20468724      -0.07475466
O       -1.22120838       1.40782541      -0.70924523
H       -1.94746153       1.14413764      -0.12115181
H       -0.65914968      -2.13774537      -0.36364813
H       -0.01296268       0.10208714       1.50150266
H        1.73950149      -0.25693435      -0.20124760
H        0.73106688       1.80706755      -0.55717932
H        0.77315820      -0.71064600      -1.69222117
12
Properties=species:S:1:pos:R:3 relative_energy_eV=1.0162356560394983 branch=ts pbc="F F F"
C       -0.00087323      -1.42024047       0.14802578
O       -0.13182978      -1.28635652       1.41166682
O       -0.01418134       1.08304142       1.21830184
C        0.79558714      -0.59266619      -0.62164419
C       -0.03354623       1.21801827      -0.06272832
O       -1.22099518       1.40741491      -0.70995871
H       -1.94492214       1.14561855      -0.11928799
H       -0.65143275      -2.14526184      -0.35329500
H       -0.00722651      -0.04142166       1.51371754
H        1.73109624      -0.24538315      -0.20039602
H        0.73695861       1.78699219      -0.56686425
H        0.77318102      -0.71181010      -1.69340887
12
Properties=species:S:1:pos:R:3 relative_energy_eV=0.9344662806579436 branch=right pbc="F F F"
C        0.00269414      -1.41878053       0.13824775
O       -0.13291129      -1.27777221       1.41712439
O       -0.01420442       1.08254354       1.21146259
C        0.79707614      -0.60431843      -0.62231109
C       -0.03854835       1.23134929      -0.05070198
O       -1.22078198       1.40700440      -0.71067219
H       -1.94238274       1.14709946      -0.11742416
H       -0.64371582      -2.15277832      -0.34294187
H       -0.00149034      -0.18493046       1.52593243
H        1.72269100      -0.23383195      -0.19954445
H        0.74285033       1.76691684      -0.57654918
H        0.77320384      -0.71297419      -1.69459658
12
Properties=species:S:1:pos:R:3 relative_energy_eV=0.8926171386083297 branch=right pbc="F F F"
C        0.00590810      -1.41755338       0.12903883
O       -0.13522652      -1.27362385       1.42194845
O       -0.01458591       1.08588889       1.20251888
C        0.79903558      -0.61502444      -0.62259170
C       -0.04313009       1.24339830      -0.03952951
O       -1.22061889       1.40647408      -0.71141771
H       -1.94212152       1.14708683      -0.11705975
H       -0.64323175      -2.15350849      -0.34178854
H        0.00008387      -0.19276409       1.52880291
H        1.72149546      -0.23305542      -0.19954886
H        0.74347460       1.76551311      -0.57748390
H        0.77339758      -0.71330409      -1.69486345
12
Properties=species:S:1:pos:R:3 relative_energy_eV=0.7820396249026089 branch=right pbc="F F F"
C        0.01512741      -1.41555431       0.09804460
O       -0.14617520      -1.24588101       1.43721085
O       -0.01755899       1.10861728       1.17443647
C        0.82381660      -0.67504488      -0.63213588
C       -0.06822031       1.32589107      -0.00247808
O       -1.22030635       1.40356947      -0.71260237
H       -1.94118146       1.14680390      -0.11589964
H       -0.64108754      -2.15708659      -0.33551357
H        0.00840292      -0.25209477       1.54653887
H        1.71204859      -0.22784114      -0.20023881
H        0.74447209       1.75488505      -0.58117266
H        0.77514271      -0.71673663      -1.69816410
12
Properties=species:S:1:pos:R:3 relative_energy_eV=0.6908799528355303 branch=right pbc="F F F"
C        0.01186908      -1.41793603       0.10098291
O       -0.14959035      -1.25239016       1.43639572
O       -0.01802987       1.11548747       1.18525853
C        0.83529447      -0.68464507      -0.63764950
C       -0.07458404       1.34515606      -0.00945505
O       -1.22155522       1.40491693      -0.71355103
H       -1.94130092       1.14634916      -0.11552762
H       -0.64194656      -2.15810869      -0.33462148
H        0.01162168      -0.25868286       1.55263108
H        1.71054170      -0.22611157      -0.20082480
H        0.74549601       1.75488079      -0.58306605
H        0.77666450      -0.71938859      -1.70254703
12
Properties=species:S:1:pos:R:3 relative_energy_eV=0.5365378916194459 branch=right pbc="F F F"
C        0.00510158      -1.42317783       0.11024410
O       -0.16503823      -1.26981774       1.42977107
O       -0.02447975       1.16414668       1.19532415
C        0.88547760      -0.74841750      -0.65879345
C       -0.10367820       1.44021551       0.00137221
O       -1.22993423       1.41276110      -0.71701034
H       -1.94132186       1.14423342      -0.11429955
H       -0.64743890      -2.16443401      -0.33105867
H        0.02688068      -0.31070578       1.58504905
H        1.70413281      -0.21530250      -0.20336100
H        0.74942173       1.75430311      -0.59333475
H        0.78535723      -0.73427702      -1.72587714
12
Properties=species:S:1:pos:R:3 relative_energy_eV=0.4767533074136736 branch=right pbc="F F F"
C        0.00770350      -1.42470188       0.10770168
O       -0.17349753      -1.28800472       1.42473107
O       -0.03201388       1.20330335       1.20398181
C        0.90250472      -0.78367632      -0.66112375
C       -0.10954687       1.47578261       0.00174595
O       -1.23537412       1.42245733      -0.71639499
H       -1.94209385       1.14270771      -0.11406857
H       -0.65259872      -2.16811491      -0.33068684
H        0.03664059      -0.33402330       1.60667114
H        1.70385632      -0.20882485      -0.20630457
H        0.74598056       1.75942019      -0.59760417
H        0.79291976      -0.74679779      -1.74062306
12
Properties=species:S:1:pos:R:3 relative_energy_eV=0.3936061186959705 branch=right pbc="F F F"
C        0.00722880      -1.43826031       0.09839859
O       -0.18504349      -1.31285924       1.41947657
O       -0.04728092       1.27965425       1.21137821
C        0.93094647      -0.82728658      -0.66972009
C       -0.11706442       1.51466796       0.00813515
O       -1.24051869       1.44332353      -0.71334630
H       -1.94412016       1.14003097      -0.11303410
H       -0.66038765      -2.17217223      -0.33120464
H        0.05237179      -0.37678836       1.64405682
H        1.70216781      -0.20240907      -0.21449492
H        0.73760032       1.77445305      -0.60551006
H        0.80858058      -0.77282657      -1.75610954
12
Properties=species:S:1:pos:R:3 relative_energy_eV=0.3263424351844151 branch=right pbc="F F F"
C        0.01512410      -1.44960542       0.08715215
O       -0.19058947      -1.33147892       1.41457087
O       -0.06237025       1.34912308       1.21814927
C        0.93789506      -0.84350910      -0.67103089
C       -0.11551716       1.51870918       0.00990111
O       -1.24452014       1.46418969      -0.70636852
H       -1.94396357       1.13953645      -0.11382644
H       -0.67019354      -2.17688445      -0.33652754
H        0.06417890      -0.41061513       1.67237588
H        1.70204994      -0.20374251      -0.22513947
H        0.72587327       1.79607227      -0.61214183
H        0.82651329      -0.80226774      -1.75908889
12
Properties=species:S:1:pos:R:3 relative_energy_eV=0.29472068259565276 branch=right pbc="F F F"
C        0.01881021      -1.45943395       0.07883811
O       -0.19187034      -1.33676019       1.41362885
O       -0.07030202       1.38842495       1.22070296
C        0.93730614      -0.84436026      -0.67305300
C       -0.11887347       1.52480691       0.01564721
O       -1.24594455       1.47513819      -0.70330618
H       -1.94297948       1.14081335      -0.11389451
H       -0.67465219      -2.17849940      -0.34158611
H        0.07137842      -0.43694872       1.68745227
H        1.70217973      -0.20891189      -0.23343350
H        0.71863956       1.81184295      -0.61836359
H        0.84078843      -0.82658456      -1.75460679
12
Properties=species:S:1:pos:R:3 relative_energy_eV=0.2750107200608909 branch=right pbc="F F F"
C        0.02049483      -1.46670053       0.07903298
O       -0.19171291      -1.34677922       1.40779014
O       -0.07557287       1.41456234       1.22471272
C        0.92768450      -0.83169119      -0.67238289
C       -0.11864832       1.52525447       0.01861022
O       -1.24774495       1.48198023      -0.70174189
H       -1.94178791       1.14362765      -0.11382698
H       -0.67751893      -2.17918188      -0.34883463
H        0.07867188      -0.45010299       1.69671665
H        1.70464156      -0.21699776      -0.24106064
H        0.71048671       1.82803211      -0.62322181
H        0.85548685      -0.85247587      -1.74776818
12
Properties=species:S:1:pos:R:3 relative_energy_eV=0.2523493680128013 branch=right pbc="F F F"
C        0.02266106      -1.47305235       0.07311006
O       -0.19418307      -1.35321506       1.40699769
O       -0.08063522       1.44499308       1.22939177
C        0.91731186      -0.82803445      -0.67216965
C       -0.12640825       1.55439832       0.02494303
O       -1.24952228       1.48696933      -0.70164734
H       -1.94082867       1.14812709      -0.11257817
H       -0.67868334      -2.18066387      -0.35790703
H        0.09063524      -0.48058568       1.70953580
H        1.70815858      -0.22609088      -0.24972923
H        0.70005583       1.84650003      -0.62983144
H        0.87591869      -0.88981820      -1.74208981
12
Properties=species:S:1:pos:R:3 relative_energy_eV=0.23000546322145965 branch=right pbc="F F F"
C        0.01909499      -1.47800933       0.07327269
O       -0.19988961      -1.36773129       1.40358295
O       -0.08522477       1.47309048       1.23392319
C        0.91007775      -0.82494057      -0.67226138
C       -0.13485442       1.59157145       0.02991291
O       -1.25179403       1.49100050      -0.70188541
H       -1.94121647       1.15341177      -0.11013494
H       -0.67781340      -2.18216144      -0.36782416
H        0.10678376      -0.50692968       1.72294729
H        1.71268281      -0.23516731      -0.25728171
H        0.68872775       1.86741440      -0.63526597
H        0.89790607      -0.93202163      -1.74095978
12
Properties=species:S:1:pos:R:3 relative_energy_eV=0.21434616308215482 branch=right pbc="F F F"
C        0.01409496      -1.48029309       0.07220209
O       -0.21020818      -1.38502906       1.40236997
O       -0.09135557       1.50734913       1.23796739
C        0.90997014      -0.83436959      -0.67542495
C       -0.14574282       1.64130972       0.03354842
O       -1.25622374       1.49709110      -0.70064093
H       -1.94284002       1.15944971      -0.10654190
H       -0.67622948      -2.18521570      -0.37809109
H        0.12769005      -0.54088033       1.73953172
H        1.71666817      -0.24281040      -0.26376840
H        0.67634706       1.89373154      -0.63947428
H        0.92230983      -0.98080569      -1.74365237
12
Properties=species:S:1:pos:R:3 relative_energy_eV=0.20745454297320975 branch=right pbc="F F F"
C        0.01070420      -1.48052473       0.07141436
O       -0.21656742      -1.39289838       1.40217102
O       -0.09485419       1.52532307       1.23832227
C        0.91508953      -0.84490630      -0.67747458
C       -0.15121429       1.66301753       0.03385863
O       -1.25941224       1.50247728      -0.69910599
H       -1.94481600       1.16249637      -0.10361830
H       -0.67497225      -2.18699164      -0.38236173
H        0.13894034      -0.55832450       1.74694985
H        1.71710811      -0.24570684      -0.26585760
H        0.67081616       1.91068619      -0.63974870
H        0.93365846      -1.00512071      -1.74652357
12
Properties=species:S:1:pos:R:3 relative_energy_eV=0.19724993564523174 branch=right pbc="F F F"
C        0.00614152      -1.47951886       0.07036553
O       -0.22535146      -1.39969325       1.40178777
O       -0.09868943       1.54410051       1.23623981
C        0.92500638      -0.86332565      -0.67957221
C       -0.15716491       1.68204278       0.03178803
O       -1.26605134       1.51128127      -0.69619550
H       -1.94830677       1.16740767      -0.09850876
H       -0.67243286      -2.18919092      -0.38686717
H        0.15373132      -0.57778809       1.75211762
H        1.71605866      -0.24887965      -0.26634572
H        0.66492235       1.93842013      -0.63686870
H        0.94661692      -1.03532860      -1.74991507
12
Properties=species:S:1:pos:R:3 relative_energy_eV=0.18870906157280842 branch=right pbc="F F F"
C        0.00387603      -1.47853052       0.06967716
O       -0.23058763      -1.39815165       1.40082737
O       -0.09900881       1.54554934       1.23198424
C        0.93217619      -0.87617202      -0.67908597
C       -0.15993638       1.68309671       0.02870699
O       -1.27222971       1.51741390      -0.69470805
H       -1.95149943       1.17186019      -0.09345166
H       -0.67000044      -2.19018852      -0.38866522
H        0.16255448      -0.58358757       1.74854136
H        1.71379648      -0.25121482      -0.26421526
H        0.66281536       1.96118664      -0.63184172
H        0.95252423      -1.05173436      -1.74974361
12
Properties=species:S:1:pos:R:3 relative_energy_eV=0.1807298416242702 branch=right pbc="F F F"
C        0.00351776      -1.47962830       0.06857070
O       -0.23521995      -1.39113005       1.39831657
O       -0.09696131       1.53565775       1.22629360
C        0.93660633      -0.88580976      -0.67698851
C       -0.16227766       1.67916384       0.02584738
O       -1.27943298       1.52223146      -0.69420854
H       -1.95444482       1.17796686      -0.08753400
H       -0.66812481      -2.19111964      -0.39024686
H        0.17108198      -0.58286477       1.73996879
H        1.71119944      -0.25483898      -0.26089785
H        0.66075282       1.98632450      -0.62573074
H        0.95778360      -1.06642557      -1.74536490
12
Properties=species:S:1:pos:R:3 relative_energy_eV=0.17397144551796373 branch=right pbc="F F F"
C        0.00455132      -1.48376001       0.06737180
O       -0.24016237      -1.38190895       1.39438700
O       -0.09373188       1.51981024       1.22096136
C        0.93883839      -0.89266065      -0.67462106
C       -0.16537065       1.67854371       0.02386624
O       -1.28561346       1.52618933      -0.69431204
H       -1.95700621       1.18504907      -0.08124543
H       -0.66806383      -2.19293456      -0.39225436
H        0.18041684      -0.57930885       1.73050644
H        1.70934913      -0.25940385      -0.25762273
H        0.65666647       2.01169256      -0.62048217
H        0.96460662      -1.08178070      -1.73852943
12
Properties=species:S:1:pos:R:3 relative_energy_eV=0.1671116496418108 branch=right pbc="F F F"
C        0.00626950      -1.49191934       0.06608795
O       -0.24699318      -1.37047340       1.38883191
O       -0.08970319       1.49903993       1.21549150
C        0.94121853      -0.90022169      -0.67197629
C       -0.16988580       1.68470819       0.02257069
O       -1.29196326       1.53123661      -0.69370826
H       -1.95924944       1.19432209      -0.07403890
H       -0.67051588      -2.19679473      -0.39500878
H        0.19286473      -0.57511122       1.72019589
H        1.70821364      -0.26520237      -0.25420581
H        0.64832439       2.04230333      -0.61592011
H        0.97590032      -1.10236004      -1.73029415
12
Properties=species:S:1:pos:R:3 relative_energy_eV=0.1623644307092036 branch=right pbc="F F F"
C        0.00756153      -1.50118474       0.06518420
O       -0.25378536      -1.36267915       1.38382341
O       -0.08714496       1.48574831       1.21207990
C        0.94449687      -0.90878945      -0.67049849
C       -0.17476951       1.69717146       0.02297983
O       -1.29597191       1.53803038      -0.69185910
H       -1.96057592       1.20211346      -0.06838067
H       -0.67520094      -2.20206983      -0.39728398
H        0.20443655      -0.57495765       1.71419047
H        1.70832940      -0.26979356      -0.25230874
H        0.63739336       2.06894878      -0.61452905
H        0.98971123      -1.12301067      -1.72537218
12
Properties=species:S:1:pos:R:3 relative_energy_eV=0.15893568176034023 branch=right pbc="F F F"
C        0.00803967      -1.50975558       0.06431848
O       -0.25928352      -1.35861457       1.38019048
O       -0.08586678       1.48062474       1.21055476
C        0.94894074      -0.91856811      -0.67007914
C       -0.17862820       1.71019988       0.02466500
O       -1.29869244       1.54672306      -0.68870019
H       -1.96086470       1.20758208      -0.06490802
H       -0.68080932      -2.20778134      -0.39794597
H        0.21291782      -0.57786159       1.71133621
H        1.70887169      -0.27281758      -0.25169563
H        0.62578232       2.09026743      -0.61571429
H        1.00407306      -1.14047108      -1.72399606
12
Properties=species:S:1:pos:R:3 relative_energy_eV=0.15533998170576524 branch=right pbc="F F F"
C        0.00800084      -1.51871726       0.06306859
O       -0.26448275      -1.35595536       1.37686715
O       -0.08426982       1.47868244       1.21002348
C        0.95521110      -0.93191116      -0.67008770
C       -0.18223188       1.72301635       0.02721506
O       -1.30165201       1.55974500      -0.68406000
H       -1.96087862       1.21212782      -0.06198525
H       -0.68763965      -2.21486400      -0.39659379
H        0.21978807      -0.58192195       1.70823149
H        1.70907793      -0.27577295      -0.25151846
H        0.61177451       2.11315987      -0.61869278
H        1.02178261      -1.15806145      -1.72444216
12
Properties=species:S:1:pos:R:3 relative_energy_eV=0.15135520485637244 branch=right pbc="F F F"
C        0.00708554      -1.52759526       0.06104826
O       -0.26935395      -1.35467423       1.37366380
O       -0.08134753       1.47883111       1.20992179
C        0.96316070      -0.94919737      -0.67038708
C       -0.18551593       1.73588812       0.03051147
O       -1.30661291       1.57784623      -0.67765180
H       -1.96087597       1.21602377      -0.05938308
H       -0.69458792      -2.22319247      -0.39295896
H        0.22512554      -0.58683199       1.70342130
H        1.70813833      -0.28011487      -0.25169409
H        0.59528453       2.14008031      -0.62281721
H        1.04397994      -1.17753601      -1.72564877
12
Properties=species:S:1:pos:R:3 relative_energy_eV=0.1472011508358264 branch=right pbc="F F F"
C        0.00540284      -1.53478853       0.05833270
O       -0.27330980      -1.35488177       1.37044074
O       -0.07617196       1.47961300       1.20927610
C        0.97107985      -0.96828151      -0.67092540
C       -0.18886480       1.74834364       0.03361037
O       -1.31383101       1.59944103      -0.67016592
H       -1.96170967       1.21887082      -0.05663024
H       -0.69964652      -2.23173502      -0.38779662
H        0.22864472      -0.59149880       1.69619540
H        1.70560085      -0.28691701      -0.25192093
H        0.57848677       2.17013048      -0.62648955
H        1.06879907      -1.19876900      -1.72590098
12
Properties=species:S:1:pos:R:3 relative_energy_eV=0.1427860659732687 branch=right pbc="F F F"
C        0.00318485      -1.53949756       0.05511058
O       -0.27527446      -1.35646596       1.36737255
O       -0.06817351       1.47968708       1.20705376
C        0.97720032      -0.98569246      -0.67171864
C       -0.19202770       1.76021537       0.03581400
O       -1.32317277       1.62167743      -0.66183045
H       -1.96341588       1.22004291      -0.05427319
H       -0.70147613      -2.23955446      -0.38204354
H        0.22923916      -0.59429782       1.68676170
H        1.70162321      -0.29634420      -0.25186816
H        0.56374626       2.19937342      -0.62828488
H        1.09302698      -1.21961639      -1.72406805
12
Properties=species:S:1:pos:R:3 relative_energy_eV=0.13812388237784035 branch=right pbc="F F F"
C        0.00129307      -1.54185333       0.05200457
O       -0.27476619      -1.35896561       1.36447956
O       -0.05748952       1.47778985       1.20271845
C        0.97973781      -0.99773200      -0.67265230
C       -0.19532583       1.77075503       0.03642776
O       -1.33302596       1.64134502      -0.65356634
H       -1.96616096       1.21896323      -0.05235395
H       -0.69994718      -2.24610867      -0.37740830
H        0.22657198      -0.59328135       1.67632404
H        1.69731122      -0.30721957      -0.25089937
H        0.55363463       2.22332658      -0.62730477
H        1.11264728      -1.23749184      -1.71974364
12
Properties=species:S:1:pos:R:3 relative_energy_eV=0.1331959995550278 branch=right pbc="F F F"
C        0.00007755      -1.54497087       0.04917026
O       -0.27277182      -1.36099819       1.36128902
O       -0.04388428       1.47253353       1.19569422
C        0.97973029      -1.00560438      -0.67371787
C       -0.19926409       1.78246124       0.03590385
O       -1.34395040       1.65971801      -0.64457486
H       -1.96971325       1.21648093      -0.05036156
H       -0.69693303      -2.25320916      -0.37491761
H        0.22185047      -0.58790677       1.66483139
H        1.69376607      -0.31895976      -0.24810360
H        0.54636883       2.24512252      -0.62385273
H        1.12920401      -1.25513975      -1.71333482
12
Properties=species:S:1:pos:R:3 relative_energy_eV=0.12807410162713495 branch=right pbc="F F F"
C       -0.00005879      -1.55192383       0.04662096
O       -0.27029697      -1.36173204       1.35743983
O       -0.02736993       1.46430981       1.18593187
C        0.97919526      -1.01239611      -0.67475116
C       -0.20411074       1.79703953       0.03509271
O       -1.35612780       1.68030120      -0.63363747
H       -1.97380547       1.21302162      -0.04767041
H       -0.69479646      -2.26329322      -0.37470422
H        0.21557125      -0.57849128       1.65205273
H        1.69179915      -0.33092843      -0.24287108
H        0.53886527       2.26903964      -0.61923484
H        1.14561558      -1.27541955      -1.70624320
12
Properties=species:S:1:pos:R:3 relative_energy_eV=0.12310869745306263 branch=right pbc="F F F"
C        0.00123787      -1.56218719       0.04471813
O       -0.26703616      -1.36147145       1.35424465
O       -0.01001261       1.45532171       1.17458103
C        0.97930208      -1.01767645      -0.67574595
C       -0.20808159       1.81119304       0.03449157
O       -1.36814624       1.70102247      -0.62088592
H       -1.97683133       1.20794408      -0.04572428
H       -0.69384195      -2.27585433      -0.37623884
H        0.20567453      -0.56506220       1.63965381
H        1.69184978      -0.34043339      -0.23537245
H        0.53243599       2.28919894      -0.61486143
H        1.15793000      -1.29246786      -1.70083456
12
Properties=species:S:1:pos:R:3 relative_energy_eV=0.11964218828507 branch=right pbc="F F F"
C        0.00337516      -1.57573331       0.04285947
O       -0.26739638      -1.36031722       1.35076597
O        0.00450837       1.44876373       1.16486676
C        0.98337270      -1.02833103      -0.67537941
C       -0.21258970       1.82704354       0.03487557
O       -1.37965339       1.72455787      -0.60738315
H       -1.97833264       1.20521582      -0.04257869
H       -0.69524977      -2.29054817      -0.37830840
H        0.19892149      -0.55507800       1.62832788
H        1.69272459      -0.34830829      -0.22805469
H        0.52190313       2.31621807      -0.61342921
H        1.17289679      -1.31395567      -1.69853632
12
Properties=species:S:1:pos:R:3 relative_energy_eV=0.11755284038372338 branch=right pbc="F F F"
C        0.00683012      -1.58224716       0.04353712
O       -0.26462809      -1.36079898       1.35186809
O        0.01152779       1.44753249       1.15891768
C        0.98606982      -1.02886621      -0.67531281
C       -0.21098990       1.82843008       0.03508741
O       -1.38298710       1.73196456      -0.59876344
H       -1.97557592       1.19876301      -0.04436241
H       -0.69335929      -2.29866095      -0.38015202
H        0.18417263      -0.54334154       1.62440815
H        1.69501522      -0.34676359      -0.22205144
H        0.52330326       2.31112561      -0.61397280
H        1.16510182      -1.30760997      -1.70117773
12
Properties=species:S:1:pos:R:3 relative_energy_eV=0.11513044269304373 branch=right pbc="F F F"
C        0.00863082      -1.59115765       0.04256456
O       -0.26846502      -1.35956913       1.34957948
O        0.01850833       1.44395120       1.15534991
C        0.99270979      -1.04166620      -0.67313472
C       -0.21356920       1.83855734       0.03575432
O       -1.38984679       1.74921918      -0.58991305
H       -1.97410240       1.19902796      -0.04114292
H       -0.69295735      -2.30878001      -0.38008753
H        0.18063471      -0.54013379       1.61611930
H        1.69478819      -0.35129321      -0.21850376
H        0.51312849       2.33322899      -0.61645911
H        1.17502081      -1.32185733      -1.70210066
12
Properties=species:S:1:pos:R:3 relative_energy_eV=0.11216075747324794 branch=right pbc="F F F"
C        0.01087122      -1.59493364       0.04323633
O       -0.27214850      -1.36194896       1.34892198
O        0.02043870       1.44739980       1.15533553
C        0.99678277      -1.04800597      -0.66975799
C       -0.21339540       1.84302658       0.03623135
O       -1.39202556       1.75813847      -0.58437104
H       -1.96969503       1.19797860      -0.03945744
H       -0.68730379      -2.31450697      -0.38061147
H        0.17387519      -0.54007083       1.61262727
H        1.69506673      -0.35319570      -0.21796862
H        0.50835731       2.34082720      -0.62134346
H        1.17365674      -1.32518123      -1.70481662
12
Properties=species:S:1:pos:R:3 relative_energy_eV=0.10786237468346371 branch=right pbc="F F F"
C        0.01609991      -1.60236108       0.04556326
O       -0.27897667      -1.36515115       1.34775285
O        0.02911091       1.44659091       1.15285078
C        1.00496367      -1.06075019      -0.66540047
C       -0.21233478       1.85139908       0.03625761
O       -1.39756293       1.77658054      -0.57255517
H       -1.96004656       1.19338903      -0.03505768
H       -0.67110449      -2.32794259      -0.38097678
H        0.15306578      -0.53270416       1.60080704
H        1.69568065      -0.35755164      -0.21463338
H        0.50126734       2.35233731      -0.63010148
H        1.16431758      -1.32430869      -1.70648071
12
Properties=species:S:1:pos:R:3 relative_energy_eV=0.10482194020914903 branch=right pbc="F F F"
C        0.01992289      -1.60578704       0.04796878
O       -0.28382609      -1.37114666       1.34717122
O        0.03053284       1.45654674       1.15280342
C        1.00384380      -1.05843107      -0.66185809
C       -0.21067092       1.85780440       0.03639953
O       -1.39822063       1.78096303      -0.56775268
H       -1.95211776       1.19084578      -0.03213507
H       -0.65620596      -2.33451233      -0.38555541
H        0.13989538      -0.53441992       1.59988771
H        1.69861798      -0.36091412      -0.21636907
H        0.50005905       2.35297594      -0.63678018
H        1.15264981      -1.32439738      -1.70575423
12
Properties=species:S:1:pos:R:3 relative_energy_eV=0.10181698834094277 branch=right pbc="F F F"
C        0.02368308      -1.61443335       0.04938100
O       -0.29013779      -1.37459004       1.34414313
O        0.03916682       1.46054967       1.14750229
C        1.00408546      -1.06209093      -0.66132852
C       -0.21163535       1.87185495       0.03653998
O       -1.40397769       1.79434669      -0.55912622
H       -1.94587870       1.18891149      -0.02595855
H       -0.64180966      -2.34814071      -0.38991490
H        0.12581503      -0.53272889       1.59319338
H        1.70199434      -0.36843070      -0.21575046
H        0.49365136       2.36844882      -0.64104921
H        1.14952350      -1.33416961      -1.69960594
12
Properties=species:S:1:pos:R:3 relative_energy_eV=0.09931034511464532 branch=right pbc="F F F"
C        0.02571914      -1.62261896       0.04988399
O       -0.29863991      -1.37506660       1.34004859
O        0.04512784       1.46406761       1.14177452
C        1.00285002      -1.06422904      -0.66151181
C       -0.21353418       1.88502448       0.03603512
O       -1.40865124       1.80151646      -0.55377400
H       -1.94112862       1.19238371      -0.01841711
H       -0.63082143      -2.36110343      -0.39443539
H        0.11985852      -0.53563925       1.58935440
H        1.70639703      -0.37520142      -0.21728279
H        0.48661362       2.38846159      -0.64230307
H        1.15068961      -1.34806776      -1.69134647
12
Properties=species:S:1:pos:R:3 relative_energy_eV=0.09627692682624911 branch=right pbc="F F F"
C        0.02770649      -1.63883698       0.04800736
O       -0.31071980      -1.37713446       1.33196252
O        0.06066749       1.47010159       1.12907485
C        1.00529504      -1.07667385      -0.66106241
C       -0.21813624       1.91084370       0.03584303
O       -1.42039447       1.82629245      -0.53984766
H       -1.93708219       1.19558269      -0.00624664
H       -0.61855995      -2.38694874      -0.39775007
H        0.10953925      -0.53758836       1.57932454
H        1.71120773      -0.38894540      -0.21763204
H        0.46889858       2.43192577      -0.64253225
H        1.16605849      -1.37909101      -1.68111520
12
Properties=species:S:1:pos:R:3 relative_energy_eV=0.08893188084039139 branch=right pbc="F F F"
C        0.02949222      -1.66879673       0.04346819
O       -0.33821786      -1.37853903       1.31490889
O        0.08803906       1.48077046       1.10407200
C        1.01321103      -1.10665862      -0.65975259
C       -0.22856071       1.96191190       0.03506405
O       -1.44368950       1.86986106      -0.51406814
H       -1.92980580       1.20867226       0.01840696
H       -0.59714699      -2.43619855      -0.40243001
H        0.09825094      -0.54679986       1.56076287
H        1.71948328      -0.41487493      -0.21969654
H        0.43211454       2.52489607      -0.64067302
H        1.20131022      -1.44471665      -1.66203658
12
Properties=species:S:1:pos:R:3 relative_energy_eV=0.0853744078121963 branch=right pbc="F F F"
C        0.03051016      -1.69747357       0.03850396
O       -0.36579500      -1.38022420       1.29746406
O        0.11374252       1.49371695       1.07936339
C        1.02182725      -1.13801230      -0.65879621
C       -0.23910926       2.01244668       0.03448356
O       -1.46610857       1.91179279      -0.48931207
H       -1.92336070       1.22288541       0.04269790
H       -0.57718796      -2.48392973      -0.40615933
H        0.08958758      -0.55840392       1.54393964
H        1.72710579      -0.44022044      -0.22265899
H        0.39512113       2.61776227      -0.63796066
H        1.23814752      -1.51081255      -1.64353911
12
Properties=species:S:1:pos:R:3 relative_energy_eV=0.07810646688812994 branch=right pbc="F F F"
C        0.02625961      -1.69572922       0.03631498
O       -0.37511565      -1.37742508       1.29238045
O        0.11055981       1.50113979       1.07576192
C        1.02000856      -1.13777220      -0.65997924
C       -0.23986018       2.01160451       0.03207324
O       -1.46155860       1.89952282      -0.49600304
H       -1.92490630       1.23437958       0.04978662
H       -0.57758788      -2.48944141      -0.40322086
H        0.09946648      -0.57041991       1.55109062
H        1.73048280      -0.43911125      -0.23065792
H        0.39202418       2.62853508      -0.63079277
H        1.24470759      -1.51575531      -1.63872788
12
Properties=species:S:1:pos:R:3 relative_energy_eV=0.06769829885706713 branch=right pbc="F F F"
C        0.02245238      -1.70044808       0.03107673
O       -0.38377154      -1.37259493       1.28343429
O        0.12286535       1.49956386       1.06334897
C        1.02760356      -1.15337801      -0.65801053
C       -0.24074125       2.01776415       0.02943171
O       -1.46546680       1.90566329      -0.49060169
H       -1.92628790       1.24285168       0.05789867
H       -0.57650222      -2.50712226      -0.39181435
H        0.09445862      -0.56994245       1.54502356
H        1.72965637      -0.44268277      -0.23372226
H        0.37966535       2.65311107      -0.62075537
H        1.26054850      -1.52325816      -1.63728360
12
Properties=species:S:1:pos:R:3 relative_energy_eV=0.0552673122692795 branch=right pbc="F F F"
C        0.02080522      -1.72064632       0.02310579
O       -0.40899037      -1.36636088       1.26122231
O        0.15664979       1.49914807       1.03155801
C        1.04687723      -1.19424858      -0.65023307
C       -0.24524939       2.04698308       0.02575503
O       -1.48105063       1.93420527      -0.46696223
H       -1.92386814       1.25948602       0.07948138
H       -0.56138784      -2.55462197      -0.37376693
H        0.07283929      -0.56593260       1.52318053
H        1.72809039      -0.45766839      -0.23605596
H        0.34630972       2.72664954      -0.60517297
H        1.29345513      -1.55746584      -1.63408568
12
Properties=species:S:1:pos:R:3 relative_energy_eV=0.05040437551906507 branch=right pbc="F F F"
C        0.02441048      -1.72214468       0.02399537
O       -0.40945397      -1.36411778       1.25748773
O        0.16688508       1.49147355       1.02397790
C        1.05421471      -1.20219799      -0.64464914
C       -0.24140837       2.04204452       0.02579394
O       -1.48017446       1.93562544      -0.45978663
H       -1.92286408       1.25699841       0.07918519
H       -0.55540460      -2.55839340      -0.36400750
H        0.05385734      -0.55131573       1.51324267
H        1.72177550      -0.45548936      -0.23203821
H        0.34550605       2.72168159      -0.60160332
H        1.28713670      -1.54463716      -1.64357174
12
Properties=species:S:1:pos:R:3 relative_energy_eV=0.04513196622610849 branch=right pbc="F F F"
C        0.03049257      -1.74108518       0.02426177
O       -0.42855928      -1.36120192       1.24236028
O        0.19207641       1.48813776       0.99984298
C        1.06466242      -1.22651921      -0.64021865
C       -0.24411559       2.06626944       0.02623101
O       -1.49096235       1.95759600      -0.43843407
H       -1.91889238       1.26531448       0.09474590
H       -0.53546984      -2.58807677      -0.35815742
H        0.03136482      -0.54249495       1.49094595
H        1.71916211      -0.46908856      -0.22933237
H        0.32306115       2.77557772      -0.59514673
H        1.30166034      -1.57490139      -1.63907232
12
Properties=species:S:1:pos:R:3 relative_energy_eV=0.040198630769737065 branch=right pbc="F F F"
C        0.03741530      -1.75218851       0.02739698
O       -0.43819137      -1.36028709       1.23373520
O        0.20701432       1.48731134       0.98422872
C        1.06756730      -1.23663717      -0.64067524
C       -0.24459011       2.08113260       0.02912591
O       -1.49418379       1.96709839      -0.42523184
H       -1.91871411       1.26814499       0.10235692
H       -0.52306541      -2.59974663      -0.35570795
H        0.01581507      -0.53551313       1.47583288
H        1.71474567      -0.47701557      -0.22649589
H        0.31082238       2.80322148      -0.59031720
H        1.30984510      -1.59599330      -1.63622212
12
Properties=species:S:1:pos:R:3 relative_energy_eV=0.03640438970433024 branch=right pbc="F F F"
C        0.04423397      -1.76252160       0.03030276
O       -0.44410129      -1.35433927       1.22551273
O        0.22566150       1.47641978       0.96624143
C        1.06878133      -1.24381119      -0.64350856
C       -0.24353650       2.08792067       0.03173063
O       -1.49624499       1.97413373      -0.41204376
H       -1.92070172       1.27059159       0.10837620
H       -0.51535442      -2.61018409      -0.35049404
H       -0.00179699      -0.51986845       1.45530597
H        1.70897910      -0.48329628      -0.22217855
H        0.29863014       2.82720200      -0.58071057
H        1.31993021      -1.61271947      -1.63050786
12
Properties=species:S:1:pos:R:3 relative_energy_eV=0.03427609625214245 branch=right pbc="F F F"
C        0.04631553      -1.76892253       0.03004437
O       -0.44895905      -1.35147047       1.21956442
O        0.23864644       1.47610493       0.95340003
C        1.06952745      -1.25043461      -0.64745449
C       -0.24374481       2.09724451       0.03396278
O       -1.49777803       1.97988643      -0.40350226
H       -1.92339579       1.27320512       0.11330128
H       -0.51308355      -2.61931561      -0.34605609
H       -0.01052452      -0.51476803       1.44330863
H        1.70549550      -0.48752070      -0.22241352
H        0.28677997       2.84774671      -0.57135859
H        1.33520116      -1.63222834      -1.62477014
12
Properties=species:S:1:pos:R:3 relative_energy_eV=0.032476360889631906 branch=right pbc="F F F"
C        0.04749807      -1.77710007       0.02844083
O       -0.45582796      -1.34579396       1.21111591
O        0.25803771       1.46999666       0.93597162
C        1.07178704      -1.25939408      -0.64910661
C       -0.24306857       2.10388543       0.03484379
O       -1.50105232       1.98801121      -0.39152770
H       -1.92445501       1.27688442       0.12064750
H       -0.50826910      -2.63459758      -0.33887496
H       -0.02520623      -0.50251994       1.42440367
H        1.70189176      -0.49212798      -0.22315131
H        0.27145836       2.87465030      -0.55821706
H        1.35168653      -1.65236700      -1.61651923
12
Properties=species:S:1:pos:R:3 relative_energy_eV=0.03047232340395567 branch=right pbc="F F F"
C        0.04657141      -1.78201541       0.02594914
O       -0.46337257      -1.34206015       1.20391098
O        0.27385330       1.47051699       0.92185425
C        1.07450050      -1.26806931      -0.65025386
C       -0.24231791       2.11116474       0.03621682
O       -1.50226860       1.99307597      -0.38165041
H       -1.92335921       1.27897960       0.12760717
H       -0.50300935      -2.64791531      -0.33268005
H       -0.03834156      -0.49439622       1.40827048
H        1.69886120      -0.49299396      -0.22781411
H        0.25738863       2.89593464      -0.54548750
H        1.36597440      -1.67269419      -1.60789644
12
Properties=species:S:1:pos:R:3 relative_energy_eV=0.02816298154175456 branch=right pbc="F F F"
C        0.04554156      -1.79563588       0.02164904
O       -0.48117448      -1.33536104       1.18698398
O        0.30602931       1.47081243       0.89289434
C        1.08160037      -1.28948135      -0.64890977
C       -0.24296266       2.13287337       0.03891810
O       -1.50902068       2.00947747      -0.35873144
H       -1.91866474       1.28361868       0.14383680
H       -0.48816261      -2.67833548      -0.32284878
H       -0.06452960      -0.47981263       1.37519382
H        1.69388673      -0.49844203      -0.23634312
H        0.22765043       2.94869903      -0.52389317
H        1.39428654      -1.71888517      -1.59072327
12
Properties=species:S:1:pos:R:3 relative_energy_eV=0.02452486979927926 branch=right pbc="F F F"
C        0.04265319      -1.79943448       0.01894691
O       -0.49282454      -1.32902296       1.17542087
O        0.32552311       1.47135175       0.87628159
C        1.08543192      -1.29950797      -0.64503030
C       -0.24037713       2.13920777       0.04253504
O       -1.50917486       2.01308134      -0.34401308
H       -1.90965920       1.28048184       0.15404017
H       -0.47613996      -2.69344897      -0.31715347
H       -0.08648242      -0.46360462       1.34674847
H        1.68885418      -0.49306975      -0.24959388
H        0.21022627       2.97312411      -0.50631583
H        1.40644954      -1.74963065      -1.57383992
12
Properties=species:S:1:pos:R:3 relative_energy_eV=0.020595126114130835 branch=right pbc="F F F"
C        0.04195026      -1.80666187       0.01661606
O       -0.51023695      -1.31955759       1.15909573
O        0.34708958       1.47243541       0.85578582
C        1.09391622      -1.31825184      -0.64005787
C       -0.24049609       2.15694382       0.04885624
O       -1.51091246       2.01923130      -0.32424637
H       -1.89733592       1.27588260       0.16753111
H       -0.46149521      -2.71169754      -0.31162434
H       -0.11033946      -0.44794607       1.31326499
H        1.68135111      -0.48712522      -0.26607062
H        0.18911222       3.00821291      -0.48739999
H        1.42187674      -1.79193850      -1.55372412
12
Properties=species:S:1:pos:R:3 relative_energy_eV=0.015565919606160605 branch=right pbc="F F F"
C        0.04043469      -1.80829929       0.01560687
O       -0.52323262      -1.30733110       1.14237339
O        0.35725083       1.47394451       0.84452934
C        1.09959159      -1.32986827      -0.63344378
C       -0.24121317       2.16900591       0.05810174
O       -1.51158355       2.01907931      -0.30871161
H       -1.88233447       1.26291041       0.17661779
H       -0.45514404      -2.71633107      -0.31016065
H       -0.12332484      -0.43384607       1.28304419
H        1.67134187      -0.47584335      -0.28989915
H        0.17619960       3.03234318      -0.47041143
H        1.43649405      -1.83623675      -1.52962003
12
Properties=species:S:1:pos:R:3 relative_energy_eV=0.011586416219870443 branch=right pbc="F F F"
C        0.04295319      -1.81307980       0.01547954
O       -0.53560303      -1.29302082       1.12594078
O        0.36866597       1.46859384       0.83241113
C        1.10828405      -1.34448667      -0.62909738
C       -0.24269557       2.17803338       0.06525822
O       -1.51519006       2.02302598      -0.29193918
H       -1.86975251       1.25051857       0.18375391
H       -0.45260991      -2.72375165      -0.30566958
H       -0.13673763      -0.41581810       1.25652879
H        1.66116373      -0.46878685      -0.30756627
H        0.16640996       3.05495981      -0.45614957
H        1.44959169      -1.86666028      -1.51092369
12
Properties=species:S:1:pos:R:3 relative_energy_eV=0.008457283016468864 branch=right pbc="F F F"
C        0.04322151      -1.80267692       0.01608659
O       -0.53269060      -1.27835218       1.12094650
O        0.34499466       1.46593809       0.85087158
C        1.11075781      -1.34077796      -0.62833832
C       -0.24849597       2.17238301       0.07150661
O       -1.51576032       2.00844843      -0.29729673
H       -1.86130359       1.23049577       0.17320383
H       -0.47763463      -2.69800511      -0.30874279
H       -0.10992707      -0.41698917       1.26620225
H        1.65244803      -0.45573903      -0.32794299
H        0.18549358       3.03112483      -0.45638131
H        1.45337646      -1.86632237      -1.50208857
12
Properties=species:S:1:pos:R:3 relative_energy_eV=0.005318622879713075 branch=right pbc="F F F"
C        0.04242448      -1.81561082       0.01130064
O       -0.55146863      -1.26420864       1.09838875
O        0.36746763       1.47188073       0.82926679
C        1.11613484      -1.36054380      -0.62984962
C       -0.25256122       2.19436231       0.07690660
O       -1.52636048       2.02312004      -0.27359690
H       -1.85379116       1.22595942       0.18445815
H       -0.47764541      -2.71952887      -0.29924069
H       -0.12041005      -0.40559752       1.24087814
H        1.64356774      -0.46024549      -0.34833974
H        0.16063754       3.08254335      -0.43291477
H        1.49648453      -1.92260330      -1.47923065
12
Properties=species:S:1:pos:R:3 relative_energy_eV=0.001698244095678092 branch=right pbc="F F F"
C        0.04278973      -1.81559456       0.01199276
O       -0.54951321      -1.26800898       1.10364869
O        0.36620346       1.47366253       0.83422363
C        1.11453388      -1.35824847      -0.63244497
C       -0.25039935       2.18669721       0.07262491
O       -1.52594022       2.02548678      -0.27567971
H       -1.85461958       1.22743211       0.18071895
H       -0.47488435      -2.72134523      -0.29783504
H       -0.12363760      -0.40596085       1.25060391
H        1.64769986      -0.46373171      -0.34186316
H        0.16434092       3.06981697      -0.43967579
H        1.48790632      -1.90067839      -1.48828747
12
Properties=species:S:1:pos:R:3 relative_energy_eV=-0.001195530599943595 branch=right pbc="F F F"
C        0.04092338      -1.81611519       0.01090665
O       -0.55816977      -1.26016314       1.09604072
O        0.37173475       1.47674567       0.83156369
C        1.11434897      -1.36338268      -0.63527697
C       -0.25032902       2.18848595       0.07324538
O       -1.52628760       2.02419830      -0.26842259
H       -1.84889587       1.22387027       0.18141708
H       -0.47244587      -2.72570909      -0.29192285
H       -0.12817093      -0.40016814       1.24601994
H        1.64439433      -0.46323926      -0.35232840
H        0.15854700       3.07469078      -0.43128665
H        1.49883043      -1.90968607      -1.48192928
12
Properties=species:S:1:pos:R:3 relative_energy_eV=-0.004525027863564901 branch=right pbc="F F F"
C        0.03853932      -1.81994349       0.00861990
O       -0.58141769      -1.23954400       1.07151454
O        0.38638359       1.48793307       0.82307467
C        1.11620168      -1.37868374      -0.63992007
C       -0.25123585       2.20086360       0.07968972
O       -1.53077636       2.02911924      -0.24419972
H       -1.83003116       1.20707444       0.18549942
H       -0.46529418      -2.73862249      -0.27999413
H       -0.14238604      -0.38447220       1.22674381
H        1.63327632      -0.46299471      -0.38401881
H        0.14068816       3.09858134      -0.41090148
H        1.53053194      -1.94978366      -1.45808110
12
Properties=species:S:1:pos:R:3 relative_energy_eV=-0.006113741306762677 branch=right pbc="F F F"
C        0.03687464      -1.81966321       0.00777168
O       -0.59696553      -1.22285944       1.05398840
O        0.39461711       1.48793614       0.81698891
C        1.11678998      -1.38561807      -0.64238696
C       -0.25118678       2.20506512       0.08445828
O       -1.53061745       2.02524542      -0.23244272
H       -1.82044167       1.20024662       0.18907000
H       -0.45938984      -2.74444027      -0.27114692
H       -0.14781457      -0.37423862       1.21350008
H        1.62513659      -0.46306183      -0.40293009
H        0.13025961       3.11452846      -0.39666991
H        1.54721758      -1.97361295      -1.44217400
12
Properties=species:S:1:pos:R:3 relative_energy_eV=-0.007691062241065083 branch=right pbc="F F F"
C        0.03587313      -1.81829862       0.00621045
O       -0.60892260      -1.20791945       1.03642468
O        0.40252578       1.48884275       0.81270241
C        1.11889066      -1.39289434      -0.64393808
C       -0.25160974       2.21115526       0.09150347
O       -1.53116290       2.02419187      -0.21986010
H       -1.81059380       1.18832476       0.19004717
H       -0.45415385      -2.74867046      -0.26266446
H       -0.15467933      -0.36265907       1.20026507
H        1.61646659      -0.46144269      -0.42028065
H        0.12213937       3.12478691      -0.38502276
H        1.55970630      -1.99588956      -1.42736042
12
Properties=species:S:1:pos:R:3 relative_energy_eV=-0.010352122086260351 branch=right pbc="F F F"
C        0.03411802      -1.81567455       0.00176140
O       -0.62899721      -1.18372441       1.00714577
O        0.41222695       1.49170099       0.80886644
C        1.12225146      -1.40282906      -0.64654095
C       -0.25176818       2.21801239       0.10272177
O       -1.53103162       2.02108286      -0.20434505
H       -1.79761324       1.17285668       0.19107648
H       -0.44476182      -2.75704610      -0.24806285
H       -0.15966578      -0.34922865       1.18627116
H        1.60586986      -0.46025053      -0.44461873
H        0.11007276       3.14053088      -0.36984303
H        1.57377834      -2.02590314      -1.40640561
12
Properties=species:S:1:pos:R:3 relative_energy_eV=-0.013326172078450327 branch=right pbc="F F F"
C        0.03006493      -1.81185855      -0.00701310
O       -0.65332791      -1.15104368       0.96658333
O        0.43068647       1.49416332       0.80203814
C        1.12478058      -1.41340506      -0.65115973
C       -0.25226488       2.22533179       0.11744381
O       -1.53081854       2.01628827      -0.18505750
H       -1.78530402       1.15479884       0.19040237
H       -0.43261969      -2.77061851      -0.22464940
H       -0.16547743      -0.32999630       1.16879464
H        1.59379725      -0.46017015      -0.47283415
H        0.09289075       3.15927953      -0.34657826
H        1.59207194      -2.06324217      -1.37994332
12
Properties=species:S:1:pos:R:3 relative_energy_eV=-0.015104446709301556 branch=right pbc="F F F"
C        0.02524488      -1.80592679      -0.01495830
O       -0.66950002      -1.12452997       0.93646382
O        0.43795778       1.49796659       0.80502303
C        1.12629039      -1.41855735      -0.65506775
C       -0.25311071       2.22510518       0.12891510
O       -1.52942304       2.00830204      -0.17752626
H       -1.77871669       1.14068092       0.18531771
H       -0.42795278      -2.77408808      -0.20634992
H       -0.15825755      -0.32174093       1.16423109
H        1.58772993      -0.45740282      -0.49285364
H        0.08484034       3.16308331      -0.33175815
H        1.59937685      -2.08336479      -1.36340989
12
Properties=species:S:1:pos:R:3 relative_energy_eV=-0.014172770479490282 branch=right pbc="F F F"
C        0.02112713      -1.80711646      -0.02355039
O       -0.69855431      -1.08725325       0.89326085
O        0.46387412       1.50188203       0.79288155
C        1.13119756      -1.43502588      -0.65807497
C       -0.25349242       2.23291566       0.14280211
O       -1.53120327       2.00579891      -0.15383639
H       -1.76397758       1.12244904       0.18802421
H       -0.41550359      -2.79209968      -0.18077290
H       -0.16955353      -0.29973713       1.13580343
H        1.57697602      -0.45451678      -0.52579280
H        0.06124658       3.19144690      -0.30053739
H        1.62234253      -2.12921607      -1.33218042
12
Properties=species:S:1:pos:R:3 relative_energy_eV=-0.016630527778033866 branch=right pbc="F F F"
C        0.02269423      -1.80486136      -0.01962091
O       -0.67989217      -1.10072206       0.91279645
O        0.45859626       1.49476912       0.79945835
C        1.12475524      -1.41994110      -0.65684920
C       -0.25184305       2.21969288       0.13559737
O       -1.52962740       2.00408829      -0.16714895
H       -1.77571549       1.12988243       0.18180048
H       -0.42077374      -2.78172712      -0.18819261
H       -0.16623015      -0.30575934       1.14540055
H        1.58627655      -0.45709164      -0.50518524
H        0.07377001       3.16791637      -0.31165622
H        1.60246900      -2.09671918      -1.34837321
12
Properties=species:S:1:pos:R:3 relative_energy_eV=-0.01790180069838243 branch=right pbc="F F F"
C        0.02135960      -1.80136112      -0.01778513
O       -0.68016677      -1.10251190       0.91551628
O        0.44992345       1.49997263       0.80540050
C        1.12521088      -1.42096232      -0.65812381
C       -0.25402285       2.22159450       0.13526903
O       -1.53049586       2.00157502      -0.17040230
H       -1.77560995       1.12768726       0.18009399
H       -0.42893805      -2.77299965      -0.19186415
H       -0.15376853      -0.31314485       1.14978936
H        1.58563290      -0.45552851      -0.51021353
H        0.07711209       3.16660685      -0.31209171
H        1.60824240      -2.10140060      -1.34756169
12
Properties=species:S:1:pos:R:3 relative_energy_eV=-0.019316643789352383 branch=right pbc="F F F"
C        0.02117461      -1.80098867      -0.01882347
O       -0.69071228      -1.08818141       0.90062654
O        0.45872298       1.50018531       0.80265331
C        1.12685985      -1.42532652      -0.65845947
C       -0.25350587       2.22236540       0.13995253
O       -1.53042599       1.99858952      -0.16251025
H       -1.77040870       1.11956454       0.17972188
H       -0.42463334      -2.77715079      -0.18287658
H       -0.15756242      -0.30453291       1.13778533
H        1.58323495      -0.45514592      -0.52179320
H        0.07004947       3.17340101      -0.30106851
H        1.61168599      -2.11325228      -1.33718125
12
Properties=species:S:1:pos:R:3 relative_energy_eV=-0.020687785507107037 branch=right pbc="F F F"
C        0.01663020      -1.79357740      -0.02291415
O       -0.72653652      -1.03000218       0.84079855
O        0.49361565       1.49875480       0.79472711
C        1.12945265      -1.43801438      -0.66158822
C       -0.25146403       2.21980796       0.16009891
O       -1.52896395       1.98307709      -0.13169660
H       -1.75174401       1.08246364       0.17325429
H       -0.41371155      -2.78605727      -0.14486494
H       -0.16915281      -0.26605899       1.08769631
H        1.57174034      -0.45273809      -0.57046603
H        0.04370451       3.19370550      -0.25348300
H        1.63090858      -2.16183341      -1.29353534
12
Properties=species:S:1:pos:R:3 relative_energy_eV=-0.022822475160864997 branch=right pbc="F F F"
C        0.01911611      -1.79477738      -0.01743037
O       -0.71174588      -1.04918857       0.86371575
O        0.48420843       1.49513737       0.79759427
C        1.12915559      -1.43266175      -0.65795461
C       -0.25046137       2.21575090       0.15273534
O       -1.52765439       1.98421278      -0.14262629
H       -1.76043317       1.09270339       0.17334333
H       -0.42049099      -2.77789545      -0.15720078
H       -0.16705074      -0.27469529       1.09459752
H        1.57865267      -0.45325799      -0.55261389
H        0.05294429       3.18355037      -0.26632876
H        1.61823854      -2.13935110      -1.30980462
12
Properties=species:S:1:pos:R:3 relative_energy_eV=-0.024648485692523536 branch=right pbc="F F F"
C        0.01829400      -1.79135713      -0.01678927
O       -0.71641912      -1.03832465       0.85349223
O        0.48929287       1.49493082       0.79895136
C        1.12807990      -1.43226308      -0.65829852
C       -0.24933852       2.21315753       0.15731034
O       -1.52583627       1.97749148      -0.13720649
H       -1.75773292       1.08208532       0.16888555
H       -0.42179206      -2.77473741      -0.15004165
H       -0.16754407      -0.26457127       1.08303841
H        1.57794465      -0.45443038      -0.56255983
H        0.04942301       3.18295678      -0.25678451
H        1.62010758      -2.14541073      -1.30197071
12
Properties=species:S:1:pos:R:3 relative_energy_eV=-0.02811122062485083 branch=right pbc="F F F"
C        0.01012531      -1.77381247      -0.01556810
O       -0.74518017      -0.97412299       0.79094332
O        0.52888145       1.48847103       0.79500535
C        1.13016222      -1.44322935      -0.65792039
C       -0.24348836       2.20081836       0.18434259
O       -1.51629465       1.94325558      -0.10224121
H       -1.74189354       1.02706041       0.15098887
H       -0.42426664      -2.76631927      -0.10323569
H       -0.18172662      -0.20230519       1.00608524
H        1.56889123      -0.45561758      -0.61904347
H        0.02182725       3.19440486      -0.19530771
H        1.63744131      -2.18907616      -1.25602187
12
Properties=species:S:1:pos:R:3 relative_energy_eV=-0.029798223400575807 branch=right pbc="F F F"
C        0.01124490      -1.77864753      -0.01622629
O       -0.73442126      -0.99537370       0.80989603
O        0.51820802       1.49446831       0.79656222
C        1.12953297      -1.44171447      -0.65698490
C       -0.24509951       2.20651668       0.17843820
O       -1.51716133       1.95003108      -0.11164026
H       -1.74729785       1.04097291       0.15446281
H       -0.42617051      -2.76742034      -0.11537164
H       -0.17928762      -0.21657082       1.02424146
H        1.57439329      -0.46040548      -0.60277142
H        0.02729642       3.19336904      -0.21183355
H        1.63324134      -2.17569844      -1.27074574
12
Properties=species:S:1:pos:R:3 relative_energy_eV=-0.03127976480573125 branch=right pbc="F F F"
C        0.01090175      -1.78081093      -0.01824605
O       -0.73539822      -0.99324645       0.80653145
O        0.52001991       1.49990532       0.79608361
C        1.13096464      -1.44650024      -0.65616081
C       -0.24613049       2.21084033       0.18169051
O       -1.51682458       1.94833439      -0.10920095
H       -1.74501132       1.03797516       0.15380544
H       -0.42713008      -2.76852915      -0.11265252
H       -0.18121701      -0.21271268       1.01997923
H        1.57629301      -0.46502571      -0.60545487
H        0.02286248       3.19888504      -0.20896670
H        1.63514876      -2.17958783      -1.26938140
12
Properties=species:S:1:pos:R:3 relative_energy_eV=-0.03458844491797208 branch=right pbc="F F F"
C        0.00668800      -1.78420742      -0.02550837
O       -0.73786853      -0.98188376       0.79135160
O        0.52988355       1.51911390       0.79395746
C        1.13594434      -1.46453448      -0.65512054
C       -0.25151081       2.22490844       0.19346193
O       -1.51763390       1.94239726      -0.10115426
H       -1.73793344       1.02660333       0.15050987
H       -0.43333762      -2.77247582      -0.10054655
H       -0.18348828      -0.19967619       1.00070751
H        1.58358173      -0.48294668      -0.61684483
H        0.00407665       3.22182545      -0.19228401
H        1.64607704      -2.19959679      -1.26050286
12
Properties=species:S:1:pos:R:3 relative_energy_eV=-0.03728726818189898 branch=right pbc="F F F"
C        0.00481839      -1.78684789      -0.03017942
O       -0.73535862      -0.97374028       0.78477024
O        0.52993529       1.53374793       0.79638265
C        1.13975127      -1.47742291      -0.65452421
C       -0.25811390       2.23536456       0.20100324
O       -1.52039895       1.93967559      -0.09971746
H       -1.73084111       1.01904557       0.14722129
H       -0.44341243      -2.77046894      -0.09852954
H       -0.17636512      -0.19487089       0.99074501
H        1.59090417      -0.49496253      -0.62255217
H       -0.00769988       3.23560355      -0.18224543
H        1.65125955      -2.21559650      -1.25434726
12
Properties=species:S:1:pos:R:3 relative_energy_eV=-0.04480241771125293 branch=right pbc="F F F"
C       -0.00106389      -1.78932555      -0.04177058
O       -0.72578072      -0.94531001       0.76376364
O        0.53173839       1.57272461       0.80391026
C        1.14825148      -1.51228077      -0.65525671
C       -0.27782432       2.26170528       0.22223692
O       -1.52792271       1.92907747      -0.09749527
H       -1.70989827       0.99754260       0.13584067
H       -0.47278401      -2.76317068      -0.09346034
H       -0.15095240      -0.17650189       0.95713723
H        1.61455055      -0.53506896      -0.63592156
H       -0.04619589       3.27508881      -0.14691285
H        1.66236029      -2.26495364      -1.23404445
12
Properties=species:S:1:pos:R:3 relative_energy_eV=-0.05496504176699091 branch=right pbc="F F F"
C       -0.00578161      -1.78889812      -0.05210660
O       -0.70264636      -0.91378930       0.74946184
O        0.52159280       1.61498633       0.81981666
C        1.15701609      -1.55060693      -0.65665302
C       -0.30419218       2.28815026       0.24375478
O       -1.53770570       1.91878487      -0.10261355
H       -1.68139565       0.97424019       0.11940889
H       -0.51457782      -2.74437748      -0.10161227
H       -0.10847248      -0.15594275       0.92224665
H        1.64605919      -0.58176267      -0.64088641
H       -0.08973942       3.31097288      -0.10872542
H        1.66432149      -2.32222997      -1.21406459
12
Properties=species:S:1:pos:R:3 relative_energy_eV=-0.06869795375496324 branch=right pbc="F F F"
C       -0.00978410      -1.77993750      -0.05830662
O       -0.67586335      -0.86972460       0.73021056
O        0.51453774       1.64504207       0.83518515
C        1.16247169      -1.58636887      -0.65947661
C       -0.32956239       2.30398005       0.26511546
O       -1.54234593       1.89965769      -0.11034009
H       -1.65073038       0.95076304       0.10006890
H       -0.55488184      -2.71774133      -0.11072580
H       -0.06014107      -0.12067562       0.87245183
H        1.67978886      -0.63261955      -0.63927516
H       -0.14326280       3.34372666      -0.05658925
H        1.65425175      -2.38657472      -1.19029139
12
Properties=species:S:1:pos:R:3 relative_energy_eV=-0.07914913420609082 branch=right pbc="F F F"
C       -0.00794215      -1.77137526      -0.05636915
O       -0.64385467      -0.85608207       0.73460205
O        0.49903387       1.66304505       0.85078771
C        1.16307054      -1.60503280      -0.66274255
C       -0.34575312       2.31073960       0.26873622
O       -1.54512331       1.89976643      -0.12188844
H       -1.62844384       0.94573955       0.08569797
H       -0.57440025      -2.69621042      -0.13453107
H       -0.02644571      -0.10311809       0.85424861
H        1.70750613      -0.67135780      -0.61214354
H       -0.17935190       3.35045944      -0.03629924
H        1.62618258      -2.41704630      -1.19207159
12
Properties=species:S:1:pos:R:3 relative_energy_eV=-0.08153798458624806 branch=right pbc="F F F"
C       -0.01512017      -1.75522959      -0.06139216
O       -0.64548644      -0.79928722       0.68498345
O        0.51497036       1.68471010       0.85903155
C        1.16773514      -1.63541997      -0.66649252
C       -0.35523964       2.31987057       0.29323967
O       -1.53970296       1.87210514      -0.10960730
H       -1.60406432       0.91050346       0.06456491
H       -0.58777897      -2.67842851      -0.11318171
H       -0.00249855      -0.05629378       0.79709841
H        1.72479427      -0.71204628      -0.63089698
H       -0.23542644       3.37873978       0.02424119
H        1.62229566      -2.47969641      -1.16356153
12
Properties=species:S:1:pos:R:3 relative_energy_eV=-0.08620830129439128 branch=right pbc="F F F"
C       -0.00993015      -1.76528505      -0.06048696
O       -0.64277259      -0.83122383       0.70709571
O        0.50587599       1.68233865       0.85459073
C        1.16566796      -1.62558862      -0.66391686
C       -0.34988109       2.32198548       0.27764925
O       -1.53988323       1.88661924      -0.11961895
H       -1.61780537       0.93798384       0.07648497
H       -0.57635258      -2.68888268      -0.12518555
H       -0.01003209      -0.08608149       0.83342109
H        1.72385816      -0.70287364      -0.60977754
H       -0.22055210       3.37338617      -0.00531401
H        1.61628517      -2.45285076      -1.18691490
12
Properties=species:S:1:pos:R:3 relative_energy_eV=-0.0889798223033722 branch=right pbc="F F F"
C       -0.00762480      -1.77137802      -0.06309179
O       -0.63680543      -0.83253624       0.70448123
O        0.50434988       1.69643004       0.85702434
C        1.16976877      -1.63558661      -0.66188174
C       -0.35352485       2.33030212       0.27767219
O       -1.54321953       1.89317699      -0.11623971
H       -1.61343797       0.93462286       0.07242517
H       -0.58459353      -2.68895560      -0.12545745
H       -0.00842040      -0.08596512       0.83639398
H        1.73180842      -0.71449176      -0.60573398
H       -0.23037142       3.38147539      -0.00420751
H        1.61654887      -2.45756675      -1.19335775
12
Properties=species:S:1:pos:R:3 relative_energy_eV=-0.09181270733643032 branch=right pbc="F F F"
C       -0.00676833      -1.77190291      -0.06612810
O       -0.62985211      -0.82136494       0.69249747
O        0.50263903       1.71222606       0.86104882
C        1.17585263      -1.65123210      -0.65894034
C       -0.35960451       2.33934908       0.28079014
O       -1.54321866       1.88952059      -0.11733351
H       -1.60582642       0.93017247       0.06622773
H       -0.59632974      -2.68174529      -0.12448901
H        0.00550775      -0.08112282       0.83062193
H        1.74572371      -0.73356870      -0.60089535
H       -0.25335024       3.39598960       0.01113166
H        1.60970486      -2.47679374      -1.19650445
12
Properties=species:S:1:pos:R:3 relative_energy_eV=-0.09383466396866424 branch=right pbc="F F F"
C       -0.00514880      -1.77148485      -0.06913149
O       -0.62010636      -0.80522083       0.67516840
O        0.50189046       1.73531650       0.86540881
C        1.18382833      -1.67241342      -0.65419874
C       -0.36913479       2.35320218       0.28558397
O       -1.54316703       1.88346667      -0.11900479
H       -1.59270020       0.92290294       0.05813277
H       -0.61084668      -2.67051991      -0.12435159
H        0.02251982      -0.07366368       0.82062778
H        1.76646350      -0.76291367      -0.59449013
H       -0.28752885       3.41758093       0.03450996
H        1.59840851      -2.50672558      -1.20022795
12
Properties=species:S:1:pos:R:3 relative_energy_eV=-0.09453687339009775 branch=right pbc="F F F"
C       -0.00432095      -1.77024297      -0.06946236
O       -0.61635353      -0.79965289       0.67108219
O        0.49762435       1.74402663       0.86919325
C        1.18725034      -1.68033942      -0.65238790
C       -0.37421006       2.35791210       0.28694585
O       -1.54390871       1.88143332      -0.12285233
H       -1.58637987       0.92077548       0.05497246
H       -0.61788852      -2.66447490      -0.12624431
H        0.03218464      -0.07448416       0.82249064
H        1.77521812      -0.77493955      -0.59146876
H       -0.29786602       3.42303652       0.04001541
H        1.59312810      -2.51352289      -1.20425713
12
Properties=species:S:1:pos:R:3 relative_energy_eV=-0.09581587398679403 branch=right pbc="F F F"
C       -0.00279933      -1.76827405      -0.06941152
O       -0.60642813      -0.79003495       0.66611473
O        0.49180524       1.76004017       0.87386313
C        1.19128335      -1.69455190      -0.64839606
C       -0.38444137       2.36656824       0.29051349
O       -1.54465915       1.87679385      -0.12999723
H       -1.57183474       0.91590314       0.04969938
H       -0.63072923      -2.65189765      -0.13223198
H        0.04546594      -0.07101420       0.82033848
H        1.79415106      -0.80012662      -0.58503348
H       -0.32021986       3.43524306       0.05263404
H        1.58288409      -2.52912182      -1.21006599
12
Properties=species:S:1:pos:R:3 relative_energy_eV=-0.0971907909206493 branch=right pbc="F F F"
C       -0.00255500      -1.76431301      -0.07140524
O       -0.59287043      -0.77576754       0.66039512
O        0.48360523       1.78408190       0.88099689
C        1.19535019      -1.71496464      -0.64531332
C       -0.40084819       2.38071494       0.29868914
O       -1.54570946       1.86952157      -0.14074331
H       -1.54967886       0.90747049       0.04144119
H       -0.64791116      -2.63434961      -0.14106154
H        0.06512560      -0.06449556       0.81747024
H        1.82088779      -0.83692379      -0.57746788
H       -0.35144649       3.45134984       0.07006770
H        1.57052857      -2.55279734      -1.21504199
12
Properties=species:S:1:pos:R:3 relative_energy_eV=-0.09826714343216736 branch=right pbc="F F F"
C       -0.00216508      -1.75920609      -0.07400683
O       -0.57683845      -0.75903737       0.65520060
O        0.47622635       1.80843922       0.88804151
C        1.19858370      -1.73744848      -0.64314262
C       -0.41795273       2.39267021       0.30759398
O       -1.54438325       1.86078462      -0.15209917
H       -1.52639223       0.89814622       0.03071952
H       -0.66698213      -2.61339378      -0.14992840
H        0.08623140      -0.05239766       0.81104478
H        1.85183251      -0.87974104      -0.56632877
H       -0.38934768       3.46916831       0.09164401
H        1.55566533      -2.57845686      -1.22071161
12
Properties=species:S:1:pos:R:3 relative_energy_eV=-0.09916285352846899 branch=right pbc="F F F"
C       -0.00162387      -1.75468113      -0.07693008
O       -0.56521482      -0.75212581       0.65689937
O        0.47059846       1.82297333       0.89206666
C        1.19989482      -1.74925658      -0.64320108
C       -0.42845413       2.40051227       0.31295111
O       -1.54178979       1.85567081      -0.16069442
H       -1.51336019       0.89342510       0.02299529
H       -0.67716146      -2.59843432      -0.15810523
H        0.09876910      -0.04542554       0.81154452
H        1.87139172      -0.90648494      -0.55512899
H       -0.41204506       3.47605062       0.10225501
H        1.54347292      -2.59269653      -1.22662517
12
Properties=species:S:1:pos:R:3 relative_energy_eV=-0.10001711111181066 branch=right pbc="F F F"
C       -0.00114202      -1.75020381      -0.08103177
O       -0.55325494      -0.74411911       0.65804780
O        0.46768308       1.83837389       0.89529901
C        1.20247868      -1.76270751      -0.64398491
C       -0.43746782       2.40797243       0.31796272
O       -1.53948723       1.85047786      -0.16712830
H       -1.50292878       0.88772146       0.01403105
H       -0.68849585      -2.58434760      -0.16490860
H        0.11199364      -0.03577314       0.80654216
H        1.89136858      -0.93454988      -0.54340611
H       -0.43749256       3.48634426       0.11684821
H        1.53122287      -2.60966159      -1.23024427
12
Properties=species:S:1:pos:R:3 relative_energy_eV=-0.10015949222724885 branch=right pbc="F F F"
C       -0.00039232      -1.74622952      -0.08343180
O       -0.55378964      -0.75039485       0.66961932
O        0.47120532       1.83003250       0.89129237
C        1.20056792      -1.75446120      -0.64795355
C       -0.43177320       2.40047985       0.31416412
O       -1.53552060       1.85121423      -0.16663915
H       -1.51211433       0.88906555       0.01179739
H       -0.68291828      -2.58224378      -0.16708843
H        0.10675537      -0.03396223       0.81059149
H        1.88837562      -0.93024031      -0.53697790
H       -0.43279373       3.47755859       0.11382877
H        1.52687552      -2.60129155      -1.23117564
12
Properties=species:S:1:pos:R:3 relative_energy_eV=-0.10104757534463715 branch=right pbc="F F F"
C       -0.00044491      -1.74461960      -0.08575229
O       -0.54610273      -0.74450739       0.66760181
O        0.46741887       1.84401678       0.89482342
C        1.20392791      -1.76479291      -0.64616218
C       -0.43878264       2.40903021       0.31673127
O       -1.53744163       1.84834891      -0.17112616
H       -1.50376193       0.88481376       0.00733360
H       -0.69317952      -2.57437901      -0.17299632
H        0.11873489      -0.03297137       0.80877008
H        1.90210173      -0.94687071      -0.53336932
H       -0.44838983       3.48760218       0.12382976
H        1.52039740      -2.61614359      -1.23165669
12
Properties=species:S:1:pos:R:3 relative_energy_eV=-0.1013979443887365 branch=right pbc="F F F"
C       -0.00080283      -1.74453586      -0.08497513
O       -0.54820520      -0.74533261       0.66798404
O        0.46867641       1.84115751       0.89326304
C        1.20389423      -1.76267646      -0.64535536
C       -0.43731841       2.40765492       0.31508363
O       -1.53820967       1.84859855      -0.17060308
H       -1.50550378       0.88518078       0.00866341
H       -0.69205753      -2.57553438      -0.17280421
H        0.11661591      -0.03566039       0.81124578
H        1.89999333      -0.94304643      -0.53624993
H       -0.44485316       3.48677421       0.12249419
H        1.52224833      -2.61305258      -1.23071940
12
Properties=species:S:1:pos:R:3 relative_energy_eV=-0.10212836773462186 branch=right pbc="F F F"
C       -0.00141678      -1.74141946      -0.08482106
O       -0.54901770      -0.74756880       0.67505468
O        0.46928421       1.83560072       0.88922985
C        1.20389208      -1.75812141      -0.64401423
C       -0.43531937       2.40437842       0.31039380
O       -1.53918011       1.84801362      -0.17294790
H       -1.50830970       0.88473849       0.00873097
H       -0.69344483      -2.57137063      -0.17919113
H        0.11615556      -0.04155610       0.82273232
H        1.90081603      -0.93948367      -0.53864972
H       -0.44101248       3.48450460       0.12113898
H        1.52203073      -2.60818854      -1.22962959
12
Properties=species:S:1:pos:R:3 relative_energy_eV=-0.10271040046973212 branch=right pbc="F F F"
C       -0.00204350      -1.73697405      -0.08537368
O       -0.54854030      -0.74935583       0.68319142
O        0.47080539       1.83083787       0.88437812
C        1.20387398      -1.75460919      -0.64334457
C       -0.43411672       2.40134851       0.30694789
O       -1.53871788       1.84614641      -0.17570267
H       -1.51008973       0.88289408       0.00673181
H       -0.69540876      -2.56442269      -0.18722247
H        0.11580126      -0.04433746       0.83531895
H        1.90384505      -0.93912041      -0.53890754
H       -0.44056925       3.48208316       0.12125444
H        1.51963811      -2.60496316      -1.22924477
12
Properties=species:S:1:pos:R:3 relative_energy_eV=-0.10326325665846525 branch=right pbc="F F F"
C       -0.00239003      -1.73219280      -0.08567186
O       -0.54782389      -0.75117490       0.69203066
O        0.47277377       1.82594612       0.87878928
C        1.20370133      -1.75104004      -0.64276408
C       -0.43305528       2.39771004       0.30415849
O       -1.53771570       1.84360791      -0.17853364
H       -1.51086700       0.88017911       0.00367217
H       -0.69823391      -2.55604617      -0.19733910
H        0.11501417      -0.04557530       0.85055291
H        1.90754004      -0.93869236      -0.53870930
H       -0.44096130       3.47885256       0.12106201
H        1.51649543      -2.60204696      -1.22922061
12
Properties=species:S:1:pos:R:3 relative_energy_eV=-0.10365164643371827 branch=right pbc="F F F"
C       -0.00254310      -1.72947438      -0.08525558
O       -0.54875631      -0.75291004       0.69717522
O        0.47629665       1.82258288       0.87400476
C        1.20367062      -1.74819003      -0.64243703
C       -0.43153981       2.39479574       0.30322209
O       -1.53665029       1.84152109      -0.17888081
H       -1.51140939       0.87780254       0.00138580
H       -0.69903245      -2.55153595      -0.20403873
H        0.11176330      -0.04499326       0.86099230
H        1.90857974      -0.93612171      -0.53936680
H       -0.44062497       3.47586013       0.12017718
H        1.51472363      -2.59980981      -1.22895151
12
Properties=species:S:1:pos:R:3 relative_energy_eV=-0.10385954435332678 branch=right pbc="F F F"
C       -0.00239280      -1.72937721      -0.08425601
O       -0.55085450      -0.75384142       0.69806021
O        0.47959310       1.82094450       0.87148488
C        1.20358849      -1.74624901      -0.64226965
C       -0.42999579       2.39280351       0.30357863
O       -1.53622271       1.84057104      -0.17721647
H       -1.51163123       0.87654611       0.00059723
H       -0.69864739      -2.55159799      -0.20610481
H        0.10805416      -0.04389901       0.86456096
H        1.90683199      -0.93179269      -0.54096650
H       -0.43902813       3.47364868       0.11879497
H        1.51518243      -2.59822931      -1.22823656
12
Properties=species:S:1:pos:R:3 relative_energy_eV=-0.10395553731723339 branch=right pbc="F F F"
C       -0.00248243      -1.73043602      -0.08353961
O       -0.55312257      -0.75437268       0.69681480
O        0.48199914       1.82075290       0.87059263
C        1.20352137      -1.74520000      -0.64220822
C       -0.42873798       2.39208137       0.30419046
O       -1.53627906       1.84059495      -0.17498183
H       -1.51174930       0.87637932       0.00092508
H       -0.69729710      -2.55414683      -0.20515663
H        0.10513359      -0.04354907       0.86375400
H        1.90412346      -0.92795012      -0.54250842
H       -0.43734641       3.47270286       0.11754772
H        1.51671491      -2.59732947      -1.22740309
12
Properties=species:S:1:pos:R:3 relative_energy_eV=-0.10402994003197819 branch=right pbc="F F F"
C       -0.00263190      -1.73125108      -0.08315525
O       -0.55455704      -0.75443049       0.69574944
O        0.48355692       1.82083400       0.87011875
C        1.20341274      -1.74456808      -0.64201305
C       -0.42800638       2.39167564       0.30455817
O       -1.53646046       1.84056145      -0.17328859
H       -1.51138382       0.87620810       0.00103041
H       -0.69689541      -2.55602463      -0.20419496
H        0.10371565      -0.04357345       0.86239347
H        1.90215425      -0.92547679      -0.54325033
H       -0.43642393       3.47217361       0.11691450
H        1.51799700      -2.59660108      -1.22683565
12
Properties=species:S:1:pos:R:3 relative_energy_eV=-0.10416198317579983 branch=right pbc="F F F"
C       -0.00329842      -1.73201359      -0.08287150
O       -0.55661328      -0.75465040       0.69478420
O        0.48607308       1.82113653       0.86880726
C        1.20311053      -1.74353193      -0.64144248
C       -0.42691768       2.39118106       0.30472802
O       -1.53673306       1.84026737      -0.17075131
H       -1.51001657       0.87562779       0.00077480
H       -0.69646388      -2.55816317      -0.20347317
H        0.10209334      -0.04429231       0.86096368
H        1.89957861      -0.92242556      -0.54344964
H       -0.43583708       3.47161063       0.11614236
H        1.51950208      -2.59521923      -1.22618533
12
Properties=species:S:1:pos:R:3 relative_energy_eV=-0.10442964643880259 branch=right pbc="F F F"
C       -0.00476264      -1.73210930      -0.08284004
O       -0.55860630      -0.75472962       0.69507911
O        0.49029413       1.82124922       0.86532109
C        1.20242362      -1.74183641      -0.63995104
C       -0.42563322       2.39009852       0.30448959
O       -1.53704035       1.83864839      -0.16710774
H       -1.50615704       0.87340298      -0.00127004
H       -0.69804496      -2.55878850      -0.20458547
H        0.10118302      -0.04555766       0.86020131
H        1.89674577      -0.91915554      -0.54128452
H       -0.43659499       3.47053670       0.11584835
H        1.52067067      -2.59223159      -1.22587372
12
Properties=species:S:1:pos:R:3 relative_energy_eV=-0.10487533764899126 branch=right pbc="F F F"
C       -0.00784042      -1.73067355      -0.08348722
O       -0.56031798      -0.75499044       0.69794503
O        0.49685143       1.82136072       0.85785247
C        1.20091036      -1.73925370      -0.63712708
C       -0.42415380       2.38843004       0.30318774
O       -1.53729092       1.83495365      -0.16225450
H       -1.49800106       0.86852988      -0.00619317
H       -0.70202973      -2.55612472      -0.20962133
H        0.10182328      -0.04824781       0.86216955
H        1.89437799      -0.91675384      -0.53428933
H       -0.44019491       3.46929080       0.11637455
H        1.52034358      -2.58699388      -1.22652984
12
Properties=species:S:1:pos:R:3 relative_energy_eV=-0.10537697337167629 branch=right pbc="F F F"
C       -0.01162681      -1.72731571      -0.08484777
O       -0.55950335      -0.75537040       0.70442223
O        0.50351037       1.82001581       0.84717912
C        1.19880316      -1.73632549      -0.63371148
C       -0.42332396       2.38610818       0.30067549
O       -1.53716730       1.82929143      -0.15847101
H       -1.48779508       0.86165514      -0.01364104
H       -0.70945605      -2.54838797      -0.21888800
H        0.10517887      -0.05112177       0.86788870
H        1.89402047      -0.91688174      -0.52181181
H       -0.44578481       3.46762517       0.11830197
H        1.51762246      -2.57976554      -1.22906955
12
Properties=species:S:1:pos:R:3 relative_energy_eV=-0.10573360636044526 branch=right pbc="F F F"
C       -0.01448647      -1.72403152      -0.08605364
O       -0.55797704      -0.75632166       0.71064684
O        0.50734621       1.81780374       0.83799632
C        1.19679454      -1.73387300      -0.63173869
C       -0.42286352       2.38421482       0.29776244
O       -1.53675996       1.82497848      -0.15723242
H       -1.48114024       0.85669575      -0.01894645
H       -0.71454853      -2.54072717      -0.22713274
H        0.10840037      -0.05373633       0.87528636
H        1.89494125      -0.91839178      -0.51022563
H       -0.44950192       3.46652998       0.11995516
H        1.51427340      -2.57361424      -1.23229072
12
Properties=species:S:1:pos:R:3 relative_energy_eV=-0.10591010370626464 branch=right pbc="F F F"
C       -0.01540658      -1.72208909      -0.08645672
O       -0.55621507      -0.75718152       0.71478485
O        0.50868419       1.81531271       0.83231615
C        1.19585637      -1.73247844      -0.63135922
C       -0.42279825       2.38293632       0.29569190
O       -1.53637358       1.82281029      -0.15792307
H       -1.47943616       0.85433558      -0.02118323
H       -0.71758339      -2.53564301      -0.23177527
H        0.10994031      -0.05453413       0.88058724
H        1.89624530      -0.91990237      -0.50287863
H       -0.45040709       3.46574951       0.12135560
H        1.51197207      -2.56978880      -1.23513278
12
Properties=species:S:1:pos:R:3 relative_energy_eV=-0.1060470667325717 branch=right pbc="F F F"
C       -0.01588710      -1.72127170      -0.08628465
O       -0.55643593      -0.75821096       0.71683640
O        0.51023659       1.81290355       0.82756052
C        1.19509784      -1.73069475      -0.63157504
C       -0.42199696       2.38170619       0.29389867
O       -1.53620496       1.82194420      -0.15829251
H       -1.47966654       0.85323112      -0.02127746
H       -0.71800828      -2.53371587      -0.23373655
H        0.10927570      -0.05540744       0.88434880
H        1.89636147      -0.91956737      -0.49829723
H       -0.44933728       3.46504354       0.12205462
H        1.51104359      -2.56643345      -1.23720877
12
Properties=species:S:1:pos:R:3 relative_energy_eV=-0.1062604822764115 branch=right pbc="F F F"
C       -0.01669980      -1.72072481      -0.08543920
O       -0.55850959      -0.76056211       0.71991629
O        0.51445693       1.80713473       0.81853996
C        1.19386370      -1.72607787      -0.63177770
C       -0.41936542       2.37857389       0.29079241
O       -1.53598245       1.82086640      -0.15793921
H       -1.48153664       0.85195983      -0.02006653
H       -0.71813223      -2.53306863      -0.23538336
H        0.10576438      -0.05685074       0.88885636
H        1.89440263      -0.91531736      -0.49186950
H       -0.44502648       3.46253791       0.12250096
H        1.51124314      -2.55894423      -1.24010368
12
Properties=species:S:1:pos:R:3 relative_energy_eV=-0.10667169593034487 branch=right pbc="F F F"
C       -0.01933576      -1.72069125      -0.08315251
O       -0.56760664      -0.76629744       0.72446796
O        0.52615825       1.79267889       0.79896036
C        1.19062194      -1.71326091      -0.63144666
C       -0.41102478       2.37019218       0.28426628
O       -1.53554877       1.81933044      -0.15383195
H       -1.48628673       0.84985152      -0.01566374
H       -0.71507762      -2.53702855      -0.23563016
H        0.09438354      -0.06095952       0.89535833
H        1.88502606      -0.89886186      -0.48271940
H       -0.43200460       3.45505454       0.12088006
H        1.51517338      -2.54048108      -1.24346181
12
Properties=species:S:1:pos:R:3 relative_energy_eV=-0.10822490647478844 branch=right pbc="F F F"
C       -0.03003597      -1.72163263      -0.07476483
O       -0.60384952      -0.78981463       0.74211781
O        0.56977034       1.73512917       0.72977933
C        1.17818661      -1.66252682      -0.62831158
C       -0.37730835       2.33678948       0.26054240
O       -1.53407122       1.81491356      -0.13423294
H       -1.50490160       0.84375415       0.00092440
H       -0.70174742      -2.55681198      -0.23523547
H        0.04960887      -0.07747937       0.91635691
H        1.84225014      -0.82696011      -0.45690875
H       -0.37798758       3.42339475       0.10848180
H        1.53456433      -2.46922877      -1.25072241
12
Properties=species:S:1:pos:R:3 relative_energy_eV=-0.10262151584902313 branch=right pbc="F F F"
C       -0.04092111      -1.72333884      -0.06591030
O       -0.64329866      -0.81449098       0.75850252
O        0.61126291       1.67314688       0.66317180
C        1.16481893      -1.60847873      -0.62406656
C       -0.34114683       2.30079577       0.23666268
O       -1.53162531       1.81170642      -0.11221424
H       -1.52445812       0.83921972       0.01976162
H       -0.68459683      -2.58107173      -0.23164028
H        0.00248809      -0.09547370       0.93466860
H        1.79247073      -0.74622729      -0.43607838
H       -0.31738440       3.38798999       0.09079334
H        1.55686960      -2.39425087      -1.25562422
12
Properties=species:S:1:pos:R:3 relative_energy_eV=-0.10906495856761467 branch=right pbc="F F F"
C       -0.03128423      -1.72233076      -0.07376316
O       -0.61055135      -0.79126185       0.74076807
O        0.57189826       1.72731494       0.72591969
C        1.17645124      -1.65588769      -0.62630026
C       -0.37253518       2.33186497       0.25906519
O       -1.53207036       1.81510410      -0.13067521
H       -1.50566351       0.84426579       0.00525544
H       -0.69746166      -2.56358644      -0.23057461
H        0.04380530      -0.07895624       0.91154277
H        1.83373928      -0.81430615      -0.45837090
H       -0.36984596       3.41792741       0.10468920
H        1.53799682      -2.46062130      -1.24952956
12
Properties=species:S:1:pos:R:3 relative_energy_eV=-0.10943055053394346 branch=right pbc="F F F"
C       -0.03257102      -1.72160379      -0.07450043
O       -0.61318849      -0.79232805       0.74208814
O        0.57562420       1.72445973       0.72183062
C        1.17565028      -1.65336867      -0.62454357
C       -0.37070797       2.33030086       0.25835990
O       -1.53100223       1.81415162      -0.12780704
H       -1.50406376       0.84292705       0.00473094
H       -0.69614474      -2.56479798      -0.23172729
H        0.04124632      -0.07959818       0.91211325
H        1.83053584      -0.80985552      -0.45775939
H       -0.36914925       3.41617407       0.10348489
H        1.53824950      -2.45693435      -1.24824334
12
Properties=species:S:1:pos:R:3 relative_energy_eV=-0.10983529080658627 branch=right pbc="F F F"
C       -0.03549867      -1.72248983      -0.07451950
O       -0.62237670      -0.79791009       0.74400914
O        0.58035277       1.71194865       0.71542829
C        1.17343031      -1.64339924      -0.62060733
C       -0.36309266       2.32391238       0.25536773
O       -1.52913255       1.81556203      -0.12107098
H       -1.50699549       0.84415972       0.00963187
H       -0.68910305      -2.57467028      -0.22959103
H        0.03222106      -0.08361229       0.91139253
H        1.81585069      -0.78861193      -0.46312359
H       -0.35594632       3.40848192       0.09459512
H        1.54476936      -2.44384428      -1.24348558
12
Properties=species:S:1:pos:R:3 relative_energy_eV=-0.10986101928028802 branch=right pbc="F F F"
C       -0.03522491      -1.72237767      -0.07440023
O       -0.62114270      -0.79711560       0.74367700
O        0.58016102       1.71265999       0.71577474
C        1.17343643      -1.64445430      -0.62073042
C       -0.36377650       2.32425097       0.25545078
O       -1.52927305       1.81535314      -0.12159599
H       -1.50694117       0.84383873       0.00896414
H       -0.69001170      -2.57324655      -0.23014778
H        0.03355945      -0.08297667       0.91136750
H        1.81702388      -0.79062318      -0.46235728
H       -0.35742764       3.40931822       0.09583127
H        1.54409564      -2.44510032      -1.24380704
12
Properties=species:S:1:pos:R:3 relative_energy_eV=-0.1098748692402296 branch=right pbc="F F F"
C       -0.03505569      -1.72266428      -0.07429283
O       -0.62031901      -0.79731401       0.74395873
O        0.57968216       1.71290453       0.71623613
C        1.17344094      -1.64496176      -0.62085265
C       -0.36397447       2.32456846       0.25530612
O       -1.52944817       1.81577676      -0.12211055
H       -1.50793192       0.84430038       0.00911554
H       -0.69013639      -2.57298231      -0.23072447
H        0.03438207      -0.08317346       0.91170275
H        1.81702315      -0.79112268      -0.46219555
H       -0.35736049       3.40967054       0.09575942
H        1.54417658      -2.44547542      -1.24387595
12
Properties=species:S:1:pos:R:3 relative_energy_eV=-0.10989786182835815 branch=right pbc="F F F"
C       -0.03512101      -1.72292917      -0.07409987
O       -0.61974382      -0.79749052       0.74432804
O        0.57973118       1.71271763       0.71591551
C        1.17328300      -1.64514509      -0.62058275
C       -0.36380568       2.32449326       0.25500462
O       -1.52931781       1.81599989      -0.12246482
H       -1.50900586       0.84451516       0.00947472
H       -0.69031987      -2.57281423      -0.23158798
H        0.03520710      -0.08351112       0.91185590
H        1.81622790      -0.79091349      -0.46153831
H       -0.35711368       3.40966150       0.09570713
H        1.54445729      -2.44505706      -1.24398552
12
Properties=species:S:1:pos:R:3 relative_energy_eV=-0.10991349613868806 branch=right pbc="F F F"
C       -0.03534273      -1.72304732      -0.07405742
O       -0.61939093      -0.79750779       0.74472304
O        0.58015550       1.71303081       0.71515950
C        1.17320232      -1.64536796      -0.62012352
C       -0.36370218       2.32453194       0.25484135
O       -1.52903878       1.81583605      -0.12285675
H       -1.50936365       0.84441100       0.00977466
H       -0.69078235      -2.57255105      -0.23260628
H        0.03597635      -0.08388306       0.91194417
H        1.81573758      -0.79104155      -0.46050365
H       -0.35749954       3.40971668       0.09596219
H        1.54452717      -2.44460101      -1.24423062
12
Properties=species:S:1:pos:R:3 relative_energy_eV=-0.10992469606935629 branch=right pbc="F F F"
C       -0.03569603      -1.72293925      -0.07412680
O       -0.61923480      -0.79706111       0.74479752
O        0.58098989       1.71365727       0.71407717
C        1.17318939      -1.64569587      -0.61948051
C       -0.36368946       2.32455589       0.25487445
O       -1.52860448       1.81520365      -0.12322434
H       -1.50895700       0.84381931       0.00999970
H       -0.69159773      -2.57204496      -0.23351915
H        0.03671624      -0.08390240       0.91152099
H        1.81559512      -0.79152368      -0.45934071
H       -0.35862666       3.40982187       0.09686123
H        1.54439426      -2.44436401      -1.24441291
12
Properties=species:S:1:pos:R:3 relative_energy_eV=-0.109939171021324 branch=right pbc="F F F"
C       -0.03595652      -1.72276173      -0.07430187
O       -0.61914917      -0.79649508       0.74461323
O        0.58161862       1.71440423       0.71337650
C        1.17326710      -1.64612013      -0.61905160
C       -0.36384949       2.32470328       0.25502741
O       -1.52830160       1.81458636      -0.12360661
H       -1.50823379       0.84327175       0.01022627
H       -0.69236568      -2.57153834      -0.23401182
H        0.03724903      -0.08365649       0.91090188
H        1.81594611      -0.79227177      -0.45866332
H       -0.35993785       3.41006619       0.09791516
H        1.54419199      -2.44466156      -1.24439860
12
Properties=species:S:1:pos:R:3 relative_energy_eV=-0.10994015633514209 branch=right pbc="F F F"
C       -0.03610881      -1.72257788      -0.07450682
O       -0.61909992      -0.79592019       0.74422062
O        0.58198204       1.71497389       0.71308040
C        1.17336989      -1.64653096      -0.61884557
C       -0.36404797       2.32485538       0.25520640
O       -1.52810573       1.81411178      -0.12395472
H       -1.50758498       0.84285956       0.01055424
H       -0.69294873      -2.57110226      -0.23413450
H        0.03758357      -0.08322418       0.91017619
H        1.81639592      -0.79293635      -0.45855605
H       -0.36105413       3.41030484       0.09890536
H        1.54409760      -2.44528692      -1.24411891
12
Properties=species:S:1:pos:R:3 relative_energy_eV=-0.1099422454899468 branch=right pbc="F F F"
C       -0.03617911      -1.72245703      -0.07471770
O       -0.61903473      -0.79554667       0.74385543
O        0.58209281       1.71531429       0.71303389
C        1.17344422      -1.64684199      -0.61882381
C       -0.36420958       2.32499357       0.25529269
O       -1.52800323       1.81385019      -0.12425326
H       -1.50717143       0.84267542       0.01099414
H       -0.69332287      -2.57077730      -0.23415746
H        0.03778136      -0.08287514       0.90966043
H        1.81672819      -0.79335741      -0.45875744
H       -0.36180236       3.41050508       0.09958715
H        1.54415548      -2.44595630      -1.24368743
12
Properties=species:S:1:pos:R:3 relative_energy_eV=-0.10995197087686392 branch=right pbc="F F F"
C       -0.03621721      -1.72238310      -0.07492682
O       -0.61900355      -0.79533085       0.74350374
O        0.58209649       1.71545544       0.71307878
C        1.17346936      -1.64701352      -0.61890434
C       -0.36428376       2.32507921       0.25529710
O       -1.52792648       1.81369660      -0.12442172
H       -1.50693384       0.84258582       0.01151343
H       -0.69354076      -2.57053776      -0.23418494
H        0.03786290      -0.08265601       0.90936159
H        1.81679351      -0.79346086      -0.45914205
H       -0.36221123       3.41062013       0.09996270
H        1.54437328      -2.44652839      -1.24311088
12
Properties=species:S:1:pos:R:3 relative_energy_eV=-0.10994913051945332 branch=right pbc="F F F"
C       -0.03627373      -1.72235126      -0.07513761
O       -0.61901812      -0.79528685       0.74324636
O        0.58212248       1.71549837       0.71302887
C        1.17343422      -1.64702554      -0.61900781
C       -0.36426453       2.32511400       0.25521154
O       -1.52784631       1.81356915      -0.12440781
H       -1.50674381       0.84250989       0.01202180
H       -0.69369045      -2.57036185      -0.23436934
H        0.03786982      -0.08266854       0.90936255
H        1.81658551      -0.79327971      -0.45943683
H       -0.36237786       3.41066767       0.10002280
H        1.54468148      -2.44685861      -1.24250793
12
Properties=species:S:1:pos:R:3 relative_energy_eV=-0.10995130697847344 branch=right pbc="F F F"
C       -0.03635809      -1.72234504      -0.07532071
O       -0.61911611      -0.79532376       0.74304467
O        0.58224397       1.71552644       0.71286439
C        1.17336005      -1.64690354      -0.61907700
C       -0.36417068       2.32510027       0.25510840
O       -1.52775486       1.81341013      -0.12417970
H       -1.50653331       0.84236365       0.01240356
H       -0.69379771      -2.57026499      -0.23465807
H        0.03781278      -0.08286174       0.90955765
H        1.81616994      -0.79290436      -0.45957180
H       -0.36237743       3.41064872       0.09983394
H        1.54500015      -2.44691904      -1.24197876
