12
Properties=species:S:1:pos:R:3 relative_energy_eV=0.0 branch=left pbc="F F F"
C        0.24061592      -0.23063682      -0.00877411
O        1.38184792      -1.00216340       0.30754495
O        0.29534081       0.57110392       2.21493860
C       -0.32712118      -0.40842607      -1.36576814
C       -0.25473360       0.51823590       0.98204778
O       -1.34735517       1.32521352       0.94094352
H        0.35174430      -0.04686615      -2.14558939
H       -1.72881785       1.31674435       0.05700774
H        1.03441389      -0.05745999       2.20944209
H       -0.52354603      -1.46338714      -1.57123650
H        2.13957906      -0.62340483      -0.15694586
H       -1.27248695       0.12160531      -1.49463811
12
Properties=species:S:1:pos:R:3 relative_energy_eV=-5.735735612688586e-06 branch=left pbc="F F F"
C        0.24053457      -0.23071881      -0.00872984
O        1.38165648      -1.00255179       0.30741787
O        0.29529424       0.57135924       2.21493781
C       -0.32716583      -0.40839194      -1.36581211
C       -0.25454844       0.51854604       0.98201316
O       -1.34707582       1.32557317       0.94074277
H        0.35117692      -0.04554758      -2.14562278
H       -1.72852329       1.31698298       0.05684415
H        1.03413217      -0.05752454       2.20984448
H       -0.52226840      -1.46358690      -1.57161217
H        2.13961966      -0.62404824      -0.15696741
H       -1.27335115       0.12046694      -1.49408333
12
Properties=species:S:1:pos:R:3 relative_energy_eV=1.889841223601252e-05 branch=left pbc="F F F"
C        0.24038050      -0.23056738      -0.00874902
O        1.38165439      -1.00250232       0.30700619
O        0.29480724       0.57097002       2.21515079
C       -0.32737681      -0.40868600      -1.36582134
C       -0.25445555       0.51900543       0.98202775
O       -1.34673924       1.32626457       0.94071849
H        0.34978645      -0.04343269      -2.14567223
H       -1.72726921       1.31926669       0.05643416
H        1.03335903      -0.05838515       2.21032133
H       -0.51956942      -1.46448708      -1.57159872
H        2.14000069      -0.62457849      -0.15735671
H       -1.27509698       0.11769095      -1.49348811
12
Properties=species:S:1:pos:R:3 relative_energy_eV=4.861626621277537e-05 branch=left pbc="F F F"
C        0.24022636      -0.23005935      -0.00885460
O        1.38202233      -1.00148814       0.30658286
O        0.29377697       0.56936800       2.21566837
C       -0.32773429      -0.40944373      -1.36568394
C       -0.25475063       0.51919509       0.98215512
O       -1.34657608       1.32707708       0.94106194
H        0.34771386      -0.04134063      -2.14566698
H       -1.72476873       1.32419443       0.05572961
H        1.03232443      -0.06013606       2.21033974
H       -0.51598834      -1.46608473      -1.57087866
H        2.14051043      -0.62432176      -0.15825636
H       -1.27727522       0.11359833      -1.49322452
12
Properties=species:S:1:pos:R:3 relative_energy_eV=7.821979852451477e-05 branch=left pbc="F F F"
C        0.24014285      -0.22950048      -0.00896339
O        1.38245752      -1.00015338       0.30650739
O        0.29279463       0.56743505       2.21621242
C       -0.32801113      -0.41021598      -1.36547307
C       -0.25529210       0.51896464       0.98233782
O       -1.34664674       1.32760449       0.94156032
H        0.34606369      -0.04022765      -2.14559467
H       -1.72231450       1.32907477       0.05507726
H        1.03169324      -0.06168912       2.20982089
H       -0.51327502      -1.46747674      -1.57001805
H        2.14067687      -0.62351233      -0.15917063
H       -1.27880821       0.11025523      -1.49332369
12
Properties=species:S:1:pos:R:3 relative_energy_eV=0.00010369866140536033 branch=left pbc="F F F"
C        0.24008593      -0.22910475      -0.00901915
O        1.38265599      -0.99917937       0.30674746
O        0.29216281       0.56594744       2.21661178
C       -0.32812481      -0.41072401      -1.36530844
C       -0.25580555       0.51858357       0.98250892
O       -1.34678038       1.32789398       0.94199765
H        0.34509552      -0.03969398      -2.14549580
H       -1.72057416       1.33251697       0.05464421
H        1.03155222      -0.06253608       2.20913217
H       -0.51148910      -1.46832201      -1.56953992
H        2.14041987      -0.62283892      -0.15983454
H       -1.27971726       0.10801564      -1.49347176
12
Properties=species:S:1:pos:R:3 relative_energy_eV=0.00012530443382274825 branch=left pbc="F F F"
C        0.23996229      -0.22884751      -0.00901950
O        1.38248650      -0.99868493       0.30723174
O        0.29178833       0.56489192       2.21690827
C       -0.32809767      -0.41101694      -1.36523521
C       -0.25624688       0.51823712       0.98267378
O       -1.34686295       1.32818846       0.94239953
H        0.34440337      -0.03892668      -2.14539354
H       -1.71921389       1.33519923       0.05437642
H        1.03173393      -0.06281817       2.20841335
H       -0.50956484      -1.46884628      -1.56960863
H        2.13972269      -0.62265501      -0.16034896
H       -1.28062977       0.10583727      -1.49342466
12
Properties=species:S:1:pos:R:3 relative_energy_eV=0.00015285677909560036 branch=left pbc="F F F"
C        0.23966684      -0.22869150      -0.00895912
O        1.38172137      -0.99884090       0.30798909
O        0.29160247       0.56426145       2.21713965
C       -0.32791929      -0.41111983      -1.36531913
C       -0.25658234       0.51810833       0.98284234
O       -1.34676872       1.32876717       0.94282717
H        0.34355294      -0.03700016      -2.14532594
H       -1.71787031       1.33790632       0.05424464
H        1.03211771      -0.06262625       2.20774922
H       -0.50621417      -1.46923170      -1.57050685
H        2.13843411      -0.62340537      -0.16082963
H       -1.28225955       0.10243087      -1.49287885
12
Properties=species:S:1:pos:R:3 relative_energy_eV=0.00018822738820745144 branch=left pbc="F F F"
C        0.23923816      -0.22866028      -0.00886416
O        1.38052590      -0.99966713       0.30870143
O        0.29160684       0.56427597       2.21723444
C       -0.32765117      -0.41102767      -1.36558284
C       -0.25665884       0.51839302       0.98295109
O       -1.34647419       1.32956669       0.94319364
H        0.34258515      -0.03408575      -2.14538587
H       -1.71679020       1.34022941       0.05430454
H        1.03244069      -0.06214621       2.20745878
H       -0.50186714      -1.46948070      -1.57203764
H        2.13698487      -0.62505937      -0.16116079
H       -1.28445903       0.09822038      -1.49184004
12
Properties=species:S:1:pos:R:3 relative_energy_eV=0.00021338900296541397 branch=left pbc="F F F"
C        0.23886540      -0.22872008      -0.00876929
O        1.37948991      -1.00062754       0.30910692
O        0.29173144       0.56479336       2.21718557
C       -0.32740130      -0.41084301      -1.36587725
C       -0.25650125       0.51894502       0.98296403
O       -1.34614728       1.33025514       0.94339571
H        0.34185641      -0.03145433      -2.14553742
H       -1.71634528       1.34147054       0.05451373
H        1.03250883      -0.06171274       2.20759514
H       -0.49832406      -1.46958133      -1.57342507
H        2.13603025      -0.62687542      -0.16135695
H       -1.28628204       0.09490872      -1.49082254
12
Properties=species:S:1:pos:R:3 relative_energy_eV=0.0002357889388804324 branch=left pbc="F F F"
C        0.23860374      -0.22883768      -0.00867305
O        1.37881949      -1.00137185       0.30930204
O        0.29190182       0.56547636       2.21705022
C       -0.32720216      -0.41066816      -1.36608815
C       -0.25627014       0.51951442       0.98290856
O       -1.34589037       1.33073244       0.94344885
H        0.34138794      -0.02955330      -2.14568381
H       -1.71638840       1.34183065       0.05475596
H        1.03240098      -0.06144256       2.20789147
H       -0.49604694      -1.46958527      -1.57439055
H        2.13558122      -0.62842225      -0.16148509
H       -1.28741618       0.09288549      -1.49006384
12
Properties=species:S:1:pos:R:3 relative_energy_eV=0.0002496542401786428 branch=left pbc="F F F"
C        0.23837859      -0.22903286      -0.00850484
O        1.37828628      -1.00201067       0.30959530
O        0.29215972       0.56639325       2.21682947
C       -0.32694956      -0.41045915      -1.36621441
C       -0.25601148       0.52013387       0.98280456
O       -1.34564755       1.33119027       0.94337526
H        0.34100922      -0.02775814      -2.14576058
H       -1.71689584       1.34150231       0.05506175
H        1.03222774      -0.06115839       2.20822431
H       -0.49423146      -1.46947437      -1.57524856
H        2.13528291      -0.63026002      -0.16177781
H       -1.28812756       0.09149217      -1.48941185
12
Properties=species:S:1:pos:R:3 relative_energy_eV=0.00026651159168977756 branch=left pbc="F F F"
C        0.23809167      -0.22941521      -0.00814171
O        1.37763837      -1.00273345       0.31035778
O        0.29262055       0.56778123       2.21646164
C       -0.32651256      -0.41013566      -1.36622862
C       -0.25574682       0.52087216       0.98264808
O       -1.34532696       1.33186016       0.94309426
H        0.34051221      -0.02526304      -2.14565066
H       -1.71803370       1.34032514       0.05547794
H        1.03213215      -0.06058325       2.20847635
H       -0.49205872      -1.46916296      -1.57639921
H        2.13475521      -0.63320683      -0.16245473
H       -1.28859040       0.09021994      -1.48866853
12
Properties=species:S:1:pos:R:3 relative_energy_eV=0.00029454594368871767 branch=left pbc="F F F"
C        0.23774154      -0.23000661      -0.00756304
O        1.37681224      -1.00355781       0.31175575
O        0.29328656       0.56946070       2.21599427
C       -0.32591502      -0.40970649      -1.36608361
C       -0.25558362       0.52153173       0.98248679
O       -1.34490726       1.33277954       0.94255568
H        0.33981642      -0.02200023      -2.14522872
H       -1.71964267       1.33837537       0.05587749
H        1.03232240      -0.05957376       2.20843399
H       -0.48942037      -1.46864549      -1.57789930
H        2.13378217      -0.63715476      -0.16348540
H       -1.28881142       0.08905601      -1.48787130
12
Properties=species:S:1:pos:R:3 relative_energy_eV=0.00031358545129478443 branch=left pbc="F F F"
C        0.23742069      -0.23061440      -0.00701346
O        1.37602955      -1.00430833       0.31319899
O        0.29389192       0.57068512       2.21562487
C       -0.32545299      -0.40935205      -1.36586312
C       -0.25560781       0.52178193       0.98240578
O       -1.34451243       1.33360835       0.94196299
H        0.33907877      -0.01908040      -2.14464117
H       -1.72084252       1.33665437       0.05601450
H        1.03282318      -0.05846177       2.20805046
H       -0.48708529      -1.46817807      -1.57925399
H        2.13265310      -0.64039739      -0.16425927
H       -1.28891520       0.08822079      -1.48725394
12
Properties=species:S:1:pos:R:3 relative_energy_eV=0.0003333473014208721 branch=left pbc="F F F"
C        0.23718632      -0.23108484      -0.00664639
O        1.37541743      -1.00494739       0.31422137
O        0.29429264       0.57128284       2.21543641
C       -0.32524771      -0.40912655      -1.36568606
C       -0.25573822       0.52167830       0.98241997
O       -1.34419639       1.33417390       0.94148426
H        0.33850215      -0.01707521      -2.14408258
H       -1.72137088       1.33558076       0.05591546
H        1.03342625      -0.05751363       2.20758150
H       -0.48544252      -1.46789820      -1.58018676
H        2.13169826      -0.64225419      -0.16458335
H       -1.28904638       0.08774236      -1.48690121
12
Properties=species:S:1:pos:R:3 relative_energy_eV=0.0003524635067151394 branch=left pbc="F F F"
C        0.23698332      -0.23147783      -0.00643556
O        1.37491280      -1.00560707       0.31478068
O        0.29454775       0.57150989       2.21536515
C       -0.32527310      -0.40900177      -1.36559071
C       -0.25587991       0.52139650       0.98249296
O       -1.34388369       1.33456744       0.94109670
H        0.33801747      -0.01562563      -2.14357679
H       -1.72132452       1.33508018       0.05565722
H        1.03398464      -0.05677039       2.20719148
H       -0.48416447      -1.46781362      -1.58083844
H        2.13094258      -0.64303998      -0.16449673
H       -1.28938192       0.08734039      -1.48667331
12
Properties=species:S:1:pos:R:3 relative_energy_eV=0.0003700153738463996 branch=left pbc="F F F"
C        0.23670114      -0.23198207      -0.00629641
O        1.37438009      -1.00654495       0.31494497
O        0.29479842       0.57168563       2.21532273
C       -0.32554508      -0.40895582      -1.36557734
C       -0.25595253       0.52104089       0.98259832
O       -1.34336634       1.33502059       0.94066156
H        0.33737945      -0.01399134      -2.14299061
H       -1.72068897       1.33505286       0.05519478
H        1.03436691      -0.05625384       2.20698804
H       -0.48260331      -1.46794960      -1.58151030
H        2.13026777      -0.64309905      -0.16401242
H       -1.29025659       0.08653482      -1.48635067
12
Properties=species:S:1:pos:R:3 relative_energy_eV=0.0004005352657259209 branch=left pbc="F F F"
C        0.23618384      -0.23287039      -0.00619095
O        1.37384731      -1.00791564       0.31449729
O        0.29518125       0.57203886       2.21518746
C       -0.32623739      -0.40913372      -1.36564378
C       -0.25578488       0.52075249       0.98265127
O       -1.34228072       1.33585841       0.94002641
H        0.33604464      -0.01136382      -2.14222723
H       -1.71888907       1.33607592       0.05428943
H        1.03402983      -0.05658935       2.20723242
H       -0.47999943      -1.46852214      -1.58252668
H        2.12978653      -0.64204494      -0.16282066
H       -1.29240097       0.08427239      -1.48550232
12
Properties=species:S:1:pos:R:3 relative_energy_eV=0.00045949611012474634 branch=left pbc="F F F"
C        0.23552012      -0.23407396      -0.00613596
O        1.37367079      -1.00916126       0.31338978
O        0.29566487       0.57249684       2.21487224
C       -0.32730774      -0.40971195      -1.36568836
C       -0.25522345       0.52081459       0.98246796
O       -1.34052781       1.33726998       0.93918072
H        0.33356337      -0.00776939      -2.14153989
H       -1.71573120       1.33872024       0.05284193
H        1.03227527      -0.05871292       2.20811267
H       -0.47646493      -1.46957578      -1.58391498
H        2.12997110      -0.63959086      -0.16087542
H       -1.29592946       0.07985250      -1.48373803
12
Properties=species:S:1:pos:R:3 relative_energy_eV=0.0005116077663842589 branch=left pbc="F F F"
C        0.23502819      -0.23511699      -0.00616933
O        1.37401744      -1.00959365       0.31212278
O        0.29603137       0.57263998       2.21447493
C       -0.32837920      -0.41056792      -1.36559058
C       -0.25446413       0.52120009       0.98202957
O       -1.33864963       1.33890662       0.93830794
H        0.33036157      -0.00435253      -2.14125613
H       -1.71207970       1.34239007       0.05115453
H        1.02959124      -0.06221652       2.20921016
H       -0.47317674      -1.47073803      -1.58527360
H        2.13087662      -0.63641349      -0.15864180
H       -1.29967612       0.07442031      -1.48139579
12
Properties=species:S:1:pos:R:3 relative_energy_eV=0.0005659872167598223 branch=left pbc="F F F"
C        0.23484825      -0.23569786      -0.00625717
O        1.37461238      -1.00926883       0.31123781
O        0.29620284       0.57238412       2.21415813
C       -0.32913437      -0.41136866      -1.36535957
C       -0.25381441       0.52165140       0.98152904
O       -1.33720657       1.34030315       0.93758149
H        0.32741344      -0.00196369      -2.14131049
H       -1.70906784       1.34571878       0.04965940
H        1.02710758      -0.06570494       2.21004184
H       -0.47096391      -1.47160230      -1.58626461
H        2.13198164      -0.63364636      -0.15679792
H       -1.30249818       0.06975312      -1.47924525
12
Properties=species:S:1:pos:R:3 relative_energy_eV=0.00060046849102946 branch=left pbc="F F F"
C        0.23488917      -0.23587056      -0.00635422
O        1.37515658      -1.00863300       0.31080677
O        0.29623583       0.57189510       2.21398506
C       -0.32956054      -0.41194295      -1.36507596
C       -0.25339418       0.52198814       0.98112499
O       -1.33631205       1.34129615       0.93703318
H        0.32521865      -0.00060371      -2.14145796
H       -1.70702708       1.34805696       0.04851895
H        1.02539288      -0.06835195       2.21049052
H       -0.46976316      -1.47208591      -1.58685433
H        2.13284824      -0.63172340      -0.15556999
H       -1.30420351       0.06653303      -1.47767430
12
Properties=species:S:1:pos:R:3 relative_energy_eV=0.0006289259490586119 branch=left pbc="F F F"
C        0.23503855      -0.23578862      -0.00643369
O        1.37552130      -1.00802620       0.31067939
O        0.29620666       0.57135267       2.21394834
C       -0.32977599      -0.41227611      -1.36479064
C       -0.25314374       0.52221343       0.98085334
O       -1.33577892       1.34201534       0.93656818
H        0.32371375       0.00017448      -2.14153063
H       -1.70578387       1.34938975       0.04765961
H        1.02438879      -0.07010698       2.21070898
H       -0.46912059      -1.47227595      -1.58718878
H        2.13337063      -0.63059958      -0.15488388
H       -1.30515574       0.06448564      -1.47661750
12
Properties=species:S:1:pos:R:3 relative_energy_eV=0.0006454123340517981 branch=left pbc="F F F"
C        0.23525333      -0.23552993      -0.00650221
O        1.37570038      -1.00758093       0.31066296
O        0.29611832       0.57076522       2.21404669
C       -0.32990354      -0.41241998      -1.36450078
C       -0.25296259       0.52239464       0.98068524
O       -1.33537156       1.34267990       0.93603162
H        0.32258812       0.00080109      -2.14146440
H       -1.70499959       1.34996026       0.04689932
H        1.02385131      -0.07124760       2.21087793
H       -0.46861165      -1.47228004      -1.58740464
H        2.13360699      -0.63004317      -0.15454541
H       -1.30578867       0.06305840      -1.47581362
12
Properties=species:S:1:pos:R:3 relative_energy_eV=0.0006655928282270906 branch=left pbc="F F F"
C        0.23556680      -0.23508013      -0.00656430
O        1.37565398      -1.00746004       0.31065916
O        0.29591255       0.57016861       2.21433258
C       -0.32999166      -0.41233307      -1.36421407
C       -0.25274583       0.52263901       0.98060860
O       -1.33486965       1.34352771       0.93523853
H        0.32166102       0.00166331      -2.14123393
H       -1.70466204       1.34962190       0.04614983
H        1.02364269      -0.07182588       2.21121893
H       -0.46790855      -1.47211643      -1.58759244
H        2.13360160      -0.63019831      -0.15456758
H       -1.30638007       0.06195117      -1.47506259
12
Properties=species:S:1:pos:R:3 relative_energy_eV=0.0006864414554001996 branch=left pbc="F F F"
C        0.23597464      -0.23450664      -0.00665517
O        1.37543455      -1.00777152       0.31051446
O        0.29548203       0.56958539       2.21481065
C       -0.33009482      -0.41205272      -1.36402408
C       -0.25244600       0.52296600       0.98060775
O       -1.33415395       1.34458214       0.93419753
H        0.32083391       0.00285321      -2.14101572
H       -1.70466880       1.34856684       0.04547931
H        1.02362379      -0.07186552       2.21186184
H       -0.46688486      -1.47191361      -1.58774927
H        2.13349066      -0.63095165      -0.15478976
H       -1.30711032       0.06106590      -1.47426482
12
Properties=species:S:1:pos:R:3 relative_energy_eV=0.0007145078780013137 branch=left pbc="F F F"
C        0.23649467      -0.23391821      -0.00680678
O        1.37519707      -1.00843018       0.31025018
O        0.29477875       0.56909662       2.21539977
C       -0.33021991      -0.41166738      -1.36401650
C       -0.25203736       0.52336809       0.98062027
O       -1.33316758       1.34578438       0.93307305
H        0.31993632       0.00431150      -2.14112258
H       -1.70493934       1.34717554       0.04499036
H        1.02353973      -0.07156183       2.21282571
H       -0.46560339      -1.47179249      -1.58787950
H        2.13354372      -0.63210905      -0.15501254
H       -1.30804183       0.06030083      -1.47334873
12
Properties=species:S:1:pos:R:3 relative_energy_eV=0.0007448408941854723 branch=left pbc="F F F"
C        0.23711155      -0.23342589      -0.00710970
O        1.37521718      -1.00905138       0.30985350
O        0.29379796       0.56847681       2.21596235
C       -0.33045101      -0.41143732      -1.36421761
C       -0.25157316       0.52369635       0.98053936
O       -1.33199862       1.34691084       0.93212463
H        0.31855647       0.00567244      -2.14191120
H       -1.70482447       1.34658301       0.04462200
H        1.02310928      -0.07150250       2.21389957
H       -0.46428738      -1.47197031      -1.58793889
H        2.13406881      -0.63273214      -0.15463037
H       -1.30924574       0.05933788      -1.47222091
12
Properties=species:S:1:pos:R:3 relative_energy_eV=0.0007797443358867895 branch=left pbc="F F F"
C        0.23779682      -0.23308217      -0.00754928
O        1.37555986      -1.00936092       0.30953378
O        0.29271670       0.56775716       2.21637449
C       -0.33075013      -0.41143269      -1.36455062
C       -0.25111466       0.52386629       0.98031575
O       -1.33079578       1.34783320       0.93154043
H        0.31661563       0.00673030      -2.14335685
H       -1.70422307       1.34704718       0.04431976
H        1.02229983      -0.07191408       2.21486732
H       -0.46317372      -1.47237171      -1.58797841
H        2.13510137      -0.63261657      -0.15355238
H       -1.31055197       0.05810177      -1.47099127
12
Properties=species:S:1:pos:R:3 relative_energy_eV=0.0008144322946463944 branch=left pbc="F F F"
C        0.23837966      -0.23292303      -0.00807429
O        1.37616577      -1.00915516       0.30929480
O        0.29178802       0.56683179       2.21656090
C       -0.33112904      -0.41173560      -1.36488227
C       -0.25079732       0.52375320       0.97998862
O       -1.32987751       1.34831913       0.93140778
H        0.31434650       0.00714343      -2.14507366
H       -1.70284643       1.34885262       0.04398348
H        1.02133601      -0.07291108       2.21543791
H       -0.46251149      -1.47293706      -1.58798446
H        2.13637472      -0.63132863      -0.15177017
H       -1.31174800       0.05664815      -1.46991594
12
Properties=species:S:1:pos:R:3 relative_energy_eV=0.0008439311022812035 branch=left pbc="F F F"
C        0.23876283      -0.23289556      -0.00850158
O        1.37667359      -1.00876504       0.30926137
O        0.29122876       0.56609118       2.21658291
C       -0.33143206      -0.41206045      -1.36509909
C       -0.25062915       0.52350478       0.97969095
O       -1.32931890       1.34851359       0.93154605
H        0.31244109       0.00720477      -2.14642181
H       -1.70151923       1.35064735       0.04367866
H        1.02063279      -0.07383634       2.21568272
H       -0.46222480      -1.47331165      -1.58805456
H        2.13740931      -0.62996083      -0.15012034
H       -1.31254332       0.05542594      -1.46927257
12
Properties=species:S:1:pos:R:3 relative_energy_eV=0.0008643212368042441 branch=left pbc="F F F"
C        0.23888739      -0.23297748      -0.00882680
O        1.37701407      -1.00834691       0.30919859
O        0.29097738       0.56540485       2.21652365
C       -0.33171680      -0.41240369      -1.36521096
C       -0.25060282       0.52314990       0.97947933
O       -1.32911538       1.34844077       0.93179241
H        0.31101889       0.00695913      -2.14727538
H       -1.70012887       1.35245099       0.04338213
H        1.02029285      -0.07460431       2.21568981
H       -0.46218190      -1.47357401      -1.58813602
H        2.13807920      -0.62839525      -0.14861984
H       -1.31304309       0.05445375      -1.46902421
12
Properties=species:S:1:pos:R:3 relative_energy_eV=0.0008810045237623854 branch=left pbc="F F F"
C        0.23883023      -0.23314495      -0.00898490
O        1.37699060      -1.00830383       0.30920787
O        0.29095944       0.56509613       2.21645266
C       -0.33186419      -0.41250481      -1.36524925
C       -0.25062700       0.52283829       0.97937805
O       -1.32902096       1.34840792       0.93198677
H        0.31020144       0.00694804      -2.14758625
H       -1.69941069       1.35319943       0.04317240
H        1.02043736      -0.07466644       2.21570979
H       -0.46212115      -1.47348885      -1.58834675
H        2.13835501      -0.62769054      -0.14765903
H       -1.31324920       0.05386733      -1.46910866
12
Properties=species:S:1:pos:R:3 relative_energy_eV=0.0008988170975499088 branch=left pbc="F F F"
C        0.23846251      -0.23356962      -0.00913478
O        1.37674898      -1.00859629       0.30883225
O        0.29104566       0.56455366       2.21631776
C       -0.33209229      -0.41265041      -1.36529090
C       -0.25079694       0.52228519       0.97932822
O       -1.32911982       1.34816576       0.93215891
H        0.30947302       0.00689261      -2.14766047
H       -1.69823713       1.35450302       0.04289665
H        1.02106911      -0.07442425       2.21561598
H       -0.46208088      -1.47338771      -1.58858015
H        2.13848968      -0.62636154      -0.14615006
H       -1.31348100       0.05314732      -1.46936069
12
Properties=species:S:1:pos:R:3 relative_energy_eV=0.0009379911862197332 branch=left pbc="F F F"
C        0.23787833      -0.23432566      -0.00902163
O        1.37569367      -1.01037968       0.30832666
O        0.29133731       0.56477244       2.21605575
C       -0.33195384      -0.41214880      -1.36532801
C       -0.25110681       0.52171959       0.97938421
O       -1.32918199       1.34815013       0.93202256
H        0.30955868       0.00810759      -2.14708469
H       -1.69864016       1.35381681       0.04276756
H        1.02279693      -0.07231093       2.21545360
H       -0.46176115      -1.47253704      -1.58904391
H        2.13830366      -0.62712266      -0.14488332
H       -1.31344372       0.05281595      -1.46967606
12
Properties=species:S:1:pos:R:3 relative_energy_eV=0.0010145093219762202 branch=left pbc="F F F"
C        0.23746134      -0.23511593      -0.00896480
O        1.37466589      -1.01282700       0.30731003
O        0.29158002       0.56487456       2.21549815
C       -0.33169623      -0.41162533      -1.36541686
C       -0.25165841       0.52105805       0.97932955
O       -1.32960292       1.34770525       0.93160379
H        0.30980653       0.00973242      -2.14669385
H       -1.69898757       1.35412685       0.04262562
H        1.02461880      -0.07019965       2.21445091
H       -0.46161285      -1.47192138      -1.58902233
H        2.13851235      -0.62759587      -0.14258269
H       -1.31360605       0.05234576      -1.46916480
12
Properties=species:S:1:pos:R:3 relative_energy_eV=0.0011532591306604445 branch=left pbc="F F F"
C        0.23807444      -0.23515542      -0.00897512
O        1.37377360      -1.01558571       0.30701432
O        0.29193068       0.56593245       2.21455406
C       -0.33102048      -0.41062668      -1.36547012
C       -0.25212715       0.52096675       0.97899917
O       -1.33028393       1.34701196       0.93096013
H        0.31029599       0.01236586      -2.14665318
H       -1.70100053       1.35311369       0.04256903
H        1.02588158      -0.06822479       2.21231203
H       -0.46158015      -1.47113703      -1.58850256
H        2.13933414      -0.63042871      -0.14035083
H       -1.31379729       0.05232536      -1.46748420
12
Properties=species:S:1:pos:R:3 relative_energy_eV=0.0013473703365889378 branch=left pbc="F F F"
C        0.23959343      -0.23421267      -0.00960201
O        1.37384887      -1.01661911       0.30724912
O        0.29238771       0.56641307       2.21330539
C       -0.33082748      -0.41023376      -1.36553178
C       -0.25240641       0.52109199       0.97825400
O       -1.33166063       1.34519465       0.93074048
H        0.30952358       0.01388929      -2.14763216
H       -1.70109193       1.35470688       0.04215822
H        1.02572601      -0.06888843       2.20891916
H       -0.46202842      -1.47124996      -1.58735749
H        2.14108220      -0.63133294      -0.13649016
H       -1.31466604       0.05179872      -1.46504004
12
Properties=species:S:1:pos:R:3 relative_energy_eV=0.0016037949881138047 branch=left pbc="F F F"
C        0.24195642      -0.23201740      -0.01077436
O        1.37400777      -1.01634232       0.30881874
O        0.29343696       0.56728137       2.21174553
C       -0.33102503      -0.40975571      -1.36552830
C       -0.25215072       0.52179252       0.97719900
O       -1.33363579       1.34246268       0.93107844
H        0.30762792       0.01495126      -2.14898430
H       -1.70053120       1.35584769       0.04143425
H        1.02474905      -0.07089556       2.20473395
H       -0.46238624      -1.47122193      -1.58610438
H        2.14339566      -0.63281274      -0.13195443
H       -1.31596390       0.05126784      -1.46269139
12
Properties=species:S:1:pos:R:3 relative_energy_eV=0.0018711518623604206 branch=left pbc="F F F"
C        0.24327050      -0.23018832      -0.01223682
O        1.37390871      -1.01515897       0.30969547
O        0.29489429       0.56717003       2.21047348
C       -0.33220578      -0.40988532      -1.36571382
C       -0.25173760       0.52205305       0.97634662
O       -1.33599768       1.33897922       0.93212402
H        0.30499576       0.01453731      -2.15010720
H       -1.69692229       1.35899284       0.04031870
H        1.02447260      -0.07335750       2.20114306
H       -0.46243496      -1.47161220      -1.58537885
H        2.14505172      -0.63119471      -0.12586530
H       -1.31781438       0.05022226      -1.46182664
12
Properties=species:S:1:pos:R:3 relative_energy_eV=0.0021339501327020116 branch=left pbc="F F F"
C        0.24381410      -0.22843050      -0.01333166
O        1.37239608      -1.01475922       0.31117736
O        0.29664728       0.56763328       2.20937391
C       -0.33325671      -0.40926982      -1.36582020
C       -0.25088146       0.52281275       0.97579869
O       -1.33806262       1.33604650       0.93307120
H        0.30292096       0.01465576      -2.15031522
H       -1.69468292       1.35856701       0.03921555
H        1.02520395      -0.07400935       2.19865692
H       -0.46149356      -1.47093636      -1.58513361
H        2.14605964      -0.63183013      -0.12171980
H       -1.31918384       0.05007777      -1.46200041
12
Properties=species:S:1:pos:R:3 relative_energy_eV=0.002432874423902831 branch=left pbc="F F F"
C        0.24194156      -0.22888804      -0.01415535
O        1.37036981      -1.01508640       0.31023228
O        0.29848767       0.56630357       2.20879571
C       -0.33515587      -0.40951943      -1.36639575
C       -0.25044219       0.52240193       0.97566795
O       -1.34028263       1.33255672       0.93433794
H        0.30133968       0.01399922      -2.14998277
H       -1.68944085       1.36182405       0.03748341
H        1.02851120      -0.07342383       2.19664470
H       -0.46020391      -1.47125273      -1.58571056
H        2.14541167      -0.62790281      -0.11480925
H       -1.32105521       0.04954547      -1.46313558
12
Properties=species:S:1:pos:R:3 relative_energy_eV=0.002774960779788671 branch=left pbc="F F F"
C        0.24016627      -0.22958966      -0.01412706
O        1.36794700      -1.01670248       0.31013877
O        0.29972278       0.56526394       2.20826201
C       -0.33602014      -0.40918595      -1.36653141
C       -0.24991357       0.52269215       0.97551008
O       -1.34164370       1.33045921       0.93476067
H        0.30069797       0.01433819      -2.14957148
H       -1.68782171       1.36240022       0.03568335
H        1.03180630      -0.07191026       2.19504255
H       -0.45840287      -1.47099548      -1.58598473
H        2.14464734      -0.62655113      -0.11115136
H       -1.32170474       0.05033897      -1.46305865
12
Properties=species:S:1:pos:R:3 relative_energy_eV=0.0030983894102973863 branch=left pbc="F F F"
C        0.23878917      -0.23050487      -0.01501648
O        1.36980144      -1.01388040       0.30690822
O        0.29822659       0.55851091       2.20800263
C       -0.33802519      -0.41251521      -1.36655531
C       -0.25059116       0.52110331       0.97494575
O       -1.34299930       1.32794697       0.93504435
H        0.29744055       0.00913557      -2.15171618
H       -1.67713096       1.37741174       0.03390232
H        1.03072861      -0.07824374       2.19327514
H       -0.45916007      -1.47496252      -1.58372775
H        2.14586766      -0.61110377      -0.10483717
H       -1.32346637       0.04765972      -1.46125277
12
Properties=species:S:1:pos:R:3 relative_energy_eV=0.0035596264406194678 branch=left pbc="F F F"
C        0.23847363      -0.23178359      -0.01501288
O        1.37216624      -1.01340626       0.30462322
O        0.29774076       0.55405425       2.20776262
C       -0.33870717      -0.41517445      -1.36590838
C       -0.25146198       0.51999235       0.97439559
O       -1.34401424       1.32626767       0.93553883
H        0.29449580       0.00515170      -2.15445314
H       -1.67243904       1.39044473       0.03149447
H        1.02994737      -0.08366420       2.19121688
H       -0.45939303      -1.47830570      -1.58260706
H        2.14623115      -0.59961059      -0.09985999
H       -1.32355853       0.04659180      -1.45821742
12
Properties=species:S:1:pos:R:3 relative_energy_eV=0.004324868765252177 branch=left pbc="F F F"
C        0.24003121      -0.23132848      -0.01656555
O        1.37914794      -1.00686300       0.30021155
O        0.29471322       0.54534663       2.20780959
C       -0.34045581      -0.42104440      -1.36508812
C       -0.25349076       0.51725505       0.97364803
O       -1.34512147       1.32456569       0.93625956
H        0.28827585      -0.00462261      -2.15986472
H       -1.65842999       1.41523282       0.02994683
H        1.02275713      -0.09795255       2.18937276
H       -0.46263838      -1.48514934      -1.57869255
H        2.14963367      -0.57636023      -0.09366291
H       -1.32494162       0.04147815      -1.45440171
12
Properties=species:S:1:pos:R:3 relative_energy_eV=0.0055079271351132775 branch=left pbc="F F F"
C        0.24273612      -0.22918588      -0.01859082
O        1.38680324      -0.99842975       0.29698206
O        0.29269183       0.53848076       2.20823469
C       -0.34189042      -0.42659558      -1.36443726
C       -0.25607066       0.51425190       0.97377424
O       -1.34643586       1.32346103       0.93800187
H        0.28121457      -0.01462421      -2.16609643
H       -1.64419500       1.43771988       0.02848323
H        1.01395319      -0.11342602       2.18775078
H       -0.46666256      -1.49141953      -1.57504786
H        2.15358717      -0.55522033      -0.08833833
H       -1.32625059       0.03554545      -1.45174340
12
Properties=species:S:1:pos:R:3 relative_energy_eV=0.00685726623305527 branch=left pbc="F F F"
C        0.24521324      -0.22552407      -0.02046342
O        1.39196661      -0.98959824       0.29684897
O        0.29181379       0.53431488       2.20881974
C       -0.34282064      -0.43004760      -1.36451006
C       -0.25838366       0.51196166       0.97509609
O       -1.34768380       1.32330233       0.93996918
H        0.27519308      -0.02175909      -2.17135012
H       -1.63196204       1.45033154       0.02692213
H        1.00649129      -0.12586863       2.18627670
H       -0.47029280      -1.49501368      -1.57178804
H        2.15749109      -0.54175743      -0.08586452
H       -1.32754511       0.03021606      -1.45098391
12
Properties=species:S:1:pos:R:3 relative_energy_eV=0.008240015331466566 branch=left pbc="F F F"
C        0.24487278      -0.22366312      -0.02092269
O        1.39260284      -0.98400716       0.30097541
O        0.29262837       0.53263463       2.20956306
C       -0.34288389      -0.43063249      -1.36558277
C       -0.26036571       0.51036331       0.97738357
O       -1.34845684       1.32416492       0.94160209
H        0.27286793      -0.02243631      -2.17394357
H       -1.62574849       1.45059696       0.02392432
H        1.00596654      -0.12973818       2.18316367
H       -0.47294546      -1.49538204      -1.57127315
H        2.15924933      -0.53877752      -0.08483798
H       -1.32830637       0.02743475      -1.45107922
12
Properties=species:S:1:pos:R:3 relative_energy_eV=0.009561788245264324 branch=left pbc="F F F"
C        0.24071625      -0.22544933      -0.02330446
O        1.39645084      -0.97409177       0.29519073
O        0.28984149       0.52309305       2.21121753
C       -0.34672234      -0.43553028      -1.36844380
C       -0.26276527       0.50531051       0.97872266
O       -1.34919917       1.32253675       0.94223131
H        0.27117975      -0.02844729      -2.17592647
H       -1.60337124       1.46870225       0.02371279
H        1.00476386      -0.13702540       2.18304175
H       -0.47776725      -1.50134543      -1.56809971
H        2.15951314      -0.51694008      -0.07595396
H       -1.33315898       0.01974476      -1.45341560
12
Properties=species:S:1:pos:R:3 relative_energy_eV=0.011571524457394844 branch=left pbc="F F F"
C        0.23447077      -0.23247465      -0.02271913
O        1.39737106      -0.96846780       0.29784987
O        0.28496368       0.51056334       2.21169479
C       -0.34908341      -0.43983288      -1.37061547
C       -0.26549135       0.50091389       0.97876454
O       -1.34726814       1.32346468       0.94132238
H        0.27355275      -0.02739567      -2.17305094
H       -1.59064190       1.48056076       0.02019626
H        1.01213807      -0.13485785       2.17487319
H       -0.48434342      -1.50555235      -1.57108206
H        2.16008892      -0.50188744      -0.06796798
H       -1.33627593       0.01552373      -1.45029269
12
Properties=species:S:1:pos:R:3 relative_energy_eV=0.013724818418268114 branch=left pbc="F F F"
C        0.23034997      -0.23893973      -0.02361230
O        1.40180036      -0.96369713       0.29262219
O        0.27917862       0.49857169       2.21180351
C       -0.35248076      -0.44581847      -1.37185995
C       -0.26656542       0.49698775       0.97657463
O       -1.34568244       1.32216497       0.93955461
H        0.27470081      -0.03140748      -2.17101578
H       -1.57641775       1.50230410       0.02118826
H        1.01354726      -0.13739517       2.17245098
H       -0.48961737      -1.51217351      -1.57144160
H        2.16050346      -0.48062847      -0.05899302
H       -1.33983560       0.01058923      -1.44829876
12
Properties=species:S:1:pos:R:3 relative_energy_eV=0.015784593024363858 branch=left pbc="F F F"
C        0.22870561      -0.24533671      -0.02393712
O        1.40679707      -0.96250496       0.28808149
O        0.27358054       0.48939914       2.21120544
C       -0.35518959      -0.45150474      -1.37141046
C       -0.26682483       0.49424898       0.97307055
O       -1.34382184       1.32090666       0.93780556
H        0.27544695      -0.03547339      -2.16788089
H       -1.56902435       1.52324174       0.02319435
H        1.01424601      -0.13904491       2.17010323
H       -0.49400404      -1.51769641      -1.57414202
H        2.16161933      -0.46313232      -0.05139067
H       -1.34204970       0.00745470      -1.44572668
12
Properties=species:S:1:pos:R:3 relative_energy_eV=0.017490907423052704 branch=left pbc="F F F"
C        0.22962384      -0.24843724      -0.02523992
O        1.41280923      -0.96127089       0.28141023
O        0.26917791       0.48366643       2.21064247
C       -0.35789939      -0.45666751      -1.37016900
C       -0.26646357       0.49233583       0.96964508
O       -1.34307912       1.31909506       0.93680172
H        0.27409667      -0.04220642      -2.16612527
H       -1.56191734       1.54336354       0.02710517
H        1.01051758      -0.14389708       2.17101090
H       -0.49680701      -1.52254538      -1.57540075
H        2.16346252      -0.44707818      -0.04552510
H       -1.34404015       0.00419961      -1.44518275
12
Properties=species:S:1:pos:R:3 relative_energy_eV=0.019137126904752222 branch=left pbc="F F F"
C        0.23126373      -0.25051643      -0.02647763
O        1.41769555      -0.96170245       0.27529490
O        0.26679538       0.48146329       2.21003652
C       -0.36068886      -0.46101428      -1.36858544
C       -0.26629784       0.49056874       0.96705335
O       -1.34332814       1.31708752       0.93758012
H        0.27212430      -0.04878139      -2.16365979
H       -1.55662544       1.55953142       0.03111502
H        1.00776348      -0.14685892       2.17232497
H       -0.49866748      -1.52576649      -1.57932537
H        2.16520112      -0.43489397      -0.03933243
H       -1.34575463       0.00144075      -1.44705141
12
Properties=species:S:1:pos:R:3 relative_energy_eV=0.020721940625662683 branch=left pbc="F F F"
C        0.23281774      -0.24994685      -0.02834682
O        1.42120085      -0.96093248       0.26850699
O        0.26578234       0.48118864       2.20953617
C       -0.36370464      -0.46460850      -1.36753421
C       -0.26639481       0.48884920       0.96621991
O       -1.34479956       1.31504255       0.93965705
H        0.26923885      -0.05599224      -2.16177491
H       -1.54850036       1.57137795       0.03527723
H        1.00421077      -0.15006344       2.17506510
H       -0.49943189      -1.52802762      -1.58260118
H        2.16688520      -0.42461001      -0.03372923
H       -1.34782328      -0.00171942      -1.45130327
12
Properties=species:S:1:pos:R:3 relative_energy_eV=0.02221714072220493 branch=left pbc="F F F"
C        0.23155881      -0.25052789      -0.02928582
O        1.41993473      -0.96300082       0.26339383
O        0.26842149       0.48438474       2.20927594
C       -0.36643462      -0.46633734      -1.36796662
C       -0.26723152       0.48693273       0.96756805
O       -1.34706651       1.31242376       0.94344908
H        0.26850477      -0.05884726      -2.15910339
H       -1.54275583       1.57509221       0.03768731
H        1.00712281      -0.14672477       2.17755230
H       -0.49909688      -1.52863332      -1.58912178
H        2.16602715      -0.42069448      -0.02640430
H       -1.34950318      -0.00350979      -1.45807176
12
Properties=species:S:1:pos:R:3 relative_energy_eV=0.023483613405915094 branch=left pbc="F F F"
C        0.22976081      -0.24906325      -0.03056703
O        1.41802440      -0.96237505       0.25713783
O        0.26988519       0.48576341       2.20934095
C       -0.36850007      -0.46753062      -1.36910274
C       -0.26787582       0.48522408       0.97020351
O       -1.34882795       1.31043365       0.94598098
H        0.26758681      -0.06203771      -2.15823133
H       -1.53393167       1.57704158       0.03941224
H        1.00762963      -0.14583797       2.18089149
H       -0.49792079      -1.52962481      -1.59067753
H        2.16492896      -0.41600331      -0.02183850
H       -1.35127828      -0.00543220      -1.46357702
12
Properties=species:S:1:pos:R:3 relative_energy_eV=0.025271771586631075 branch=left pbc="F F F"
C        0.22422029      -0.25045609      -0.03088309
O        1.41173578      -0.96526513       0.24861505
O        0.27438595       0.48930145       2.21082380
C       -0.37056428      -0.46730940      -1.37181030
C       -0.26920537       0.48260443       0.97444364
O       -1.35035580       1.30671756       0.94876289
H        0.26971330      -0.06165836      -2.15775387
H       -1.52642565       1.57637286       0.03975755
H        1.01421491      -0.13964784       2.18567105
H       -0.49508506      -1.53074837      -1.59300597
H        2.15981425      -0.41311492      -0.01452012
H       -1.35296707      -0.00623836      -1.47112778
12
Properties=species:S:1:pos:R:3 relative_energy_eV=0.028015557565595373 branch=left pbc="F F F"
C        0.22012756      -0.24951468      -0.03228819
O        1.40892944      -0.96332221       0.23426019
O        0.27424951       0.48756264       2.21400062
C       -0.37228722      -0.46770548      -1.37387272
C       -0.26954797       0.47960130       0.97842524
O       -1.34993847       1.30364136       0.94792653
H        0.27009952      -0.06618407      -2.16118215
H       -1.51291202       1.58335825       0.04034138
H        1.01202668      -0.14287492       2.19299909
H       -0.49102484      -1.53407888      -1.58438073
H        2.15514267      -0.40142657      -0.01181342
H       -1.35538360      -0.00849892      -1.47544297
12
Properties=species:S:1:pos:R:3 relative_energy_eV=0.032532807512325235 branch=left pbc="F F F"
C        0.21850802      -0.24907534      -0.03435515
O        1.41116549      -0.96000620       0.21571090
O        0.27271853       0.48350569       2.21949861
C       -0.37410688      -0.46812710      -1.37513258
C       -0.26872442       0.47687147       0.97924631
O       -1.34847186       1.29989500       0.94439309
H        0.26937346      -0.07464503      -2.16941148
H       -1.49923983       1.60068019       0.04190882
H        1.00179129      -0.15500816       2.20411720
H       -0.48632444      -1.53912485      -1.56701143
H        2.15118976      -0.38232381      -0.01222303
H       -1.35839787      -0.01208402      -1.47776839
12
Properties=species:S:1:pos:R:3 relative_energy_eV=0.035044126194407 branch=left pbc="F F F"
C        0.22089588      -0.24657974      -0.03645136
O        1.41680262      -0.95521765       0.20689969
O        0.26996147       0.47924229       2.22184187
C       -0.37483703      -0.46910715      -1.37479896
C       -0.26745305       0.47660603       0.97760308
O       -1.34817535       1.29927255       0.94198924
H        0.26651774      -0.08265994      -2.17526638
H       -1.49114713       1.61350075       0.04407474
H        0.98907694      -0.16773371       2.21009485
H       -0.48483849      -1.54220091      -1.55459023
H        2.15289170      -0.36960073      -0.01578535
H       -1.36021406      -0.01496393      -1.47663831
12
Properties=species:S:1:pos:R:3 relative_energy_eV=0.03745412833450246 branch=left pbc="F F F"
C        0.22305341      -0.24507815      -0.03707910
O        1.42383230      -0.95219820       0.20017827
O        0.26182887       0.47217307       2.22310990
C       -0.37613596      -0.46879454      -1.37365686
C       -0.26680617       0.47558822       0.97490535
O       -1.34778558       1.30149123       0.94036999
H        0.26430161      -0.08864602      -2.17875670
H       -1.48085203       1.62288111       0.04233483
H        0.98271926      -0.18003590       2.21451501
H       -0.48263516      -1.54306802      -1.53982769
H        2.15114556      -0.35603917      -0.02118479
H       -1.36318485      -0.01771577      -1.47593533
12
Properties=species:S:1:pos:R:3 relative_energy_eV=0.04147692699916661 branch=left pbc="F F F"
C        0.22939985      -0.24062742      -0.04162198
O        1.43455363      -0.94665642       0.19509181
O        0.26235252       0.47039479       2.22150612
C       -0.37713990      -0.47025397      -1.37471525
C       -0.26344556       0.47853276       0.96867579
O       -1.35281558       1.30034596       0.94217238
H        0.25881189      -0.09880348      -2.18703919
H       -1.47315073       1.63893544       0.04800572
H        0.96375807      -0.19926264       2.22623317
H       -0.48362374      -1.54669053      -1.52654829
H        2.15724277      -0.34274409      -0.02535655
H       -1.36646194      -0.02261253      -1.47743085
12
Properties=species:S:1:pos:R:3 relative_energy_eV=0.048432935458549764 branch=left pbc="F F F"
C        0.23490535      -0.23328730      -0.04772853
O        1.44075369      -0.94094753       0.19436917
O        0.26571396       0.47291606       2.21433503
C       -0.37817549      -0.47263432      -1.37845090
C       -0.25894047       0.48224638       0.96346393
O       -1.35921386       1.29639930       0.94680214
H        0.25379973      -0.10393145      -2.19364237
H       -1.46436765       1.64877903       0.05489469
H        0.95102973      -0.21580938       2.24270701
H       -0.48700921      -1.55037229      -1.51687955
H        2.16058696      -0.33422838      -0.02634725
H       -1.36960145      -0.02857228      -1.48455050
12
Properties=species:S:1:pos:R:3 relative_energy_eV=0.057603364144597435 branch=left pbc="F F F"
C        0.24005026      -0.22553711      -0.05575308
O        1.44119629      -0.93601773       0.19728498
O        0.28046605       0.48415080       2.20545734
C       -0.37832909      -0.47657709      -1.38489418
C       -0.25322692       0.48793278       0.95939074
O       -1.36572539       1.28556576       0.95282134
H        0.24951002      -0.10504629      -2.20108312
H       -1.46441217       1.65767887       0.06643703
H        0.93859196      -0.22696779       2.26316791
H       -0.49370428      -1.55563390      -1.51681900
H        2.16539813      -0.33440086      -0.02117242
H       -1.37033357      -0.03458960      -1.49586468
12
Properties=species:S:1:pos:R:3 relative_energy_eV=0.06945157514564926 branch=left pbc="F F F"
C        0.24659791      -0.21421678      -0.06518429
O        1.44044581      -0.92532333       0.19957775
O        0.29298361       0.49399693       2.19826185
C       -0.37786480      -0.48239688      -1.38960674
C       -0.24703914       0.49263591       0.95780147
O       -1.36688085       1.27351732       0.95404264
H        0.24338358      -0.10788996      -2.20885660
H       -1.46412638       1.66902747       0.07900813
H        0.92125909      -0.24147861       2.28190142
H       -0.50164310      -1.56200033      -1.51550530
H        2.17139517      -0.33371215      -0.01772236
H       -1.36902960      -0.04160172      -1.50474513
12
Properties=species:S:1:pos:R:3 relative_energy_eV=0.08130436281317088 branch=left pbc="F F F"
C        0.25477001      -0.20399495      -0.07292084
O        1.44386734      -0.91166068       0.19855531
O        0.29831527       0.49709214       2.19740121
C       -0.37702803      -0.48777582      -1.38958983
C       -0.24219766       0.49505363       0.95675579
O       -1.36225326       1.26504434       0.94980676
H        0.23571920      -0.11600430      -2.21670327
H       -1.46438439       1.68602638       0.08840843
H        0.89764407      -0.25975250       2.29254567
H       -0.50764927      -1.56753673      -1.50962684
H        2.17953950      -0.32801997      -0.01958170
H       -1.36686148      -0.04791368      -1.50607786
12
Properties=species:S:1:pos:R:3 relative_energy_eV=0.09427413649427763 branch=left pbc="F F F"
C        0.26668691      -0.19056324      -0.07948593
O        1.45642863      -0.88986111       0.19169243
O        0.28930453       0.48806229       2.20208130
C       -0.37641924      -0.49290090      -1.38354786
C       -0.23867351       0.49501765       0.95566720
O       -1.35291569       1.26428677       0.93964893
H        0.22361782      -0.13528035      -2.22575420
H       -1.45548964       1.71046488       0.09467915
H        0.86067707      -0.29049356       2.29454966
H       -0.51087337      -1.57289433      -1.49161690
H        2.19271211      -0.31021180      -0.03190786
H       -1.36557432      -0.05506847      -1.49703306
12
Properties=species:S:1:pos:R:3 relative_energy_eV=0.11513260056381114 branch=left pbc="F F F"
C        0.28538032      -0.17223296      -0.08366078
O        1.48461317      -0.85660230       0.17742138
O        0.26463819       0.46254103       2.21277121
C       -0.37617109      -0.49747368      -1.37132410
C       -0.23641897       0.49447847       0.95337207
O       -1.34000112       1.27203069       0.92472566
H        0.20373763      -0.17227712      -2.23843245
H       -1.43431547       1.74879740       0.09745376
H        0.80035345      -0.34046693       2.28779952
H       -0.51120021      -1.57861007      -1.45702967
H        2.21621835      -0.27508766      -0.05825030
H       -1.36735295      -0.06453901      -1.47587347
12
Properties=species:S:1:pos:R:3 relative_energy_eV=0.138789657414236 branch=left pbc="F F F"
C        0.30124561      -0.15627944      -0.08375458
O        1.51501500      -0.82737842       0.16364997
O        0.23850325       0.43575646       2.22231702
C       -0.37714572      -0.49991495      -1.36055321
C       -0.23606989       0.49581322       0.95147887
O       -1.33392708       1.28418985       0.91424675
H        0.18564370      -0.20903518      -2.24984171
H       -1.40866284       1.78005268       0.09766130
H        0.74615074      -0.38664740       2.27814813
H       -0.50924746      -1.58256204      -1.42443751
H        2.24067803      -0.24117323      -0.08449787
H       -1.37270201      -0.07226369      -1.45544434
12
Properties=species:S:1:pos:R:3 relative_energy_eV=0.159860261130234 branch=left pbc="F F F"
C        0.31149569      -0.14668938      -0.08216678
O        1.53952453      -0.80893091       0.15369565
O        0.22093690       0.41700326       2.22744724
C       -0.37878609      -0.50136504      -1.35446695
C       -0.23648831       0.50058815       0.94950616
O       -1.33640724       1.29472242       0.91203540
H        0.17371838      -0.23638209      -2.25892304
H       -1.38882678       1.80036832       0.09750042
H        0.70813132      -0.41870113       2.27107588
H       -0.50688996      -1.58560584      -1.40347133
H        2.26167037      -0.21807275      -0.10270493
H       -1.37859747      -0.07637716      -1.44055488
12
Properties=species:S:1:pos:R:3 relative_energy_eV=0.17776597969350405 branch=left pbc="F F F"
C        0.31680721      -0.14027484      -0.08208954
O        1.55589260      -0.79720157       0.14649942
O        0.21034472       0.40553384       2.22762966
C       -0.38037732      -0.50381664      -1.35249418
C       -0.23732218       0.50779082       0.94820065
O       -1.34450124       1.30312780       0.91599843
H        0.16722663      -0.25424834      -2.26533326
H       -1.37224604       1.80933631       0.09854968
H        0.68403388      -0.43831113       2.26752688
H       -0.50486304      -1.58881661      -1.39204170
H        2.27769643      -0.20508749      -0.11345799
H       -1.38321029      -0.07747431      -1.43001522
12
Properties=species:S:1:pos:R:3 relative_energy_eV=0.1938896993851813 branch=left pbc="F F F"
C        0.32062342      -0.13789522      -0.08688713
O        1.56458845      -0.79125266       0.13931997
O        0.20525611       0.40209921       2.22385715
C       -0.38004602      -0.50855436      -1.35367132
C       -0.23728912       0.51627200       0.94470963
O       -1.35415144       1.30799758       0.92483456
H        0.16539245      -0.26448558      -2.26983101
H       -1.36572347       1.81635153       0.10195384
H        0.66774158      -0.44986391       2.26824637
H       -0.50392962      -1.59529543      -1.38790523
H        2.28934578      -0.20000491      -0.11785045
H       -1.38232677      -0.07481039      -1.41780354
12
Properties=species:S:1:pos:R:3 relative_energy_eV=0.21343654491101915 branch=left pbc="F F F"
C        0.32539888      -0.12678245      -0.09793710
O        1.56949148      -0.77555881       0.12788074
O        0.18741961       0.38299205       2.21779945
C       -0.37992499      -0.51621650      -1.35243975
C       -0.24071141       0.52267238       0.94179567
O       -1.35696068       1.31914730       0.92966767
H        0.16310448      -0.27455664      -2.27012246
H       -1.34235794       1.81652037       0.10341056
H        0.64938278      -0.46266404       2.26772865
H       -0.50225065      -1.60516209      -1.37176101
H        2.29457394      -0.18727109      -0.12899376
H       -1.37768415      -0.07256259      -1.39805582
12
Properties=species:S:1:pos:R:3 relative_energy_eV=0.24037496189339436 branch=left pbc="F F F"
C        0.33410452      -0.11766682      -0.11379775
O        1.57239142      -0.76461891       0.11134552
O        0.16153782       0.36567048       2.20953403
C       -0.37482699      -0.52807718      -1.34977354
C       -0.24137280       0.52253215       0.93209765
O       -1.34782101       1.32792265       0.93157403
H        0.16301096      -0.28144253      -2.26821204
H       -1.33688224       1.83442335       0.10284316
H        0.63022395      -0.48083928       2.26955667
H       -0.50174294      -1.62100579      -1.35020558
H        2.29287107      -0.17006258      -0.14207855
H       -1.36201241      -0.06627768      -1.36391074
12
Properties=species:S:1:pos:R:3 relative_energy_eV=0.27178147475933656 branch=left pbc="F F F"
C        0.34223204      -0.10224163      -0.12454431
O        1.57521428      -0.74737311       0.09734261
O        0.12730095       0.33265083       2.20682731
C       -0.37197357      -0.53587523      -1.34198220
C       -0.24521122       0.51455517       0.92690484
O       -1.32819463       1.34187837       0.92007718
H        0.15994083      -0.28816098      -2.26268322
H       -1.31651682       1.84452088       0.09664758
H        0.61436733      -0.49841455       2.26598061
H       -0.50021337      -1.63115606      -1.31771053
H        2.28334071      -0.14447281      -0.16217855
H       -1.35080517      -0.06535299      -1.33570846
12
Properties=species:S:1:pos:R:3 relative_energy_eV=0.30414974237828574 branch=left pbc="F F F"
C        0.34990181      -0.09383950      -0.12788459
O        1.58036741      -0.73831027       0.08804758
O        0.09741892       0.30628419       2.20857455
C       -0.36806238      -0.53967494      -1.33315635
C       -0.24615025       0.50250895       0.92173404
O       -1.30570313       1.35178574       0.90429773
H        0.15679503      -0.29231293      -2.25754732
H       -1.30977847       1.86150995       0.08711587
H        0.60541877      -0.51503002       2.26156416
H       -0.49914651      -1.63599831      -1.28905232
H        2.27145649      -0.12078905      -0.17992180
H       -1.34303632      -0.06557592      -1.31479868
12
Properties=species:S:1:pos:R:3 relative_energy_eV=0.3393539356402471 branch=left pbc="F F F"
C        0.35608513      -0.08775574      -0.12326574
O        1.58946727      -0.72907625       0.08444826
O        0.06756016       0.27441205       2.21603833
C       -0.36657528      -0.53764756      -1.32189027
C       -0.24742333       0.48973425       0.92062391
O       -1.28319275       1.36300299       0.88356674
H        0.15102290      -0.29715661      -2.25192141
H       -1.29609338       1.87370736       0.07193629
H        0.60167977      -0.53065645       2.25334635
H       -0.49705742      -1.63283530      -1.25853530
H        2.25848481      -0.09489193      -0.19975753
H       -1.34447651      -0.07027893      -1.30561676
12
Properties=species:S:1:pos:R:3 relative_energy_eV=0.37986255886971776 branch=left pbc="F F F"
C        0.36010878      -0.08518957      -0.11186425
O        1.60339999      -0.71975068       0.08633617
O        0.03663350       0.23959929       2.22604082
C       -0.36809868      -0.53070553      -1.30959671
C       -0.24782536       0.47942500       0.92461047
O       -1.26365352       1.37421320       0.86325752
H        0.14278215      -0.30324497      -2.24609861
H       -1.27495011       1.88174576       0.04989951
H        0.60330790      -0.54685870       2.24218218
H       -0.49373733      -1.62204710      -1.22733643
H        2.24640970      -0.06779400      -0.22103321
H       -1.35489565      -0.07883483      -1.30742458
12
Properties=species:S:1:pos:R:3 relative_energy_eV=0.4404308659322851 branch=left pbc="F F F"
C        0.36108458      -0.08211374      -0.09458705
O        1.62363200      -0.70296499       0.09367814
O       -0.00097591       0.19059925       2.23799829
C       -0.37541422      -0.51819205      -1.29520961
C       -0.25031582       0.47398945       0.93851679
O       -1.24594647       1.38825010       0.84365426
H        0.13003053      -0.31273457      -2.23843761
H       -1.23055560       1.87871235       0.01643610
H        0.60840955      -0.56404929       2.22565991
H       -0.48796216      -1.60192073      -1.18895327
H        2.23432643      -0.03523287      -0.24809290
H       -1.37683155      -0.09378506      -1.32169013
12
Properties=species:S:1:pos:R:3 relative_energy_eV=0.5026738593751361 branch=left pbc="F F F"
C        0.35981311      -0.07790689      -0.08319112
O        1.63764613      -0.68440415       0.10104560
O       -0.03027686       0.15158038       2.24526283
C       -0.38393516      -0.50753560      -1.28509616
C       -0.25456702       0.47476574       0.95596349
O       -1.23742951       1.39948158       0.83439728
H        0.11915805      -0.32107891      -2.23217944
H       -1.18186221       1.86519693      -0.01168761
H        0.61395078      -0.57602796       2.21177967
H       -0.48263909      -1.58441692      -1.16011278
H        2.22739773      -0.01182091      -0.26877355
H       -1.39777456      -0.10727544      -1.33843529
12
Properties=species:S:1:pos:R:3 relative_energy_eV=0.6052262696284743 branch=left pbc="F F F"
C        0.35680458      -0.06570618      -0.07723283
O        1.64366165      -0.65320892       0.10941401
O       -0.06128390       0.10764408       2.24960904
C       -0.39595248      -0.49554140      -1.27492852
C       -0.26566693       0.48109236       0.98245955
O       -1.23448465       1.41162830       0.83479146
H        0.10674932      -0.33129772      -2.22482841
H       -1.10371163       1.83106664      -0.04346805
H        0.61948667      -0.58570924       2.19601755
H       -0.47619328      -1.56683911      -1.12985784
H        2.22389794       0.01136383      -0.29112077
H       -1.42382591      -0.12393476      -1.36188225
12
Properties=species:S:1:pos:R:3 relative_energy_eV=0.6889614223127865 branch=left pbc="F F F"
C        0.35300005      -0.04752635      -0.07775636
O        1.63758918      -0.62705434       0.11269798
O       -0.07843238       0.08473114       2.25093174
C       -0.40406393      -0.48952092      -1.27026241
C       -0.27721683       0.48455787       0.99764853
O       -1.23595831       1.41960833       0.83913303
H        0.10019353      -0.33744605      -2.22055779
H       -1.04146619       1.79553837      -0.05656825
H        0.62227313      -0.58966469       2.18748671
H       -0.47275850      -1.56094289      -1.11431353
H        2.22477808       0.02229139      -0.30316390
H       -1.43845645      -0.13401399      -1.37630277
12
Properties=species:S:1:pos:R:3 relative_energy_eV=0.782235608483461 branch=left pbc="F F F"
C        0.34385850      -0.00917144      -0.08161719
O        1.61896379      -0.59119442       0.11287141
O       -0.09321456       0.06512996       2.25427452
C       -0.41363856      -0.48669345      -1.26781669
C       -0.29423786       0.48332871       1.00738322
O       -1.23958316       1.43176754       0.84127904
H        0.09512299      -0.34341081      -2.21676170
H       -0.95992923       1.73765460      -0.05547603
H        0.62343116      -0.59101246       2.18032354
H       -0.47018108      -1.56162533      -1.10204620
H        2.22938611       0.02973183      -0.31368937
H       -1.45049669      -0.14394681      -1.38975156
12
Properties=species:S:1:pos:R:3 relative_energy_eV=0.9334131241193973 branch=left pbc="F F F"
C        0.33390155       0.03453165      -0.08373432
O        1.59815890      -0.55263186       0.10954559
O       -0.10516660       0.04849365       2.26190114
C       -0.42315482      -0.48515079      -1.26717122
C       -0.31086436       0.47850250       1.00873775
O       -1.24324210       1.44504981       0.84132836
H        0.09131716      -0.34864505      -2.21365128
H       -0.88048104       1.67744618      -0.04754308
H        0.62375696      -0.59099342       2.17435933
H       -0.46834800      -1.56620872      -1.09265904
H        2.23352249       0.03277689      -0.32092411
H       -1.45991870      -0.15261291      -1.40121610
12
Properties=species:S:1:pos:R:3 relative_energy_eV=1.1549238055758906 branch=left pbc="F F F"
C        0.33086375       0.07245926      -0.07847669
O        1.57414008      -0.51755342       0.10559763
O       -0.11213457       0.03217974       2.27352477
C       -0.43410303      -0.48182026      -1.26852137
C       -0.31810869       0.46612977       1.00006290
O       -1.24779383       1.46256380       0.83551741
H        0.08840729      -0.35305270      -2.21091971
H       -0.81778853       1.62700967      -0.03441995
H        0.62141162      -0.58834641       2.16927654
H       -0.46697145      -1.57354474      -1.08527297
H        2.23770367       0.03489258      -0.32661729
H       -1.46614483      -0.16035933      -1.41077822
12
Properties=species:S:1:pos:R:3 relative_energy_eV=1.3280567743186111 branch=left pbc="F F F"
C        0.32691405       0.08014046      -0.06456985
O        1.56988720      -0.51176081       0.10455629
O       -0.11294414       0.02799331       2.27825787
C       -0.43632761      -0.48037365      -1.26907672
C       -0.31008395       0.45801556       0.98534338
O       -1.24407230       1.47047430       0.82151203
H        0.08771330      -0.35381991      -2.21043435
H       -0.81713719       1.61938312      -0.02049491
H        0.62078580      -0.58768358       2.16831696
H       -0.46686187      -1.57525643      -1.08410091
H        2.23874921       0.03518118      -0.32766385
H       -1.46714105      -0.16173559      -1.41267291
12
Properties=species:S:1:pos:R:3 relative_energy_eV=1.3943967448576586 branch=left pbc="F F F"
C        0.30904725       0.13165625      -0.09659822
O        1.55761959      -0.49069373       0.10283386
O       -0.11990534       0.03019982       2.27188218
C       -0.44134738      -0.48992694      -1.26996159
C       -0.34463901       0.46222807       1.01498332
O       -1.25217095       1.46029545       0.85476465
H        0.08760839      -0.35635774      -2.21003303
H       -0.73293256       1.56798692      -0.03686594
H        0.61935307      -0.58590926       2.16550680
H       -0.46615193      -1.57878913      -1.08165319
H        2.24176157       0.03546739      -0.33051234
H       -1.46876122      -0.16559911      -1.41537344
12
Properties=species:S:1:pos:R:3 relative_energy_eV=1.6505280881683575 branch=left pbc="F F F"
C        0.29356914       0.17998298      -0.14027485
O        1.54676598      -0.47132214       0.10111852
O       -0.12675264       0.03478845       2.26371613
C       -0.44454597      -0.50159823      -1.26992422
C       -0.38770127       0.47263993       1.05443711
O       -1.25878350       1.44504226       0.89099770
H        0.08795942      -0.35848820      -2.20985445
H       -0.64798080       1.51826267      -0.05449256
H        0.61812907      -0.58432689       2.16309090
H       -0.46559096      -1.58113829      -1.07990694
H        2.24440838       0.03549722      -0.33298204
H       -1.46999536      -0.16878172      -1.41695224
12
Properties=species:S:1:pos:R:3 relative_energy_eV=1.7117299903293315 branch=left pbc="F F F"
C        0.29130851       0.18881300      -0.15179221
O        1.54471925      -0.46751984       0.10072839
O       -0.12836045       0.03644244       2.26023712
C       -0.44492210      -0.50425208      -1.26942738
C       -0.39873800       0.47613843       1.06632012
O       -1.25821928       1.44049196       0.89721506
H        0.08816086      -0.35881246      -2.20983804
H       -0.63165373       1.50859048      -0.05704936
H        0.61808966      -0.58423582       2.16285512
H       -0.46547777      -1.58127689      -1.07966493
H        2.24484420       0.03548325      -0.33343484
H       -1.47026964      -0.16930445      -1.41717596
12
Properties=species:S:1:pos:R:3 relative_energy_eV=1.8370167423199746 branch=ts pbc="F F F"
C        0.29032366       0.19295873      -0.15622033
O        1.54381159      -0.46618011       0.10036855
O       -0.12815983       0.03627800       2.25981378
C       -0.44485512      -0.50629583      -1.26969155
C       -0.40611946       0.48064310       1.06992305
O       -1.25932845       1.43709145       0.90268185
H        0.08849625      -0.36011393      -2.20963884
H       -0.50353423       1.46897407      -0.12278665
H        0.61799361      -0.58409260       2.16574693
H       -0.46598913      -1.58242553      -1.07875789
H        2.24447463       0.03503681      -0.33481186
H       -1.47002853      -0.17033846      -1.41541758
12
Properties=species:S:1:pos:R:3 relative_energy_eV=1.6618604458599293 branch=right pbc="F F F"
C        0.28933881       0.19710445      -0.16064845
O        1.54290393      -0.46484038       0.10000871
O       -0.12795921       0.03611355       2.25939044
C       -0.44478815      -0.50833958      -1.26995573
C       -0.41350091       0.48514776       1.07352599
O       -1.26043762       1.43369094       0.90814864
H        0.08883165      -0.36141541      -2.20943963
H       -0.37541472       1.42935767      -0.18852394
H        0.61789757      -0.58394938       2.16863874
H       -0.46650050      -1.58357418      -1.07785085
H        2.24410507       0.03459037      -0.33618887
H       -1.46978743      -0.17137247      -1.41365920
12
Properties=species:S:1:pos:R:3 relative_energy_eV=1.4982642231389036 branch=right pbc="F F F"
C        0.27968197       0.21399699      -0.16487449
O        1.54067365      -0.46031026       0.09918613
O       -0.12590639       0.03316007       2.26091038
C       -0.44540761      -0.51276404      -1.27060499
C       -0.43110635       0.49799167       1.07736913
O       -1.25849145       1.41960579       0.91968660
H        0.08881047      -0.36152318      -2.20932429
H       -0.34972034       1.41687377      -0.20120156
H        0.61824003      -0.58419788       2.16907019
H       -0.46665191      -1.58379410      -1.07765274
H        2.24394688       0.03447069      -0.33622514
H       -1.46938047      -0.17099616      -1.41289337
12
Properties=species:S:1:pos:R:3 relative_energy_eV=1.4038149039333803 branch=right pbc="F F F"
C        0.24806065       0.26933839      -0.17913416
O        1.53445963      -0.44611692       0.09633483
O       -0.11810773       0.02280521       2.26608161
C       -0.44726955      -0.52840039      -1.27285397
C       -0.49409564       0.54576679       1.08846727
O       -1.24707601       1.36889870       0.95697832
H        0.08878204      -0.36180590      -2.20891293
H       -0.26719498       1.37666061      -0.24085592
H        0.61901738      -0.58483429       2.17101948
H       -0.46718942      -1.58409309      -1.07722222
H        2.24329562       0.03388048      -0.33623499
H       -1.46799353      -0.16958621      -1.41022147
12
Properties=species:S:1:pos:R:3 relative_energy_eV=1.173033445911642 branch=right pbc="F F F"
C        0.26269650       0.24117562      -0.17340867
O        1.53703127      -0.45075588       0.09698809
O       -0.12197373       0.02716860       2.26595407
C       -0.44691969      -0.52165344      -1.27209926
C       -0.44468353       0.50010621       1.08637401
O       -1.27624094       1.41571032       0.93766961
H        0.08869475      -0.36182299      -2.20903349
H       -0.30163861       1.39805685      -0.22422259
H        0.61915467      -0.58485732       2.16979999
H       -0.46701274      -1.58443839      -1.07714934
H        2.24405333       0.03405898      -0.33617768
H       -1.46847283      -0.17023517      -1.41124888
12
Properties=species:S:1:pos:R:3 relative_energy_eV=1.0931968134791532 branch=right pbc="F F F"
C        0.25676557       0.24486464      -0.17596264
O        1.53789544      -0.44590583       0.09489738
O       -0.11758359       0.02187798       2.27186446
C       -0.44828721      -0.52728346      -1.27345143
C       -0.46138746       0.51300169       1.08124179
O       -1.27656386       1.40747272       0.94183559
H        0.08860323      -0.36203983      -2.20875747
H       -0.28468583       1.39723631      -0.22689747
H        0.62033217      -0.58605139       2.17167931
H       -0.46731638      -1.58489370      -1.07692607
H        2.24475883       0.03378557      -0.33614282
H       -1.46784249      -0.16955129      -1.40993475
12
Properties=species:S:1:pos:R:3 relative_energy_eV=1.044602623409446 branch=right pbc="F F F"
C        0.25274040       0.24526793      -0.18156546
O        1.53624639      -0.44087409       0.09349189
O       -0.11794657       0.02161347       2.27244873
C       -0.44991192      -0.53254451      -1.27553416
C       -0.48032172       0.52174005       1.08517600
O       -1.27903604       1.39975918       0.94331538
H        0.08823523      -0.36289630      -2.20844435
H       -0.26429759       1.40230031      -0.22702637
H        0.62541442      -0.59056589       2.17404180
H       -0.46820323      -1.58837344      -1.07645302
H        2.24897809       0.03590489      -0.33816218
H       -1.46720911      -0.16881814      -1.40784230
12
Properties=species:S:1:pos:R:3 relative_energy_eV=0.9976041951722436 branch=right pbc="F F F"
C        0.24803925       0.24501552      -0.18412446
O        1.53732155      -0.43353371       0.09047238
O       -0.11499559       0.01828271       2.27455986
C       -0.45161919      -0.53791117      -1.27740216
C       -0.49547594       0.52331640       1.08311943
O       -1.28840983       1.39747174       0.94139114
H        0.08750915      -0.36468145      -2.20872804
H       -0.24069070       1.41108553      -0.22207682
H        0.62716673      -0.59230702       2.17731289
H       -0.46991428      -1.59418943      -1.07611035
H        2.25267960       0.03801009      -0.33995260
H       -1.46692251      -0.16804565      -1.40501521
12
Properties=species:S:1:pos:R:3 relative_energy_eV=0.8727361594173999 branch=right pbc="F F F"
C        0.23789368       0.24096603      -0.19026083
O        1.54018019      -0.40689315       0.08053962
O       -0.11239381       0.01278974       2.27891015
C       -0.45719482      -0.55535761      -1.28192019
C       -0.54527835       0.51744799       1.07280108
O       -1.32864966       1.39085968       0.92831254
H        0.08370564      -0.37342416      -2.21078253
H       -0.15230554       1.44887987      -0.19451505
H        0.63538077      -0.60006380       2.18906030
H       -0.47781442      -1.61684693      -1.07559520
H        2.26812361       0.05012941      -0.34929371
H       -1.46695959      -0.16597307      -1.39380961
12
Properties=species:S:1:pos:R:3 relative_energy_eV=0.8084481686109939 branch=right pbc="F F F"
C        0.23943324       0.23861347      -0.18921220
O        1.54435288      -0.38887943       0.07496246
O       -0.11517776       0.01111834       2.27727777
C       -0.45937197      -0.56159796      -1.28299307
C       -0.57051311       0.50582948       1.06177893
O       -1.35944838       1.38294675       0.91444805
H        0.07921311      -0.38205159      -2.21264988
H       -0.09185072       1.47206514      -0.16805341
H        0.63518047      -0.60044890       2.19630901
H       -0.48445144      -1.63052378      -1.07593020
H        2.27525496       0.06164175      -0.35663373
H       -1.46793402      -0.16619888      -1.38585674
12
Properties=species:S:1:pos:R:3 relative_energy_eV=0.7258936859052483 branch=right pbc="F F F"
C        0.25094676       0.23855002      -0.18232555
O        1.55116995      -0.37154085       0.07282839
O       -0.12798314       0.01370092       2.26960280
C       -0.45911775      -0.56158083      -1.28084777
C       -0.58522304       0.48937175       1.04571273
O       -1.39373033       1.36407704       0.89362325
H        0.07204534      -0.39441807      -2.21573114
H       -0.02791520       1.48769865      -0.13069732
H        0.62847673      -0.59533247       2.20182306
H       -0.49258542      -1.63900999      -1.07699490
H        2.27854385       0.07940641      -0.36648551
H       -1.46994108      -0.16840766      -1.37706048
12
Properties=species:S:1:pos:R:3 relative_energy_eV=0.607193040967104 branch=right pbc="F F F"
C        0.27445595       0.24151233      -0.17025810
O        1.56563150      -0.35122173       0.07526123
O       -0.15447016       0.01957169       2.25288168
C       -0.45562967      -0.55483397      -1.27432515
C       -0.59334399       0.46738826       1.02533111
O       -1.43885698       1.32335794       0.85906575
H        0.06030575      -0.41320738      -2.22108317
H        0.05520561       1.49551298      -0.07565310
H        0.61046072      -0.58073619       2.20635818
H       -0.50352308      -1.64023852      -1.07836312
H        2.27704898       0.10806369      -0.38094738
H       -1.47259889      -0.17265338      -1.36481947
12
Properties=species:S:1:pos:R:3 relative_energy_eV=0.4910422493903752 branch=right pbc="F F F"
C        0.30156735       0.24625228      -0.15730978
O        1.58560266      -0.33319944       0.08361188
O       -0.18997519       0.02650948       2.23400291
C       -0.44941775      -0.54311700      -1.26629579
C       -0.59547160       0.44755584       1.00672174
O       -1.48345175       1.26633031       0.81802307
H        0.04688259      -0.43295986      -2.22724870
H        0.13797913       1.49150078      -0.01968483
H        0.58539751      -0.55980350       2.20808496
H       -0.51342165      -1.63107463      -1.07815355
H        2.27252737       0.14108304      -0.39704950
H       -1.47353402      -0.17656067      -1.35125295
12
Properties=species:S:1:pos:R:3 relative_energy_eV=0.37757861650607083 branch=right pbc="F F F"
C        0.32844585       0.25282046      -0.14533165
O        1.61218901      -0.31534041       0.09770655
O       -0.23332548       0.03173877       2.21894487
C       -0.44046952      -0.52786917      -1.25895805
C       -0.59958087       0.43107619       0.98985045
O       -1.52653686       1.19173442       0.77016017
H        0.03257932      -0.45189462      -2.23399811
H        0.22221427       1.47507141       0.03164270
H        0.55419488      -0.53288677       2.20723558
H       -0.52056565      -1.61079030      -1.07419765
H        2.26637471       0.17673108      -0.41397231
H       -1.47083625      -0.17787340      -1.33563191
12
Properties=species:S:1:pos:R:3 relative_energy_eV=0.27572986565974134 branch=right pbc="F F F"
C        0.34474461       0.25913981      -0.13759114
O        1.63563120      -0.30602634       0.11365892
O       -0.26962581       0.03175495       2.21821266
C       -0.43042867      -0.51251146      -1.25660612
C       -0.60532956       0.42435197       0.98119001
O       -1.54782982       1.12590545       0.73221440
H        0.02420557      -0.45997868      -2.23893672
H        0.26713598       1.44752176       0.05033582
H        0.52893278      -0.50971346       2.20371267
H       -0.51930524      -1.58416683      -1.06507981
H        2.26016211       0.19960040      -0.42355030
H       -1.46361069      -0.17335912      -1.32410888
12
Properties=species:S:1:pos:R:3 relative_energy_eV=0.1989833831667056 branch=right pbc="F F F"
C        0.35063468       0.25587740      -0.13246305
O        1.65064458      -0.30286598       0.12655705
O       -0.29403419       0.02628425       2.22914727
C       -0.42050225      -0.49842142      -1.25848476
C       -0.61127599       0.42488058       0.98200915
O       -1.55719767       1.08037478       0.70483639
H        0.02397349      -0.45596050      -2.24288935
H        0.27348496       1.42332987       0.03667298
H        0.51556798      -0.49529837       2.20140739
H       -0.51021369      -1.56065560      -1.05128872
H        2.25682291       0.20720506      -0.42454995
H       -1.45322289      -0.16223116      -1.31750236
12
Properties=species:S:1:pos:R:3 relative_energy_eV=0.12235923587832076 branch=right pbc="F F F"
C        0.35771108       0.24327036      -0.12358100
O        1.66597659      -0.29608623       0.14165212
O       -0.32335107       0.01653149       2.24370073
C       -0.40682366      -0.48309038      -1.26049858
C       -0.62100113       0.42232321       0.98490370
O       -1.58414204       1.02410266       0.66316217
H        0.02776009      -0.44653066      -2.24978556
H        0.28241202       1.40365027       0.01412545
H        0.50233814      -0.47904565       2.20366485
H       -0.49607456      -1.53553936      -1.03068602
H        2.25771193       0.21530324      -0.42493879
H       -1.43783626      -0.14236937      -1.30826629
12
Properties=species:S:1:pos:R:3 relative_energy_eV=0.05184690835085348 branch=right pbc="F F F"
C        0.36082713       0.23038803      -0.11294428
O        1.67615477      -0.29373079       0.15701074
O       -0.34865522       0.00451508       2.25890618
C       -0.39044305      -0.47162579      -1.26358878
C       -0.63223329       0.41614745       0.99208730
O       -1.61203455       0.97140424       0.62245844
H        0.04125050      -0.42510717      -2.25649980
H        0.26267664       1.38828560      -0.03169819
H        0.49497405      -0.46526340       2.21219391
H       -0.47438170      -1.51351286      -1.00535188
H        2.26259603       0.21303013      -0.41811094
H       -1.41605087      -0.11201039      -1.30100929
12
Properties=species:S:1:pos:R:3 relative_energy_eV=-0.0006479200292233145 branch=right pbc="F F F"
C        0.36441903       0.22739025      -0.10615769
O        1.67953031      -0.28628559       0.16749659
O       -0.36675077      -0.00306062       2.26237588
C       -0.37807899      -0.46879034      -1.26409403
C       -0.65278270       0.40114465       0.98825212
O       -1.64411362       0.92841912       0.59362145
H        0.05535496      -0.40793612      -2.26009982
H        0.26116425       1.38875494      -0.05947454
H        0.49019958      -0.45485023       2.22674896
H       -0.45950767      -1.50811616      -0.98844253
H        2.27163972       0.21190214      -0.41283381
H       -1.39639440      -0.08605134      -1.29393850
12
Properties=species:S:1:pos:R:3 relative_energy_eV=-0.08198231988535554 branch=right pbc="F F F"
C        0.36803494       0.23562968      -0.10165758
O        1.68045971      -0.27353704       0.18418028
O       -0.39295689      -0.01184878       2.25588316
C       -0.35678519      -0.46924196      -1.26366752
C       -0.68556599       0.36698440       0.97179763
O       -1.69440607       0.86255097       0.56137529
H        0.08333390      -0.37899364      -2.25984448
H        0.25220955       1.39776854      -0.09781260
H        0.48198329      -0.43730637       2.25620145
H       -0.43746627      -1.50943370      -0.96839643
H        2.28721625       0.20484537      -0.39959826
H       -1.36137869      -0.04489578      -1.28500582
12
Properties=species:S:1:pos:R:3 relative_energy_eV=-0.1555112403784733 branch=right pbc="F F F"
C        0.37286752       0.25338033      -0.10435414
O        1.67927425      -0.25567589       0.20431154
O       -0.42312459      -0.01813709       2.23611888
C       -0.33314927      -0.46851754      -1.26203819
C       -0.71518818       0.32425324       0.94614449
O       -1.74720943       0.78953477       0.53822097
H        0.11358343      -0.35479248      -2.25370706
H        0.25118770       1.41208511      -0.11898647
H        0.46699502      -0.41419476       2.28852030
H       -0.41941391      -1.51443539      -0.95773582
H        2.30200870       0.19867622      -0.38484352
H       -1.32315403      -0.00965374      -1.27819463
12
Properties=species:S:1:pos:R:3 relative_energy_eV=-0.21974007020617137 branch=right pbc="F F F"
C        0.37280628       0.27266246      -0.11343642
O        1.67233310      -0.24017292       0.22256885
O       -0.44426253      -0.02256938       2.21120387
C       -0.31282236      -0.46554647      -1.26181649
C       -0.72704290       0.29041553       0.92469391
O       -1.77613396       0.73732867       0.53943181
H        0.14145354      -0.33988273      -2.24280323
H        0.23865198       1.42498443      -0.12713761
H        0.45051976      -0.39301334       2.31169002
H       -0.40803665      -1.51779154      -0.96173382
H        2.31018717       0.18840578      -0.36808735
H       -1.29297715       0.00770307      -1.28111630
12
Properties=species:S:1:pos:R:3 relative_energy_eV=-0.28132560485755675 branch=right pbc="F F F"
C        0.37659873       0.28977902      -0.11965591
O        1.66894731      -0.21333174       0.24915779
O       -0.47922810      -0.03045606       2.18578600
C       -0.28774812      -0.45404700      -1.26344507
C       -0.73555727       0.25850378       0.90243314
O       -1.81413533       0.66041300       0.53226667
H        0.17028860      -0.33410355      -2.23350945
H        0.24936095       1.43221950      -0.11804418
H        0.42306593      -0.36134025       2.33066514
H       -0.39840832      -1.50812901      -0.97221537
H        2.31450774       0.18583511      -0.35281095
H       -1.26301723       0.01718190      -1.28716928
12
Properties=species:S:1:pos:R:3 relative_energy_eV=-0.34967872018205526 branch=right pbc="F F F"
C        0.37125838       0.30496442      -0.12552669
O        1.65604422      -0.18295910       0.28071542
O       -0.50694039      -0.04554407       2.16727333
C       -0.26117054      -0.44170077      -1.27006916
C       -0.74594350       0.23412052       0.88889906
O       -1.83797321       0.58915484       0.54033449
H        0.21110242      -0.32853661      -2.22593708
H        0.24591705       1.44099488      -0.11743567
H        0.39714709      -0.32901510       2.34556330
H       -0.38643982      -1.49266363      -0.99299402
H        2.31713356       0.17458404      -0.33003667
H       -1.23546162       0.01912631      -1.30732658
12
Properties=species:S:1:pos:R:3 relative_energy_eV=-0.41001887704442197 branch=right pbc="F F F"
C        0.37134107       0.31668318      -0.12230544
O        1.65209975      -0.15008354       0.31505182
O       -0.54452338      -0.06320808       2.15827780
C       -0.23329071      -0.42612207      -1.27735792
C       -0.76378704       0.21036625       0.87707481
O       -1.87897476       0.49941400       0.52404176
H        0.25056449      -0.32177167      -2.22509808
H        0.25878927       1.44448793      -0.11922557
H        0.37178169      -0.29386271       2.36130588
H       -0.37142230      -1.47209471      -1.00454624
H        2.31947800       0.17049498      -0.31086663
H       -1.20738400       0.02822347      -1.32289097
12
Properties=species:S:1:pos:R:3 relative_energy_eV=-0.49042618524617865 branch=right pbc="F F F"
C        0.36550000       0.33011306      -0.11680627
O        1.64176857      -0.11368413       0.35510288
O       -0.57782616      -0.08680514       2.15406888
C       -0.20265814      -0.40860262      -1.28860138
C       -0.78553693       0.18781399       0.87086711
O       -1.91571543       0.40700052       0.51355977
H        0.30255661      -0.31267413      -2.22579537
H        0.26140582       1.45073264      -0.12851507
H        0.34697432      -0.25598121       2.37667915
H       -0.35294167      -1.44992302      -1.02256761
H        2.32012121       0.15956386      -0.28420694
H       -1.17897774       0.03497455      -1.35032241
12
Properties=species:S:1:pos:R:3 relative_energy_eV=-0.5795664038359973 branch=right pbc="F F F"
C        0.35629442       0.34476452      -0.10821068
O        1.62836390      -0.07543415       0.39793527
O       -0.60792735      -0.11356395       2.15424856
C       -0.17115879      -0.38950791      -1.30221291
C       -0.80956465       0.16613765       0.86934630
O       -1.95003039       0.31359327       0.50368201
H        0.36200329      -0.30193578      -2.22769879
H        0.25872345       1.45807956      -0.14164166
H        0.32430578      -0.21696267       2.39117934
H       -0.33221524      -1.42777725      -1.04412804
H        2.31770266       0.14485505      -0.25255099
H       -1.15182825       0.04028136      -1.38648410
12
Properties=species:S:1:pos:R:3 relative_energy_eV=-0.6852061215686263 branch=right pbc="F F F"
C        0.33969256       0.36200652      -0.09605770
O        1.60659347      -0.03156259       0.44749036
O       -0.63180888      -0.14665430       2.16109649
C       -0.13747108      -0.36731866      -1.32047012
C       -0.83621029       0.14587269       0.87508879
O       -1.97821757       0.21773971       0.49948954
H        0.43690920      -0.28940359      -2.22994462
H        0.24617944       1.46823607      -0.15887091
H        0.30344822      -0.17455941       2.40343613
H       -0.30763888      -1.40434739      -1.07607150
H        2.30931410       0.12242474      -0.21049318
H       -1.12612317       0.04009734      -1.44122730
12
Properties=species:S:1:pos:R:3 relative_energy_eV=-0.7761469627930637 branch=right pbc="F F F"
C        0.31789839       0.38168119      -0.08168412
O        1.57923908       0.01492040       0.49957878
O       -0.64941165      -0.18225979       2.17225581
C       -0.10360003      -0.34456869      -1.34091340
C       -0.86565836       0.12357843       0.88515223
O       -2.00466105       0.12138087       0.49552501
H        0.52149648      -0.27242227      -2.22946417
H        0.22613574       1.48171549      -0.17988120
H        0.28726600      -0.13105901       2.41549807
H       -0.27877926      -1.38427589      -1.11287764
H        2.29448071       0.09462603      -0.15989914
H       -1.09974067       0.03921583      -1.50982255
12
Properties=species:S:1:pos:R:3 relative_energy_eV=-0.843157905021144 branch=right pbc="F F F"
C        0.28513751       0.40035661      -0.06586580
O        1.54005326       0.05677967       0.54479662
O       -0.63915559      -0.21595251       2.19514516
C       -0.08031330      -0.32605819      -1.36345604
C       -0.88880821       0.10973295       0.90744462
O       -2.00799356       0.05904677       0.50466336
H        0.60858856      -0.25387623      -2.22246824
H        0.19002476       1.49878195      -0.19961891
H        0.28533452      -0.09811427       2.41662126
H       -0.24895679      -1.37381906      -1.16088360
H        2.26415229       0.05897513      -0.10029986
H       -1.08339931       0.02668076      -1.60260965
12
Properties=species:S:1:pos:R:3 relative_energy_eV=-0.861777706657449 branch=right pbc="F F F"
C        0.27046565       0.41942443      -0.05576947
O        1.51851689       0.09340231       0.58666830
O       -0.65694279      -0.23976450       2.19764928
C       -0.05224822      -0.31060430      -1.37593070
C       -0.91496939       0.07768125       0.90767315
O       -2.04454497      -0.03230814       0.48682311
H        0.67359717      -0.22918943      -2.21169228
H        0.17507960       1.51077437      -0.21739364
H        0.27508083      -0.05978300       2.43232421
H       -0.21866000      -1.36502520      -1.18176064
H        2.24861749       0.03893177      -0.05786638
H       -1.04932979       0.03899541      -1.65725444
12
Properties=species:S:1:pos:R:3 relative_energy_eV=-0.9138591050905234 branch=right pbc="F F F"
C        0.26718782       0.41622303      -0.05746425
O        1.51370943       0.08323260       0.57411842
O       -0.63802724      -0.22912191       2.19935830
C       -0.06471899      -0.31884765      -1.37230486
C       -0.90683200       0.07849227       0.90923321
O       -2.03264555      -0.00151470       0.48888014
H        0.65888932      -0.22377501      -2.19917995
H        0.16887821       1.51120014      -0.21063916
H        0.29112355      -0.07210060       2.42470348
H       -0.21749947      -1.37876996      -1.17925209
H        2.23597904       0.03976068      -0.05874643
H       -1.05138117       0.03775567      -1.66523676
12
Properties=species:S:1:pos:R:3 relative_energy_eV=-0.9715988598036347 branch=right pbc="F F F"
C        0.24562983       0.41861041      -0.05885277
O        1.47639366       0.08546837       0.58500022
O       -0.61100298      -0.22203278       2.20023646
C       -0.06966384      -0.32692997      -1.36940063
C       -0.89953000       0.06091358       0.90740445
O       -2.02195780       0.01035034       0.49590770
H        0.67326604      -0.19540332      -2.16241839
H        0.13490309       1.51889603      -0.20495329
H        0.31913031      -0.07273505       2.41463060
H       -0.19481727      -1.39887143      -1.19236668
H        2.20607337       0.02454886      -0.03997089
H       -1.03376146       0.03971946      -1.72174677
12
Properties=species:S:1:pos:R:3 relative_energy_eV=-0.9950005004793638 branch=right pbc="F F F"
C        0.23426653       0.41500704      -0.05480500
O        1.46565872       0.08964236       0.59439334
O       -0.60526032      -0.21644506       2.20104397
C       -0.06870655      -0.32505320      -1.36619001
C       -0.89490179       0.05060485       0.90529921
O       -2.02592969      -0.00250018       0.48737891
H        0.67999578      -0.17933750      -2.14035049
H        0.13006338       1.51184892      -0.19231130
H        0.32826710      -0.06651492       2.40057064
H       -0.17903959      -1.39997333      -1.19629727
H        2.18056036       0.02420052      -0.03149655
H       -1.02031124       0.04105522      -1.75376515
12
Properties=species:S:1:pos:R:3 relative_energy_eV=-1.0179256954106677 branch=right pbc="F F F"
C        0.21960108       0.41251836      -0.05074060
O        1.44962155       0.10415798       0.61539655
O       -0.60977884      -0.21611444       2.19658925
C       -0.05979918      -0.31970571      -1.36638715
C       -0.90575266       0.03237750       0.89951488
O       -2.03795540      -0.03445376       0.48529962
H        0.70538099      -0.15970784      -2.11910789
H        0.12545191       1.50801528      -0.18277166
H        0.33218076      -0.05223183       2.38899865
H       -0.15903687      -1.39508890      -1.20477193
H        2.16220845       0.01926531      -0.02056294
H       -0.99745980       0.04350335      -1.78798585
12
Properties=species:S:1:pos:R:3 relative_energy_eV=-1.0440341149660526 branch=right pbc="F F F"
C        0.20160879       0.40597115      -0.04236845
O        1.43443596       0.12122343       0.64246985
O       -0.61946910      -0.21550627       2.19140261
C       -0.04179545      -0.30756174      -1.36871074
C       -0.92296228       0.01257590       0.89623686
O       -2.05656235      -0.08448965       0.48461943
H        0.74591902      -0.13251787      -2.09449745
H        0.11291949       1.49409762      -0.17548972
H        0.32735521      -0.03237471       2.36588875
H       -0.13141498      -1.37917222      -1.21313499
H        2.13993920       0.01314746      -0.00753569
H       -0.96531245       0.04714301      -1.82540860
12
Properties=species:S:1:pos:R:3 relative_energy_eV=-1.0673460083307873 branch=right pbc="F F F"
C        0.18712800       0.39728077      -0.03532620
O        1.42440867       0.13141305       0.65608503
O       -0.62858692      -0.20993087       2.18469975
C       -0.02328875      -0.29773935      -1.36992209
C       -0.94358162      -0.00307393       0.89317149
O       -2.07556803      -0.12280039       0.48987040
H        0.78196660      -0.10702459      -2.07190218
H        0.10199513       1.48016397      -0.16793441
H        0.32120339      -0.02035723       2.33830286
H       -0.10832392      -1.36688458      -1.21678928
H        2.12354524       0.01015794      -0.00068357
H       -0.93623749       0.05133195      -1.84609923
12
Properties=species:S:1:pos:R:3 relative_energy_eV=-1.0899666856148542 branch=right pbc="F F F"
C        0.17135213       0.39033758      -0.02957801
O        1.41095976       0.13605237       0.66103618
O       -0.63353821      -0.20178793       2.18079517
C       -0.00174815      -0.29001316      -1.37073226
C       -0.96439613      -0.01509546       0.89349863
O       -2.09457745      -0.15427801       0.50259964
H        0.82444278      -0.07815082      -2.04736705
H        0.08002603       1.46861058      -0.16375775
H        0.31501784      -0.01402604       2.30466375
H       -0.08411699      -1.35949538      -1.22212220
H        2.10868735       0.00454853       0.00697176
H       -0.90744928       0.05583499      -1.86253471
12
Properties=species:S:1:pos:R:3 relative_energy_eV=-1.1035879862592992 branch=right pbc="F F F"
C        0.16274359       0.38910752      -0.02880074
O        1.40167716       0.13416374       0.65417514
O       -0.63508856      -0.19425887       2.18161408
C        0.01216526      -0.28855399      -1.37129124
C       -0.97774703      -0.01918523       0.89571253
O       -2.10777191      -0.16565129       0.51427387
H        0.85003437      -0.06138686      -2.03092945
H        0.06534177       1.46721722      -0.16082196
H        0.31323749      -0.01638635       2.28129832
H       -0.07041015      -1.36198028      -1.22709742
H        2.10228909       0.00135446       0.00959688
H       -0.89181167       0.05809739      -1.86425661
12
Properties=species:S:1:pos:R:3 relative_energy_eV=-1.1105500403700717 branch=right pbc="F F F"
C        0.15646452       0.39212179      -0.03007726
O        1.39275229       0.13150077       0.64879220
O       -0.63430728      -0.19000775       2.18648121
C        0.01937794      -0.28990161      -1.37182432
C       -0.98281081      -0.01927772       0.90017598
O       -2.11420994      -0.16834897       0.52228937
H        0.86630319      -0.05255225      -2.01960547
H        0.05280095       1.47166254      -0.15991893
H        0.31597464      -0.02052899       2.26718216
H       -0.06095669      -1.36719027      -1.23506278
H        2.09760620      -0.00253342       0.01185722
H       -0.88433566       0.05759339      -1.86681591
12
Properties=species:S:1:pos:R:3 relative_energy_eV=-1.1143280616252014 branch=right pbc="F F F"
C        0.15526368       0.39454875      -0.03225793
O        1.39024995       0.12675135       0.64252360
O       -0.63376447      -0.18523506       2.19106589
C        0.01922487      -0.29285487      -1.37112420
C       -0.98310591      -0.01587091       0.90362563
O       -2.11603051      -0.16112378       0.52526548
H        0.86651538      -0.05315146      -2.01415786
H        0.05124976       1.47723916      -0.15691687
H        0.32075855      -0.02808734       2.26003034
H       -0.05794326      -1.37274813      -1.24027557
H        2.09684396      -0.00190484       0.00703684
H       -0.88460254       0.05497455      -1.86134201
12
Properties=species:S:1:pos:R:3 relative_energy_eV=-1.1166244394044043 branch=right pbc="F F F"
C        0.15302002       0.39699734      -0.03198165
O        1.38799170       0.12487493       0.64264024
O       -0.63309874      -0.18206290       2.19510065
C        0.01831081      -0.29432872      -1.37017939
C       -0.98331983      -0.01393325       0.90693133
O       -2.11698279      -0.15797926       0.52571157
H        0.86828862      -0.05403684      -2.00996245
H        0.04976289       1.48173046      -0.15526151
H        0.32534991      -0.03328891       2.25591410
H       -0.05323021      -1.37515544      -1.24704517
H        2.09377472      -0.00203630       0.00407362
H       -0.88520759       0.05175628      -1.86246803
12
Properties=species:S:1:pos:R:3 relative_energy_eV=-1.1184132320249773 branch=right pbc="F F F"
C        0.15413932       0.39705205      -0.03097139
O        1.39109583       0.12029283       0.64127217
O       -0.63316787      -0.17690715       2.19699439
C        0.01481202      -0.29554384      -1.36772874
C       -0.98199383      -0.00977862       0.90868236
O       -2.11584939      -0.14920631       0.52471517
H        0.86161319      -0.05861960      -2.00935390
H        0.05228995       1.48368769      -0.15370678
H        0.32927576      -0.04159339       2.25433013
H       -0.05143529      -1.37631136      -1.24992640
H        2.09338305       0.00113780      -0.00428163
H       -0.88950308       0.04832715      -1.85655225
12
Properties=species:S:1:pos:R:3 relative_energy_eV=-1.1197852316108765 branch=right pbc="F F F"
C        0.15413723       0.39688772      -0.02796167
O        1.39327641       0.11845406       0.64312374
O       -0.63338319      -0.17249671       2.19757345
C        0.01377893      -0.29505412      -1.36550178
C       -0.98336142      -0.00787756       0.90939808
O       -2.11686046      -0.14656298       0.52371823
H        0.86049320      -0.06018641      -2.00865560
H        0.05328685       1.48397254      -0.15324849
H        0.33104194      -0.04790805       2.25356783
H       -0.04702571      -1.37567890      -1.25323829
H        2.09106253       0.00333714      -0.00976630
H       -0.89178659       0.04565050      -1.85553610
12
Properties=species:S:1:pos:R:3 relative_energy_eV=-1.1206568115649134 branch=right pbc="F F F"
C        0.15532165       0.39551211      -0.02592059
O        1.39626454       0.11563699       0.64265759
O       -0.63390714      -0.16831266       2.19686371
C        0.01329938      -0.29457037      -1.36364684
C       -0.98383076      -0.00534082       0.90907178
O       -2.11692322      -0.14242342       0.52392753
H        0.85810096      -0.06061535      -2.00954969
H        0.05305597       1.48219658      -0.15374886
H        0.33144894      -0.05444117       2.25385476
H       -0.04423129      -1.37511865      -1.25316082
H        2.09030131       0.00582134      -0.01500209
H       -0.89424057       0.04419261      -1.85187347
12
Properties=species:S:1:pos:R:3 relative_energy_eV=-1.1212935573421419 branch=right pbc="F F F"
C        0.15594788       0.39469793      -0.02472514
O        1.39738734       0.11467510       0.64220258
O       -0.63430007      -0.16536086       2.19628816
C        0.01418748      -0.29416970      -1.36313244
C       -0.98512702      -0.00383243       0.90844547
O       -2.11817392      -0.14101363       0.52448046
H        0.85839604      -0.05900034      -2.01038867
H        0.05290821       1.48074680      -0.15375390
H        0.33068380      -0.05972795       2.25494303
H       -0.04111758      -1.37518524      -1.25289757
H        2.08925094       0.00754383      -0.01771696
H       -0.89538333       0.04316366      -1.85027204
12
Properties=species:S:1:pos:R:3 relative_energy_eV=-1.1219805986966094 branch=right pbc="F F F"
C        0.15635531       0.39384409      -0.02455770
O        1.39777785       0.11324398       0.64072342
O       -0.63509487      -0.16207870       2.19630778
C        0.01521139      -0.29435592      -1.36334451
C       -0.98558346      -0.00139347       0.90814325
O       -2.11872585      -0.13800019       0.52572457
H        0.85862661      -0.05587323      -2.01163651
H        0.05165748       1.47925682      -0.15375233
H        0.33029969      -0.06712489       2.25682942
H       -0.03709108      -1.37596272      -1.25217810
H        2.08796126       0.00939816      -0.02038529
H       -0.89673455       0.04158321      -1.84840107
12
Properties=species:S:1:pos:R:3 relative_energy_eV=-1.1227994725159078 branch=right pbc="F F F"
C        0.15645591       0.39339325      -0.02529438
O        1.39704482       0.11271510       0.63927646
O       -0.63654095      -0.15863216       2.19710148
C        0.01667933      -0.29487386      -1.36479074
C       -0.98605964       0.00126248       0.90802589
O       -2.11968555      -0.13511415       0.52662246
H        0.85906169      -0.05099985      -2.01355491
H        0.05150787       1.47845062      -0.15272298
H        0.32933414      -0.07688248       2.26059761
H       -0.03133071      -1.37732087      -1.25166906
H        2.08624633       0.01184726      -0.02287900
H       -0.89805346       0.03869181      -1.84723990
12
Properties=species:S:1:pos:R:3 relative_energy_eV=-1.1235037535716401 branch=right pbc="F F F"
C        0.15565111       0.39339876      -0.02658660
O        1.39533368       0.11295596       0.63868442
O       -0.63877673      -0.15646913       2.19859953
C        0.01815168      -0.29527171      -1.36677308
C       -0.98594133       0.00285939       0.90845375
O       -2.11985668      -0.13327799       0.52698933
H        0.85970683      -0.04536968      -2.01523514
H        0.05097105       1.47845295      -0.15170651
H        0.32842263      -0.08555788       2.26458345
H       -0.02501471      -1.37811369      -1.25180591
H        2.08438104       0.01375920      -0.02373635
H       -0.89836885       0.03517097      -1.84799393
12
Properties=species:S:1:pos:R:3 relative_energy_eV=-1.1240815705950808 branch=right pbc="F F F"
C        0.15449630       0.39396761      -0.02769195
O        1.39325875       0.11455345       0.63950758
O       -0.64151275      -0.15634662       2.20005768
C        0.01986444      -0.29485762      -1.36876200
C       -0.98610389       0.00222252       0.90884277
O       -2.12014572      -0.13446328       0.52621188
H        0.86051969      -0.04016449      -2.01650048
H        0.05122910       1.47924579      -0.15078495
H        0.32634120      -0.09070339       2.26820812
H       -0.01929322      -1.37769404      -1.25257043
H        2.08322525       0.01502348      -0.02258806
H       -0.89721950       0.03175382      -1.85045716
12
Properties=species:S:1:pos:R:3 relative_energy_eV=-1.1246791687281075 branch=right pbc="F F F"
C        0.15278069       0.39481319      -0.02817529
O        1.39095590       0.11666090       0.64130374
O       -0.64539240      -0.15742981       2.20147465
C        0.02231984      -0.29342882      -1.37025359
C       -0.98683622      -0.00033290       0.90918604
O       -2.12052197      -0.13786835       0.52492270
H        0.86201835      -0.03400628      -2.01703635
H        0.05060841       1.48029754      -0.15054444
H        0.32329203      -0.09415413       2.27098932
H       -0.01223786      -1.37596051      -1.25417282
H        2.08219799       0.01594130      -0.01980390
H       -0.89452523       0.02800518      -1.85441696
12
Properties=species:S:1:pos:R:3 relative_energy_eV=-1.1253219985719625 branch=right pbc="F F F"
C        0.15105252       0.39584928      -0.02776580
O        1.38876130       0.11911561       0.64384097
O       -0.65035494      -0.15947500       2.20247422
C        0.02570845      -0.29084312      -1.37102497
C       -0.98852587      -0.00454307       0.90911445
O       -2.12160359      -0.14329046       0.52302029
H        0.86382933      -0.02662187      -2.01711461
H        0.04962367       1.48135383      -0.15091734
H        0.31839301      -0.09680141       2.27317641
H       -0.00323804      -1.37305588      -1.25644351
H        2.08170973       0.01711072      -0.01594828
H       -0.89069626       0.02373884      -1.85893860
12
Properties=species:S:1:pos:R:3 relative_energy_eV=-1.1259199107480526 branch=right pbc="F F F"
C        0.14968319       0.39657299      -0.02647737
O        1.38731142       0.12056526       0.64593381
O       -0.65542346      -0.16133866       2.20280871
C        0.02921557      -0.28799309      -1.37067819
C       -0.99085948      -0.00854401       0.90865077
O       -2.12314050      -0.14785688       0.52135239
H        0.86536341      -0.01866850      -2.01661214
H        0.04791526       1.48184913      -0.15183968
H        0.31313078      -0.10016788       2.27409535
H        0.00718235      -1.37014183      -1.25893025
H        2.08153819       0.01887307      -0.01258426
H       -0.88725760       0.01938799      -1.86224575
12
Properties=species:S:1:pos:R:3 relative_energy_eV=-1.12643620343988 branch=right pbc="F F F"
C        0.14910545       0.39687104      -0.02492070
O        1.38674966       0.12089112       0.64720686
O       -0.65946579      -0.16308672       2.20236186
C        0.03194959      -0.28575401      -1.36973361
C       -0.99320224      -0.01105362       0.90784718
O       -2.12490280      -0.15011288       0.51997530
H        0.86582050      -0.01132309      -2.01602767
H        0.04655454       1.48172856      -0.15282340
H        0.30822347      -0.10418195       2.27420051
H        0.01731611      -1.36817050      -1.26097341
H        2.08200687       0.02128688      -0.01034607
H       -0.88549637       0.01544289      -1.86329335
12
Properties=species:S:1:pos:R:3 relative_energy_eV=-1.1270419611446414 branch=right pbc="F F F"
C        0.14892281       0.39679876      -0.02334048
O        1.38665126       0.12020093       0.64792118
O       -0.66323923      -0.16528534       2.20133469
C        0.03407869      -0.28423708      -1.36853659
C       -0.99561930      -0.01202551       0.90679253
O       -2.12683523      -0.14961895       0.51860132
H        0.86512111      -0.00302218      -2.01535584
H        0.04553826       1.48116962      -0.15372426
H        0.30361465      -0.10998926       2.27378677
H        0.02905961      -1.36720773      -1.26295815
H        2.08290991       0.02486216      -0.00869311
H       -0.88554371       0.01089240      -1.86235449
12
Properties=species:S:1:pos:R:3 relative_energy_eV=-1.128011331664311 branch=right pbc="F F F"
C        0.14904917       0.39643594      -0.02159531
O        1.38661339       0.11865067       0.64892775
O       -0.66832342      -0.17012991       2.19924918
C        0.03624451      -0.28308735      -1.36719601
C       -0.99877395      -0.01178107       0.90504153
O       -2.12958570      -0.14596203       0.51605006
H        0.86247366       0.00997412      -2.01470816
H        0.04528938       1.48016286      -0.15465066
H        0.29731969      -0.11950144       2.27318000
H        0.04729634      -1.36696420      -1.26566149
H        2.08495246       0.03132093      -0.00619769
H       -0.88789687       0.00341940      -1.85896555
12
Properties=species:S:1:pos:R:3 relative_energy_eV=-1.1295235303950903 branch=right pbc="F F F"
C        0.14938026       0.39566808      -0.01995232
O        1.38623870       0.11603151       0.65090274
O       -0.67579298      -0.18001193       2.19560082
C        0.03848211      -0.28262724      -1.36603465
C       -1.00282601      -0.00999161       0.90225463
O       -2.13328245      -0.13728762       0.51121018
H        0.85661765       0.03062976      -2.01430089
H        0.04655714       1.47871118      -0.15539097
H        0.28884554      -0.13425144       2.27237457
H        0.07568383      -1.36756355      -1.26962681
H        2.08856807       0.04240268      -0.00158711
H       -0.89381345      -0.00917176      -1.85197647
12
Properties=species:S:1:pos:R:3 relative_energy_eV=-1.1313034243048605 branch=right pbc="F F F"
C        0.15010230       0.39462819      -0.01932387
O        1.38534480       0.11310835       0.65417037
O       -0.68373128      -0.19503819       2.19066911
C        0.03992156      -0.28337409      -1.36587640
C       -1.00617675      -0.00721290       0.89884187
O       -2.13659025      -0.12466986       0.50417397
H        0.84757905       0.05404969      -2.01497555
H        0.05027944       1.47724398      -0.15545916
H        0.28039031      -0.14916769       2.27156415
H        0.10684834      -1.36843428      -1.27373867
H        2.09344316       0.05614195       0.00540518
H       -0.90275255      -0.02473692      -1.84197722
12
Properties=species:S:1:pos:R:3 relative_energy_eV=-1.1329952633968787 branch=right pbc="F F F"
C        0.15074841       0.39368963      -0.01998744
O        1.38376671       0.11115290       0.65816771
O       -0.68879048      -0.21052286       2.18593219
C        0.04031400      -0.28485793      -1.36699211
C       -1.00742504      -0.00526948       0.89599803
O       -2.13806476      -0.11305985       0.49744065
H        0.83908762       0.07084371      -2.01665527
H        0.05497687       1.47645803      -0.15464429
H        0.27592897      -0.15677517       2.27042849
H        0.12781185      -1.36860489      -1.27666472
H        2.09716649       0.06717274       0.01325184
H       -0.91086272      -0.03768850      -1.83280125
12
Properties=species:S:1:pos:R:3 relative_energy_eV=-1.1344410839101329 branch=right pbc="F F F"
C        0.15054641       0.39317750      -0.02105536
O        1.38078190       0.11067544       0.66305980
O       -0.69117542      -0.22324137       2.18213308
C        0.04153090      -0.28531111      -1.36885979
C       -1.00772999      -0.00570554       0.89390782
O       -2.13879864      -0.10585983       0.49233186
H        0.83454386       0.08134414      -2.01892888
H        0.05805033       1.47652396      -0.15342997
H        0.27461288      -0.15825383       2.26924701
H        0.13935013      -1.36749409      -1.27912939
H        2.09808424       0.07423215       0.02121293
H       -0.91513881      -0.04754899      -1.82701524
12
Properties=species:S:1:pos:R:3 relative_energy_eV=-1.1357264920534362 branch=right pbc="F F F"
C        0.14977511       0.39282096      -0.02145142
O        1.37686455       0.11017022       0.66837773
O       -0.69357486      -0.23308364       2.17881156
C        0.04506976      -0.28408772      -1.37037307
C       -1.00885990      -0.00776306       0.89170076
O       -2.14049464      -0.10053053       0.48817081
H        0.83252477       0.09206654      -2.02214479
H        0.05880558       1.47672022      -0.15229359
H        0.27306908      -0.16141025       2.26844280
H        0.15126847      -1.36520262      -1.28209538
H        2.09691480       0.08093205       0.02851686
H       -0.91670511      -0.05809363      -1.82218831
12
Properties=species:S:1:pos:R:3 relative_energy_eV=-1.1371666554896365 branch=right pbc="F F F"
C        0.14937971       0.39212061      -0.02087065
O        1.37266577       0.10806302       0.67402484
O       -0.69667499      -0.24290901       2.17462633
C        0.05100114      -0.28168003      -1.37113732
C       -1.01089572      -0.01055515       0.88846638
O       -2.14335333      -0.09269433       0.48364211
H        0.82950561       0.10562181      -2.02781215
H        0.05835320       1.47633970      -0.15100895
H        0.27021170      -0.16873293       2.26719357
H        0.16744054      -1.36127497      -1.28545850
H        2.09487351       0.09053040       0.03597072
H       -0.91784975      -0.07229047      -1.81416234
12
Properties=species:S:1:pos:R:3 relative_energy_eV=-1.138159758562324 branch=right pbc="F F F"
C        0.14947821       0.39128753      -0.01917223
O        1.37010838       0.10487627       0.67748233
O       -0.70001457      -0.25003132       2.17105980
C        0.05659989      -0.27920921      -1.37061657
C       -1.01355025      -0.01245660       0.88550860
O       -2.14644785      -0.08412824       0.48035300
H        0.82567656       0.11862353      -2.03334386
H        0.05693086       1.47543217      -0.15005702
H        0.26633677      -0.17897868       2.26518340
H        0.18490385      -1.35770630      -1.28828680
H        2.09343314       0.10033778       0.04130166
H       -0.91879773      -0.08550815      -1.80593820
12
Properties=species:S:1:pos:R:3 relative_energy_eV=-1.138656952420206 branch=right pbc="F F F"
C        0.15045299       0.39070702      -0.01778030
O        1.37034214       0.10206063       0.67768465
O       -0.70128014      -0.25306436       2.16914339
C        0.05867161      -0.27837183      -1.36956463
C       -1.01475519      -0.01245937       0.88411360
O       -2.14772615      -0.07737631       0.47939743
H        0.82118412       0.12341201      -2.03726617
H        0.05628308       1.47461502      -0.14935817
H        0.26411817      -0.18549881       2.26311710
H        0.19339977      -1.35582649      -1.28878381
H        2.09379524       0.10616176       0.04298438
H       -0.91982844      -0.09182045      -1.80021339
12
Properties=species:S:1:pos:R:3 relative_energy_eV=-1.1389558295468305 branch=right pbc="F F F"
C        0.15077993       0.39041434      -0.01658976
O        1.37014151       0.09987136       0.67836279
O       -0.70397621      -0.25748930       2.16748281
C        0.06039630      -0.27789170      -1.36890156
C       -1.01658348      -0.01176988       0.88310748
O       -2.14943449      -0.07033604       0.47823962
H        0.81655306       0.13123634      -2.04025221
H        0.05585987       1.47424641      -0.14846335
H        0.26093826      -0.19442986       2.26126511
H        0.20677136      -1.35491143      -1.29022150
H        2.09478673       0.11284543       0.04570270
H       -0.92157571      -0.09924681      -1.79625803
12
Properties=species:S:1:pos:R:3 relative_energy_eV=-1.1392926809294295 branch=right pbc="F F F"
C        0.15186704       0.39025461      -0.01610676
O        1.37141851       0.09787398       0.67746714
O       -0.70398187      -0.25984780       2.16642977
C        0.05987282      -0.27875253      -1.36842981
C       -1.01681752      -0.01005143       0.88312400
O       -2.14977983      -0.06330313       0.47914024
H        0.81067188       0.13084762      -2.04402380
H        0.05608328       1.47418916      -0.14673993
H        0.26048095      -0.19944305       2.25864537
H        0.21107728      -1.35424026      -1.28937053
H        2.09654357       0.11711452       0.04677328
H       -0.92277893      -0.10210287      -1.79343491
12
Properties=species:S:1:pos:R:3 relative_energy_eV=-1.13967206551024 branch=right pbc="F F F"
C        0.15178821       0.39027617      -0.01591528
O        1.37046285       0.09656535       0.67919656
O       -0.70633203      -0.26633142       2.16456914
C        0.06100969      -0.27909642      -1.36891231
C       -1.01846816      -0.00865241       0.88265277
O       -2.15182543      -0.05488256       0.47884649
H        0.80492073       0.13746675      -2.04818423
H        0.05600066       1.47463928      -0.14437286
H        0.25839724      -0.20886807       2.25602684
H        0.22490563      -1.35343796      -1.29041348
H        2.09816432       0.12464680       0.05142474
H       -0.92436660      -0.10978664      -1.79144430
12
Properties=species:S:1:pos:R:3 relative_energy_eV=-1.1400221473431884 branch=right pbc="F F F"
C        0.15084152       0.39068979      -0.01659894
O        1.36851602       0.09716876       0.68166346
O       -0.70693548      -0.27183929       2.16316036
C        0.06201657      -0.27945886      -1.37040260
C       -1.01976538      -0.00805261       0.88277802
O       -2.15393968      -0.04989989       0.48020697
H        0.80220064       0.13967654      -2.05181667
H        0.05498195       1.47569907      -0.14153384
H        0.25872975      -0.21421252       2.25309707
H        0.23269662      -1.35246986      -1.29057078
H        2.09887832       0.12941878       0.05693226
H       -0.92356381      -0.11418098      -1.79344120
12
Properties=species:S:1:pos:R:3 relative_energy_eV=-1.1401507162081543 branch=right pbc="F F F"
C        0.15011452       0.39099260      -0.01720789
O        1.36702522       0.09827994       0.68331398
O       -0.70664557      -0.27394939       2.16246651
C        0.06281803      -0.27918874      -1.37122867
C       -1.02035554      -0.00844568       0.88260530
O       -2.15519891      -0.04980729       0.48088335
H        0.80307902       0.13977968      -2.05261861
H        0.05385848       1.47620416      -0.14079343
H        0.25945401      -0.21494306       2.25218870
H        0.23391240      -1.35194897      -1.29030492
H        2.09896022       0.13044412       0.05960310
H       -0.92236486      -0.11487841      -1.79543329
12
Properties=species:S:1:pos:R:3 relative_energy_eV=-1.1402594483806752 branch=right pbc="F F F"
C        0.14914644       0.39143497      -0.01767891
O        1.36570217       0.09998090       0.68436855
O       -0.70576982      -0.27432674       2.16217858
C        0.06350077      -0.27866430      -1.37176225
C       -1.02091356      -0.00927782       0.88252431
O       -2.15627865      -0.05205944       0.48187359
H        0.80615793       0.13827760      -2.05191631
H        0.05211351       1.47661340      -0.14074409
H        0.26081482      -0.21404657       2.25153307
H        0.23203121      -1.35167268      -1.28968200
H        2.09858411       0.12975844       0.06137021
H       -0.92043194      -0.11347878      -1.79859057
12
Properties=species:S:1:pos:R:3 relative_energy_eV=-1.1403802671902667 branch=right pbc="F F F"
C        0.14847099       0.39193296      -0.01810904
O        1.36473072       0.10149785       0.68492323
O       -0.70461725      -0.27489340       2.16156827
C        0.06388232      -0.27816942      -1.37184950
C       -1.02131624      -0.00979075       0.88217747
O       -2.15729879      -0.05341128       0.48259701
H        0.80901041       0.13627458      -2.05094620
H        0.05018199       1.47692866      -0.14105363
H        0.26219493      -0.21419985       2.25069544
H        0.22959000      -1.35150046      -1.28842294
H        2.09890779       0.12983657       0.06279381
H       -0.91907986      -0.11196647      -1.80089973
12
Properties=species:S:1:pos:R:3 relative_energy_eV=-1.1405821977041342 branch=right pbc="F F F"
C        0.14758969       0.39283880      -0.01848427
O        1.36386057       0.10363454       0.68497301
O       -0.70311223      -0.27601981       2.16053919
C        0.06407622      -0.27760944      -1.37161767
C       -1.02187074      -0.01023602       0.88168353
O       -2.15845032      -0.05415819       0.48341566
H        0.81281989       0.13318978      -2.04919727
H        0.04742468       1.47745817      -0.14150939
H        0.26406628      -0.21623944       2.24893771
H        0.22622315      -1.35133917      -1.28620352
H        2.09970318       0.13115399       0.06468323
H       -0.91767336      -0.11013421      -1.80374598
12
Properties=species:S:1:pos:R:3 relative_energy_eV=-1.1408747399891581 branch=right pbc="F F F"
C        0.14711057       0.39414245      -0.01880425
O        1.36349686       0.10577180       0.68453462
O       -0.70188437      -0.27976719       2.15836824
C        0.06382003      -0.27723432      -1.37085981
C       -1.02230513      -0.01005479       0.88065619
O       -2.15947531      -0.05118432       0.48332620
H        0.81530886       0.13020045      -2.04754423
H        0.04456723       1.47827103      -0.14194831
H        0.26549855      -0.22317370       2.24587078
H        0.22412060      -1.35098306      -1.28263276
H        2.10196864       0.13661581       0.06735331
H       -0.91756949      -0.11006513      -1.80484573
12
Properties=species:S:1:pos:R:3 relative_energy_eV=-1.1412997761926817 branch=right pbc="F F F"
C        0.14677693       0.39610124      -0.01889200
O        1.36354592       0.10849193       0.68401999
O       -0.70179706      -0.28719826       2.15495555
C        0.06345277      -0.27700616      -1.36976388
C       -1.02284643      -0.00961871       0.87914672
O       -2.16024791      -0.04443142       0.48193953
H        0.81676670       0.12821134      -2.04578424
H        0.04184222       1.47970025      -0.14215450
H        0.26589962      -0.23649833       2.24106132
H        0.22453972      -1.35019097      -1.27784259
H        2.10516059       0.14762136       0.07144864
H       -0.91843601      -0.11264322      -1.80466027
12
Properties=species:S:1:pos:R:3 relative_energy_eV=-1.1418342608230887 branch=right pbc="F F F"
C        0.14689797       0.39851877      -0.01871940
O        1.36393756       0.11149029       0.68424391
O       -0.70369713      -0.29932000       2.15014327
C        0.06336838      -0.27703769      -1.36845251
C       -1.02339423      -0.00903838       0.87702190
O       -2.16062765      -0.03349687       0.47866140
H        0.81602645       0.12873613      -2.04463839
H        0.04004629       1.48178180      -0.14209710
H        0.26420253      -0.25656907       2.23476926
H        0.22926065      -1.34881857      -1.27226230
H        2.10887732       0.16514823       0.07698351
H       -0.92024108      -0.11885550      -1.80217921
12
Properties=species:S:1:pos:R:3 relative_energy_eV=-1.1424791233148426 branch=right pbc="F F F"
C        0.14689350       0.40143191      -0.01819203
O        1.36403960       0.11563744       0.68600088
O       -0.70763659      -0.31519323       2.14438239
C        0.06444256      -0.27714483      -1.36720839
C       -1.02432949      -0.00909652       0.87460280
O       -2.16087434      -0.02162677       0.47425587
H        0.81519013       0.13145191      -2.04355983
H        0.03878117       1.48463380      -0.14192571
H        0.26057350      -0.28095330       2.22724485
H        0.23722183      -1.34701384      -1.26650919
H        2.11134284       0.18740763       0.08397307
H       -0.92098773      -0.12699493      -1.79959028
12
Properties=species:S:1:pos:R:3 relative_energy_eV=-1.1432370525071747 branch=right pbc="F F F"
C        0.14679488       0.40477743      -0.01737381
O        1.36327662       0.12103169       0.69000379
O       -0.71318745      -0.33562474       2.13704011
C        0.06735224      -0.27729267      -1.36584964
C       -1.02593165      -0.00979071       0.87154270
O       -2.16168222      -0.00918761       0.46908063
H        0.81455160       0.13606348      -2.04294659
H        0.03750276       1.48819058      -0.14193907
H        0.25521313      -0.30894391       2.21837573
H        0.24830318      -1.34498956      -1.26051131
H        2.11223172       0.21454517       0.09290138
H       -0.91976797      -0.13623970      -1.79684933
12
Properties=species:S:1:pos:R:3 relative_energy_eV=-1.1441958140039787 branch=right pbc="F F F"
C        0.14570031       0.40935528      -0.01618422
O        1.36092777       0.12997156       0.69652450
O       -0.71950587      -0.36110053       2.12756041
C        0.07277725      -0.27725560      -1.36405408
C       -1.02863320      -0.01178487       0.86789295
O       -2.16346276       0.00073692       0.46407964
H        0.81821986       0.13958346      -2.04080454
H        0.03438434       1.49291261      -0.14291556
H        0.24919332      -0.33996232       2.20732479
H        0.25867867      -1.34322941      -1.25330500
H        2.11029417       0.24646625       0.10456496
H       -0.91391722      -0.14315364      -1.79720898
12
Properties=species:S:1:pos:R:3 relative_energy_eV=-1.1453381092578638 branch=right pbc="F F F"
C        0.14390449       0.41568372      -0.01458223
O        1.35604357       0.14261561       0.70661730
O       -0.72695247      -0.39849652       2.11257013
C        0.08177217      -0.27695875      -1.36086835
C       -1.03330721      -0.01433600       0.86190724
O       -2.16793454       0.01407454       0.45777682
H        0.82440556       0.14394433      -2.03818947
H        0.02824954       1.49898883      -0.14506179
H        0.24187611      -0.38130280       2.19215776
H        0.27345362      -1.34151068      -1.24363925
H        2.10749395       0.29074470       0.12234698
H       -0.90434842      -0.15090687      -1.79755988
12
Properties=species:S:1:pos:R:3 relative_energy_eV=-1.1464378206983383 branch=right pbc="F F F"
C        0.13876468       0.42448248      -0.01261894
O        1.34842426       0.16469823       0.71821095
O       -0.73137099      -0.43524724       2.09619446
C        0.09355068      -0.27611586      -1.35639960
C       -1.03854221      -0.02053152       0.85691796
O       -2.17256054       0.00973561       0.45527818
H        0.84795372       0.13570452      -2.02654306
H        0.01613686       1.50629727      -0.15118773
H        0.23760071      -0.41315720       2.17613968
H        0.26965764      -1.34247419      -1.23166324
H        2.09718818       0.33015863       0.14057413
H       -0.88214692      -0.14101012      -1.81142693
12
Properties=species:S:1:pos:R:3 relative_energy_eV=-1.147339214803651 branch=right pbc="F F F"
C        0.13580308       0.43132447      -0.01097970
O        1.34101790       0.17873787       0.72826668
O       -0.73653421      -0.47713363       2.07696831
C        0.10386608      -0.27519179      -1.35155177
C       -1.04466616      -0.02297289       0.84930446
O       -2.18007860       0.02488511       0.44932046
H        0.85729526       0.13854348      -2.02205837
H        0.00546750       1.51140384      -0.15426763
H        0.23256095      -0.45600447       2.15991213
H        0.28535683      -1.34140130      -1.22163987
H        2.09583603       0.37710489       0.16198986
H       -0.87126891      -0.14675451      -1.81178826
12
Properties=species:S:1:pos:R:3 relative_energy_eV=-1.1481455871489743 branch=right pbc="F F F"
C        0.13504054       0.42966530      -0.01118158
O        1.34013761       0.17744735       0.72585697
O       -0.73286968      -0.46836817       2.07819530
C        0.10291403      -0.27461158      -1.35119553
C       -1.04415172      -0.02351795       0.85016693
O       -2.18056868       0.01751344       0.45157312
H        0.86065877       0.13549417      -2.01942369
H        0.00364578       1.50843334      -0.15513487
H        0.23564835      -0.44063965       2.16481937
H        0.27946415      -1.34268129      -1.22522815
H        2.09553947       0.36356001       0.15853565
H       -0.87080282      -0.13975399      -1.81350728
12
Properties=species:S:1:pos:R:3 relative_energy_eV=-1.1486297381979966 branch=right pbc="F F F"
C        0.13232925       0.43229453      -0.01073081
O        1.33649738       0.18552683       0.72853084
O       -0.73319573      -0.48214338       2.07174759
C        0.10639796      -0.27353137      -1.34974463
C       -1.04640808      -0.02641407       0.84787668
O       -2.18309988       0.01563718       0.45046932
H        0.86993943       0.13256908      -2.01394251
H       -0.00282821       1.50894109      -0.15827501
H        0.23460978      -0.44633757       2.16238339
H        0.27982358      -1.34213000      -1.22369025
H        2.09497890       0.37346612       0.16688681
H       -0.86438870      -0.13533730      -1.81803496
12
Properties=species:S:1:pos:R:3 relative_energy_eV=-1.149082690171781 branch=right pbc="F F F"
C        0.12963437       0.43476817      -0.00997124
O        1.33278887       0.19412493       0.73189651
O       -0.73607143      -0.49896454       2.06398395
C        0.11096653      -0.27249611      -1.34806731
C       -1.04890066      -0.02972144       0.84529399
O       -2.18546218       0.01760880       0.44857392
H        0.87828857       0.13206480      -2.00829513
H       -0.01006943       1.50958131      -0.16102783
H        0.23160033      -0.46000485       2.15912153
H        0.28576772      -1.34065359      -1.22231395
H        2.09299898       0.39001148       0.17535431
H       -0.85688614      -0.13377759      -1.82107208
12
Properties=species:S:1:pos:R:3 relative_energy_eV=-1.1497046682325163 branch=right pbc="F F F"
C        0.12494547       0.43823934      -0.00842092
O        1.32596891       0.20930820       0.73990476
O       -0.74368453      -0.53121880       2.05055938
C        0.12061656      -0.27029499      -1.34634484
C       -1.05367914      -0.03643090       0.84066762
O       -2.18980140       0.02328584       0.44444760
H        0.89121542       0.13736564      -1.99991425
H       -0.02188688       1.51053832      -0.16439953
H        0.22299887      -0.48802957       2.15262312
H        0.30416145      -1.33639464      -1.22134131
H        2.08793281       0.42279891       0.19208369
H       -0.84413236      -0.13662555      -1.82638819
12
Properties=species:S:1:pos:R:3 relative_energy_eV=-1.1501192400482978 branch=right pbc="F F F"
C        0.12213362       0.43864378      -0.00749159
O        1.32172404       0.21823286       0.74538311
O       -0.74990352      -0.55005005       2.04233114
C        0.12765571      -0.26897844      -1.34591476
C       -1.05687463      -0.04136216       0.83786853
O       -2.19282787       0.02858625       0.44271009
H        0.89893180       0.14431246      -1.99456246
H       -0.03015081       1.50996015      -0.16543764
H        0.21636359      -0.50791446       2.14882417
H        0.32047924      -1.33299040      -1.22208664
H        2.08251566       0.44456258       0.20118346
H       -0.83539193      -0.14046046      -1.82933002
12
Properties=species:S:1:pos:R:3 relative_energy_eV=-1.150387166206201 branch=right pbc="F F F"
C        0.12032610       0.43832899      -0.00693664
O        1.31871911       0.22452140       0.75016112
O       -0.75424783      -0.56370953       2.03668248
C        0.13338779      -0.26811074      -1.34619931
C       -1.05935828      -0.04506095       0.83583985
O       -2.19548561       0.03323704       0.44241376
H        0.90457096       0.15081241      -1.99118442
H       -0.03641805       1.50937202      -0.16524215
H        0.21152536      -0.52243971       2.14449758
H        0.33287501      -1.33053134      -1.22233431
H        2.07799158       0.46066862       0.20823066
H       -0.82923142      -0.14454590      -1.83245103
12
Properties=species:S:1:pos:R:3 relative_energy_eV=-1.150520411079924 branch=right pbc="F F F"
C        0.12016624       0.43742766      -0.00693334
O        1.31834463       0.22616286       0.75144540
O       -0.75511755      -0.56695392       2.03500949
C        0.13524251      -0.26824834      -1.34648972
C       -1.06009655      -0.04624682       0.83529183
O       -2.19660139       0.03607173       0.44373398
H        0.90660480       0.15275557      -1.98995165
H       -0.03923620       1.50868357      -0.16442733
H        0.21065423      -0.52691357       2.14223556
H        0.33564204      -1.33032088      -1.22202442
H        2.07613937       0.46579825       0.20936669
H       -0.82708745      -0.14567376      -1.83377887
12
Properties=species:S:1:pos:R:3 relative_energy_eV=-1.1506240977414564 branch=right pbc="F F F"
C        0.11975827       0.43775508      -0.00672281
O        1.31784775       0.22920726       0.75291446
O       -0.75563854      -0.57362046       2.03202736
C        0.13722829      -0.26845633      -1.34617954
C       -1.06102322      -0.04724424       0.83443819
O       -2.19790771       0.03966386       0.44469086
H        0.90981564       0.15284862      -1.98819270
H       -0.04270464       1.50883458      -0.16413153
H        0.21009856      -0.53331485       2.13877501
H        0.33646220      -1.33079396      -1.22050236
H        2.07521155       0.47377807       0.21208115
H       -0.82449351      -0.14611522      -1.83572039
12
Properties=species:S:1:pos:R:3 relative_energy_eV=-1.150721747924763 branch=right pbc="F F F"
C        0.12049087       0.43703920      -0.00681985
O        1.31976675       0.22871870       0.75117730
O       -0.75372532      -0.57104236       2.03305046
C        0.13601658      -0.26944946      -1.34624837
C       -1.06011697      -0.04659373       0.83542494
O       -2.19729082       0.04104879       0.44727476
H        0.91051417       0.14941749      -1.98772205
H       -0.04350783       1.50811590      -0.16335894
H        0.21194270      -0.52914322       2.13913052
H        0.32960924      -1.33305715      -1.22042129
H        2.07596437       0.47119248       0.20880002
H       -0.82500900      -0.14370430      -1.83680987
12
Properties=species:S:1:pos:R:3 relative_energy_eV=-1.1508120091239107 branch=right pbc="F F F"
C        0.12066224       0.43757321      -0.00659010
O        1.32086039       0.23012592       0.75023022
O       -0.75292004      -0.57415725       2.03179366
C        0.13559192      -0.27032908      -1.34550733
C       -1.05976522      -0.04603890       0.83570257
O       -2.19707297       0.04417203       0.44821554
H        0.91191233       0.14589110      -1.98684045
H       -0.04492852       1.50829754      -0.16341411
H        0.21267243      -0.53081121       2.13875011
H        0.32498083      -1.33499338      -1.21944955
H        2.07699906       0.47476314       0.20801271
H       -0.82433766      -0.14195079      -1.83742564
12
Properties=species:S:1:pos:R:3 relative_energy_eV=-1.1508712815084436 branch=right pbc="F F F"
C        0.12111527       0.43729480      -0.00650879
O        1.32261687       0.22899292       0.74804328
O       -0.75187217      -0.57111364       2.03388128
C        0.13371877      -0.27109053      -1.34550442
C       -1.05864966      -0.04481818       0.83714615
O       -2.19574040       0.04425379       0.44900316
H        0.91097400       0.14284837      -1.98738925
H       -0.04360721       1.50790682      -0.16331498
H        0.21356376      -0.52601374       2.14195098
H        0.31984386      -1.33661555      -1.22065289
H        2.07844954       0.47094106       0.20421295
H       -0.82575776      -0.14004387      -1.83738993
12
Properties=species:S:1:pos:R:3 relative_energy_eV=-1.150904124155204 branch=right pbc="F F F"
C        0.12153980       0.43657791      -0.00659391
O        1.32393021       0.22723617       0.74624150
O       -0.75121967      -0.56711396       2.03650273
C        0.13208599      -0.27159284      -1.34577596
C       -1.05773249      -0.04383954       0.83843210
O       -2.19468071       0.04371625       0.44944176
H        0.90947903       0.14131702      -1.98821565
H       -0.04196475       1.50735164      -0.16316371
H        0.21414186      -0.52143716       2.14520610
H        0.31683620      -1.33739939      -1.22200342
H        2.07936506       0.46660280       0.20048399
H       -0.82712562      -0.13887672      -1.83707806
12
Properties=species:S:1:pos:R:3 relative_energy_eV=-1.1509394552122103 branch=right pbc="F F F"
C        0.12184394       0.43547067      -0.00679339
O        1.32511986       0.22497353       0.74439802
O       -0.75054937      -0.56139395       2.04030883
C        0.13052124      -0.27194642      -1.34643533
C       -1.05697492      -0.04307834       0.83995286
O       -2.19384166       0.04198793       0.45010919
H        0.90825710       0.14038893      -1.98889210
H       -0.04014198       1.50655469      -0.16286885
H        0.21482496      -0.51540369       2.14904714
H        0.31405761      -1.33799937      -1.22383831
H        2.07998408       0.46057103       0.19599672
H       -0.82844589      -0.13758289      -1.83750736
12
Properties=species:S:1:pos:R:3 relative_energy_eV=-1.1509635278216592 branch=right pbc="F F F"
C        0.12206049       0.43424517      -0.00712642
O        1.32600193       0.22270728       0.74276795
O       -0.74960616      -0.55529210       2.04424868
C        0.12918863      -0.27217104      -1.34717009
C       -1.05637539      -0.04270035       0.84127344
O       -2.19336763       0.03957574       0.45097515
H        0.90777018       0.13943081      -1.98903800
H       -0.03880560       1.50568277      -0.16263458
H        0.21580950      -0.50900593       2.15236566
H        0.31096574      -1.33847348      -1.22528435
H        2.08028579       0.45429798       0.19159562
H       -0.82927247      -0.13575478      -1.83849570
12
Properties=species:S:1:pos:R:3 relative_energy_eV=-1.1509826199926465 branch=right pbc="F F F"
C        0.12192227       0.43378962      -0.00731702
O        1.32598299       0.22207743       0.74235356
O       -0.74907034      -0.55280144       2.04584294
C        0.12900048      -0.27210532      -1.34752785
C       -1.05639917      -0.04301078       0.84163081
O       -2.19358556       0.03779179       0.45148865
H        0.90866899       0.13891104      -1.98841351
H       -0.03880912       1.50533799      -0.16261403
H        0.21641180      -0.50627318       2.15330608
H        0.30944877      -1.33861344      -1.22559202
H        2.08005121       0.45183646       0.19003632
H       -0.82896730      -0.13439813      -1.83971659
12
Properties=species:S:1:pos:R:3 relative_energy_eV=-1.1509863793944533 branch=right pbc="F F F"
C        0.12177056       0.43384811      -0.00737617
O        1.32571500       0.22229082       0.74249060
O       -0.74883012      -0.55289287       2.04576001
C        0.12918904      -0.27200639      -1.34753063
C       -1.05652617      -0.04337736       0.84146957
O       -2.19384922       0.03716916       0.45161656
H        0.90959077       0.13845326      -1.98783970
H       -0.03925502       1.50535695      -0.16272447
H        0.21664650      -0.50602601       2.15295890
H        0.30883817      -1.33862243      -1.22521032
H        2.07981166       0.45199272       0.19018836
H       -0.82844616      -0.13364393      -1.84032535
12
Properties=species:S:1:pos:R:3 relative_energy_eV=-1.1509830532686465 branch=right pbc="F F F"
C        0.12167917       0.43398291      -0.00738165
O        1.32555813       0.22248929       0.74258483
O       -0.74873816      -0.55333232       2.04546548
C        0.12930892      -0.27195660      -1.34748401
C       -1.05660653      -0.04357837       0.84132473
O       -2.19398019       0.03700507       0.45163119
H        0.91013500       0.13807092      -1.98755696
H       -0.03948268       1.50544880      -0.16276766
H        0.21673413      -0.50622973       2.15263998
H        0.30853822      -1.33864806      -1.22487729
H        2.07968945       0.45253979       0.19047661
H       -0.82818045      -0.13324963      -1.84057788
