12
Properties=species:S:1:pos:R:3 relative_energy_eV=2.2234436085454945 branch=ts pbc="F F F"
C       -0.76192714      -0.21221711      -0.79439460
O       -1.56934232      -0.98337528      -1.25923860
O        0.94252613      -0.07235603       1.74606260
C        0.60796921       0.03110545      -1.41251058
C       -0.35010929       0.16238803       1.45497600
O       -0.67341968       1.36442054       1.12127551
H        1.20856815       0.72584669      -0.83014366
H       -0.96675854       1.04752996       0.05032097
H        1.04341994      -1.00983815       1.96208074
H        1.11942312      -0.93020665      -1.46214782
H       -1.08112866      -0.54002332       1.84797668
H        0.48079266       0.41671151      -2.42424142
