12
Properties=species:S:1:pos:R:3 relative_energy_eV=2.449291098742833 branch=ts pbc="F F F"
C        0.20162142      -0.30868871       0.08882780
O        1.53049875      -0.80379010       0.20747106
O        0.27619171       0.35445468       2.18970690
C       -0.39969069      -0.52963486      -1.25666936
C       -0.22456428       0.62165928       1.04815826
O       -1.10662605       1.59442985       0.91616522
H        0.07202625       0.07387809      -2.04008805
H       -1.34675969       1.67911281      -0.01635180
H        0.59889195      -0.71024363       1.32021532
H       -0.29630489      -1.57186280      -1.56028252
H        2.15085577      -0.06727445       0.32467089
H       -1.46666305      -0.31150227      -1.25282859
