12
Properties=species:S:1:pos:R:3 pbc="F F F"
C       -0.50527140       0.43688776      -1.88091772
O       -0.84400279      -0.72608830      -1.84848517
O        0.22237968       1.34931400       1.76259654
C       -0.08027014       0.16933715       1.10696766
C        0.88953740      -0.69652067       0.80058835
O        0.76565466      -1.85090966       0.09913065
H       -1.22016597       1.26138187      -1.69073094
H        0.52974812       0.74136465      -2.13041317
H       -0.47387777       1.52358052       2.40416620
H       -1.12136411       0.01982921       0.84439654
H        1.90075183      -0.52037769       1.14781830
H       -0.01078055      -1.77415767      -0.48456388
