12
Properties=species:S:1:pos:R:3 pbc="F F F"
C       -0.09425766      -0.89082541      -1.36303967
O        0.63445745      -1.93198022      -1.91071501
O       -0.04401641       0.43136924       1.98760036
C        0.39148261      -0.05902513      -0.41235133
C       -0.23455637       0.93688732       0.59880374
O       -1.63640940       1.17343064       0.50001323
H       -1.94536312       1.49952482       1.37155578
H       -1.07280642      -0.86646878      -1.86119310
H        0.86592162       0.07955685       2.05257085
H        1.48101483      -0.14593101      -0.32665929
H        0.26147979       1.91988908       0.51513027
H        1.33929555      -2.15672748      -1.26986090
