16
Properties=species:S:1:pos:R:3 pbc="F F F"
O       -3.53089218      -0.07131603      -0.61658016
C       -2.26287763       0.20041004      -0.50207412
C       -1.95457278      -1.05281976       1.69139664
O       -3.03993926      -1.46458463       1.70021597
C        0.80136814       0.58705240       0.04332182
O        0.95502064       1.45710530      -1.07077419
C        1.91180272      -0.42588657       0.06293361
O        3.17725538       0.24033852      -0.04981948
H       -2.03521834       0.86947299      -1.35916219
H       -0.22956420       0.23115617       0.10982978
H       -3.78504052      -0.65666363       0.13160897
H        0.66744272       1.08553892       1.15584350
H        1.89319128       1.67321387      -1.17771030
H        1.71890985      -1.07107619      -0.80056512
H        1.85890035      -1.02456694       0.97776704
H        3.84155406      -0.41991044      -0.27044741
