16
Properties=species:S:1:pos:R:3 pbc="F F F"
C        1.25446326      -1.11246646      -1.24306816
C        0.39728258      -0.01702442      -1.58874185
O        0.96079768       1.11584824      -1.23416374
N       -0.72205717      -0.00235117      -2.30333853
C       -1.10535220       0.31232125       2.06948246
N        0.35379158       0.30500589       2.03750305
H        1.91735882       0.25065590      -1.10011618
H        1.28906484      -1.29157176      -0.16989808
H        1.10741578      -2.04477044      -1.79109176
H       -1.15026396      -0.86591357      -2.58844329
H       -1.17638372       0.87170081      -2.50640045
H       -1.46624313      -0.53171367       2.65794615
H       -1.56328750       1.22356119       2.48157895
H       -1.49571007       0.18165318       1.05975322
H        0.72059066       0.55734481       2.94743788
H        0.67939773       1.01645952       1.39399438
