16
Properties=species:S:1:pos:R:3 pbc="F F F"
O        1.03017946       1.27795611      -1.01475272
C       -0.06361450       0.76537156      -1.18329392
C       -0.22395663      -0.67883997      -1.59692332
O        0.94220791      -1.44740234      -1.56470067
O       -2.05246656      -1.07024931       2.20191671
C       -0.86257347      -1.04954990       1.87150671
C       -0.19436635       0.20503590       1.58159333
O        1.08737908       0.24217608       1.35544159
H       -0.97614249       1.37696878      -1.15960337
H       -0.97558253      -1.13835647      -0.94234383
H       -0.67339116      -0.65196391      -2.60462997
H        1.69628990      -0.84056614      -1.58455065
H       -0.25325894      -1.97392319       1.78232887
H        1.01555118       2.73474722       0.28914239
H       -0.75564999       1.13424662       1.70476734
H        1.25940365       1.11442058       0.86411416
