12
Properties=species:S:1:pos:R:3 pbc="F F F"
O        0.86830738      -2.11287349       1.33786346
C        0.84597571       0.49995754      -0.89583699
C        0.58905062       1.64097725      -1.51156061
O        0.42697697       2.64680105      -2.05794232
C       -1.24246594      -0.43836929      -0.27504434
O       -0.04156767      -0.01470486       0.11126784
H        1.15910890      -2.61095054       2.12622285
H        1.80134216       0.03011419      -1.03855792
H       -0.45114847       1.70785642       2.89869104
H       -1.41790687      -1.41342503      -0.70292274
H       -2.12591435       0.17369190      -0.28731058
H       -0.34832179      -0.22876950       0.32379730
