16
Properties=species:S:1:pos:R:3 pbc="F F F"
O       -1.95639143       1.93559310      -1.73281113
C       -1.77780624       0.70435918      -1.09295003
C       -1.20776154       0.57768861       0.28760777
O       -1.84131222      -0.45390377       0.96390428
C       -0.45725143       0.08831966      -0.87769389
O        1.16564172       0.21141789       2.57612915
C        0.61285428      -0.44207664      -1.36616154
O        1.58360111      -0.93057866      -1.80479053
H       -2.01493474       0.09390214       1.84252413
H       -0.82090006       1.49150045       0.73229790
H       -1.10502009       2.23297198      -2.07510939
H       -2.58959750       0.02105803      -1.31261274
H        1.96236481      -0.13659200       2.16595130
H        3.82951791      -2.43124545      -0.00818025
H        0.52990587      -0.44586537       2.30125433
H        4.26363156      -2.62157180      -0.56166477
