16
Properties=species:S:1:pos:R:3 pbc="F F F"
C       -0.18653403      -1.31685864      -0.88011074
C        0.47884244      -0.10722439      -0.54298630
C        0.11186125       1.12100131      -0.98161878
C        0.15020104       1.77654078       0.27856743
C       -0.41546224       0.25122793       0.92064064
C       -0.13070364      -1.13564853       0.86349640
H       -0.41747950      -1.13426525      -1.92564595
H        0.17035014      -2.27481434      -1.18416488
H        0.83597715      -0.52909600       0.38815497
H       -0.44605480       1.39342555      -1.87029044
H        0.97022066       1.93224804       0.94495247
H        0.21124000       2.78376184      -0.11308680
H       -1.19744389       0.35109914       1.65098033
H       -0.71056224       0.21551505      -0.10534269
H       -0.07389587      -1.49050337       1.89266899
H        0.64944353      -1.83640911       0.66378534
