16
Properties=species:S:1:pos:R:3 pbc="F F F"
C        0.28258047      -1.01484904      -2.07645799
C        0.80873200      -0.02350214      -1.35541818
C        0.18216294       1.24451444      -1.06160853
C        0.59266870       2.06861913      -0.10562239
C       -0.81213293      -0.56428561       1.37626656
C       -0.76322525      -1.34347086       2.45646455
H       -0.71325236      -0.93497349      -2.50043796
H        0.81732537      -1.94365081      -2.25186845
H        1.80825746      -0.15257654      -0.93981315
H       -0.67690646       1.54072112      -1.66513524
H        1.44875125       1.84733982       0.51504747
H        0.08891757       3.00477748       0.06320274
H       -0.64441417       0.49616515       1.23308593
H       -0.93945682      -0.80036313       0.32563806
H       -1.59552045      -1.60071043       3.09946373
H        0.11551127      -1.82373436       2.88719551
