12
Properties=species:S:1:pos:R:3 pbc="F F F"
O        1.34566078       0.54912594      -0.52752840
C        0.43559885      -0.12086741      -1.19539664
C       -0.92717066      -0.21280861      -0.95166259
O       -1.63240969       0.32098470       0.00927584
C        0.17068029      -0.02737371       2.10396783
O        0.17765990      -0.40316404       3.21018840
H       -0.40762697       0.75326428      -2.05854398
H        0.75724855      -0.79169183      -1.98638691
H       -1.46731465      -0.83323850      -1.65452013
H       -1.04275911       0.35771495       0.86062334
H        1.20174203       0.32421453       0.59340522
H        1.31091717       0.15539931       1.49648748
