12
Properties=species:S:1:pos:R:3 pbc="F F F"
O       -1.64487303      -0.26551010      -2.28041407
C       -0.80328632       0.56629528      -2.05675245
C        0.23932515       0.40104943      -0.98435576
O        0.10348264      -0.84216199      -0.33631411
C        0.03281087      -0.85133590       2.05976869
O       -0.23159452       0.34682470       2.65328276
H       -0.79301595       1.49474912      -2.66671173
H        0.14310828       1.33756166      -0.41452067
H        1.17538964       0.59962362      -1.52790655
H        0.70133358      -0.42762153       1.04336790
H        0.94784357      -0.99261198       1.48072967
H        0.12947609      -1.36686231       3.02982632
