16
Properties=species:S:1:pos:R:3 relative_energy_eV=1.601713800770085 branch=ts pbc="F F F"
O       -2.98990844       0.04014165      -0.80443089
C       -1.77359219      -0.23658782      -1.26938818
C       -0.88044055      -0.65418364       1.22107569
O       -1.80579732      -0.37349676       1.89640736
C        0.43182615       0.46076490       0.63910592
O        0.46711353       1.58724582      -0.17669290
C        1.54534008      -0.51520828       0.28470329
O        2.59241878       0.22381652      -0.35361678
H       -1.53841436       0.60034081      -1.97500700
H       -0.78285125      -0.18002037      -0.21874765
H       -3.22449894      -0.53898522      -0.05970756
H        0.52221370       0.80969183       1.67379016
H        1.23248448       1.50210102      -0.77041481
H        1.12756106      -1.25664582      -0.40091175
H        1.89704582      -1.02629168       1.18399720
H        3.11652906      -0.37872887      -0.89246315
