16
Properties=species:S:1:pos:R:3 pbc="F F F"
O       -1.87799670      -0.45849985      -1.13405577
C       -1.68443001      -0.08158101       0.20508787
C       -0.37159893       0.68459246       0.10275175
O       -0.37743078       1.86283498       1.14795069
C        0.91296509       0.14822617       0.62696336
O        1.52296825       0.38224815       1.65712323
C        1.41561745      -0.94115502      -0.30230984
O        0.83410762      -0.91096298      -1.59880912
H       -1.49388261      -0.89442854       0.90942871
H       -0.27409182       1.40719347      -0.67058729
H       -1.06558954      -0.85649082      -1.48443903
H       -2.47931419       0.57352582       0.53837971
H        0.12850655       1.77572242       1.93871997
H        1.06826962      -1.90004512       0.08430194
H        2.50600624      -0.93749136      -0.29677316
H        1.04414090       0.22375170      -1.78096887
