12
Properties=species:S:1:pos:R:3 pbc="F F F"
C        0.00145344      -0.82656673      -1.69717919
C       -1.25693774      -1.06259655      -1.35605782
O       -0.86141367       1.09311166       0.97257605
O        0.06377691       1.59887999       1.96036432
C        1.26443639       1.00286272       1.89362094
O        1.58043456       0.14093776       1.11263347
H        0.81018216      -1.47646622      -1.39257448
H        0.27436950       0.03205319      -2.29480916
H       -2.06536826      -0.42290960      -1.68398891
H       -1.52944238      -1.89711061      -0.72424642
H       -0.30012108       0.43959749       0.49133704
H        1.88867552       1.44931586       2.67682660
