12
Properties=species:S:1:pos:R:3 pbc="F F F"
C        0.92496963      -0.43419614      -1.33193889
C       -0.44683926      -0.00939240      -1.58953324
O        0.48672289       0.88033284      -0.94595811
O       -1.31188271      -0.64271008       1.63615355
C       -0.54420061       0.01053964       2.30648071
O        0.36861506       0.88541498       1.87056954
H        1.12133714      -1.11619288      -0.51241841
H        1.64947685      -0.44844364      -2.13690909
H       -0.73980491       0.29671098      -2.58770367
H       -1.24183403      -0.37962998      -0.95707431
H        0.36870529       0.92313961       0.88363226
H       -0.50522852      -0.03665733       3.40542181
