12
Properties=species:S:1:pos:R:3 pbc="F F F"
C        0.00355106      -0.82762385      -1.69704959
C       -1.25599130      -1.06108956      -1.35844660
O       -0.86020673       1.09751420       0.96733176
O        0.06130253       1.59818517       1.96124212
C        1.26143922       1.00042806       1.89798738
O        1.57977298       0.14087389       1.11522560
H        0.81067200      -1.47806034      -1.38924233
H        0.27910457       0.02929599      -2.29590648
H       -2.06271910      -0.42118787      -1.69012663
H       -1.53125146      -1.89348825      -0.72500072
H       -0.29850944       0.44347629       0.48731790
H        1.88278880       1.44269183       2.68587324
