12
Properties=species:S:1:pos:R:3 pbc="F F F"
C       -0.21612412      -0.21311694      -1.67919889
C       -1.52536994      -0.90649834      -1.49798138
O       -0.61642070      -0.59411708       0.39622742
O        0.19694468       1.45565030       1.30423873
C        1.30551624       1.17753278       1.93389159
O        1.88965496      -0.01593786       2.33821645
H        0.71261873      -0.62194074      -1.30252440
H       -0.17470394       0.41067435      -2.56576337
H       -2.40036180      -0.53300469      -2.01527355
H       -1.51801271      -1.61479795      -0.67838203
H        0.80450809      -0.78195200       1.69668772
H        1.54175051       2.23750818       2.06986171
