35
Properties=species:S:1:pos:R:3 pbc="F F F"
O        0.67386964       0.52021370      -1.76101467
C        0.36463896       1.71410445      -2.43918257
C       -1.08752561       2.09120778      -2.27366151
O       -1.82649746       1.33420112      -1.64906080
C       -1.63986050       3.39197633      -2.80153654
O       -2.78353381       3.76063467      -2.05278277
C       -1.98904343       3.28415190      -4.29942867
O       -0.88091983       2.73624726      -4.96253787
C       -2.36496549       4.68128488      -4.80971222
O       -1.24669891       5.54549812      -4.73433585
C       -2.93034647       4.66188352      -6.22047583
O       -1.86069728       4.56834266      -7.14614109
P       -1.99725928       3.52655248      -8.45631739
O       -0.82421143       3.83186810      -9.31965987
O       -3.43769980       3.43560879      -8.87419032
O       -1.69525110       2.07307092      -7.61448351
O        5.52496314     -11.08552714      18.71117554
P        6.43440004     -12.26978797      18.65964756
O        7.90186448     -12.23635547      18.28559557
O        5.71599759     -13.42858810      17.67308779
O        6.34237122     -13.05401621      20.14711655
H       -0.17361788       0.22302754      -1.38446790
H        0.59389391       1.64022056      -3.50371123
H        0.97121953       2.54079257      -2.04874675
H       -0.89724277       4.18683424      -2.71553906
H       -3.06856366       2.95014846      -1.60018094
H       -2.86888754       2.62896968      -4.38186931
H       -1.13492990       2.53381545      -5.88542765
H       -3.12200070       5.06247777      -4.12280764
H       -0.74471456       5.33133281      -5.53834955
H       -3.64529699       3.84657541      -6.34682117
H       -3.46173281       5.59963562      -6.39836845
H       -2.52820283       1.58832794      -7.65941921
H        6.44770904     -13.84897758      17.20613229
H        7.23871812     -13.36582473      20.31745104
