16
Properties=species:S:1:pos:R:3 pbc="F F F"
O        0.38814344      -0.26759839      -3.36865147
C        0.93201643       0.30246479      -2.44504267
C        0.42601780       0.21789411      -1.03679106
O       -0.67372159      -0.64078871      -0.92851083
O        1.16063650       1.17893332       1.65847360
C        0.42486220       0.16043860       1.39079994
C       -0.92476402      -0.03114266       2.01660909
O       -1.48754516      -1.12288605       1.30999136
H        1.81317893       0.92187110      -2.70805590
H        1.46931705      -0.06983707      -0.12291414
H        0.32887610       1.25278328      -0.67636054
H       -0.84708396      -0.89314985      -1.85143068
H        1.07356098      -0.73063782       1.41052402
H       -1.00870296      -0.30014912       3.07468296
H       -1.49489787       0.89324992       1.89278000
H       -1.57989385      -0.87144543       0.38389633
