12
Properties=species:S:1:pos:R:3 pbc="F F F"
O       -1.28422868      -1.15715272      -1.51709580
C       -0.49104878      -0.67142833      -0.59202346
C       -1.18807026      -0.92702031       0.71909749
O       -1.79997883       0.34420682       0.98359110
C        2.29198190       1.30475973      -0.09984038
O        3.13601787       1.06876479      -0.92640716
H       -0.47550048      -1.18756689       1.51154866
H       -1.97935701      -1.67551386       0.65777261
H       -1.07256328       0.97980560       1.03930362
H        1.54054516       2.10619717      -0.25058976
H        2.23391913       0.75876235       0.86366165
H       -0.91147654      -0.94380053      -2.38936778
