12
Properties=species:S:1:pos:R:3 pbc="F F F"
C       -0.15192240      -0.00810339      -1.03292720
O        0.47557921       0.14635440       0.13450998
O       -0.30659583      -0.44878795       3.13259295
C        0.08527809       0.47667755      -2.25069663
C        0.69019332       0.08577548       2.62125245
O       -1.31703310      -0.72520597      -0.90319456
H       -1.87013975      -0.78698197      -1.68948804
H        0.28162501       0.33018680       1.63368269
H       -0.00108414      -0.71310999       0.79581735
H       -0.53701123       0.41907347      -3.13144267
H        1.65696855       0.19918916       3.12290515
H        0.99414226       1.02493241      -2.43301146
