12
Properties=species:S:1:pos:R:3 pbc="F F F"
C       -0.09937474      -0.27698197      -0.87791460
O        0.74255191      -0.69472576       0.00027422
O       -0.00371649      -0.84783973       2.25615558
C        0.16391113       0.56548593      -1.91289227
C        0.55520657       0.28132638       2.00648376
O       -1.38536233      -0.76483192      -0.69343245
H       -1.91055918      -0.46453597      -1.44479648
H        0.07457778       1.04601292       1.40285666
H       -0.08883340      -1.20600550       1.28861253
H       -0.61617776       0.86770471      -2.59491346
H        1.40091027       0.57030723       2.63428578
H        1.16680913       0.92410462      -2.06471492
