16
Properties=species:S:1:pos:R:3 pbc="F F F"
O       -1.65612214      -0.56661314      -0.57120245
C       -0.82786754      -0.11535537       0.18446092
C       -1.58725157       0.71963595       1.45455453
O       -1.05426024       1.75729760       2.34863611
C        0.61150667      -0.83185676      -0.10634575
O        1.56604625      -0.76723301       0.98974861
C        0.95059660      -0.67824744      -1.77700503
O        1.30305109       0.55964873      -2.41964011
H       -2.59866762       0.96123202       1.02679514
H       -1.71766422      -0.18360467       2.07321388
H       -1.43479448       2.65907148       2.29791349
H        0.37514069      -1.92133614      -0.09555337
H        2.21824303      -0.04215720       0.96032205
H       -0.02589980      -0.90762501      -2.21245285
H        1.68949393      -1.46470561      -2.05745669
H        2.18672596       0.82327031      -2.09174837
