12
Properties=species:S:1:pos:R:3 pbc="F F F"
O        1.07396135      -1.27547432       0.92317152
C        1.24564990      -0.06725695       0.52471397
C        0.34595287       0.57552182      -0.32151196
O        0.28723047       1.96707166      -0.37408216
C       -0.73507238      -0.18017132      -0.80434087
O       -1.34359913      -1.17339258       0.56857453
H       -0.27666001      -1.40972442       0.83556514
H        0.98551482       2.28883225      -0.95557525
H        2.09444576       0.50894634       0.91147046
H       -0.53649152      -1.10442302      -1.32048424
H       -1.62361296       0.32393314      -1.15503708
H       -1.58187822      -0.49913903       1.22194130
