12
Properties=species:S:1:pos:R:3 pbc="F F F"
C        0.31701956      -0.08639430      -2.17828785
C       -0.91153209       0.37942805      -1.98229874
O        0.52491655       1.67296308       0.37558158
O        1.23014000       1.19262920       1.38560717
C        0.53084092       1.10021679       2.62872329
O       -0.58246466       1.47484263       2.82384363
H        1.01758748      -0.17561868      -1.35583142
H        0.66732653      -0.38508659      -3.15996328
H       -1.62233702       0.47315652      -2.79454918
H       -1.24460479       0.69122338      -1.00253474
H       -1.14962063      -6.94823453       1.93795108
H        1.22268275       0.61085634       3.32172198
