34
Properties=species:S:1:pos:R:3 pbc="F F F"
O        2.38806988       2.26956744      -0.20166196
P        3.09327324       1.21015876       0.56019849
O        4.69012927       1.39115413       0.65312577
O        2.71953557       0.97256857       2.08214577
O        2.88611027      -0.29078206      -0.03218696
C        2.64099305      -0.45389021      -1.42585754
C        1.77158696      -1.65652991      -1.68519434
O        1.95386949      -2.35793004      -2.66534000
C        0.89346845      -2.37214458      -0.67895175
O        0.10209303      -3.43617734      -1.12140637
C       -0.75913029      -1.02461870      -0.80379566
O       -1.48934729      -0.59709216      -1.86060167
C       -0.30206430       0.12933846       0.06412568
O        0.23943597      -0.00243651       1.38196828
C       -1.50431034       1.03150973       0.18822538
O       -2.40896675       0.39535078       1.12308316
P       -3.88422320       0.94718281       1.41515834
O       -4.62420696       0.16047075       2.41939200
O       -4.54610153       1.03675297      -0.05361338
O       -3.64014871       2.50368600       1.76877088
H        4.96141373       2.14786104       0.11862584
H        1.79688960       0.63972723       2.11790999
H        3.56988775      -0.61869322      -1.96718658
H        2.13270774       0.41377232      -1.85861615
H        1.14878637      -2.16173750       0.34438179
H        0.72145799      -3.60164568      -1.85410655
H       -1.22848869      -1.64970242      -0.05109215
H       -0.70171405      -1.84805974      -1.84430468
H        0.44995030       0.73130003      -0.43812453
H       -0.47589675      -0.25047480       1.98616284
H       -1.98881544       1.12177757      -0.77598432
H       -1.25755104       2.02300646       0.55777288
H       -5.33738542       0.48526541      -0.09861064
H       -4.01132304       2.71145997       2.63557198
