16
Properties=species:S:1:pos:R:3 pbc="F F F"
C        0.28228029       0.50314675      -1.98048678
C       -0.26622307      -0.89172087      -1.96403342
O       -0.60186455      -1.84185624      -2.60590025
N       -0.52003098      -1.42726588      -0.74644550
C        0.82587476       0.74453860       2.00182662
N       -0.58431726       0.49318563       1.70952522
H       -0.32907237       0.65083108      -1.19420149
H        1.34072919       0.34339057      -2.03732295
H       -0.16086832       0.78238920      -2.91180858
H       -0.59398360      -0.88587185       0.10222514
H       -0.91553045      -2.32414791      -0.55300668
H        1.01234475       1.42220962       2.84267715
H        1.32302657      -0.20058210       2.21408578
H        1.30545313       1.16071239       1.11862026
H       -1.05443760       0.11649970       2.52197489
H       -1.06338423       1.35453875       1.48227528
