16
Properties=species:S:1:pos:R:3 pbc="F F F"
C        1.67494975      -0.58502982      -0.58287792
C        0.39398103       0.20845435      -0.35499406
O        0.39436865       1.43103382      -0.65231300
N       -0.97570873      -0.95965996      -1.15508620
C       -1.11014310       0.81224210       1.56211053
N       -0.15578667      -0.09731785       1.00873684
H        2.49041781      -0.05583050      -0.09534922
H        1.61760504      -1.59330255      -0.17754249
H        1.89795240      -0.64287540      -1.64640074
H       -1.43746126      -0.21364968      -1.68868246
H       -0.42865784      -1.46964087      -1.85235423
H       -2.08405717       0.75505756       1.07029615
H       -1.23229508       0.59191154       2.62077463
H       -0.73853444       1.82684413       1.44673649
H       -0.37013301      -1.07453715       1.09474313
H        0.11679732       1.17836435      -0.89557062
