16
Properties=species:S:1:pos:R:3 pbc="F F F"
O       -1.16804010       1.07495339      -2.27606335
C       -0.15919679       0.57811131      -1.81756526
C       -0.21951543      -0.71458713      -1.04001502
O       -1.54865505      -1.15225987      -0.92756681
O        1.79627223      -0.24793817       0.10974925
C        0.44159942      -0.60124958       0.33850171
C       -0.21735154       0.41531293       1.25166425
O        0.60859608       0.46513410       2.41959912
H        0.83030169       1.04281023      -1.94549492
H        0.38453355      -1.44297748      -1.60592888
H        2.14095267       0.01725848       0.97354677
H       -2.06801028      -0.54044335      -1.47946931
H        0.37435777      -1.58512749       0.82027982
H       -0.25049627       1.39121230       0.75925689
H       -1.23629834       0.10944424       1.49684077
H        0.33181594       1.20956021       2.96303948
