16
Properties=species:S:1:pos:R:3 pbc="F F F"
O        1.83486691      -0.53231603      -0.62470329
C        0.83941259      -1.22938601      -0.00095746
C       -1.28756333       1.04685284      -1.55043019
O       -2.30711825       1.49644701      -2.30685565
C       -0.25278742       0.32026393       1.35313094
O        0.11388463       1.47811070       1.21938545
C        0.64315482      -0.92525208       1.42037769
O        1.78375677      -0.72690153       2.24167997
H       -0.82815010       1.69026292      -0.82198312
H       -0.83652193       0.13348307      -1.89903231
H       -2.78520404       2.17218891      -1.81187039
H       -1.33353029       0.05894061       1.33972272
H        1.68931391      -0.54832031      -1.57747356
H        0.12675114      -1.79959603      -0.58956343
H       -0.01322493      -1.70098214       1.83712157
H        2.57893359      -0.97063864       1.75285092
