12
Properties=species:S:1:pos:R:3 pbc="F F F"
O       -0.57451047      -1.05222480       1.27814882
C        0.44565767      -0.41665517       0.56325627
C       -0.03035233       0.24118645      -0.72440433
O        0.73427473       1.27698829      -1.15996267
C       -1.10040511      -0.18042032      -1.39700823
O        1.08691172       0.61077200       1.31837734
H       -1.32499453      -0.44133686       1.32549662
H        1.30292442       1.55087178      -0.42480683
H        1.16432633      -1.21479304       0.35493510
H       -1.67598611      -1.01857231      -1.04329703
H       -1.40264831       0.29556408      -2.31631206
H        1.36481223       0.22751613       2.15964650
