12
Properties=species:S:1:pos:R:3 pbc="F F F"
O        1.18911201       0.90679406      -1.83369689
C        0.05047515       0.82499170      -1.44099285
C       -0.63448410      -0.47217854      -1.09783141
O       -1.57750256      -0.32122548      -0.05169202
C        0.31375875       1.14392593       2.98735083
O       -0.26695803       0.19915702       2.75262527
H       -0.59465924       1.72278248      -1.31600840
H        0.12425246      -1.23231838      -0.90454383
H       -1.19850119      -0.77379890      -1.98884470
H       -1.12754200      -0.38198072       0.79943366
H        1.97825118      -0.60034913       1.16162369
H        1.87424544      -1.20338046       0.76588032
