16
Properties=species:S:1:pos:R:3 pbc="F F F"
O        0.25423621      -0.19480730      -0.30818119
C        0.73475453       1.00633177      -0.53656271
C       -0.01429321       1.61347482      -1.67155733
O       -1.10475732       0.92772517      -2.23146260
C        0.88232711      -1.03111509       1.64101729
O        1.26165684       0.05875215       2.02442303
C       -0.45608732      -1.15366192       0.96950642
O       -1.06113388       0.04106209       0.54728385
H       -0.52957356       2.50459692      -1.27547046
H        0.69147062       1.94823941      -2.44196889
H       -1.15567651      -0.26251334      -1.59063393
H        1.55412383      -1.90400799       1.71341663
H        0.76928594      -0.56374166       0.42537387
H       -0.96871783      -1.95751871       1.51619755
H       -0.23572886      -1.62055510      -0.00536929
H       -0.62188660       0.58773879       1.22398776
