16
Properties=species:S:1:pos:R:3 pbc="F F F"
O        1.40107870      -0.18373334      -1.46666210
C        0.53400982       0.59211550      -1.40863291
C        0.16163624       1.88653482      -2.18579599
O       -0.38892226       1.61671387      -3.44204794
C        0.91322777      -0.89947792       1.77499367
O        1.60338341      -1.18941355       2.86172840
C       -0.54837106      -1.49621073       1.69186420
O       -1.48448912      -0.45399953       1.94376214
H       -0.49883905       2.48224740      -1.56503250
H        1.09666396       2.42788406      -2.34478688
H       -1.30134398       1.31961864      -3.30905079
H        1.42045945      -1.24227905       0.83794548
H        0.76219893       0.19645578       1.62940570
H       -0.63200022      -2.31009682       2.42178164
H       -0.67961106      -1.89853835       0.67982527
H       -2.35910214      -0.84758576       1.88090658
