12
Properties=species:S:1:pos:R:3 pbc="F F F"
C       -0.03027341      -1.17584249       0.07074766
O       -0.88973332      -1.14877375       0.99024702
O       -0.02398724       1.24858191       2.18008811
C        1.05617483      -0.67759207      -0.68947039
C       -1.52179005       1.50727871      -2.19737089
O       -0.63363644       1.80654557      -2.83511409
H       -0.53684659       1.53739083       2.93987647
H       -0.25302037      -2.14894816      -0.41761053
H       -0.44641008       0.41544723       1.89894631
H        0.74618295       0.13762399       0.17455114
H        0.75615861      -0.28339903      -1.63281014
H        1.97835088      -1.11266580      -0.37830938
