12
Properties=species:S:1:pos:R:3 pbc="F F F"
C        0.23510825      -0.86356428       0.33074011
O        0.00447100      -1.40313180       1.44189697
O       -0.44662284       1.08573738       1.82131409
C        1.19341242      -1.00381123      -0.67056987
C       -1.69932877       1.61814050      -2.60068551
O       -0.58569539       1.77855618      -2.73185332
H       -0.65355713       1.66926113       2.56430146
H       -0.48345889      -1.10194472      -0.58226446
H       -0.40874332       0.16448681       2.18342693
H       -0.00658114       0.29217862       0.55770021
H        1.25026134      -0.24179102      -1.43301544
H        1.80189895      -1.88847616      -0.77720528
