16
Properties=species:S:1:pos:R:3 pbc="F F F"
O        2.23794729      -1.78351606       0.31235102
C        2.25709868      -0.57459246       0.28122576
C        1.13326298       0.39060545       0.52605400
O        1.05569607       1.42666960      -0.41341109
C       -0.40954209      -0.78442831      -0.21275799
O       -0.66247531      -1.46788128      -1.34466171
C       -1.57766358       0.08705792       0.15101296
O       -1.66506927       1.20995291      -0.72705485
H        3.09714999       0.14206420       0.23742275
H        0.76611815       0.59328010       1.52916168
H        0.18108869       1.63544940      -0.78080144
H       -0.36919172      -1.34419750       0.71013678
H        0.58268663      -1.25186715      -0.81878612
H       -1.77049149       0.47910426       1.15447322
H       -2.44363428      -0.54700042      -0.05133983
H       -2.41297913       1.78929843      -0.55302651
