5
Properties=species:S:1:pos:R:3:masses:R:1 pbc="F F F"
N        0.28184825       0.44486090       0.43897994      14.00307400
N       -1.15954078       0.35795159      -0.26583375      14.00307400
C       -0.36910905      -0.60754751       0.39038588      12.00000000
H       -0.34787126      -1.66056295       0.64294364       1.00782503
H       -1.81489471       0.74907035       0.42033828       1.00782503
5
Properties=species:S:1:pos:R:3:masses:R:1:forces:R:3 energy=-4044.5843634762527 pbc="F F F"
N        0.24949657       0.44209381       0.42669193      14.00307400       0.68714450      -0.02090103       0.39641255
N       -1.14206234       0.37826062      -0.25629121      14.00307400      -0.35249971      -0.42562297       0.00462501
C       -0.36679630      -0.63089818       0.40977915      12.00000000      -0.21826414       0.45391807      -0.56522295
H       -0.29499958      -1.69723189       0.58029024       1.00782503      -0.07768342       0.05606223       0.14778478
H       -1.79182337       0.78083192       0.42839589       1.00782503      -0.03766267      -0.06596815       0.01021352
5
Properties=species:S:1:pos:R:3:masses:R:1:forces:R:3 energy=-4044.259648297904 pbc="F F F"
N        0.20259219       0.44292606       0.40035026      14.00307400       1.83576363      -0.02373258       0.96096609
N       -1.12338822       0.40854033      -0.25974955      14.00307400      -0.44968763      -1.19328085       0.24341575
C       -0.33931385      -0.66921132       0.46088640      12.00000000      -1.39181028       1.43261902      -1.91136139
H       -0.26388650      -1.74591657       0.40613603       1.00782503       0.09521489       0.06597780       0.58881226
H       -1.75943265       0.85530615       0.40962348       1.00782503      -0.08736732      -0.28234293       0.11325189
5
Properties=species:S:1:pos:R:3:masses:R:1:forces:R:3 energy=-4043.643185792732 pbc="F F F"
N        0.16136682       0.44334245       0.38001164      14.00307400       2.43799006      -0.01445999       1.11027536
N       -1.11508503       0.43365303      -0.26494398      14.00307400      -0.36761136      -1.34798949       0.22541938
C       -0.29905179      -0.70794737       0.51054239      12.00000000      -2.21458573       2.06565226      -2.43093240
H       -0.31373491      -1.74501139       0.21738281       1.00782503       0.28372538      -0.16068018       0.80717606
H       -1.73249385       0.96045457       0.36295465       1.00782503      -0.13368231      -0.53565102       0.28429267
5
Properties=species:S:1:pos:R:3:masses:R:1:forces:R:3 energy=-4042.9680982479417 pbc="F F F"
N        0.12187323       0.44338774       0.36253291      14.00307400       2.04746151       0.02690021       0.88293675
N       -1.11019452       0.45480306      -0.26716407      14.00307400      -0.15907013      -1.09779305      -0.00692369
C       -0.25706436      -0.74848701       0.55483018      12.00000000      -1.83503900       1.91201121      -1.85374470
H       -0.37105099      -1.69038657       0.04325529       1.00782503       0.13505254      -0.28494442       0.59644661
H       -1.69533130       1.09304899       0.28383422       1.00782503      -0.18797278      -0.55594004       0.38611856
5
Properties=species:S:1:pos:R:3:masses:R:1:forces:R:3 energy=-4042.508231173351 pbc="F F F"
N        0.08321792       0.44202953       0.34587103      14.00307400       1.03772587       0.08487438       0.44572497
N       -1.10906267       0.47692273      -0.26521700      14.00307400       0.06541488      -0.68446760      -0.13080611
C       -0.21764321      -0.79218814       0.59377727      12.00000000      -0.87265344       1.05500471      -0.82679793
H       -0.37995102      -1.61325606      -0.09648661       1.00782503      -0.06988140      -0.13677488       0.21655808
H       -1.63482958       1.24641397       0.16440667       1.00782503      -0.15705334      -0.30970911       0.29314424
5
Properties=species:S:1:pos:R:3:masses:R:1:forces:R:3 energy=-4042.323744749414 pbc="F F F"
N        0.04650667       0.43663472       0.33068692      14.00307400       0.21553952       0.06717690       0.08089310
N       -1.11440344       0.50439945      -0.25891537      14.00307400       0.06966787      -0.20962783      -0.05533421
C       -0.18180722      -0.83583570       0.62552124      12.00000000      -0.18452507       0.20961173      -0.13972377
H       -0.31490243      -1.55975863      -0.18462303       1.00782503      -0.04572381      -0.01783822       0.02895771
H       -1.54287983       1.39906349       0.00008667       1.00782503      -0.05265774      -0.04998430       0.09054238
5
Properties=species:S:1:pos:R:3:masses:R:1:forces:R:3 energy=-4042.312779964383 pbc="F F F"
N        0.02605438       0.42902141       0.32276929      14.00307400      -0.08807747      -0.03638161      -0.03014174
N       -1.12340265       0.52474339      -0.25248075      14.00307400      -0.04175649       0.10070933       0.01870884
C       -0.16076675      -0.85829907       0.64070063      12.00000000       0.08350777      -0.08686155       0.05487605
H       -0.24281640      -1.54950612      -0.21014285       1.00782503       0.02363917       0.00787023      -0.00667640
H       -1.47298732       1.47690789      -0.10422264       1.00782503       0.02445793       0.01564886      -0.03811037
5
Properties=species:S:1:pos:R:3:masses:R:1:forces:R:3 energy=-4042.417385428672 pbc="F F F"
N       -0.00693295       0.40506018       0.31333849      14.00307400      -0.51861099      -0.48684646      -0.12956119
N       -1.14142999       0.56599402      -0.24831640      14.00307400      -0.30210639       0.69468617       0.04049351
C       -0.12551496      -0.88455493       0.65997830      12.00000000       0.48090666      -0.27248100       0.24028718
H       -0.08813189      -1.55199612      -0.21851148       1.00782503       0.18611890      -0.01309143       0.01261011
H       -1.34304738       1.57005044      -0.27039219       1.00782503       0.14805925       0.08427593      -0.16629981
5
Properties=species:S:1:pos:R:3:masses:R:1:forces:R:3 energy=-4042.677571585994 pbc="F F F"
N       -0.04206475       0.36624866       0.30517780      14.00307400      -1.10098830      -1.27025142      -0.25186355
N       -1.15929876       0.61362532      -0.24861320      14.00307400      -0.47281291       1.44581288      -0.05979401
C       -0.08793471      -0.89826598       0.67680040      12.00000000       0.98642948      -0.25580817       0.41963163
H        0.07983939      -1.56623579      -0.18702720       1.00782503       0.35645103      -0.03196099       0.08812379
H       -1.22142829       1.62702372      -0.38525327       1.00782503       0.23604449       0.11678844      -0.19486017
5
Properties=species:S:1:pos:R:3:masses:R:1:forces:R:3 energy=-4043.0711685081405 pbc="F F F"
N       -0.08327093       0.31982792       0.29545531      14.00307400      -1.66474603      -1.82677997      -0.40678775
N       -1.17132612       0.66406517      -0.25261698      14.00307400      -0.34883250       1.92248374      -0.18812471
C       -0.04682311      -0.90521248       0.69312330      12.00000000       1.37690943      -0.16255975       0.53478395
H        0.23486073      -1.57921723      -0.13267320       1.00782503       0.39583755      -0.04111196       0.16427570
H       -1.12440304       1.67032481      -0.44451125       1.00782503       0.24103801       0.11601515      -0.10903133
5
Properties=species:S:1:pos:R:3:masses:R:1:forces:R:3 energy=-4043.516724007929 pbc="F F F"
N       -0.13048708       0.27071212       0.28324797      14.00307400      -1.91769878      -1.93419796      -0.51208601
N       -1.17654784       0.71394876      -0.25822963      14.00307400      -0.10896044       1.91304228      -0.22530638
C       -0.00330185      -0.90802895       0.70927291      12.00000000       1.46913285      -0.03999925       0.52906997
H        0.36698142      -1.59635768      -0.06240817       1.00782503       0.35134701      -0.05352173       0.21295614
H       -1.04562700       1.71104523      -0.45954016       1.00782503       0.20858588       0.11311902      -0.00228883
5
Properties=species:S:1:pos:R:3:masses:R:1:forces:R:3 energy=-4043.943292358527 pbc="F F F"
N       -0.18176469       0.22089436       0.26887581      14.00307400      -1.84294136      -1.74326439      -0.53648099
N       -1.17645687       0.76126956      -0.26359178      14.00307400       0.07633993       1.60737244      -0.16184267
C        0.04043174      -0.90671621       0.72408082      12.00000000       1.29771847       0.09327671       0.40479720
H        0.48416031      -1.61629520       0.02023532       1.00782503       0.28042690      -0.04030118       0.22617524
H       -0.97379227       1.74962794      -0.44498404       1.00782503       0.18129136       0.08397352       0.06144032
5
Properties=species:S:1:pos:R:3:masses:R:1:forces:R:3 energy=-4044.304435680872 pbc="F F F"
N       -0.23557472       0.17070020       0.25243936      14.00307400      -1.52281727      -1.39968502      -0.48393923
N       -1.17232580       0.80515631      -0.26710752      14.00307400       0.17124626       1.17250717      -0.06230829
C        0.08253865      -0.90064619       0.73636284      12.00000000       0.98019967       0.19739150       0.25037129
H        0.59498523      -1.63226582       0.11432032       1.00782503       0.21306248      -0.01251884       0.20848343
H       -0.89949702       1.78186983      -0.41085627       1.00782503       0.15608797       0.04396335       0.08685426
5
Properties=species:S:1:pos:R:3:masses:R:1:forces:R:3 energy=-4044.571916376666 pbc="F F F"
N       -0.29077339       0.11982548       0.23406191      14.00307400      -1.04247824      -0.95156351      -0.36078315
N       -1.16446478       0.84488546      -0.26784534      14.00307400       0.19126157       0.70320586       0.01575146
C        0.12174701      -0.88911047       0.74589751      12.00000000       0.60191821       0.22794315       0.11841099
H        0.70138999      -1.63742570       0.21808540       1.00782503       0.12986987       0.01422870       0.14801619
H       -0.81676004       1.80299643      -0.36154689       1.00782503       0.11788751       0.00158331       0.07731650
5
Properties=species:S:1:pos:R:3:masses:R:1:forces:R:3 energy=-4044.7249014811628 pbc="F F F"
N       -0.34707250       0.06825579       0.21365075      14.00307400      -0.44480321      -0.42471752      -0.16168502
N       -1.15259764       0.87943826      -0.26550117      14.00307400       0.10048082       0.25503810       0.02317292
C        0.15738137      -0.87106259       0.75293575      12.00000000       0.22999025       0.15136055       0.04617386
H        0.80103081      -1.62312766       0.32222154       1.00782503       0.05942670       0.01044318       0.05413271
H       -0.72222561       1.80643377      -0.30121026       1.00782503       0.06019120       0.00866829       0.03744994
5
Properties=species:S:1:pos:R:3:masses:R:1 pbc="F F F"
N       -0.38569764       0.03263362       0.19910099      14.00307400
N       -1.13989066       0.90007187      -0.26497356      14.00307400
C        0.18055725      -0.85389829       0.75809723      12.00000000
H        0.86845744      -1.59452968       0.38383478       1.00782503
H       -0.65004007       1.79818003      -0.25177346       1.00782503
