5
Properties=species:S:1:pos:R:3:masses:R:1:forces:R:3 energy=-4044.624639835215 pbc="F F F"
N        0.28184825       0.44486090       0.43897994      14.00307400      -0.01036147      -0.00741172      -0.00563274
N       -1.15954078       0.35795159      -0.26583375      14.00307400       0.00289171      -0.00101540       0.00153236
C       -0.36910905      -0.60754751       0.39038588      12.00000000       0.00072743       0.00805680       0.00684732
H       -0.34787126      -1.66056295       0.64294364       1.00782503       0.00173236      -0.00160415      -0.00077926
H       -1.81489471       0.74907035       0.42033828       1.00782503       0.00071831       0.00131203      -0.00452345
