16
Properties=species:S:1:pos:R:3 pbc="F F F"
C        0.46848114      -1.73925073      -0.22581327
C        0.30447293      -0.22540149      -0.30966562
O        1.63820095       0.38478087      -0.47877844
N       -0.46652658       0.16384254      -1.42941322
C       -0.92846004       1.52498030       0.95833175
N       -0.28040797       0.21671681       0.94723763
H        1.11781737      -2.00366555       0.60968491
H       -0.49963837      -2.20404351      -0.05477484
H        0.90957945      -2.13991758      -1.13945807
H       -0.51774125      -0.46263002      -2.20473149
H       -1.18960949       0.85095606      -1.34450375
H       -1.96804532       1.44107077       0.64932581
H       -0.93230111       1.87856914       1.98823218
H       -0.43435372       2.28040486       0.34325123
H        0.49291686       0.24224089       1.59553268
H        2.28550574      -0.17758219      -0.02657344
