12
Properties=species:S:1:pos:R:3 pbc="F F F"
C        0.11989368      -1.30382805      -0.51176938
O        0.82009563      -2.43258770      -0.79011966
O       -0.04676985       1.54041328       1.41467706
C        0.34663844      -0.14539769      -0.23122368
C       -0.23231844       1.07899995       0.07949538
O       -1.66142677       1.01928049      -0.12692165
H       -2.10257181       1.49227448       0.17942942
H       -0.80240400      -1.56733442      -0.40382190
H       -0.18557634       0.58334466       1.78171958
H        1.96897299       0.09313637      -0.17489189
H        0.06704149       1.93899204      -0.52968633
H        1.76375251      -2.23012932      -0.75847549
