12
Properties=species:S:1:pos:R:3 pbc="F F F"
C       -0.28998373      -1.50529961      -0.41511825
O        0.92026115      -1.81505452       0.14107027
O        0.37190841       1.14330758       0.81246737
C       -0.74882174      -0.29549404      -0.59155781
C       -0.63715891       1.09295489      -0.17906425
O       -1.83411899       1.58713103       0.39085409
H       -2.56884857       1.11364851      -0.01759987
H       -0.82046224      -2.41340360      -0.70148343
H       -0.04482105       0.80616445       1.61910429
H        4.59003068      -0.41924057      -0.43433646
H       -0.30461800       1.76204113      -0.98086185
H        1.42194667      -0.98955326       0.28499571
