12
Properties=species:S:1:pos:R:3 pbc="F F F"
C       -0.78845352       0.53290955      -0.09198617
O       -1.92136333      -0.27658284       0.23885660
O        0.51123453      -1.18315419       1.02693501
C        0.38106045      -0.42927644      -0.16543863
C        1.69303145       0.28232290      -0.42511419
O        1.79308579       1.28677664      -1.08921341
H       -0.59688842       1.27504448       0.68721085
H       -0.91403580       1.04844759      -1.04539442
H       -0.39120137      -1.43461377       1.26907447
H        0.21653375      -1.09985696      -1.02513296
H        2.57589063      -0.21077674       0.03071921
H       -2.64426550       0.29868848       0.50634446
