12
Properties=species:S:1:pos:R:3 pbc="F F F"
C        0.18765198      -0.38389618      -1.78954062
O        0.50424595      -1.41854869      -0.98235307
O        0.80564890      -0.41367916       1.68322989
C        0.28478202       0.92369003      -1.53459283
C       -0.20631162      -0.16830222       2.30514763
O       -1.36915400       0.20479400       1.77884619
H       -1.26173623       0.25306428       0.81103594
H       -0.18827757      -0.73955311      -2.74519443
H        0.77764982      -1.08162792      -0.10688867
H        0.72315079       1.31740252      -0.62716426
H       -0.29163898      -0.21923946       3.39658960
H       -0.00143867       1.64179679      -2.28995300
