16
Properties=species:S:1:pos:R:3 pbc="F F F"
O        0.58578326      -2.83701809      -0.86660910
C       -0.63106637      -2.22780199      -0.79950917
C       -1.68940558       1.52885805       0.49949877
O       -2.33063783       2.30347843       1.11484555
C       -0.05984437       1.49732371       0.61912910
O        0.39105345       2.71315462       0.05077416
C        0.59576757       0.27699680       0.06816764
O        1.69025502      -0.23591878       0.79678556
H       -1.28616397      -2.62682454      -0.03278179
H       -1.02068407      -1.76122905      -1.68647255
H        1.21451500      -2.20037686      -1.23211227
H        0.12792570       1.57053908       1.68915772
H        0.18925217       2.70853872      -0.90018649
H        0.94388448       0.46207969      -0.94408442
H       -0.18423885      -0.52678867      -0.03693553
H        1.35040014      -0.67430630       1.59022554
