12
Properties=species:S:1:pos:R:3 pbc="F F F"
O       -0.72600484       1.52695991      -1.21818516
C       -0.44623104       0.45027100      -1.91120294
C        0.18406093      -1.19164346       1.23104663
O       -0.71817253      -1.84801153       1.67815230
C        0.27225447       0.32141772       1.33960113
O        0.88995929       0.90400317       0.29204010
H       -1.21232311      -0.33364367      -1.94992962
H        1.05715554      -1.63999334       0.71462557
H        0.06527553       0.57997374      -2.87299651
H        0.94574068       0.42490232       2.22190609
H       -0.68706469       0.74682043       1.62547865
H        0.37536778       0.05894125      -1.15047818
