12
Properties=species:S:1:pos:R:3 pbc="F F F"
C       -0.27352021      -0.72198214       0.21607508
O       -0.53023716      -1.04844520       1.36116057
O        0.04272031       1.53906432       2.48304536
C        1.13152403      -0.54807493      -0.26785511
C       -1.40004160      -0.36044387      -3.87106818
O       -1.33429710       0.74960910      -3.63760152
H       -0.54283892       1.83991250       3.18757844
H       -1.10762997      -0.49151859      -0.51637545
H       -0.27218582       0.63822025       2.27064277
H        1.57373228       0.30301931       0.24035939
H        1.16460533      -0.38245904      -1.34046126
H        1.74934233      -1.41139178      -0.02163659
