16
Properties=species:S:1:pos:R:3 pbc="F F F"
O       -2.48263778       1.46323981       0.42734521
C       -1.71782135       0.89134548      -0.30841232
C       -1.21881065      -0.49787695       0.04120135
O       -1.13849451      -1.19664834      -1.19341763
C        0.46695176      -0.25207288       0.70423914
O        0.60391211       0.51475962       1.83228034
C        1.27194559       0.35793087      -0.41919545
O        2.59679137      -0.02648717      -0.07918254
H       -1.41551328       1.32283671      -1.28552750
H       -1.77018781      -0.95759585       0.86487160
H       -0.92014213      -2.11625975      -1.00288637
H        0.70912457      -1.31810040       0.71926727
H       -0.34952974      -0.18169245       2.06963935
H        1.02060248       0.05320587      -1.43933598
H        1.13371524       1.44009085      -0.33192048
H        3.21009511       0.50332534      -0.59896789
