12
Properties=species:S:1:pos:R:3 pbc="F F F"
C        0.56454501       0.10265049      -1.60926514
C       -0.17899849      -1.09442078      -1.27199855
O        0.42658744      -0.28858809      -0.18307985
O        0.14516241      -0.12180290       1.94290412
C       -0.54880275       0.77358143       2.48241296
O       -0.64526154       1.61157940       1.43429180
H        0.24085290       0.56084791      -2.54405252
H        1.65249919       0.09901468      -1.62111702
H        0.35524652      -1.99231129      -0.97668059
H       -0.94688705      -1.36093627      -1.99585728
H       -0.16285532       0.96525575       0.82477775
H       -0.90208834       0.74512966       3.51766432
