12
Properties=species:S:1:pos:R:3 pbc="F F F"
O        2.28045171       0.74959158      -1.71357023
C        1.58426736       0.68436699      -0.69260153
C        1.13903006      -0.45793560      -0.02348293
O        0.40745831      -0.17239728       1.17674545
C       -1.86721841       0.10012837      -0.24521710
O       -1.92640962      -0.95933622       0.41294685
H        1.23669368       1.60688250      -0.17277394
H        1.24835479      -1.49962533      -0.27741818
H       -0.76626778      -0.11995523       0.78773048
H        0.44626132      -0.94810998       1.75834505
H       -1.50570656       0.11425117      -1.27812360
H       -2.38819764       1.00750251       0.07561027
