12
Properties=species:S:1:pos:R:3 pbc="F F F"
C        0.12003456       0.33651265      -0.26216196
O        1.74257703       0.01729724       0.06274749
O       -0.00202693       0.10074272       2.22536224
C       -0.63046298      -0.36391532      -1.30928373
C       -0.64076403       0.32752675       1.06391431
O       -1.83588651       0.47619161       1.07795480
H        0.49921113      -0.16087697      -1.86914938
H        0.29787341       1.40236464      -0.37804047
H        0.94536863       0.01303170       2.00509563
H       -0.47652438      -1.40662413      -1.09033146
H        1.62470592      -0.92225532      -0.06103281
H       -1.53701384       0.16154723      -1.55386823
