12
Properties=species:S:1:pos:R:3 pbc="F F F"
O        0.68418289       1.42329234      -0.61169154
C        0.20297011       0.36965328      -0.27246902
C       -0.17736268      -0.65905716      -1.30008748
O        0.52378709      -0.71700347      -2.50188826
C       -0.04654125       0.35475015       2.17836661
O        1.07860712       0.75878597       2.62598778
H       -0.39560533       0.26935563       0.98976377
H       -1.26118741      -0.67937014      -1.51875299
H       -0.02684932      -1.63589785      -0.82885986
H        0.32124679       0.07100473      -3.03958553
H       -0.75900498       1.18006056       2.08578721
H       -0.14424302      -0.73557405       2.19342932
