16
Properties=species:S:1:pos:R:3 pbc="F F F"
O       -0.75817002       0.88422581      -1.45524726
C       -0.25144377      -0.33114501      -1.48609735
C        1.13217411      -0.45656302      -2.07669616
O        1.99461741       0.58536179      -1.68281759
O       -0.07434520      -0.76026282       0.16352792
C       -0.57005743       0.16884221       0.84745215
C       -0.49172520      -0.00458336       2.33741172
O       -1.61187087       0.61872385       2.94149197
H       -0.93366130      -1.14439755      -1.76312814
H        1.58625490      -1.40417812      -1.78397755
H        0.99597474      -0.48338079      -3.17115076
H        1.45336195       1.38660906      -1.67214831
H       -0.93680360       1.04616545      -0.33838868
H       -0.40395258      -1.06431742       2.59996420
H        0.44460773       0.48781752       2.64499392
H       -1.57496384       0.47108459       3.89480802
