12
Properties=species:S:1:pos:R:3 pbc="F F F"
O        0.39348398      -1.47317244       1.25059270
C        0.99949018      -0.34835933       0.63686028
C        0.11802097       0.28528830      -0.44288253
O        0.77696129       1.04610550      -1.41252092
C       -1.28787880       0.13466309      -0.50423742
O       -2.06584547      -0.49539744       0.25923862
H        1.92856255      -0.67898427       0.17594949
H        1.23874696       1.76404011      -0.96728225
H        1.25614026       0.41866844       1.37504615
H       -0.92181801       0.07500431      -0.40702738
H       -1.83122379       0.65859468      -1.33358037
H       -0.56946850      -1.31651339       1.27272391
