12
Properties=species:S:1:pos:R:3 pbc="F F F"
C       -0.36737666      -2.47470110      -0.03343439
O        0.06232766      -1.33180804       0.38351811
O       -0.52674196       1.91139963       1.74388738
C        1.05336655      -0.62077317      -0.37121169
C        0.03637723       0.38827968      -0.79020704
O       -1.16467115       1.04441731      -0.95437591
H       -1.25738428       1.61679469       1.18686910
H        0.01700362      -2.59879822      -1.09380128
H       -0.69045987       1.47404495       2.58637838
H        0.92537996       0.44289301       0.14372090
H        0.43298964       1.23119705      -1.38131811
H        1.48956462      -0.96513584      -1.28407175
