12
Properties=species:S:1:pos:R:3 pbc="F F F"
C       -0.36850366      -2.85003149      -0.83646154
O       -0.13562575      -1.73387287      -0.17955974
O       -0.69243555       2.26654171       2.39185603
C        0.80829748      -0.84172316      -0.48372607
C        0.41897338       0.49916113      -0.50815400
O       -0.81284908       0.89302282      -0.07957248
H       -0.81448900       1.82348062       1.52742790
H        0.46868551      -2.93392135      -1.59427879
H       -1.59183338       2.39437923       2.71546318
H        1.23529048       1.22834203      -0.54668237
H       -0.25529416       0.62866167      -1.44345347
H        1.75016435      -1.25622273      -0.82691298
