16
Properties=species:S:1:pos:R:3 pbc="F F F"
O        0.47284332       1.95990465      -1.41173855
C       -0.08555176       1.37657494      -2.31292718
C       -0.56798305      -0.06370227      -2.31181874
O       -0.31931267      -0.86380834      -1.28411504
O       -1.67707816       0.15255663       1.68525028
C       -0.68632942      -0.02325269       0.99304791
C        0.69921502      -0.73922737       2.59744532
O        1.83511721      -1.26986972       2.19019024
H       -0.32675646       1.89630571      -3.27107117
H       -1.65775881       0.09355252      -2.52924911
H       -0.20595544      -0.43679903      -3.30618426
H       -0.22662966       0.79041573       0.41895028
H       -0.33542222      -1.04654454       0.71522863
H        0.72091375       0.19878839       3.13578495
H       -0.08623605      -1.44663596       2.79345672
H        2.44690303      -0.57828066       1.89771209
