16
Properties=species:S:1:pos:R:3 pbc="F F F"
O        1.64751000       0.80433750      -0.84386017
C        1.45434592       0.17216783      -1.83139009
C       -1.63178075      -1.16386179      -0.31992978
O       -1.40327017      -2.35146267      -0.23886790
C       -1.13195981      -0.17106193       0.70072278
O       -1.64362690       1.13145972       0.39431720
C        0.38127822      -0.13907869       0.76324548
O        0.55046705       0.77403966       1.84910822
H        1.32578515      -0.53459371      -2.65425348
H       -2.09246052      -0.70845607      -1.20978704
H        1.92690583       1.00329185      -1.33123209
H       -1.48640546      -0.48925133       1.68867332
H       -1.19355249       1.75319865       0.98246937
H        0.76588637       0.13288748      -0.22369599
H        0.74701162      -1.14164238       0.99338438
H        1.78386591       0.92802588       1.28109578
