12
Properties=species:S:1:pos:R:3 pbc="F F F"
C        0.75340786      -0.35564667      -1.57490661
O        0.85987787      -1.04400244      -0.57498477
O       -0.60329074       0.04238747       1.53797567
C       -0.00897157       0.91779369      -1.66617160
C       -0.55667402      -0.55330425       2.74443658
O       -1.15236974      -0.14301377       3.70365388
H       -0.79288054       0.81504439      -2.41867332
H        1.25272793      -0.68386267      -2.50596167
H       -0.05359045      -0.43979772       0.88045801
H       -0.45153876       1.20377137      -0.71686979
H        0.08357842      -1.45320935       2.75741993
H        0.64695497       1.71308175      -2.02322474
