16
Properties=species:S:1:pos:R:3 pbc="F F F"
O       -3.48354087      -0.42351469      -0.54537805
C       -2.34541952      -0.09868010      -0.28380956
C       -1.29726960      -1.15431833      -0.08096283
O       -1.76377020      -2.41862864      -0.34574414
C       -0.10520258      -0.82792949       0.32118731
O        0.87374119      -0.58256193      -2.81036837
C        1.24441085      -0.85659049       0.72113219
O        2.10797783      -0.09405136      -0.16538261
H       -2.01823706       0.94965825      -0.18483607
H        0.31231404      -0.99911939      -2.14991191
H       -2.71387188      -2.30791873      -0.56157807
H        1.83172423      11.59921193       5.58451691
H        1.59207326      -0.22855949      -2.27473481
H        1.54606357      -1.91923660       0.74211074
H        1.34139313      -0.46985910       1.74974661
H        2.99323061      -0.13350236       0.20402002
