16
Properties=species:S:1:pos:R:3 pbc="F F F"
C        1.55981780      -1.05799174      -0.14939778
C        0.73694307       1.76709715      -0.22230189
O        1.64640388       2.25637447      -0.84595172
N       -1.67747157      -0.69986407      -1.34683486
C       -0.75217907       0.51414181       1.55423647
N        0.31282095       0.98226216       0.65034417
H        2.34974241      -0.61294263       0.44395298
H        1.13537967      -1.94410143       0.29829176
H        1.82038816      -1.13888319      -1.19462364
H       -1.73267473      -0.29253740      -2.27310551
H       -2.16739873      -1.58672520      -1.38271428
H       -0.35157979      -0.35173180       2.06854775
H       -0.99560581       1.29024459       2.27350672
H       -1.62242300       0.20366526       0.98123326
H       -0.69462348      -0.91536485      -1.17715044
H        0.41394737       1.65591542      -0.09839135
