16
Properties=species:S:1:pos:R:3 pbc="F F F"
O       -0.11358357       1.99213009      -0.84638036
C        0.18495884       1.23699012       0.29878546
C        1.34852232       0.28268056       0.29055173
O        2.16588558       0.06530137       1.39942648
C       -0.05006752      -0.24775098       0.25121320
O       -0.44594144      -0.84056406       1.46519281
C       -0.60539685      -0.92385524      -0.96017157
O       -2.02834119      -0.96880198      -0.80000554
H        1.64231887      -0.44681460       2.03089254
H        1.89913846       0.26080536      -0.64306795
H        0.50822536       2.72821308      -0.87821159
H       -0.05200564       1.69472494       1.25348410
H       -1.40917166      -0.89184575       1.44162409
H       -0.19393016      -1.93584586      -1.02370730
H       -0.32854609      -0.36973454      -1.86008839
H       -2.39088728      -1.55351851      -1.47336302
