16
Properties=species:S:1:pos:R:3 pbc="F F F"
O        2.19935204       0.62153796       0.46800228
C        1.26419090       0.06443023      -0.30435300
C        0.67017889      -0.70637910      -1.36447791
O        0.75670426      -2.14808980      -1.21442578
C       -0.07487976       0.02663061      -0.34262422
O       -0.31334276       0.13363225       2.10190975
C       -1.48146957       0.38670483      -0.42534057
O       -1.66743841       1.31154948       0.64420511
H        1.48634419      -2.56772280      -1.68502195
H        1.02437065      -0.54119741      -2.38284190
H        1.76385199       1.20646929       1.10550019
H        0.75498987      -0.42382584       1.94242070
H        0.20966973       0.92540158       2.20971085
H       -2.07121078      -0.52249173      -0.25999200
H       -1.91804976       0.81182422      -1.33688518
H       -2.60326149       1.42152621       0.84421363
