16
Properties=species:S:1:pos:R:3 pbc="F F F"
O        2.21399108       1.06174141      -0.14616376
C        1.22410177       0.11577806       0.06693531
C        0.74270707      -0.85104825      -0.91340341
O        0.70782808      -2.24886302      -0.68481795
C       -0.15515174       0.01661565      -0.12075711
O       -0.28891638      -0.86589480       1.62823054
C       -1.42516875       0.69916374      -0.40063009
O       -1.82035494       1.66636657       0.56269508
H        1.51524126      -2.62303639      -1.05724003
H        0.87290902      -0.59173994      -1.96873971
H        1.92896675       1.88515760       0.27572991
H        0.90296047      -0.51755180       1.25169142
H       -0.52357137      -0.16342595       2.24846276
H       -2.20666955      -0.04396400      -0.57761235
H       -1.27434918       1.23321462      -1.34298168
H       -2.41452333       1.22747665       1.17859571
