16
Properties=species:S:1:pos:R:3 pbc="F F F"
C        0.98219021       0.11683722      -1.57119677
C       -0.18454934      -0.45795196      -0.93446651
C       -1.29413765       0.34534894      -0.56640300
C       -2.40133370      -0.07630977       0.05919551
C        1.35492188      -0.35828632       0.93600514
C        1.06951270       0.34708062       2.00558799
H        0.84528796       1.13021880      -1.93602038
H        1.51859509      -0.53138007      -2.25972726
H       -0.29461577      -1.53797795      -0.91483302
H       -1.20706458       1.40107143      -0.81646680
H       -2.51898396      -1.11212213       0.35226521
H       -3.20758872       0.59773014       0.30170966
H        1.68808057       0.20444385      -0.56821508
H        1.78179773      -1.35833239       0.96911231
H        0.58219268       1.30975284       1.94294772
H        1.28569696      -0.02011963       3.00050434
