16
Properties=species:S:1:pos:R:3 pbc="F F F"
O       -1.88380022      -0.78296134      -0.21695176
C       -1.05938082       0.27471318      -0.11358357
C       -0.56094371       1.34037173       0.74381979
O        0.36304196       1.03957828       1.81675129
C       -0.14851622       1.03482829      -0.64036309
O       -0.18605678      -3.64431128       1.53319172
C        0.84648344       1.41617818      -1.64947377
O        0.95606031       0.40531642      -2.64656202
H        0.18000945       1.64398448       2.54687983
H       -1.15621053       2.22761579       0.99365609
H       -1.79076860      -1.33054949       0.57915386
H       -0.39362522      -4.36937303       2.13120650
H        0.74056255      -3.81129151       1.32304914
H        1.80427004       1.57219669      -1.13782254
H        0.56134003       2.38353442      -2.08477093
H        1.72779236       0.60030210      -3.17844669
