16
Properties=species:S:1:pos:R:3 pbc="F F F"
C        0.68399181       0.40865828      -2.27015324
C       -0.25378822      -0.34836309      -1.69719774
C       -1.26908869       0.14800770      -0.79948938
C       -2.16842457      -0.61380270      -0.17608500
C        1.63341177       0.54677017       1.65429196
C        0.87844637      -0.20304794       2.43949211
H        0.74116265       1.47347371      -2.07744194
H        1.42267527      -0.00424351      -2.94229783
H       -0.26609655      -1.41655711      -1.90193238
H       -1.27898920       1.21968650      -0.62269851
H       -2.19819040      -1.68783912      -0.31721732
H       -2.89985788      -0.19500660       0.50043950
H        1.76368459       1.60923816       1.81432064
H        2.14594562       0.12141852       0.80356087
H        0.35004968       0.20280243       3.29268009
H        0.75308604      -1.26145056       2.25183696
