16
Properties=species:S:1:pos:R:3 pbc="F F F"
C        0.24671237       0.58595780      -2.58495166
C        0.31018114      -0.13883381      -1.47550397
C       -0.09036186       0.31478328      -0.12552858
C       -1.08466351      -0.55656740       0.68649081
C        0.91881928       0.15090717       1.04127764
C       -0.24520396      -0.28844346       1.94990107
H       -0.11918438       1.60589391      -2.57727623
H        0.55613351       0.19337305      -3.54229956
H        0.68692958      -1.15793617      -1.53987863
H       -0.44780970       1.34528359      -0.16575400
H       -1.03262637      -1.59942728       0.37280018
H       -2.12807123      -0.24418292       0.68819852
H        1.48943010       1.03312212       1.32822242
H        1.61390230      -0.66486806       0.84071262
H       -0.64187771       0.54472164       2.52630934
H       -0.07032387      -1.12353341       2.62517446
