16
Properties=species:S:1:pos:R:3 pbc="F F F"
C        1.05570694       0.41360937      -1.68167728
C       -0.27076812      -0.36789250      -1.48117973
C       -0.61934022       0.13421970      -0.22877979
C       -1.43824174      -0.84721915       0.64301763
C        0.75230390       0.38075626       0.33473061
C        0.17417549      -0.15413640       1.65005460
H        1.33986959       1.45541468      -1.46000048
H        1.21975597       0.26513877      -2.75563630
H       -0.55645357      -1.22379179      -2.08683890
H       -0.25883153       0.92453497       0.42472786
H       -2.02304948      -1.47800028      -0.04570737
H       -2.12622241      -0.46460068       1.41340209
H        0.43622120       1.44972464       0.36358363
H        1.71381329      -0.13868558       0.11769367
H       -0.19938436       0.46120451       2.50041551
H        0.80044507      -0.81027651       2.29219426
