16
Properties=species:S:1:pos:R:3 pbc="F F F"
O       -3.12995467       0.60896261      -0.01095758
C       -2.12724208       0.40414941      -0.66326986
C       -1.14492620      -0.45536751       0.08446432
O       -1.40824788      -1.03733259       1.32751508
C        0.14180268       0.27237323      -0.00229645
O        0.66807702       0.78045526      -1.50030879
C        1.40809676      -0.42039568       0.45091825
O        2.57159538       0.41082533       0.42949148
H       -1.98810466       0.82860493      -1.66785477
H       -0.58299760      -0.97390683      -0.96262401
H       -2.26438737      -0.59505828       1.31770768
H        0.11356059       1.14121892       0.65942805
H        1.48029618       1.21894704      -1.27187620
H        1.60033956      -1.28282655      -0.19396464
H        1.27573473      -0.81268421       1.45962900
H        3.38635671      -0.08796435       0.54399685
