16
Properties=species:S:1:pos:R:3 pbc="F F F"
O       -3.27137360       0.19801130       0.28289360
C       -2.16838298       0.66957454      -0.01883709
C       -1.00992354      -0.15171586      -0.15007800
O       -1.16364739      -1.46492250       0.30334431
C        0.31780190       0.42410045      -0.10447314
O        0.67973692       0.30721913      -1.74254862
C        1.34897797      -0.24135383       0.73405842
O        2.59944027       0.38780338       0.49224733
H       -2.03537152       1.75219751      -0.20647254
H       -0.44769363      -0.10974383      -1.58707334
H       -2.12102861      -1.52317643       0.49325458
H        0.34933248       1.50515251      -0.06047681
H        1.30785080      -0.42136696      -1.90264064
H        1.37490631      -1.31377927       0.52264511
H        1.01810964      -0.12416381       1.77220304
H        3.22125722       0.10614638       1.17193403
