12
Properties=species:S:1:pos:R:3 pbc="F F F"
O       -0.49617745      -0.52152336      -0.97620532
C       -1.08694806       0.23781452      -1.79544285
C       -0.56058595       0.21778328       0.48594148
O       -1.19621340       1.38950182       0.43380777
C        0.88625978       0.11517428       0.90231304
O        1.43371143      -1.17220083       1.08727839
H       -0.94945100       0.98422635      -0.56142897
H       -1.06700515      -0.60621654       0.98474651
H       -1.09005492      -0.15822725      -2.82395538
H        1.00804169       0.62906437       1.85401546
H        1.55319899       0.61114751       0.19619804
H        1.58206812      -1.72436724       0.32225026
