12
Properties=species:S:1:pos:R:3 pbc="F F F"
O       -1.66787529      -1.65504233       0.66646654
C       -1.54680691      -0.48462721       0.41079444
C       -0.50419236       0.04257716      -0.53549857
O       -0.05753231      -0.79711330      -1.50268225
C        1.47229426       0.38024250       0.45982343
O        1.26807546      -0.31865397       1.40059392
H       -2.27376552       0.21394918       0.87709488
H       -0.05545303       0.80874462       0.11437291
H       -1.07563906       0.69334672      -1.20868529
H        1.03269180      -0.38185993      -0.85262839
H        0.88885421       1.21980109       0.04295006
H        2.51934875       0.27863547       0.12739832
