12
Properties=species:S:1:pos:R:3 pbc="F F F"
O       -2.10884294       1.18797705       0.08224989
C       -0.90219764       1.14391779      -0.03364174
C       -0.22416305      -0.07947045      -0.60525732
O       -1.17858172      -1.04606658      -0.95563673
C        0.78451521      -0.66523206       0.37696726
O        1.77938744       0.32525261       0.60851801
H       -0.25515354       1.98224938       0.27146920
H        0.34539671       0.25082730      -1.48849411
H       -2.04451061      -0.63993157      -0.77217215
H        1.20482347      -1.57353061      -0.06496951
H        0.26283718      -0.94947933       1.29631518
H        2.43607545      -0.04238708       1.20798024
