12
Properties=species:S:1:pos:R:3 pbc="F F F"
C        0.87251342      -1.14412886      -0.73781663
O       -0.21674732      -1.73582666      -1.30250593
O        0.53016043       0.16967490       1.73921698
C        0.78929843       0.26650940      -0.65552874
C        0.11049064       0.85420031       0.58350200
O       -1.35216193       0.55477954       0.32833211
H       -1.71299942       1.22616807      -0.27461897
H        1.65197588      -1.92450275      -0.49389352
H       -0.15342247       0.33327144       2.45653236
H        0.26481559       0.58271460      -1.58820377
H        0.12002399       1.94826931       0.79797826
H       -0.95827365      -1.14164739      -0.97067459
