16
Properties=species:S:1:pos:R:3 pbc="F F F"
C       -0.67030789      -0.88661456      -1.36388962
C       -0.35008170       0.48095892      -1.39473222
C        0.89655213       0.81428661      -0.90654666
C        0.91092035       1.46831346       0.33672327
C        0.15605286      -0.12452985       1.40985123
C       -0.65078993      -1.06055325       0.69164102
H        0.10759651      -1.60164901      -1.61224240
H       -1.67079411      -1.22424642      -1.60652563
H       -1.16680648       1.17764725      -1.22369698
H        1.71661130       0.12817649      -1.10246852
H        0.14138960       2.20721035       0.53773699
H        1.84524201       1.65679815       0.85198850
H        1.11926076      -0.49208944       1.73507894
H       -0.34424587       0.49175492       2.14287421
H       -0.32211750      -2.08987922       0.69062748
H       -1.71848074      -0.94558556       0.81357989
