12
Properties=species:S:1:pos:R:3 pbc="F F F"
C       -0.48483250       0.46963412      -1.37576693
O        0.34844027       1.30795228      -2.07029660
O        0.98259197       0.53479413       1.98794981
C        0.11472868      -0.91969818      -1.15557815
C        0.20460281      -0.01923893       2.72988153
O       -1.55187593       0.84714165      -0.96173322
H       -0.23152706      -1.35200780      -0.20500210
H       -0.71860539      -0.52326028       2.35930883
H       -0.05978742       2.20000247      -2.06618232
H       -0.17068677      -1.62201233      -1.95470224
H        0.35761827      -0.06203208       3.83153549
H        1.20960639      -0.86113693      -1.11971553
