16
Properties=species:S:1:pos:R:3 pbc="F F F"
O       -1.42198799      -0.52218311      -1.09061226
C       -0.34855762      -0.39681414      -0.53646667
C        0.86199876       0.11406394      -1.24819643
O        0.48767053       0.40042123      -2.56910832
O        1.54595895       1.08576688       1.52057046
C        0.79535650       0.09807859       1.19537193
C       -0.69360416       0.23987583       1.28606112
O       -1.14575154      -1.09515912       1.15219884
H       -0.05830893      -0.61801856       0.50225581
H        1.35853462       1.30473940      -0.68537602
H        1.69918294      -0.58785601      -1.36571430
H       -0.44880392       0.20048856      -2.73859639
H        1.34975126      -0.83368147       0.99408029
H       -1.03426521       0.77669214       2.17539306
H       -0.85115302       0.86219168       0.39438574
H       -2.09602117      -1.02860584       1.01375314
