16
Properties=species:S:1:pos:R:3 pbc="F F F"
O       -0.22369231       1.88388575      -0.75453134
C        0.20549769       1.19477693       0.38336364
C        1.35893474       0.23664352       0.28585836
O        2.17145126       0.06496808       1.40558451
C       -0.04384389      -0.28442712       0.28457101
O       -0.34044761      -0.92095743       1.50317282
C       -0.60019099      -0.91796075      -0.94898924
O       -2.02426994      -0.96906551      -0.80095051
H        1.64171260      -0.44743118       2.03159746
H        1.90343967       0.26120582      -0.65052238
H        0.40395693       2.61003315      -0.85532269
H       -0.06429883       1.71862162       1.29139546
H       -1.34123575      -0.49100234       1.12322066
H       -0.19546239      -1.93194554      -1.02343217
H       -0.32976220      -0.37216468      -1.85595895
H       -2.39061093      -1.55306632      -1.47288196
