16
Properties=species:S:1:pos:R:3 pbc="F F F"
O       -3.13620830       0.44412012      -0.16223432
C       -2.52107289      -0.08235164      -1.18790087
C       -0.73758604      -0.56828092       0.40215928
O       -1.37452027      -0.91156320       1.36389724
C        0.47394228       0.32036364       0.38142967
O        0.44982936       1.05806944      -0.82955198
C        1.75319915      -0.50296937       0.44624641
O        2.81786477       0.42494263       0.23049741
H       -2.16122631       0.79536596      -1.79156091
H       -1.26014577      -0.77235915      -0.69768701
H       -3.29497466      -0.22480705       0.53232871
H        0.39639263       0.98507281       1.24963602
H        1.37205068       1.29259223      -1.01149853
H        1.71593296      -1.25873657      -0.34442870
H        1.84264277      -1.00641200       1.41106684
H        3.62453614      -0.06222297       0.03056250
