16
Properties=species:S:1:pos:R:3 pbc="F F F"
O       -3.18106594       0.39571051      -0.10696304
C       -2.46117869       0.17897830      -1.09796627
C       -0.78956461      -0.55271528       0.54484443
O       -1.25786074      -0.99937420       1.55425986
C        0.41486477       0.33929398       0.39529852
O        0.31682372       1.00013319      -0.86067923
C        1.68654425      -0.49203226       0.45832257
O        2.75212767       0.39883938       0.13016213
H       -1.91722475       0.90442668      -1.74870509
H       -1.32852052      -0.75555879      -0.46959628
H       -2.86163040      -0.28592902      -0.05514814
H        0.38495415       1.05778886       1.22214548
H        1.22668435       1.21940989      -1.10845325
H        1.60553450      -1.30875562      -0.26549457
H        1.80461612      -0.92277833       1.45508167
H        3.54192565      -0.11348139      -0.06940622
