12
Properties=species:S:1:pos:R:3 pbc="F F F"
C       -0.11104985      -0.16277162      -1.50377229
O       -0.14061423      -1.20074885      -0.88142968
O        0.00217326       0.58924236       2.06054168
C        1.05216580       0.77517060      -1.55203876
C       -0.32671096      -0.56973401       2.05243963
O       -1.58027923      -1.00498177       2.27282992
H       -2.12196320      -0.20702225       2.39209786
H       -1.00215762       0.16536967      -2.08371810
H        0.82124655       1.64985749      -0.94022415
H        1.94776555       0.30166214      -1.16077037
H        0.33105207      -1.42472551       1.87430409
H        1.22332963       1.13378074      -2.56768762
