12
Properties=species:S:1:pos:R:3 pbc="F F F"
C       -0.16348123      -0.10465359      -0.94684239
O       -1.54133937       0.17957214      -1.20967896
O       -0.37286582       0.90471102       1.11835930
C        0.15077754      -0.23178161       0.55031559
C        1.56331535      -0.47277861       1.04567371
O        1.82975339      -0.81099393       0.46873365
H        0.48052481       0.69032732      -1.33121636
H        0.15203103      -1.05409818      -1.38203963
H       -1.53625842       1.34721024       0.66170420
H       -0.61948688      -1.02950996       0.91958050
H        1.61986565       0.11030358       1.99610112
H       -1.63351604       0.43362237      -2.13275790
