12
Properties=species:S:1:pos:R:3 pbc="F F F"
C       -0.18046427      -0.05899136      -0.76771553
O       -1.35635875       0.41313158      -1.42610750
O       -1.26695181       0.65728868       1.33055606
C       -0.45708176      -0.19819109       0.68174609
C        1.50137781      -0.30781456       0.75189307
O        1.65238275      -0.85088406       0.25785953
H        0.65857034       0.61710634      -0.92910881
H        0.13540976      -1.03923838      -1.10813814
H       -1.31837269       1.50460775       0.86655205
H       -0.43850942      -1.18128366       1.11275490
H        2.27936862       0.15618061       1.36195878
H       -1.28005212       0.25001669      -2.37431594
