16
Properties=species:S:1:pos:R:3 pbc="F F F"
C        1.82235836      -0.48178946      -0.36168108
C        0.84332943       0.47212756       0.22994795
O        1.28654225       1.54927226      -0.38078528
N       -1.49033772      -0.76136495      -1.73830217
C       -0.88296246       0.66034313       1.62535831
N        0.07144723      -0.24808493       1.01989208
H        2.86987011      -0.22020743      -0.25969141
H        1.86168283      -1.52273119      -0.07525903
H        1.78006796      -0.59145168      -1.43985876
H       -1.36264862      -1.58769839      -2.30680732
H       -2.48809939      -0.62889447      -1.64364827
H       -1.50999990       0.12061461       2.33095514
H       -0.43113263       1.48199650       2.19301730
H       -1.56561107       1.12454058       0.90451282
H       -1.14366361      -0.98885133      -0.81259125
H        0.32064395       1.69172750       0.29456210
