12
Properties=species:S:1:pos:R:3 pbc="F F F"
O       -2.07249076       1.26485910       0.07469170
C       -0.86986377       1.16503660      -0.04821298
C       -0.20191807      -0.09245880      -0.55149860
O       -1.18040019      -1.05976803      -0.82216164
C        0.87797145      -0.54706521       0.41148445
O        1.90327337       0.42651057       0.60729156
H       -0.20597689       1.99639563       0.23963016
H        0.31815448       0.20884137      -1.47335277
H       -2.03490030      -0.60915653      -0.73179523
H        1.13156668      -1.52141207       0.00388233
H        0.29581754      -0.87461632       1.26807562
H        2.03876730      -0.35716583       1.02196658
