12
Properties=species:S:1:pos:R:3 pbc="F F F"
O        1.97860192       0.16038475      -1.57321675
C        0.66224309       0.56610880      -1.67038100
C       -0.44882384      -0.24961051      -1.20403059
O       -0.00989662       0.92328900      -0.47495885
C       -0.80419104      -0.25961050       2.60848335
O       -0.94418762      -1.02628560       3.52606014
H        0.53355298       1.23978713      -2.51047449
H       -0.23268479      -1.19338768      -0.71288651
H       -1.42767497      -0.17064463      -1.66415424
H       -1.63353146       0.00494562       1.92441611
H        2.10545113      -0.15305705      -0.66861237
H        0.16698618       0.22705982       2.39560586
