12
Properties=species:S:1:pos:R:3 pbc="F F F"
O        1.28017697       0.32006746      -0.61928823
C        0.20999796       0.58489632      -1.12078239
C       -0.76736144      -0.54762262      -1.07896429
O       -1.87526295      -0.27865809      -0.21690087
C        0.86888986       0.38091191       2.15815208
O       -0.08949996      -0.04015849       2.66355843
H       -0.17439095       1.61572421      -1.25031765
H       -0.21454011      -1.48176615      -0.94696909
H       -1.23700301      -0.55627604      -2.06382317
H       -0.88966680      -0.25748319       0.64644794
H        1.49151162       0.54724910       0.76662061
H        1.31936883      -0.21533306       0.96216591
