12
Properties=species:S:1:pos:R:3 pbc="F F F"
O       -2.11282517       1.09055965      -2.38506689
C       -1.83110333       0.78199864      -3.51881320
C       -0.55242787       0.02595017      -4.02163065
O        0.33831240      -0.49072056      -3.22901327
C        1.42531196      -0.28032102       5.74272700
O        2.24128983      -1.06048549       5.02504041
H       -2.47757609       1.04577775      -4.38946211
H       -0.17071610       0.84941425      -4.69166987
H       -0.98457586      -0.66488835      -4.78951071
H        1.81731932      -1.37383405       4.21237331
H        1.81606457       0.00114811       6.69934758
H        0.49098124       0.07554777       5.34589972
