12
Properties=species:S:1:pos:R:3 pbc="F F F"
O        0.95026749       1.01446565      -0.42530984
C        0.39312584       0.40062993      -1.30756384
C       -0.91894311      -0.32415277      -1.19177209
O       -1.69544048      -0.06248105      -0.06588446
C        0.94022633       0.14290158       2.00932997
O        0.07453387      -0.70815887       2.03647993
H        0.86863331       0.32746769      -2.31224660
H       -0.65288574      -1.39212571      -1.30076235
H       -1.50337307      -0.08154939      -2.08580298
H       -1.20516107      -0.35797371       0.72376344
H        0.72677627       1.19604499       2.26061811
H        1.99591750      -0.09701725       1.79248589
