12
Properties=species:S:1:pos:R:3 pbc="F F F"
O        0.87667126       1.26331257      -0.41739876
C        0.45018377       0.39741586      -1.17192119
C       -0.89645630      -0.26328623      -1.08731611
O       -1.63638604      -0.01260099       0.08185157
C        0.83677200       0.09750140       2.29868143
O        0.20208321      -0.85540152       2.52406403
H        1.07870493       0.05440637      -2.01596252
H       -0.74565960      -1.33444522      -1.29428973
H       -1.48379212       0.11899946      -1.93227428
H       -1.23777047      -0.49506348       0.82396261
H        0.99643426       0.79979733       0.92729353
H        1.58553793       0.17128927       1.12995740
