12
Properties=species:S:1:pos:R:3 pbc="F F F"
O        1.24470367       1.10286835      -0.70537145
C        0.71750400       0.17154338      -0.82464808
C       -0.67869193      -0.27398125      -0.90707677
O       -1.12060746       0.05410323       0.38697064
C        0.67325580       0.02862094       1.76342139
O        0.66818802      -1.14105775       2.02661381
H        1.00374071      -0.00862107      -1.88202481
H       -0.70888893      -1.35819689      -1.08953140
H       -1.33686138       0.15184241      -1.67891057
H       -2.01133883      -0.28642976       0.52189203
H        0.14102005       1.03826284       1.27895245
H        1.40797629       0.52104558       1.10971276
