16
Properties=species:S:1:pos:R:3 pbc="F F F"
O       -3.03740312       0.39763932       0.79614336
C       -2.04726995       0.82296874       0.23973147
C       -1.04670617      -0.10801866      -0.41097199
O       -1.46908907      -1.43493050      -0.25397502
C        0.37417141       0.34330892       0.34272527
O        0.80089781       1.61711728       0.48585749
C        1.35441922      -0.60652041      -0.29144131
O        2.60061543      -0.31774145       0.33844236
H       -1.90335315       1.91171210       0.21301161
H       -0.94570929       0.25702055      -1.44103804
H       -2.31903697      -1.35240933       0.21094735
H        0.23557724      -0.10277175       1.31342479
H        1.37507690       1.34096821       0.17897621
H        1.19439203      -1.68071178      -0.22674162
H        1.47067821      -0.42359423      -1.35962899
H        3.36273898      -0.66403732      -0.13546397
