4
Properties=species:S:1:pos:R:3:forces:R:3 energy=-1508.5357046247805 pbc="F F F"
N        0.01414127       0.01581015       0.06112679       0.00050871       0.00622457      -0.00558519
H        1.01960961       0.01921841       0.07700192      -0.00743790      -0.01056681       0.00047377
H       -0.49248340       0.87559649       0.18404048      -0.00393703      -0.00145361       0.00189685
H       -0.48487339      -0.84649559      -0.07569682       0.01086623       0.00579584       0.00321456
