16
Properties=species:S:1:pos:R:3 pbc="F F F"
O       -0.64488371      -0.08936129      -2.97874601
C       -0.39984671       0.24540734      -1.84151725
C        0.89980531       0.34441317      -1.11340787
O        1.62524703      -0.71724961      -1.66714879
O       -0.37241346       1.91737089       0.99526593
C       -0.38790643       0.60753598       0.56768565
C       -0.49035530      -0.20461980       1.83336178
O       -0.25331859      -1.58475703       1.62301990
H       -0.86399361       1.56389541      -0.87038112
H        1.45293661       1.29630389      -1.10164763
H        0.55843667       0.14280502      -0.08613385
H        1.10957516      -1.00660461      -2.44128796
H       -0.49183002      -0.03664369      -0.32207688
H        0.09889140      -0.01280485       2.73492252
H       -1.45780186      -0.22284351       2.35431497
H       -0.38254249      -2.24284730       2.31377662
