16
Properties=species:S:1:pos:R:3 pbc="F F F"
O       -0.16888779      -0.13610243      -3.44285314
C       -0.77121670      -0.09047109      -2.21274945
C        0.40675958       0.40296257      -1.48219041
O        1.51304431      -0.22459532      -1.64133858
O        0.43712791       1.96060666       1.35620487
C        0.66397019       0.82050306       1.69133441
C       -0.37623926      -0.11214465       2.24435353
O       -0.12266653      -1.40188694       1.70920811
H       -1.61096870       0.61796001      -2.12895685
H        0.43018352       1.36593524      -0.96656660
H        1.68083688       0.37073574       1.63110233
H        1.27329001      -0.65346069      -2.54389658
H       -1.11222342      -1.05662450      -1.77458735
H       -0.27440818      -0.08277516       3.33948516
H       -1.36675795       0.26736349       1.98354636
H       -0.60182566      -2.04807175       2.23793666
