16
Properties=species:S:1:pos:R:3 pbc="F F F"
C       -0.12432799      -3.67479380      -0.87479995
C        0.94212467       1.44416782      -0.25717204
O        2.18115136       1.46417636      -0.49546191
N        0.07515896       2.16382545      -1.07329731
C       -0.94340388       0.64168262       1.18093311
N        0.38876285       1.19275806       0.99974870
H       -1.11006867      -3.59453734      -0.41984491
H        0.33894759      -4.65207265      -0.82116114
H        0.53243062      -2.83959294      -0.62955214
H        0.31888855       2.31038058      -2.03026648
H       -0.91239940       2.13253131      -0.91254527
H       -1.17573578      -0.13749502       0.44645543
H       -1.01025922       0.20184345       2.17299369
H       -1.71161914       1.41911035       1.12388087
H        1.05104123       0.97930594       1.73052118
H        1.21267501       1.06145556      -0.43869619
