12
Properties=species:S:1:pos:R:3 pbc="F F F"
C       -0.16394031      -0.31223441      -0.19016979
O        0.77863892      -0.87900100       0.60350352
O       -1.29022061      -1.16137708      -0.39605643
C        0.32684921       0.15808029      -1.54597386
C        0.30123765       0.91113825       2.15253664
O       -0.31698478       1.64518178       2.74755493
H        1.12097928       0.89060775      -1.41856349
H       -0.53800070       0.61418488       0.34147154
H       -1.22258607      -1.86406652       0.26391546
H        0.72294740      -0.68790154      -2.10472043
H        0.75965616      -0.09185827       1.52091356
H       -0.49215797       0.60254369      -2.10666923
