12
Properties=species:S:1:pos:R:3 pbc="F F F"
C        0.07517193      -0.48208457      -0.24155286
O        0.99014767      -0.97775919       0.45853411
O       -1.21625557      -0.98977902      -0.17209254
C        0.32134276       0.14233403      -1.60316396
C        0.00774796       0.97603359       1.86753070
O       -0.73648728       1.31950915       2.69324110
H        1.22233658       0.74861718      -1.56695895
H       -0.20738752       0.77652691       0.47891744
H       -1.22728991      -1.55718435       0.61354241
H        0.48168720      -0.66350482      -2.31991719
H        0.82166344      -0.01987433       1.72601630
H       -0.53267639       0.72715491      -1.93411556
