16
Properties=species:S:1:pos:R:3 pbc="F F F"
C        1.08224598      -0.03103945      -2.18498183
C        0.46470662       0.24812913      -0.83653229
O       -0.75827421      -0.51595247      -0.76832774
N        0.29375030       1.65903338      -0.63832763
C       -0.50648298      -1.02630919       2.58416215
N       -1.37484672      -0.12611581       2.38702841
H        1.27411673      -1.09665213      -2.29584282
H        0.41052175       0.27630030      -2.99020547
H        2.02317344       0.50896684      -2.28590361
H       -0.39433855       2.01824616      -1.28940929
H       -0.04465535       1.84314964       0.29852259
H       -0.69388046      -2.10428277       2.60506052
H       -1.15006969      -0.31806176       0.09620268
H        0.53110337      -0.70744133       2.68447733
H       -2.33190131      -0.49037073       2.43571652
H        1.14437818      -0.10305051      -0.04946343
