16
Properties=species:S:1:pos:R:3 pbc="F F F"
C        1.15221094       0.09865626      -1.91259945
C       -0.30063221       0.23611624      -1.53012812
O       -1.12733104      -0.62076210      -1.79493202
N       -0.62599581       1.36856825      -0.82979349
C       -0.59222203      -1.18249701       2.02575561
N        0.32908144      -0.07113069       2.24729759
H        1.47664199      -0.91084452      -1.67526034
H        1.24394069       0.21808130      -2.99115856
H        1.80857501       0.81457986      -1.42139814
H       -0.02444722       2.17320130      -0.84491589
H       -1.60746361       1.54803292      -0.70132088
H       -1.31696687      -1.22861167       2.83920919
H       -1.14695252      -1.13513360       1.08311763
H       -0.04487445      -2.12538749       2.04058829
H       -0.17931514       0.80363650       2.23317299
H        0.98624723      -0.02110943       1.48016466
