16
Properties=species:S:1:pos:R:3 pbc="F F F"
O       -0.13798168       0.82506210      -0.25719994
C        0.04233374       0.81144274      -1.28134245
C        0.57426446      -0.08118041      -2.25768420
O        1.41510105       0.83422620      -1.52104272
C       -0.10560164      -0.05004071       1.95034780
O       -1.48924228      -0.08752204       2.21768178
C        0.16768099      -0.27994511       0.50232308
O       -0.46643137      -1.48887641       0.23423623
H        0.72393058      -1.08880047      -1.98262759
H        0.59902073       0.04920051      -3.32466168
H        0.34459020      -0.78766746       2.60660343
H        0.41670922       0.86987593       2.20552663
H       -1.63295698       0.77084586       1.64939614
H       -0.31300499       1.70736116      -1.73235107
H        1.18835277      -0.51212309       0.33598660
H       -1.31918550      -1.56574592       0.65288365
