16
Properties=species:S:1:pos:R:3 pbc="F F F"
O       -1.40279998       0.80503853      -1.24312700
C       -0.84828592       0.31674101      -0.26806400
C       -1.60805465      -0.65448840       0.60307012
O       -2.91544828      -0.85946622       0.15085664
C        0.58373533       0.70011613       0.04233931
O        0.98514395       1.80099617      -0.72388842
C        1.50933865      -0.51428875      -0.18416113
O        2.86129143      -0.24099111       0.10744961
H       -1.05851820      -1.60445952       0.64223808
H       -1.61037907      -0.27058157       1.63249807
H       -3.00890531      -0.30836858      -0.64606286
H        0.66524529       0.96278162       1.10818714
H        0.29316265       1.93563699      -1.39279171
H        1.48123796      -0.78447250      -1.23904576
H        1.14163796      -1.36754188       0.39677037
H        2.93159814       0.08335003       1.01373142
