16
Properties=species:S:1:pos:R:3 pbc="F F F"
O       -1.78579648       1.27529402       1.59808744
C       -1.67370089       0.19605106       0.99074053
C       -2.11907018      -0.06410942      -0.32171787
O       -1.94937312      -1.32805926      -0.81455806
C        0.78224555       0.47940271      -0.17228712
O        0.40136660       0.05593489      -1.35813080
C        1.97445603      -0.16314803       0.41142255
O        3.12564544       0.55123708      -0.06873912
H       -1.27189933      -0.72075572       1.47938616
H       -2.78551800       0.61593946      -0.84077461
H       -2.32741671      -1.38454430      -1.69763807
H        0.39201956       1.40236791       0.24201954
H       -0.57878534       0.22662869      -1.41914045
H        1.90966825      -0.11139165       1.50356030
H        1.99753640      -1.21152080       0.10519421
H        3.90862087       0.18067679       0.36257104
